# vtk DataFile Version 3.0
vtk output
ASCII
DATASET UNSTRUCTURED_GRID
POINTS      5151 double 
  0.00000000E+00  1.00000000E+02  0.00000000E+00
  0.00000000E+00  9.80000000E+01  0.00000000E+00
  0.00000000E+00  9.60000000E+01  0.00000000E+00
  0.00000000E+00  9.40000000E+01  0.00000000E+00
  0.00000000E+00  9.20000000E+01  0.00000000E+00
  0.00000000E+00  9.00000000E+01  0.00000000E+00
  0.00000000E+00  8.80000000E+01  0.00000000E+00
  0.00000000E+00  8.60000000E+01  0.00000000E+00
  0.00000000E+00  8.40000000E+01  0.00000000E+00
  0.00000000E+00  8.20000000E+01  0.00000000E+00
  0.00000000E+00  8.00000000E+01  0.00000000E+00
  0.00000000E+00  7.80000000E+01  0.00000000E+00
  0.00000000E+00  7.60000000E+01  0.00000000E+00
  0.00000000E+00  7.40000000E+01  0.00000000E+00
  0.00000000E+00  7.20000000E+01  0.00000000E+00
  0.00000000E+00  7.00000000E+01  0.00000000E+00
  0.00000000E+00  6.80000000E+01  0.00000000E+00
  0.00000000E+00  6.60000000E+01  0.00000000E+00
  0.00000000E+00  6.40000000E+01  0.00000000E+00
  0.00000000E+00  6.20000000E+01  0.00000000E+00
  0.00000000E+00  6.00000000E+01  0.00000000E+00
  0.00000000E+00  5.80000000E+01  0.00000000E+00
  0.00000000E+00  5.60000000E+01  0.00000000E+00
  0.00000000E+00  5.40000000E+01  0.00000000E+00
  0.00000000E+00  5.20000000E+01  0.00000000E+00
  0.00000000E+00  5.00000000E+01  0.00000000E+00
  0.00000000E+00  4.80000000E+01  0.00000000E+00
  0.00000000E+00  4.60000000E+01  0.00000000E+00
  0.00000000E+00  4.40000000E+01  0.00000000E+00
  0.00000000E+00  4.20000000E+01  0.00000000E+00
  0.00000000E+00  4.00000000E+01  0.00000000E+00
  0.00000000E+00  3.80000000E+01  0.00000000E+00
  0.00000000E+00  3.60000000E+01  0.00000000E+00
  0.00000000E+00  3.40000000E+01  0.00000000E+00
  0.00000000E+00  3.20000000E+01  0.00000000E+00
  0.00000000E+00  3.00000000E+01  0.00000000E+00
  0.00000000E+00  2.80000000E+01  0.00000000E+00
  0.00000000E+00  2.60000000E+01  0.00000000E+00
  0.00000000E+00  2.40000000E+01  0.00000000E+00
  0.00000000E+00  2.20000000E+01  0.00000000E+00
  0.00000000E+00  2.00000000E+01  0.00000000E+00
  0.00000000E+00  1.80000000E+01  0.00000000E+00
  0.00000000E+00  1.60000000E+01  0.00000000E+00
  0.00000000E+00  1.40000000E+01  0.00000000E+00
  0.00000000E+00  1.20000000E+01  0.00000000E+00
  0.00000000E+00  1.00000000E+01  0.00000000E+00
  0.00000000E+00  8.00000000E+00  0.00000000E+00
  0.00000000E+00  6.00000000E+00  0.00000000E+00
  0.00000000E+00  4.00000000E+00  0.00000000E+00
  0.00000000E+00  2.00000000E+00  0.00000000E+00
  0.00000000E+00 -3.33066907E-14  0.00000000E+00
  1.00000000E+01  1.00000000E+02  0.00000000E+00
  1.00000000E+01  9.80000000E+01  0.00000000E+00
  1.00000000E+01  9.60000000E+01  0.00000000E+00
  1.00000000E+01  9.40000000E+01  0.00000000E+00
  1.00000000E+01  9.20000000E+01  0.00000000E+00
  1.00000000E+01  9.00000000E+01  0.00000000E+00
  1.00000000E+01  8.80000000E+01  0.00000000E+00
  1.00000000E+01  8.60000000E+01  0.00000000E+00
  1.00000000E+01  8.40000000E+01  0.00000000E+00
  1.00000000E+01  8.20000000E+01  0.00000000E+00
  1.00000000E+01  8.00000000E+01  0.00000000E+00
  1.00000000E+01  7.80000000E+01  0.00000000E+00
  1.00000000E+01  7.60000000E+01  0.00000000E+00
  1.00000000E+01  7.40000000E+01  0.00000000E+00
  1.00000000E+01  7.20000000E+01  0.00000000E+00
  1.00000000E+01  7.00000000E+01  0.00000000E+00
  1.00000000E+01  6.80000000E+01  0.00000000E+00
  1.00000000E+01  6.60000000E+01  0.00000000E+00
  1.00000000E+01  6.40000000E+01  0.00000000E+00
  1.00000000E+01  6.20000000E+01  0.00000000E+00
  1.00000000E+01  6.00000000E+01  0.00000000E+00
  1.00000000E+01  5.80000000E+01  0.00000000E+00
  1.00000000E+01  5.60000000E+01  0.00000000E+00
  1.00000000E+01  5.40000000E+01  0.00000000E+00
  1.00000000E+01  5.20000000E+01  0.00000000E+00
  1.00000000E+01  5.00000000E+01  0.00000000E+00
  1.00000000E+01  4.80000000E+01  0.00000000E+00
  1.00000000E+01  4.60000000E+01  0.00000000E+00
  1.00000000E+01  4.40000000E+01  0.00000000E+00
  1.00000000E+01  4.20000000E+01  0.00000000E+00
  1.00000000E+01  4.00000000E+01  0.00000000E+00
  1.00000000E+01  3.80000000E+01  0.00000000E+00
  1.00000000E+01  3.60000000E+01  0.00000000E+00
  1.00000000E+01  3.40000000E+01  0.00000000E+00
  1.00000000E+01  3.20000000E+01  0.00000000E+00
  1.00000000E+01  3.00000000E+01  0.00000000E+00
  1.00000000E+01  2.80000000E+01  0.00000000E+00
  1.00000000E+01  2.60000000E+01  0.00000000E+00
  1.00000000E+01  2.40000000E+01  0.00000000E+00
  1.00000000E+01  2.20000000E+01  0.00000000E+00
  1.00000000E+01  2.00000000E+01  0.00000000E+00
  1.00000000E+01  1.80000000E+01  0.00000000E+00
  1.00000000E+01  1.60000000E+01  0.00000000E+00
  1.00000000E+01  1.40000000E+01  0.00000000E+00
  1.00000000E+01  1.20000000E+01  0.00000000E+00
  1.00000000E+01  1.00000000E+01  0.00000000E+00
  1.00000000E+01  8.00000000E+00  0.00000000E+00
  1.00000000E+01  6.00000000E+00  0.00000000E+00
  1.00000000E+01  4.00000000E+00  0.00000000E+00
  1.00000000E+01  2.00000000E+00  0.00000000E+00
  1.00000000E+01 -3.33066907E-14  0.00000000E+00
  2.00000000E+01  1.00000000E+02  0.00000000E+00
  2.00000000E+01  9.80000000E+01  0.00000000E+00
  2.00000000E+01  9.60000000E+01  0.00000000E+00
  2.00000000E+01  9.40000000E+01  0.00000000E+00
  2.00000000E+01  9.20000000E+01  0.00000000E+00
  2.00000000E+01  9.00000000E+01  0.00000000E+00
  2.00000000E+01  8.80000000E+01  0.00000000E+00
  2.00000000E+01  8.60000000E+01  0.00000000E+00
  2.00000000E+01  8.40000000E+01  0.00000000E+00
  2.00000000E+01  8.20000000E+01  0.00000000E+00
  2.00000000E+01  8.00000000E+01  0.00000000E+00
  2.00000000E+01  7.80000000E+01  0.00000000E+00
  2.00000000E+01  7.60000000E+01  0.00000000E+00
  2.00000000E+01  7.40000000E+01  0.00000000E+00
  2.00000000E+01  7.20000000E+01  0.00000000E+00
  2.00000000E+01  7.00000000E+01  0.00000000E+00
  2.00000000E+01  6.80000000E+01  0.00000000E+00
  2.00000000E+01  6.60000000E+01  0.00000000E+00
  2.00000000E+01  6.40000000E+01  0.00000000E+00
  2.00000000E+01  6.20000000E+01  0.00000000E+00
  2.00000000E+01  6.00000000E+01  0.00000000E+00
  2.00000000E+01  5.80000000E+01  0.00000000E+00
  2.00000000E+01  5.60000000E+01  0.00000000E+00
  2.00000000E+01  5.40000000E+01  0.00000000E+00
  2.00000000E+01  5.20000000E+01  0.00000000E+00
  2.00000000E+01  5.00000000E+01  0.00000000E+00
  2.00000000E+01  4.80000000E+01  0.00000000E+00
  2.00000000E+01  4.60000000E+01  0.00000000E+00
  2.00000000E+01  4.40000000E+01  0.00000000E+00
  2.00000000E+01  4.20000000E+01  0.00000000E+00
  2.00000000E+01  4.00000000E+01  0.00000000E+00
  2.00000000E+01  3.80000000E+01  0.00000000E+00
  2.00000000E+01  3.60000000E+01  0.00000000E+00
  2.00000000E+01  3.40000000E+01  0.00000000E+00
  2.00000000E+01  3.20000000E+01  0.00000000E+00
  2.00000000E+01  3.00000000E+01  0.00000000E+00
  2.00000000E+01  2.80000000E+01  0.00000000E+00
  2.00000000E+01  2.60000000E+01  0.00000000E+00
  2.00000000E+01  2.40000000E+01  0.00000000E+00
  2.00000000E+01  2.20000000E+01  0.00000000E+00
  2.00000000E+01  2.00000000E+01  0.00000000E+00
  2.00000000E+01  1.80000000E+01  0.00000000E+00
  2.00000000E+01  1.60000000E+01  0.00000000E+00
  2.00000000E+01  1.40000000E+01  0.00000000E+00
  2.00000000E+01  1.20000000E+01  0.00000000E+00
  2.00000000E+01  1.00000000E+01  0.00000000E+00
  2.00000000E+01  8.00000000E+00  0.00000000E+00
  2.00000000E+01  6.00000000E+00  0.00000000E+00
  2.00000000E+01  4.00000000E+00  0.00000000E+00
  2.00000000E+01  2.00000000E+00  0.00000000E+00
  2.00000000E+01 -3.33066907E-14  0.00000000E+00
  3.00000000E+01  1.00000000E+02  0.00000000E+00
  3.00000000E+01  9.80000000E+01  0.00000000E+00
  3.00000000E+01  9.60000000E+01  0.00000000E+00
  3.00000000E+01  9.40000000E+01  0.00000000E+00
  3.00000000E+01  9.20000000E+01  0.00000000E+00
  3.00000000E+01  9.00000000E+01  0.00000000E+00
  3.00000000E+01  8.80000000E+01  0.00000000E+00
  3.00000000E+01  8.60000000E+01  0.00000000E+00
  3.00000000E+01  8.40000000E+01  0.00000000E+00
  3.00000000E+01  8.20000000E+01  0.00000000E+00
  3.00000000E+01  8.00000000E+01  0.00000000E+00
  3.00000000E+01  7.80000000E+01  0.00000000E+00
  3.00000000E+01  7.60000000E+01  0.00000000E+00
  3.00000000E+01  7.40000000E+01  0.00000000E+00
  3.00000000E+01  7.20000000E+01  0.00000000E+00
  3.00000000E+01  7.00000000E+01  0.00000000E+00
  3.00000000E+01  6.80000000E+01  0.00000000E+00
  3.00000000E+01  6.60000000E+01  0.00000000E+00
  3.00000000E+01  6.40000000E+01  0.00000000E+00
  3.00000000E+01  6.20000000E+01  0.00000000E+00
  3.00000000E+01  6.00000000E+01  0.00000000E+00
  3.00000000E+01  5.80000000E+01  0.00000000E+00
  3.00000000E+01  5.60000000E+01  0.00000000E+00
  3.00000000E+01  5.40000000E+01  0.00000000E+00
  3.00000000E+01  5.20000000E+01  0.00000000E+00
  3.00000000E+01  5.00000000E+01  0.00000000E+00
  3.00000000E+01  4.80000000E+01  0.00000000E+00
  3.00000000E+01  4.60000000E+01  0.00000000E+00
  3.00000000E+01  4.40000000E+01  0.00000000E+00
  3.00000000E+01  4.20000000E+01  0.00000000E+00
  3.00000000E+01  4.00000000E+01  0.00000000E+00
  3.00000000E+01  3.80000000E+01  0.00000000E+00
  3.00000000E+01  3.60000000E+01  0.00000000E+00
  3.00000000E+01  3.40000000E+01  0.00000000E+00
  3.00000000E+01  3.20000000E+01  0.00000000E+00
  3.00000000E+01  3.00000000E+01  0.00000000E+00
  3.00000000E+01  2.80000000E+01  0.00000000E+00
  3.00000000E+01  2.60000000E+01  0.00000000E+00
  3.00000000E+01  2.40000000E+01  0.00000000E+00
  3.00000000E+01  2.20000000E+01  0.00000000E+00
  3.00000000E+01  2.00000000E+01  0.00000000E+00
  3.00000000E+01  1.80000000E+01  0.00000000E+00
  3.00000000E+01  1.60000000E+01  0.00000000E+00
  3.00000000E+01  1.40000000E+01  0.00000000E+00
  3.00000000E+01  1.20000000E+01  0.00000000E+00
  3.00000000E+01  1.00000000E+01  0.00000000E+00
  3.00000000E+01  8.00000000E+00  0.00000000E+00
  3.00000000E+01  6.00000000E+00  0.00000000E+00
  3.00000000E+01  4.00000000E+00  0.00000000E+00
  3.00000000E+01  2.00000000E+00  0.00000000E+00
  3.00000000E+01 -3.33066907E-14  0.00000000E+00
  4.00000000E+01  1.00000000E+02  0.00000000E+00
  4.00000000E+01  9.80000000E+01  0.00000000E+00
  4.00000000E+01  9.60000000E+01  0.00000000E+00
  4.00000000E+01  9.40000000E+01  0.00000000E+00
  4.00000000E+01  9.20000000E+01  0.00000000E+00
  4.00000000E+01  9.00000000E+01  0.00000000E+00
  4.00000000E+01  8.80000000E+01  0.00000000E+00
  4.00000000E+01  8.60000000E+01  0.00000000E+00
  4.00000000E+01  8.40000000E+01  0.00000000E+00
  4.00000000E+01  8.20000000E+01  0.00000000E+00
  4.00000000E+01  8.00000000E+01  0.00000000E+00
  4.00000000E+01  7.80000000E+01  0.00000000E+00
  4.00000000E+01  7.60000000E+01  0.00000000E+00
  4.00000000E+01  7.40000000E+01  0.00000000E+00
  4.00000000E+01  7.20000000E+01  0.00000000E+00
  4.00000000E+01  7.00000000E+01  0.00000000E+00
  4.00000000E+01  6.80000000E+01  0.00000000E+00
  4.00000000E+01  6.60000000E+01  0.00000000E+00
  4.00000000E+01  6.40000000E+01  0.00000000E+00
  4.00000000E+01  6.20000000E+01  0.00000000E+00
  4.00000000E+01  6.00000000E+01  0.00000000E+00
  4.00000000E+01  5.80000000E+01  0.00000000E+00
  4.00000000E+01  5.60000000E+01  0.00000000E+00
  4.00000000E+01  5.40000000E+01  0.00000000E+00
  4.00000000E+01  5.20000000E+01  0.00000000E+00
  4.00000000E+01  5.00000000E+01  0.00000000E+00
  4.00000000E+01  4.80000000E+01  0.00000000E+00
  4.00000000E+01  4.60000000E+01  0.00000000E+00
  4.00000000E+01  4.40000000E+01  0.00000000E+00
  4.00000000E+01  4.20000000E+01  0.00000000E+00
  4.00000000E+01  4.00000000E+01  0.00000000E+00
  4.00000000E+01  3.80000000E+01  0.00000000E+00
  4.00000000E+01  3.60000000E+01  0.00000000E+00
  4.00000000E+01  3.40000000E+01  0.00000000E+00
  4.00000000E+01  3.20000000E+01  0.00000000E+00
  4.00000000E+01  3.00000000E+01  0.00000000E+00
  4.00000000E+01  2.80000000E+01  0.00000000E+00
  4.00000000E+01  2.60000000E+01  0.00000000E+00
  4.00000000E+01  2.40000000E+01  0.00000000E+00
  4.00000000E+01  2.20000000E+01  0.00000000E+00
  4.00000000E+01  2.00000000E+01  0.00000000E+00
  4.00000000E+01  1.80000000E+01  0.00000000E+00
  4.00000000E+01  1.60000000E+01  0.00000000E+00
  4.00000000E+01  1.40000000E+01  0.00000000E+00
  4.00000000E+01  1.20000000E+01  0.00000000E+00
  4.00000000E+01  1.00000000E+01  0.00000000E+00
  4.00000000E+01  8.00000000E+00  0.00000000E+00
  4.00000000E+01  6.00000000E+00  0.00000000E+00
  4.00000000E+01  4.00000000E+00  0.00000000E+00
  4.00000000E+01  2.00000000E+00  0.00000000E+00
  4.00000000E+01 -3.33066907E-14  0.00000000E+00
  5.00000000E+01  1.00000000E+02  0.00000000E+00
  5.00000000E+01  9.80000000E+01  0.00000000E+00
  5.00000000E+01  9.60000000E+01  0.00000000E+00
  5.00000000E+01  9.40000000E+01  0.00000000E+00
  5.00000000E+01  9.20000000E+01  0.00000000E+00
  5.00000000E+01  9.00000000E+01  0.00000000E+00
  5.00000000E+01  8.80000000E+01  0.00000000E+00
  5.00000000E+01  8.60000000E+01  0.00000000E+00
  5.00000000E+01  8.40000000E+01  0.00000000E+00
  5.00000000E+01  8.20000000E+01  0.00000000E+00
  5.00000000E+01  8.00000000E+01  0.00000000E+00
  5.00000000E+01  7.80000000E+01  0.00000000E+00
  5.00000000E+01  7.60000000E+01  0.00000000E+00
  5.00000000E+01  7.40000000E+01  0.00000000E+00
  5.00000000E+01  7.20000000E+01  0.00000000E+00
  5.00000000E+01  7.00000000E+01  0.00000000E+00
  5.00000000E+01  6.80000000E+01  0.00000000E+00
  5.00000000E+01  6.60000000E+01  0.00000000E+00
  5.00000000E+01  6.40000000E+01  0.00000000E+00
  5.00000000E+01  6.20000000E+01  0.00000000E+00
  5.00000000E+01  6.00000000E+01  0.00000000E+00
  5.00000000E+01  5.80000000E+01  0.00000000E+00
  5.00000000E+01  5.60000000E+01  0.00000000E+00
  5.00000000E+01  5.40000000E+01  0.00000000E+00
  5.00000000E+01  5.20000000E+01  0.00000000E+00
  5.00000000E+01  5.00000000E+01  0.00000000E+00
  5.00000000E+01  4.80000000E+01  0.00000000E+00
  5.00000000E+01  4.60000000E+01  0.00000000E+00
  5.00000000E+01  4.40000000E+01  0.00000000E+00
  5.00000000E+01  4.20000000E+01  0.00000000E+00
  5.00000000E+01  4.00000000E+01  0.00000000E+00
  5.00000000E+01  3.80000000E+01  0.00000000E+00
  5.00000000E+01  3.60000000E+01  0.00000000E+00
  5.00000000E+01  3.40000000E+01  0.00000000E+00
  5.00000000E+01  3.20000000E+01  0.00000000E+00
  5.00000000E+01  3.00000000E+01  0.00000000E+00
  5.00000000E+01  2.80000000E+01  0.00000000E+00
  5.00000000E+01  2.60000000E+01  0.00000000E+00
  5.00000000E+01  2.40000000E+01  0.00000000E+00
  5.00000000E+01  2.20000000E+01  0.00000000E+00
  5.00000000E+01  2.00000000E+01  0.00000000E+00
  5.00000000E+01  1.80000000E+01  0.00000000E+00
  5.00000000E+01  1.60000000E+01  0.00000000E+00
  5.00000000E+01  1.40000000E+01  0.00000000E+00
  5.00000000E+01  1.20000000E+01  0.00000000E+00
  5.00000000E+01  1.00000000E+01  0.00000000E+00
  5.00000000E+01  8.00000000E+00  0.00000000E+00
  5.00000000E+01  6.00000000E+00  0.00000000E+00
  5.00000000E+01  4.00000000E+00  0.00000000E+00
  5.00000000E+01  2.00000000E+00  0.00000000E+00
  5.00000000E+01 -3.33066907E-14  0.00000000E+00
  6.00000000E+01  1.00000000E+02  0.00000000E+00
  6.00000000E+01  9.80000000E+01  0.00000000E+00
  6.00000000E+01  9.60000000E+01  0.00000000E+00
  6.00000000E+01  9.40000000E+01  0.00000000E+00
  6.00000000E+01  9.20000000E+01  0.00000000E+00
  6.00000000E+01  9.00000000E+01  0.00000000E+00
  6.00000000E+01  8.80000000E+01  0.00000000E+00
  6.00000000E+01  8.60000000E+01  0.00000000E+00
  6.00000000E+01  8.40000000E+01  0.00000000E+00
  6.00000000E+01  8.20000000E+01  0.00000000E+00
  6.00000000E+01  8.00000000E+01  0.00000000E+00
  6.00000000E+01  7.80000000E+01  0.00000000E+00
  6.00000000E+01  7.60000000E+01  0.00000000E+00
  6.00000000E+01  7.40000000E+01  0.00000000E+00
  6.00000000E+01  7.20000000E+01  0.00000000E+00
  6.00000000E+01  7.00000000E+01  0.00000000E+00
  6.00000000E+01  6.80000000E+01  0.00000000E+00
  6.00000000E+01  6.60000000E+01  0.00000000E+00
  6.00000000E+01  6.40000000E+01  0.00000000E+00
  6.00000000E+01  6.20000000E+01  0.00000000E+00
  6.00000000E+01  6.00000000E+01  0.00000000E+00
  6.00000000E+01  5.80000000E+01  0.00000000E+00
  6.00000000E+01  5.60000000E+01  0.00000000E+00
  6.00000000E+01  5.40000000E+01  0.00000000E+00
  6.00000000E+01  5.20000000E+01  0.00000000E+00
  6.00000000E+01  5.00000000E+01  0.00000000E+00
  6.00000000E+01  4.80000000E+01  0.00000000E+00
  6.00000000E+01  4.60000000E+01  0.00000000E+00
  6.00000000E+01  4.40000000E+01  0.00000000E+00
  6.00000000E+01  4.20000000E+01  0.00000000E+00
  6.00000000E+01  4.00000000E+01  0.00000000E+00
  6.00000000E+01  3.80000000E+01  0.00000000E+00
  6.00000000E+01  3.60000000E+01  0.00000000E+00
  6.00000000E+01  3.40000000E+01  0.00000000E+00
  6.00000000E+01  3.20000000E+01  0.00000000E+00
  6.00000000E+01  3.00000000E+01  0.00000000E+00
  6.00000000E+01  2.80000000E+01  0.00000000E+00
  6.00000000E+01  2.60000000E+01  0.00000000E+00
  6.00000000E+01  2.40000000E+01  0.00000000E+00
  6.00000000E+01  2.20000000E+01  0.00000000E+00
  6.00000000E+01  2.00000000E+01  0.00000000E+00
  6.00000000E+01  1.80000000E+01  0.00000000E+00
  6.00000000E+01  1.60000000E+01  0.00000000E+00
  6.00000000E+01  1.40000000E+01  0.00000000E+00
  6.00000000E+01  1.20000000E+01  0.00000000E+00
  6.00000000E+01  1.00000000E+01  0.00000000E+00
  6.00000000E+01  8.00000000E+00  0.00000000E+00
  6.00000000E+01  6.00000000E+00  0.00000000E+00
  6.00000000E+01  4.00000000E+00  0.00000000E+00
  6.00000000E+01  2.00000000E+00  0.00000000E+00
  6.00000000E+01 -3.33066907E-14  0.00000000E+00
  7.00000000E+01  1.00000000E+02  0.00000000E+00
  7.00000000E+01  9.80000000E+01  0.00000000E+00
  7.00000000E+01  9.60000000E+01  0.00000000E+00
  7.00000000E+01  9.40000000E+01  0.00000000E+00
  7.00000000E+01  9.20000000E+01  0.00000000E+00
  7.00000000E+01  9.00000000E+01  0.00000000E+00
  7.00000000E+01  8.80000000E+01  0.00000000E+00
  7.00000000E+01  8.60000000E+01  0.00000000E+00
  7.00000000E+01  8.40000000E+01  0.00000000E+00
  7.00000000E+01  8.20000000E+01  0.00000000E+00
  7.00000000E+01  8.00000000E+01  0.00000000E+00
  7.00000000E+01  7.80000000E+01  0.00000000E+00
  7.00000000E+01  7.60000000E+01  0.00000000E+00
  7.00000000E+01  7.40000000E+01  0.00000000E+00
  7.00000000E+01  7.20000000E+01  0.00000000E+00
  7.00000000E+01  7.00000000E+01  0.00000000E+00
  7.00000000E+01  6.80000000E+01  0.00000000E+00
  7.00000000E+01  6.60000000E+01  0.00000000E+00
  7.00000000E+01  6.40000000E+01  0.00000000E+00
  7.00000000E+01  6.20000000E+01  0.00000000E+00
  7.00000000E+01  6.00000000E+01  0.00000000E+00
  7.00000000E+01  5.80000000E+01  0.00000000E+00
  7.00000000E+01  5.60000000E+01  0.00000000E+00
  7.00000000E+01  5.40000000E+01  0.00000000E+00
  7.00000000E+01  5.20000000E+01  0.00000000E+00
  7.00000000E+01  5.00000000E+01  0.00000000E+00
  7.00000000E+01  4.80000000E+01  0.00000000E+00
  7.00000000E+01  4.60000000E+01  0.00000000E+00
  7.00000000E+01  4.40000000E+01  0.00000000E+00
  7.00000000E+01  4.20000000E+01  0.00000000E+00
  7.00000000E+01  4.00000000E+01  0.00000000E+00
  7.00000000E+01  3.80000000E+01  0.00000000E+00
  7.00000000E+01  3.60000000E+01  0.00000000E+00
  7.00000000E+01  3.40000000E+01  0.00000000E+00
  7.00000000E+01  3.20000000E+01  0.00000000E+00
  7.00000000E+01  3.00000000E+01  0.00000000E+00
  7.00000000E+01  2.80000000E+01  0.00000000E+00
  7.00000000E+01  2.60000000E+01  0.00000000E+00
  7.00000000E+01  2.40000000E+01  0.00000000E+00
  7.00000000E+01  2.20000000E+01  0.00000000E+00
  7.00000000E+01  2.00000000E+01  0.00000000E+00
  7.00000000E+01  1.80000000E+01  0.00000000E+00
  7.00000000E+01  1.60000000E+01  0.00000000E+00
  7.00000000E+01  1.40000000E+01  0.00000000E+00
  7.00000000E+01  1.20000000E+01  0.00000000E+00
  7.00000000E+01  1.00000000E+01  0.00000000E+00
  7.00000000E+01  8.00000000E+00  0.00000000E+00
  7.00000000E+01  6.00000000E+00  0.00000000E+00
  7.00000000E+01  4.00000000E+00  0.00000000E+00
  7.00000000E+01  2.00000000E+00  0.00000000E+00
  7.00000000E+01 -3.33066907E-14  0.00000000E+00
  8.00000000E+01  1.00000000E+02  0.00000000E+00
  8.00000000E+01  9.80000000E+01  0.00000000E+00
  8.00000000E+01  9.60000000E+01  0.00000000E+00
  8.00000000E+01  9.40000000E+01  0.00000000E+00
  8.00000000E+01  9.20000000E+01  0.00000000E+00
  8.00000000E+01  9.00000000E+01  0.00000000E+00
  8.00000000E+01  8.80000000E+01  0.00000000E+00
  8.00000000E+01  8.60000000E+01  0.00000000E+00
  8.00000000E+01  8.40000000E+01  0.00000000E+00
  8.00000000E+01  8.20000000E+01  0.00000000E+00
  8.00000000E+01  8.00000000E+01  0.00000000E+00
  8.00000000E+01  7.80000000E+01  0.00000000E+00
  8.00000000E+01  7.60000000E+01  0.00000000E+00
  8.00000000E+01  7.40000000E+01  0.00000000E+00
  8.00000000E+01  7.20000000E+01  0.00000000E+00
  8.00000000E+01  7.00000000E+01  0.00000000E+00
  8.00000000E+01  6.80000000E+01  0.00000000E+00
  8.00000000E+01  6.60000000E+01  0.00000000E+00
  8.00000000E+01  6.40000000E+01  0.00000000E+00
  8.00000000E+01  6.20000000E+01  0.00000000E+00
  8.00000000E+01  6.00000000E+01  0.00000000E+00
  8.00000000E+01  5.80000000E+01  0.00000000E+00
  8.00000000E+01  5.60000000E+01  0.00000000E+00
  8.00000000E+01  5.40000000E+01  0.00000000E+00
  8.00000000E+01  5.20000000E+01  0.00000000E+00
  8.00000000E+01  5.00000000E+01  0.00000000E+00
  8.00000000E+01  4.80000000E+01  0.00000000E+00
  8.00000000E+01  4.60000000E+01  0.00000000E+00
  8.00000000E+01  4.40000000E+01  0.00000000E+00
  8.00000000E+01  4.20000000E+01  0.00000000E+00
  8.00000000E+01  4.00000000E+01  0.00000000E+00
  8.00000000E+01  3.80000000E+01  0.00000000E+00
  8.00000000E+01  3.60000000E+01  0.00000000E+00
  8.00000000E+01  3.40000000E+01  0.00000000E+00
  8.00000000E+01  3.20000000E+01  0.00000000E+00
  8.00000000E+01  3.00000000E+01  0.00000000E+00
  8.00000000E+01  2.80000000E+01  0.00000000E+00
  8.00000000E+01  2.60000000E+01  0.00000000E+00
  8.00000000E+01  2.40000000E+01  0.00000000E+00
  8.00000000E+01  2.20000000E+01  0.00000000E+00
  8.00000000E+01  2.00000000E+01  0.00000000E+00
  8.00000000E+01  1.80000000E+01  0.00000000E+00
  8.00000000E+01  1.60000000E+01  0.00000000E+00
  8.00000000E+01  1.40000000E+01  0.00000000E+00
  8.00000000E+01  1.20000000E+01  0.00000000E+00
  8.00000000E+01  1.00000000E+01  0.00000000E+00
  8.00000000E+01  8.00000000E+00  0.00000000E+00
  8.00000000E+01  6.00000000E+00  0.00000000E+00
  8.00000000E+01  4.00000000E+00  0.00000000E+00
  8.00000000E+01  2.00000000E+00  0.00000000E+00
  8.00000000E+01 -3.33066907E-14  0.00000000E+00
  9.00000000E+01  1.00000000E+02  0.00000000E+00
  9.00000000E+01  9.80000000E+01  0.00000000E+00
  9.00000000E+01  9.60000000E+01  0.00000000E+00
  9.00000000E+01  9.40000000E+01  0.00000000E+00
  9.00000000E+01  9.20000000E+01  0.00000000E+00
  9.00000000E+01  9.00000000E+01  0.00000000E+00
  9.00000000E+01  8.80000000E+01  0.00000000E+00
  9.00000000E+01  8.60000000E+01  0.00000000E+00
  9.00000000E+01  8.40000000E+01  0.00000000E+00
  9.00000000E+01  8.20000000E+01  0.00000000E+00
  9.00000000E+01  8.00000000E+01  0.00000000E+00
  9.00000000E+01  7.80000000E+01  0.00000000E+00
  9.00000000E+01  7.60000000E+01  0.00000000E+00
  9.00000000E+01  7.40000000E+01  0.00000000E+00
  9.00000000E+01  7.20000000E+01  0.00000000E+00
  9.00000000E+01  7.00000000E+01  0.00000000E+00
  9.00000000E+01  6.80000000E+01  0.00000000E+00
  9.00000000E+01  6.60000000E+01  0.00000000E+00
  9.00000000E+01  6.40000000E+01  0.00000000E+00
  9.00000000E+01  6.20000000E+01  0.00000000E+00
  9.00000000E+01  6.00000000E+01  0.00000000E+00
  9.00000000E+01  5.80000000E+01  0.00000000E+00
  9.00000000E+01  5.60000000E+01  0.00000000E+00
  9.00000000E+01  5.40000000E+01  0.00000000E+00
  9.00000000E+01  5.20000000E+01  0.00000000E+00
  9.00000000E+01  5.00000000E+01  0.00000000E+00
  9.00000000E+01  4.80000000E+01  0.00000000E+00
  9.00000000E+01  4.60000000E+01  0.00000000E+00
  9.00000000E+01  4.40000000E+01  0.00000000E+00
  9.00000000E+01  4.20000000E+01  0.00000000E+00
  9.00000000E+01  4.00000000E+01  0.00000000E+00
  9.00000000E+01  3.80000000E+01  0.00000000E+00
  9.00000000E+01  3.60000000E+01  0.00000000E+00
  9.00000000E+01  3.40000000E+01  0.00000000E+00
  9.00000000E+01  3.20000000E+01  0.00000000E+00
  9.00000000E+01  3.00000000E+01  0.00000000E+00
  9.00000000E+01  2.80000000E+01  0.00000000E+00
  9.00000000E+01  2.60000000E+01  0.00000000E+00
  9.00000000E+01  2.40000000E+01  0.00000000E+00
  9.00000000E+01  2.20000000E+01  0.00000000E+00
  9.00000000E+01  2.00000000E+01  0.00000000E+00
  9.00000000E+01  1.80000000E+01  0.00000000E+00
  9.00000000E+01  1.60000000E+01  0.00000000E+00
  9.00000000E+01  1.40000000E+01  0.00000000E+00
  9.00000000E+01  1.20000000E+01  0.00000000E+00
  9.00000000E+01  1.00000000E+01  0.00000000E+00
  9.00000000E+01  8.00000000E+00  0.00000000E+00
  9.00000000E+01  6.00000000E+00  0.00000000E+00
  9.00000000E+01  4.00000000E+00  0.00000000E+00
  9.00000000E+01  2.00000000E+00  0.00000000E+00
  9.00000000E+01 -3.33066907E-14  0.00000000E+00
  1.00000000E+02  1.00000000E+02  0.00000000E+00
  1.00000000E+02  9.80000000E+01  0.00000000E+00
  1.00000000E+02  9.60000000E+01  0.00000000E+00
  1.00000000E+02  9.40000000E+01  0.00000000E+00
  1.00000000E+02  9.20000000E+01  0.00000000E+00
  1.00000000E+02  9.00000000E+01  0.00000000E+00
  1.00000000E+02  8.80000000E+01  0.00000000E+00
  1.00000000E+02  8.60000000E+01  0.00000000E+00
  1.00000000E+02  8.40000000E+01  0.00000000E+00
  1.00000000E+02  8.20000000E+01  0.00000000E+00
  1.00000000E+02  8.00000000E+01  0.00000000E+00
  1.00000000E+02  7.80000000E+01  0.00000000E+00
  1.00000000E+02  7.60000000E+01  0.00000000E+00
  1.00000000E+02  7.40000000E+01  0.00000000E+00
  1.00000000E+02  7.20000000E+01  0.00000000E+00
  1.00000000E+02  7.00000000E+01  0.00000000E+00
  1.00000000E+02  6.80000000E+01  0.00000000E+00
  1.00000000E+02  6.60000000E+01  0.00000000E+00
  1.00000000E+02  6.40000000E+01  0.00000000E+00
  1.00000000E+02  6.20000000E+01  0.00000000E+00
  1.00000000E+02  6.00000000E+01  0.00000000E+00
  1.00000000E+02  5.80000000E+01  0.00000000E+00
  1.00000000E+02  5.60000000E+01  0.00000000E+00
  1.00000000E+02  5.40000000E+01  0.00000000E+00
  1.00000000E+02  5.20000000E+01  0.00000000E+00
  1.00000000E+02  5.00000000E+01  0.00000000E+00
  1.00000000E+02  4.80000000E+01  0.00000000E+00
  1.00000000E+02  4.60000000E+01  0.00000000E+00
  1.00000000E+02  4.40000000E+01  0.00000000E+00
  1.00000000E+02  4.20000000E+01  0.00000000E+00
  1.00000000E+02  4.00000000E+01  0.00000000E+00
  1.00000000E+02  3.80000000E+01  0.00000000E+00
  1.00000000E+02  3.60000000E+01  0.00000000E+00
  1.00000000E+02  3.40000000E+01  0.00000000E+00
  1.00000000E+02  3.20000000E+01  0.00000000E+00
  1.00000000E+02  3.00000000E+01  0.00000000E+00
  1.00000000E+02  2.80000000E+01  0.00000000E+00
  1.00000000E+02  2.60000000E+01  0.00000000E+00
  1.00000000E+02  2.40000000E+01  0.00000000E+00
  1.00000000E+02  2.20000000E+01  0.00000000E+00
  1.00000000E+02  2.00000000E+01  0.00000000E+00
  1.00000000E+02  1.80000000E+01  0.00000000E+00
  1.00000000E+02  1.60000000E+01  0.00000000E+00
  1.00000000E+02  1.40000000E+01  0.00000000E+00
  1.00000000E+02  1.20000000E+01  0.00000000E+00
  1.00000000E+02  1.00000000E+01  0.00000000E+00
  1.00000000E+02  8.00000000E+00  0.00000000E+00
  1.00000000E+02  6.00000000E+00  0.00000000E+00
  1.00000000E+02  4.00000000E+00  0.00000000E+00
  1.00000000E+02  2.00000000E+00  0.00000000E+00
  1.00000000E+02 -3.33066907E-14  0.00000000E+00
  1.10000000E+02  1.00000000E+02  0.00000000E+00
  1.10000000E+02  9.80000000E+01  0.00000000E+00
  1.10000000E+02  9.60000000E+01  0.00000000E+00
  1.10000000E+02  9.40000000E+01  0.00000000E+00
  1.10000000E+02  9.20000000E+01  0.00000000E+00
  1.10000000E+02  9.00000000E+01  0.00000000E+00
  1.10000000E+02  8.80000000E+01  0.00000000E+00
  1.10000000E+02  8.60000000E+01  0.00000000E+00
  1.10000000E+02  8.40000000E+01  0.00000000E+00
  1.10000000E+02  8.20000000E+01  0.00000000E+00
  1.10000000E+02  8.00000000E+01  0.00000000E+00
  1.10000000E+02  7.80000000E+01  0.00000000E+00
  1.10000000E+02  7.60000000E+01  0.00000000E+00
  1.10000000E+02  7.40000000E+01  0.00000000E+00
  1.10000000E+02  7.20000000E+01  0.00000000E+00
  1.10000000E+02  7.00000000E+01  0.00000000E+00
  1.10000000E+02  6.80000000E+01  0.00000000E+00
  1.10000000E+02  6.60000000E+01  0.00000000E+00
  1.10000000E+02  6.40000000E+01  0.00000000E+00
  1.10000000E+02  6.20000000E+01  0.00000000E+00
  1.10000000E+02  6.00000000E+01  0.00000000E+00
  1.10000000E+02  5.80000000E+01  0.00000000E+00
  1.10000000E+02  5.60000000E+01  0.00000000E+00
  1.10000000E+02  5.40000000E+01  0.00000000E+00
  1.10000000E+02  5.20000000E+01  0.00000000E+00
  1.10000000E+02  5.00000000E+01  0.00000000E+00
  1.10000000E+02  4.80000000E+01  0.00000000E+00
  1.10000000E+02  4.60000000E+01  0.00000000E+00
  1.10000000E+02  4.40000000E+01  0.00000000E+00
  1.10000000E+02  4.20000000E+01  0.00000000E+00
  1.10000000E+02  4.00000000E+01  0.00000000E+00
  1.10000000E+02  3.80000000E+01  0.00000000E+00
  1.10000000E+02  3.60000000E+01  0.00000000E+00
  1.10000000E+02  3.40000000E+01  0.00000000E+00
  1.10000000E+02  3.20000000E+01  0.00000000E+00
  1.10000000E+02  3.00000000E+01  0.00000000E+00
  1.10000000E+02  2.80000000E+01  0.00000000E+00
  1.10000000E+02  2.60000000E+01  0.00000000E+00
  1.10000000E+02  2.40000000E+01  0.00000000E+00
  1.10000000E+02  2.20000000E+01  0.00000000E+00
  1.10000000E+02  2.00000000E+01  0.00000000E+00
  1.10000000E+02  1.80000000E+01  0.00000000E+00
  1.10000000E+02  1.60000000E+01  0.00000000E+00
  1.10000000E+02  1.40000000E+01  0.00000000E+00
  1.10000000E+02  1.20000000E+01  0.00000000E+00
  1.10000000E+02  1.00000000E+01  0.00000000E+00
  1.10000000E+02  8.00000000E+00  0.00000000E+00
  1.10000000E+02  6.00000000E+00  0.00000000E+00
  1.10000000E+02  4.00000000E+00  0.00000000E+00
  1.10000000E+02  2.00000000E+00  0.00000000E+00
  1.10000000E+02 -3.33066907E-14  0.00000000E+00
  1.20000000E+02  1.00000000E+02  0.00000000E+00
  1.20000000E+02  9.80000000E+01  0.00000000E+00
  1.20000000E+02  9.60000000E+01  0.00000000E+00
  1.20000000E+02  9.40000000E+01  0.00000000E+00
  1.20000000E+02  9.20000000E+01  0.00000000E+00
  1.20000000E+02  9.00000000E+01  0.00000000E+00
  1.20000000E+02  8.80000000E+01  0.00000000E+00
  1.20000000E+02  8.60000000E+01  0.00000000E+00
  1.20000000E+02  8.40000000E+01  0.00000000E+00
  1.20000000E+02  8.20000000E+01  0.00000000E+00
  1.20000000E+02  8.00000000E+01  0.00000000E+00
  1.20000000E+02  7.80000000E+01  0.00000000E+00
  1.20000000E+02  7.60000000E+01  0.00000000E+00
  1.20000000E+02  7.40000000E+01  0.00000000E+00
  1.20000000E+02  7.20000000E+01  0.00000000E+00
  1.20000000E+02  7.00000000E+01  0.00000000E+00
  1.20000000E+02  6.80000000E+01  0.00000000E+00
  1.20000000E+02  6.60000000E+01  0.00000000E+00
  1.20000000E+02  6.40000000E+01  0.00000000E+00
  1.20000000E+02  6.20000000E+01  0.00000000E+00
  1.20000000E+02  6.00000000E+01  0.00000000E+00
  1.20000000E+02  5.80000000E+01  0.00000000E+00
  1.20000000E+02  5.60000000E+01  0.00000000E+00
  1.20000000E+02  5.40000000E+01  0.00000000E+00
  1.20000000E+02  5.20000000E+01  0.00000000E+00
  1.20000000E+02  5.00000000E+01  0.00000000E+00
  1.20000000E+02  4.80000000E+01  0.00000000E+00
  1.20000000E+02  4.60000000E+01  0.00000000E+00
  1.20000000E+02  4.40000000E+01  0.00000000E+00
  1.20000000E+02  4.20000000E+01  0.00000000E+00
  1.20000000E+02  4.00000000E+01  0.00000000E+00
  1.20000000E+02  3.80000000E+01  0.00000000E+00
  1.20000000E+02  3.60000000E+01  0.00000000E+00
  1.20000000E+02  3.40000000E+01  0.00000000E+00
  1.20000000E+02  3.20000000E+01  0.00000000E+00
  1.20000000E+02  3.00000000E+01  0.00000000E+00
  1.20000000E+02  2.80000000E+01  0.00000000E+00
  1.20000000E+02  2.60000000E+01  0.00000000E+00
  1.20000000E+02  2.40000000E+01  0.00000000E+00
  1.20000000E+02  2.20000000E+01  0.00000000E+00
  1.20000000E+02  2.00000000E+01  0.00000000E+00
  1.20000000E+02  1.80000000E+01  0.00000000E+00
  1.20000000E+02  1.60000000E+01  0.00000000E+00
  1.20000000E+02  1.40000000E+01  0.00000000E+00
  1.20000000E+02  1.20000000E+01  0.00000000E+00
  1.20000000E+02  1.00000000E+01  0.00000000E+00
  1.20000000E+02  8.00000000E+00  0.00000000E+00
  1.20000000E+02  6.00000000E+00  0.00000000E+00
  1.20000000E+02  4.00000000E+00  0.00000000E+00
  1.20000000E+02  2.00000000E+00  0.00000000E+00
  1.20000000E+02 -3.33066907E-14  0.00000000E+00
  1.30000000E+02  1.00000000E+02  0.00000000E+00
  1.30000000E+02  9.80000000E+01  0.00000000E+00
  1.30000000E+02  9.60000000E+01  0.00000000E+00
  1.30000000E+02  9.40000000E+01  0.00000000E+00
  1.30000000E+02  9.20000000E+01  0.00000000E+00
  1.30000000E+02  9.00000000E+01  0.00000000E+00
  1.30000000E+02  8.80000000E+01  0.00000000E+00
  1.30000000E+02  8.60000000E+01  0.00000000E+00
  1.30000000E+02  8.40000000E+01  0.00000000E+00
  1.30000000E+02  8.20000000E+01  0.00000000E+00
  1.30000000E+02  8.00000000E+01  0.00000000E+00
  1.30000000E+02  7.80000000E+01  0.00000000E+00
  1.30000000E+02  7.60000000E+01  0.00000000E+00
  1.30000000E+02  7.40000000E+01  0.00000000E+00
  1.30000000E+02  7.20000000E+01  0.00000000E+00
  1.30000000E+02  7.00000000E+01  0.00000000E+00
  1.30000000E+02  6.80000000E+01  0.00000000E+00
  1.30000000E+02  6.60000000E+01  0.00000000E+00
  1.30000000E+02  6.40000000E+01  0.00000000E+00
  1.30000000E+02  6.20000000E+01  0.00000000E+00
  1.30000000E+02  6.00000000E+01  0.00000000E+00
  1.30000000E+02  5.80000000E+01  0.00000000E+00
  1.30000000E+02  5.60000000E+01  0.00000000E+00
  1.30000000E+02  5.40000000E+01  0.00000000E+00
  1.30000000E+02  5.20000000E+01  0.00000000E+00
  1.30000000E+02  5.00000000E+01  0.00000000E+00
  1.30000000E+02  4.80000000E+01  0.00000000E+00
  1.30000000E+02  4.60000000E+01  0.00000000E+00
  1.30000000E+02  4.40000000E+01  0.00000000E+00
  1.30000000E+02  4.20000000E+01  0.00000000E+00
  1.30000000E+02  4.00000000E+01  0.00000000E+00
  1.30000000E+02  3.80000000E+01  0.00000000E+00
  1.30000000E+02  3.60000000E+01  0.00000000E+00
  1.30000000E+02  3.40000000E+01  0.00000000E+00
  1.30000000E+02  3.20000000E+01  0.00000000E+00
  1.30000000E+02  3.00000000E+01  0.00000000E+00
  1.30000000E+02  2.80000000E+01  0.00000000E+00
  1.30000000E+02  2.60000000E+01  0.00000000E+00
  1.30000000E+02  2.40000000E+01  0.00000000E+00
  1.30000000E+02  2.20000000E+01  0.00000000E+00
  1.30000000E+02  2.00000000E+01  0.00000000E+00
  1.30000000E+02  1.80000000E+01  0.00000000E+00
  1.30000000E+02  1.60000000E+01  0.00000000E+00
  1.30000000E+02  1.40000000E+01  0.00000000E+00
  1.30000000E+02  1.20000000E+01  0.00000000E+00
  1.30000000E+02  1.00000000E+01  0.00000000E+00
  1.30000000E+02  8.00000000E+00  0.00000000E+00
  1.30000000E+02  6.00000000E+00  0.00000000E+00
  1.30000000E+02  4.00000000E+00  0.00000000E+00
  1.30000000E+02  2.00000000E+00  0.00000000E+00
  1.30000000E+02 -3.33066907E-14  0.00000000E+00
  1.40000000E+02  1.00000000E+02  0.00000000E+00
  1.40000000E+02  9.80000000E+01  0.00000000E+00
  1.40000000E+02  9.60000000E+01  0.00000000E+00
  1.40000000E+02  9.40000000E+01  0.00000000E+00
  1.40000000E+02  9.20000000E+01  0.00000000E+00
  1.40000000E+02  9.00000000E+01  0.00000000E+00
  1.40000000E+02  8.80000000E+01  0.00000000E+00
  1.40000000E+02  8.60000000E+01  0.00000000E+00
  1.40000000E+02  8.40000000E+01  0.00000000E+00
  1.40000000E+02  8.20000000E+01  0.00000000E+00
  1.40000000E+02  8.00000000E+01  0.00000000E+00
  1.40000000E+02  7.80000000E+01  0.00000000E+00
  1.40000000E+02  7.60000000E+01  0.00000000E+00
  1.40000000E+02  7.40000000E+01  0.00000000E+00
  1.40000000E+02  7.20000000E+01  0.00000000E+00
  1.40000000E+02  7.00000000E+01  0.00000000E+00
  1.40000000E+02  6.80000000E+01  0.00000000E+00
  1.40000000E+02  6.60000000E+01  0.00000000E+00
  1.40000000E+02  6.40000000E+01  0.00000000E+00
  1.40000000E+02  6.20000000E+01  0.00000000E+00
  1.40000000E+02  6.00000000E+01  0.00000000E+00
  1.40000000E+02  5.80000000E+01  0.00000000E+00
  1.40000000E+02  5.60000000E+01  0.00000000E+00
  1.40000000E+02  5.40000000E+01  0.00000000E+00
  1.40000000E+02  5.20000000E+01  0.00000000E+00
  1.40000000E+02  5.00000000E+01  0.00000000E+00
  1.40000000E+02  4.80000000E+01  0.00000000E+00
  1.40000000E+02  4.60000000E+01  0.00000000E+00
  1.40000000E+02  4.40000000E+01  0.00000000E+00
  1.40000000E+02  4.20000000E+01  0.00000000E+00
  1.40000000E+02  4.00000000E+01  0.00000000E+00
  1.40000000E+02  3.80000000E+01  0.00000000E+00
  1.40000000E+02  3.60000000E+01  0.00000000E+00
  1.40000000E+02  3.40000000E+01  0.00000000E+00
  1.40000000E+02  3.20000000E+01  0.00000000E+00
  1.40000000E+02  3.00000000E+01  0.00000000E+00
  1.40000000E+02  2.80000000E+01  0.00000000E+00
  1.40000000E+02  2.60000000E+01  0.00000000E+00
  1.40000000E+02  2.40000000E+01  0.00000000E+00
  1.40000000E+02  2.20000000E+01  0.00000000E+00
  1.40000000E+02  2.00000000E+01  0.00000000E+00
  1.40000000E+02  1.80000000E+01  0.00000000E+00
  1.40000000E+02  1.60000000E+01  0.00000000E+00
  1.40000000E+02  1.40000000E+01  0.00000000E+00
  1.40000000E+02  1.20000000E+01  0.00000000E+00
  1.40000000E+02  1.00000000E+01  0.00000000E+00
  1.40000000E+02  8.00000000E+00  0.00000000E+00
  1.40000000E+02  6.00000000E+00  0.00000000E+00
  1.40000000E+02  4.00000000E+00  0.00000000E+00
  1.40000000E+02  2.00000000E+00  0.00000000E+00
  1.40000000E+02 -3.33066907E-14  0.00000000E+00
  1.50000000E+02  1.00000000E+02  0.00000000E+00
  1.50000000E+02  9.80000000E+01  0.00000000E+00
  1.50000000E+02  9.60000000E+01  0.00000000E+00
  1.50000000E+02  9.40000000E+01  0.00000000E+00
  1.50000000E+02  9.20000000E+01  0.00000000E+00
  1.50000000E+02  9.00000000E+01  0.00000000E+00
  1.50000000E+02  8.80000000E+01  0.00000000E+00
  1.50000000E+02  8.60000000E+01  0.00000000E+00
  1.50000000E+02  8.40000000E+01  0.00000000E+00
  1.50000000E+02  8.20000000E+01  0.00000000E+00
  1.50000000E+02  8.00000000E+01  0.00000000E+00
  1.50000000E+02  7.80000000E+01  0.00000000E+00
  1.50000000E+02  7.60000000E+01  0.00000000E+00
  1.50000000E+02  7.40000000E+01  0.00000000E+00
  1.50000000E+02  7.20000000E+01  0.00000000E+00
  1.50000000E+02  7.00000000E+01  0.00000000E+00
  1.50000000E+02  6.80000000E+01  0.00000000E+00
  1.50000000E+02  6.60000000E+01  0.00000000E+00
  1.50000000E+02  6.40000000E+01  0.00000000E+00
  1.50000000E+02  6.20000000E+01  0.00000000E+00
  1.50000000E+02  6.00000000E+01  0.00000000E+00
  1.50000000E+02  5.80000000E+01  0.00000000E+00
  1.50000000E+02  5.60000000E+01  0.00000000E+00
  1.50000000E+02  5.40000000E+01  0.00000000E+00
  1.50000000E+02  5.20000000E+01  0.00000000E+00
  1.50000000E+02  5.00000000E+01  0.00000000E+00
  1.50000000E+02  4.80000000E+01  0.00000000E+00
  1.50000000E+02  4.60000000E+01  0.00000000E+00
  1.50000000E+02  4.40000000E+01  0.00000000E+00
  1.50000000E+02  4.20000000E+01  0.00000000E+00
  1.50000000E+02  4.00000000E+01  0.00000000E+00
  1.50000000E+02  3.80000000E+01  0.00000000E+00
  1.50000000E+02  3.60000000E+01  0.00000000E+00
  1.50000000E+02  3.40000000E+01  0.00000000E+00
  1.50000000E+02  3.20000000E+01  0.00000000E+00
  1.50000000E+02  3.00000000E+01  0.00000000E+00
  1.50000000E+02  2.80000000E+01  0.00000000E+00
  1.50000000E+02  2.60000000E+01  0.00000000E+00
  1.50000000E+02  2.40000000E+01  0.00000000E+00
  1.50000000E+02  2.20000000E+01  0.00000000E+00
  1.50000000E+02  2.00000000E+01  0.00000000E+00
  1.50000000E+02  1.80000000E+01  0.00000000E+00
  1.50000000E+02  1.60000000E+01  0.00000000E+00
  1.50000000E+02  1.40000000E+01  0.00000000E+00
  1.50000000E+02  1.20000000E+01  0.00000000E+00
  1.50000000E+02  1.00000000E+01  0.00000000E+00
  1.50000000E+02  8.00000000E+00  0.00000000E+00
  1.50000000E+02  6.00000000E+00  0.00000000E+00
  1.50000000E+02  4.00000000E+00  0.00000000E+00
  1.50000000E+02  2.00000000E+00  0.00000000E+00
  1.50000000E+02 -3.33066907E-14  0.00000000E+00
  1.60000000E+02  1.00000000E+02  0.00000000E+00
  1.60000000E+02  9.80000000E+01  0.00000000E+00
  1.60000000E+02  9.60000000E+01  0.00000000E+00
  1.60000000E+02  9.40000000E+01  0.00000000E+00
  1.60000000E+02  9.20000000E+01  0.00000000E+00
  1.60000000E+02  9.00000000E+01  0.00000000E+00
  1.60000000E+02  8.80000000E+01  0.00000000E+00
  1.60000000E+02  8.60000000E+01  0.00000000E+00
  1.60000000E+02  8.40000000E+01  0.00000000E+00
  1.60000000E+02  8.20000000E+01  0.00000000E+00
  1.60000000E+02  8.00000000E+01  0.00000000E+00
  1.60000000E+02  7.80000000E+01  0.00000000E+00
  1.60000000E+02  7.60000000E+01  0.00000000E+00
  1.60000000E+02  7.40000000E+01  0.00000000E+00
  1.60000000E+02  7.20000000E+01  0.00000000E+00
  1.60000000E+02  7.00000000E+01  0.00000000E+00
  1.60000000E+02  6.80000000E+01  0.00000000E+00
  1.60000000E+02  6.60000000E+01  0.00000000E+00
  1.60000000E+02  6.40000000E+01  0.00000000E+00
  1.60000000E+02  6.20000000E+01  0.00000000E+00
  1.60000000E+02  6.00000000E+01  0.00000000E+00
  1.60000000E+02  5.80000000E+01  0.00000000E+00
  1.60000000E+02  5.60000000E+01  0.00000000E+00
  1.60000000E+02  5.40000000E+01  0.00000000E+00
  1.60000000E+02  5.20000000E+01  0.00000000E+00
  1.60000000E+02  5.00000000E+01  0.00000000E+00
  1.60000000E+02  4.80000000E+01  0.00000000E+00
  1.60000000E+02  4.60000000E+01  0.00000000E+00
  1.60000000E+02  4.40000000E+01  0.00000000E+00
  1.60000000E+02  4.20000000E+01  0.00000000E+00
  1.60000000E+02  4.00000000E+01  0.00000000E+00
  1.60000000E+02  3.80000000E+01  0.00000000E+00
  1.60000000E+02  3.60000000E+01  0.00000000E+00
  1.60000000E+02  3.40000000E+01  0.00000000E+00
  1.60000000E+02  3.20000000E+01  0.00000000E+00
  1.60000000E+02  3.00000000E+01  0.00000000E+00
  1.60000000E+02  2.80000000E+01  0.00000000E+00
  1.60000000E+02  2.60000000E+01  0.00000000E+00
  1.60000000E+02  2.40000000E+01  0.00000000E+00
  1.60000000E+02  2.20000000E+01  0.00000000E+00
  1.60000000E+02  2.00000000E+01  0.00000000E+00
  1.60000000E+02  1.80000000E+01  0.00000000E+00
  1.60000000E+02  1.60000000E+01  0.00000000E+00
  1.60000000E+02  1.40000000E+01  0.00000000E+00
  1.60000000E+02  1.20000000E+01  0.00000000E+00
  1.60000000E+02  1.00000000E+01  0.00000000E+00
  1.60000000E+02  8.00000000E+00  0.00000000E+00
  1.60000000E+02  6.00000000E+00  0.00000000E+00
  1.60000000E+02  4.00000000E+00  0.00000000E+00
  1.60000000E+02  2.00000000E+00  0.00000000E+00
  1.60000000E+02 -3.33066907E-14  0.00000000E+00
  1.70000000E+02  1.00000000E+02  0.00000000E+00
  1.70000000E+02  9.80000000E+01  0.00000000E+00
  1.70000000E+02  9.60000000E+01  0.00000000E+00
  1.70000000E+02  9.40000000E+01  0.00000000E+00
  1.70000000E+02  9.20000000E+01  0.00000000E+00
  1.70000000E+02  9.00000000E+01  0.00000000E+00
  1.70000000E+02  8.80000000E+01  0.00000000E+00
  1.70000000E+02  8.60000000E+01  0.00000000E+00
  1.70000000E+02  8.40000000E+01  0.00000000E+00
  1.70000000E+02  8.20000000E+01  0.00000000E+00
  1.70000000E+02  8.00000000E+01  0.00000000E+00
  1.70000000E+02  7.80000000E+01  0.00000000E+00
  1.70000000E+02  7.60000000E+01  0.00000000E+00
  1.70000000E+02  7.40000000E+01  0.00000000E+00
  1.70000000E+02  7.20000000E+01  0.00000000E+00
  1.70000000E+02  7.00000000E+01  0.00000000E+00
  1.70000000E+02  6.80000000E+01  0.00000000E+00
  1.70000000E+02  6.60000000E+01  0.00000000E+00
  1.70000000E+02  6.40000000E+01  0.00000000E+00
  1.70000000E+02  6.20000000E+01  0.00000000E+00
  1.70000000E+02  6.00000000E+01  0.00000000E+00
  1.70000000E+02  5.80000000E+01  0.00000000E+00
  1.70000000E+02  5.60000000E+01  0.00000000E+00
  1.70000000E+02  5.40000000E+01  0.00000000E+00
  1.70000000E+02  5.20000000E+01  0.00000000E+00
  1.70000000E+02  5.00000000E+01  0.00000000E+00
  1.70000000E+02  4.80000000E+01  0.00000000E+00
  1.70000000E+02  4.60000000E+01  0.00000000E+00
  1.70000000E+02  4.40000000E+01  0.00000000E+00
  1.70000000E+02  4.20000000E+01  0.00000000E+00
  1.70000000E+02  4.00000000E+01  0.00000000E+00
  1.70000000E+02  3.80000000E+01  0.00000000E+00
  1.70000000E+02  3.60000000E+01  0.00000000E+00
  1.70000000E+02  3.40000000E+01  0.00000000E+00
  1.70000000E+02  3.20000000E+01  0.00000000E+00
  1.70000000E+02  3.00000000E+01  0.00000000E+00
  1.70000000E+02  2.80000000E+01  0.00000000E+00
  1.70000000E+02  2.60000000E+01  0.00000000E+00
  1.70000000E+02  2.40000000E+01  0.00000000E+00
  1.70000000E+02  2.20000000E+01  0.00000000E+00
  1.70000000E+02  2.00000000E+01  0.00000000E+00
  1.70000000E+02  1.80000000E+01  0.00000000E+00
  1.70000000E+02  1.60000000E+01  0.00000000E+00
  1.70000000E+02  1.40000000E+01  0.00000000E+00
  1.70000000E+02  1.20000000E+01  0.00000000E+00
  1.70000000E+02  1.00000000E+01  0.00000000E+00
  1.70000000E+02  8.00000000E+00  0.00000000E+00
  1.70000000E+02  6.00000000E+00  0.00000000E+00
  1.70000000E+02  4.00000000E+00  0.00000000E+00
  1.70000000E+02  2.00000000E+00  0.00000000E+00
  1.70000000E+02 -3.33066907E-14  0.00000000E+00
  1.80000000E+02  1.00000000E+02  0.00000000E+00
  1.80000000E+02  9.80000000E+01  0.00000000E+00
  1.80000000E+02  9.60000000E+01  0.00000000E+00
  1.80000000E+02  9.40000000E+01  0.00000000E+00
  1.80000000E+02  9.20000000E+01  0.00000000E+00
  1.80000000E+02  9.00000000E+01  0.00000000E+00
  1.80000000E+02  8.80000000E+01  0.00000000E+00
  1.80000000E+02  8.60000000E+01  0.00000000E+00
  1.80000000E+02  8.40000000E+01  0.00000000E+00
  1.80000000E+02  8.20000000E+01  0.00000000E+00
  1.80000000E+02  8.00000000E+01  0.00000000E+00
  1.80000000E+02  7.80000000E+01  0.00000000E+00
  1.80000000E+02  7.60000000E+01  0.00000000E+00
  1.80000000E+02  7.40000000E+01  0.00000000E+00
  1.80000000E+02  7.20000000E+01  0.00000000E+00
  1.80000000E+02  7.00000000E+01  0.00000000E+00
  1.80000000E+02  6.80000000E+01  0.00000000E+00
  1.80000000E+02  6.60000000E+01  0.00000000E+00
  1.80000000E+02  6.40000000E+01  0.00000000E+00
  1.80000000E+02  6.20000000E+01  0.00000000E+00
  1.80000000E+02  6.00000000E+01  0.00000000E+00
  1.80000000E+02  5.80000000E+01  0.00000000E+00
  1.80000000E+02  5.60000000E+01  0.00000000E+00
  1.80000000E+02  5.40000000E+01  0.00000000E+00
  1.80000000E+02  5.20000000E+01  0.00000000E+00
  1.80000000E+02  5.00000000E+01  0.00000000E+00
  1.80000000E+02  4.80000000E+01  0.00000000E+00
  1.80000000E+02  4.60000000E+01  0.00000000E+00
  1.80000000E+02  4.40000000E+01  0.00000000E+00
  1.80000000E+02  4.20000000E+01  0.00000000E+00
  1.80000000E+02  4.00000000E+01  0.00000000E+00
  1.80000000E+02  3.80000000E+01  0.00000000E+00
  1.80000000E+02  3.60000000E+01  0.00000000E+00
  1.80000000E+02  3.40000000E+01  0.00000000E+00
  1.80000000E+02  3.20000000E+01  0.00000000E+00
  1.80000000E+02  3.00000000E+01  0.00000000E+00
  1.80000000E+02  2.80000000E+01  0.00000000E+00
  1.80000000E+02  2.60000000E+01  0.00000000E+00
  1.80000000E+02  2.40000000E+01  0.00000000E+00
  1.80000000E+02  2.20000000E+01  0.00000000E+00
  1.80000000E+02  2.00000000E+01  0.00000000E+00
  1.80000000E+02  1.80000000E+01  0.00000000E+00
  1.80000000E+02  1.60000000E+01  0.00000000E+00
  1.80000000E+02  1.40000000E+01  0.00000000E+00
  1.80000000E+02  1.20000000E+01  0.00000000E+00
  1.80000000E+02  1.00000000E+01  0.00000000E+00
  1.80000000E+02  8.00000000E+00  0.00000000E+00
  1.80000000E+02  6.00000000E+00  0.00000000E+00
  1.80000000E+02  4.00000000E+00  0.00000000E+00
  1.80000000E+02  2.00000000E+00  0.00000000E+00
  1.80000000E+02 -3.33066907E-14  0.00000000E+00
  1.90000000E+02  1.00000000E+02  0.00000000E+00
  1.90000000E+02  9.80000000E+01  0.00000000E+00
  1.90000000E+02  9.60000000E+01  0.00000000E+00
  1.90000000E+02  9.40000000E+01  0.00000000E+00
  1.90000000E+02  9.20000000E+01  0.00000000E+00
  1.90000000E+02  9.00000000E+01  0.00000000E+00
  1.90000000E+02  8.80000000E+01  0.00000000E+00
  1.90000000E+02  8.60000000E+01  0.00000000E+00
  1.90000000E+02  8.40000000E+01  0.00000000E+00
  1.90000000E+02  8.20000000E+01  0.00000000E+00
  1.90000000E+02  8.00000000E+01  0.00000000E+00
  1.90000000E+02  7.80000000E+01  0.00000000E+00
  1.90000000E+02  7.60000000E+01  0.00000000E+00
  1.90000000E+02  7.40000000E+01  0.00000000E+00
  1.90000000E+02  7.20000000E+01  0.00000000E+00
  1.90000000E+02  7.00000000E+01  0.00000000E+00
  1.90000000E+02  6.80000000E+01  0.00000000E+00
  1.90000000E+02  6.60000000E+01  0.00000000E+00
  1.90000000E+02  6.40000000E+01  0.00000000E+00
  1.90000000E+02  6.20000000E+01  0.00000000E+00
  1.90000000E+02  6.00000000E+01  0.00000000E+00
  1.90000000E+02  5.80000000E+01  0.00000000E+00
  1.90000000E+02  5.60000000E+01  0.00000000E+00
  1.90000000E+02  5.40000000E+01  0.00000000E+00
  1.90000000E+02  5.20000000E+01  0.00000000E+00
  1.90000000E+02  5.00000000E+01  0.00000000E+00
  1.90000000E+02  4.80000000E+01  0.00000000E+00
  1.90000000E+02  4.60000000E+01  0.00000000E+00
  1.90000000E+02  4.40000000E+01  0.00000000E+00
  1.90000000E+02  4.20000000E+01  0.00000000E+00
  1.90000000E+02  4.00000000E+01  0.00000000E+00
  1.90000000E+02  3.80000000E+01  0.00000000E+00
  1.90000000E+02  3.60000000E+01  0.00000000E+00
  1.90000000E+02  3.40000000E+01  0.00000000E+00
  1.90000000E+02  3.20000000E+01  0.00000000E+00
  1.90000000E+02  3.00000000E+01  0.00000000E+00
  1.90000000E+02  2.80000000E+01  0.00000000E+00
  1.90000000E+02  2.60000000E+01  0.00000000E+00
  1.90000000E+02  2.40000000E+01  0.00000000E+00
  1.90000000E+02  2.20000000E+01  0.00000000E+00
  1.90000000E+02  2.00000000E+01  0.00000000E+00
  1.90000000E+02  1.80000000E+01  0.00000000E+00
  1.90000000E+02  1.60000000E+01  0.00000000E+00
  1.90000000E+02  1.40000000E+01  0.00000000E+00
  1.90000000E+02  1.20000000E+01  0.00000000E+00
  1.90000000E+02  1.00000000E+01  0.00000000E+00
  1.90000000E+02  8.00000000E+00  0.00000000E+00
  1.90000000E+02  6.00000000E+00  0.00000000E+00
  1.90000000E+02  4.00000000E+00  0.00000000E+00
  1.90000000E+02  2.00000000E+00  0.00000000E+00
  1.90000000E+02 -3.33066907E-14  0.00000000E+00
  2.00000000E+02  1.00000000E+02  0.00000000E+00
  2.00000000E+02  9.80000000E+01  0.00000000E+00
  2.00000000E+02  9.60000000E+01  0.00000000E+00
  2.00000000E+02  9.40000000E+01  0.00000000E+00
  2.00000000E+02  9.20000000E+01  0.00000000E+00
  2.00000000E+02  9.00000000E+01  0.00000000E+00
  2.00000000E+02  8.80000000E+01  0.00000000E+00
  2.00000000E+02  8.60000000E+01  0.00000000E+00
  2.00000000E+02  8.40000000E+01  0.00000000E+00
  2.00000000E+02  8.20000000E+01  0.00000000E+00
  2.00000000E+02  8.00000000E+01  0.00000000E+00
  2.00000000E+02  7.80000000E+01  0.00000000E+00
  2.00000000E+02  7.60000000E+01  0.00000000E+00
  2.00000000E+02  7.40000000E+01  0.00000000E+00
  2.00000000E+02  7.20000000E+01  0.00000000E+00
  2.00000000E+02  7.00000000E+01  0.00000000E+00
  2.00000000E+02  6.80000000E+01  0.00000000E+00
  2.00000000E+02  6.60000000E+01  0.00000000E+00
  2.00000000E+02  6.40000000E+01  0.00000000E+00
  2.00000000E+02  6.20000000E+01  0.00000000E+00
  2.00000000E+02  6.00000000E+01  0.00000000E+00
  2.00000000E+02  5.80000000E+01  0.00000000E+00
  2.00000000E+02  5.60000000E+01  0.00000000E+00
  2.00000000E+02  5.40000000E+01  0.00000000E+00
  2.00000000E+02  5.20000000E+01  0.00000000E+00
  2.00000000E+02  5.00000000E+01  0.00000000E+00
  2.00000000E+02  4.80000000E+01  0.00000000E+00
  2.00000000E+02  4.60000000E+01  0.00000000E+00
  2.00000000E+02  4.40000000E+01  0.00000000E+00
  2.00000000E+02  4.20000000E+01  0.00000000E+00
  2.00000000E+02  4.00000000E+01  0.00000000E+00
  2.00000000E+02  3.80000000E+01  0.00000000E+00
  2.00000000E+02  3.60000000E+01  0.00000000E+00
  2.00000000E+02  3.40000000E+01  0.00000000E+00
  2.00000000E+02  3.20000000E+01  0.00000000E+00
  2.00000000E+02  3.00000000E+01  0.00000000E+00
  2.00000000E+02  2.80000000E+01  0.00000000E+00
  2.00000000E+02  2.60000000E+01  0.00000000E+00
  2.00000000E+02  2.40000000E+01  0.00000000E+00
  2.00000000E+02  2.20000000E+01  0.00000000E+00
  2.00000000E+02  2.00000000E+01  0.00000000E+00
  2.00000000E+02  1.80000000E+01  0.00000000E+00
  2.00000000E+02  1.60000000E+01  0.00000000E+00
  2.00000000E+02  1.40000000E+01  0.00000000E+00
  2.00000000E+02  1.20000000E+01  0.00000000E+00
  2.00000000E+02  1.00000000E+01  0.00000000E+00
  2.00000000E+02  8.00000000E+00  0.00000000E+00
  2.00000000E+02  6.00000000E+00  0.00000000E+00
  2.00000000E+02  4.00000000E+00  0.00000000E+00
  2.00000000E+02  2.00000000E+00  0.00000000E+00
  2.00000000E+02 -3.33066907E-14  0.00000000E+00
  2.10000000E+02  1.00000000E+02  0.00000000E+00
  2.10000000E+02  9.80000000E+01  0.00000000E+00
  2.10000000E+02  9.60000000E+01  0.00000000E+00
  2.10000000E+02  9.40000000E+01  0.00000000E+00
  2.10000000E+02  9.20000000E+01  0.00000000E+00
  2.10000000E+02  9.00000000E+01  0.00000000E+00
  2.10000000E+02  8.80000000E+01  0.00000000E+00
  2.10000000E+02  8.60000000E+01  0.00000000E+00
  2.10000000E+02  8.40000000E+01  0.00000000E+00
  2.10000000E+02  8.20000000E+01  0.00000000E+00
  2.10000000E+02  8.00000000E+01  0.00000000E+00
  2.10000000E+02  7.80000000E+01  0.00000000E+00
  2.10000000E+02  7.60000000E+01  0.00000000E+00
  2.10000000E+02  7.40000000E+01  0.00000000E+00
  2.10000000E+02  7.20000000E+01  0.00000000E+00
  2.10000000E+02  7.00000000E+01  0.00000000E+00
  2.10000000E+02  6.80000000E+01  0.00000000E+00
  2.10000000E+02  6.60000000E+01  0.00000000E+00
  2.10000000E+02  6.40000000E+01  0.00000000E+00
  2.10000000E+02  6.20000000E+01  0.00000000E+00
  2.10000000E+02  6.00000000E+01  0.00000000E+00
  2.10000000E+02  5.80000000E+01  0.00000000E+00
  2.10000000E+02  5.60000000E+01  0.00000000E+00
  2.10000000E+02  5.40000000E+01  0.00000000E+00
  2.10000000E+02  5.20000000E+01  0.00000000E+00
  2.10000000E+02  5.00000000E+01  0.00000000E+00
  2.10000000E+02  4.80000000E+01  0.00000000E+00
  2.10000000E+02  4.60000000E+01  0.00000000E+00
  2.10000000E+02  4.40000000E+01  0.00000000E+00
  2.10000000E+02  4.20000000E+01  0.00000000E+00
  2.10000000E+02  4.00000000E+01  0.00000000E+00
  2.10000000E+02  3.80000000E+01  0.00000000E+00
  2.10000000E+02  3.60000000E+01  0.00000000E+00
  2.10000000E+02  3.40000000E+01  0.00000000E+00
  2.10000000E+02  3.20000000E+01  0.00000000E+00
  2.10000000E+02  3.00000000E+01  0.00000000E+00
  2.10000000E+02  2.80000000E+01  0.00000000E+00
  2.10000000E+02  2.60000000E+01  0.00000000E+00
  2.10000000E+02  2.40000000E+01  0.00000000E+00
  2.10000000E+02  2.20000000E+01  0.00000000E+00
  2.10000000E+02  2.00000000E+01  0.00000000E+00
  2.10000000E+02  1.80000000E+01  0.00000000E+00
  2.10000000E+02  1.60000000E+01  0.00000000E+00
  2.10000000E+02  1.40000000E+01  0.00000000E+00
  2.10000000E+02  1.20000000E+01  0.00000000E+00
  2.10000000E+02  1.00000000E+01  0.00000000E+00
  2.10000000E+02  8.00000000E+00  0.00000000E+00
  2.10000000E+02  6.00000000E+00  0.00000000E+00
  2.10000000E+02  4.00000000E+00  0.00000000E+00
  2.10000000E+02  2.00000000E+00  0.00000000E+00
  2.10000000E+02 -3.33066907E-14  0.00000000E+00
  2.20000000E+02  1.00000000E+02  0.00000000E+00
  2.20000000E+02  9.80000000E+01  0.00000000E+00
  2.20000000E+02  9.60000000E+01  0.00000000E+00
  2.20000000E+02  9.40000000E+01  0.00000000E+00
  2.20000000E+02  9.20000000E+01  0.00000000E+00
  2.20000000E+02  9.00000000E+01  0.00000000E+00
  2.20000000E+02  8.80000000E+01  0.00000000E+00
  2.20000000E+02  8.60000000E+01  0.00000000E+00
  2.20000000E+02  8.40000000E+01  0.00000000E+00
  2.20000000E+02  8.20000000E+01  0.00000000E+00
  2.20000000E+02  8.00000000E+01  0.00000000E+00
  2.20000000E+02  7.80000000E+01  0.00000000E+00
  2.20000000E+02  7.60000000E+01  0.00000000E+00
  2.20000000E+02  7.40000000E+01  0.00000000E+00
  2.20000000E+02  7.20000000E+01  0.00000000E+00
  2.20000000E+02  7.00000000E+01  0.00000000E+00
  2.20000000E+02  6.80000000E+01  0.00000000E+00
  2.20000000E+02  6.60000000E+01  0.00000000E+00
  2.20000000E+02  6.40000000E+01  0.00000000E+00
  2.20000000E+02  6.20000000E+01  0.00000000E+00
  2.20000000E+02  6.00000000E+01  0.00000000E+00
  2.20000000E+02  5.80000000E+01  0.00000000E+00
  2.20000000E+02  5.60000000E+01  0.00000000E+00
  2.20000000E+02  5.40000000E+01  0.00000000E+00
  2.20000000E+02  5.20000000E+01  0.00000000E+00
  2.20000000E+02  5.00000000E+01  0.00000000E+00
  2.20000000E+02  4.80000000E+01  0.00000000E+00
  2.20000000E+02  4.60000000E+01  0.00000000E+00
  2.20000000E+02  4.40000000E+01  0.00000000E+00
  2.20000000E+02  4.20000000E+01  0.00000000E+00
  2.20000000E+02  4.00000000E+01  0.00000000E+00
  2.20000000E+02  3.80000000E+01  0.00000000E+00
  2.20000000E+02  3.60000000E+01  0.00000000E+00
  2.20000000E+02  3.40000000E+01  0.00000000E+00
  2.20000000E+02  3.20000000E+01  0.00000000E+00
  2.20000000E+02  3.00000000E+01  0.00000000E+00
  2.20000000E+02  2.80000000E+01  0.00000000E+00
  2.20000000E+02  2.60000000E+01  0.00000000E+00
  2.20000000E+02  2.40000000E+01  0.00000000E+00
  2.20000000E+02  2.20000000E+01  0.00000000E+00
  2.20000000E+02  2.00000000E+01  0.00000000E+00
  2.20000000E+02  1.80000000E+01  0.00000000E+00
  2.20000000E+02  1.60000000E+01  0.00000000E+00
  2.20000000E+02  1.40000000E+01  0.00000000E+00
  2.20000000E+02  1.20000000E+01  0.00000000E+00
  2.20000000E+02  1.00000000E+01  0.00000000E+00
  2.20000000E+02  8.00000000E+00  0.00000000E+00
  2.20000000E+02  6.00000000E+00  0.00000000E+00
  2.20000000E+02  4.00000000E+00  0.00000000E+00
  2.20000000E+02  2.00000000E+00  0.00000000E+00
  2.20000000E+02 -3.33066907E-14  0.00000000E+00
  2.30000000E+02  1.00000000E+02  0.00000000E+00
  2.30000000E+02  9.80000000E+01  0.00000000E+00
  2.30000000E+02  9.60000000E+01  0.00000000E+00
  2.30000000E+02  9.40000000E+01  0.00000000E+00
  2.30000000E+02  9.20000000E+01  0.00000000E+00
  2.30000000E+02  9.00000000E+01  0.00000000E+00
  2.30000000E+02  8.80000000E+01  0.00000000E+00
  2.30000000E+02  8.60000000E+01  0.00000000E+00
  2.30000000E+02  8.40000000E+01  0.00000000E+00
  2.30000000E+02  8.20000000E+01  0.00000000E+00
  2.30000000E+02  8.00000000E+01  0.00000000E+00
  2.30000000E+02  7.80000000E+01  0.00000000E+00
  2.30000000E+02  7.60000000E+01  0.00000000E+00
  2.30000000E+02  7.40000000E+01  0.00000000E+00
  2.30000000E+02  7.20000000E+01  0.00000000E+00
  2.30000000E+02  7.00000000E+01  0.00000000E+00
  2.30000000E+02  6.80000000E+01  0.00000000E+00
  2.30000000E+02  6.60000000E+01  0.00000000E+00
  2.30000000E+02  6.40000000E+01  0.00000000E+00
  2.30000000E+02  6.20000000E+01  0.00000000E+00
  2.30000000E+02  6.00000000E+01  0.00000000E+00
  2.30000000E+02  5.80000000E+01  0.00000000E+00
  2.30000000E+02  5.60000000E+01  0.00000000E+00
  2.30000000E+02  5.40000000E+01  0.00000000E+00
  2.30000000E+02  5.20000000E+01  0.00000000E+00
  2.30000000E+02  5.00000000E+01  0.00000000E+00
  2.30000000E+02  4.80000000E+01  0.00000000E+00
  2.30000000E+02  4.60000000E+01  0.00000000E+00
  2.30000000E+02  4.40000000E+01  0.00000000E+00
  2.30000000E+02  4.20000000E+01  0.00000000E+00
  2.30000000E+02  4.00000000E+01  0.00000000E+00
  2.30000000E+02  3.80000000E+01  0.00000000E+00
  2.30000000E+02  3.60000000E+01  0.00000000E+00
  2.30000000E+02  3.40000000E+01  0.00000000E+00
  2.30000000E+02  3.20000000E+01  0.00000000E+00
  2.30000000E+02  3.00000000E+01  0.00000000E+00
  2.30000000E+02  2.80000000E+01  0.00000000E+00
  2.30000000E+02  2.60000000E+01  0.00000000E+00
  2.30000000E+02  2.40000000E+01  0.00000000E+00
  2.30000000E+02  2.20000000E+01  0.00000000E+00
  2.30000000E+02  2.00000000E+01  0.00000000E+00
  2.30000000E+02  1.80000000E+01  0.00000000E+00
  2.30000000E+02  1.60000000E+01  0.00000000E+00
  2.30000000E+02  1.40000000E+01  0.00000000E+00
  2.30000000E+02  1.20000000E+01  0.00000000E+00
  2.30000000E+02  1.00000000E+01  0.00000000E+00
  2.30000000E+02  8.00000000E+00  0.00000000E+00
  2.30000000E+02  6.00000000E+00  0.00000000E+00
  2.30000000E+02  4.00000000E+00  0.00000000E+00
  2.30000000E+02  2.00000000E+00  0.00000000E+00
  2.30000000E+02 -3.33066907E-14  0.00000000E+00
  2.40000000E+02  1.00000000E+02  0.00000000E+00
  2.40000000E+02  9.80000000E+01  0.00000000E+00
  2.40000000E+02  9.60000000E+01  0.00000000E+00
  2.40000000E+02  9.40000000E+01  0.00000000E+00
  2.40000000E+02  9.20000000E+01  0.00000000E+00
  2.40000000E+02  9.00000000E+01  0.00000000E+00
  2.40000000E+02  8.80000000E+01  0.00000000E+00
  2.40000000E+02  8.60000000E+01  0.00000000E+00
  2.40000000E+02  8.40000000E+01  0.00000000E+00
  2.40000000E+02  8.20000000E+01  0.00000000E+00
  2.40000000E+02  8.00000000E+01  0.00000000E+00
  2.40000000E+02  7.80000000E+01  0.00000000E+00
  2.40000000E+02  7.60000000E+01  0.00000000E+00
  2.40000000E+02  7.40000000E+01  0.00000000E+00
  2.40000000E+02  7.20000000E+01  0.00000000E+00
  2.40000000E+02  7.00000000E+01  0.00000000E+00
  2.40000000E+02  6.80000000E+01  0.00000000E+00
  2.40000000E+02  6.60000000E+01  0.00000000E+00
  2.40000000E+02  6.40000000E+01  0.00000000E+00
  2.40000000E+02  6.20000000E+01  0.00000000E+00
  2.40000000E+02  6.00000000E+01  0.00000000E+00
  2.40000000E+02  5.80000000E+01  0.00000000E+00
  2.40000000E+02  5.60000000E+01  0.00000000E+00
  2.40000000E+02  5.40000000E+01  0.00000000E+00
  2.40000000E+02  5.20000000E+01  0.00000000E+00
  2.40000000E+02  5.00000000E+01  0.00000000E+00
  2.40000000E+02  4.80000000E+01  0.00000000E+00
  2.40000000E+02  4.60000000E+01  0.00000000E+00
  2.40000000E+02  4.40000000E+01  0.00000000E+00
  2.40000000E+02  4.20000000E+01  0.00000000E+00
  2.40000000E+02  4.00000000E+01  0.00000000E+00
  2.40000000E+02  3.80000000E+01  0.00000000E+00
  2.40000000E+02  3.60000000E+01  0.00000000E+00
  2.40000000E+02  3.40000000E+01  0.00000000E+00
  2.40000000E+02  3.20000000E+01  0.00000000E+00
  2.40000000E+02  3.00000000E+01  0.00000000E+00
  2.40000000E+02  2.80000000E+01  0.00000000E+00
  2.40000000E+02  2.60000000E+01  0.00000000E+00
  2.40000000E+02  2.40000000E+01  0.00000000E+00
  2.40000000E+02  2.20000000E+01  0.00000000E+00
  2.40000000E+02  2.00000000E+01  0.00000000E+00
  2.40000000E+02  1.80000000E+01  0.00000000E+00
  2.40000000E+02  1.60000000E+01  0.00000000E+00
  2.40000000E+02  1.40000000E+01  0.00000000E+00
  2.40000000E+02  1.20000000E+01  0.00000000E+00
  2.40000000E+02  1.00000000E+01  0.00000000E+00
  2.40000000E+02  8.00000000E+00  0.00000000E+00
  2.40000000E+02  6.00000000E+00  0.00000000E+00
  2.40000000E+02  4.00000000E+00  0.00000000E+00
  2.40000000E+02  2.00000000E+00  0.00000000E+00
  2.40000000E+02 -3.33066907E-14  0.00000000E+00
  2.50000000E+02  1.00000000E+02  0.00000000E+00
  2.50000000E+02  9.80000000E+01  0.00000000E+00
  2.50000000E+02  9.60000000E+01  0.00000000E+00
  2.50000000E+02  9.40000000E+01  0.00000000E+00
  2.50000000E+02  9.20000000E+01  0.00000000E+00
  2.50000000E+02  9.00000000E+01  0.00000000E+00
  2.50000000E+02  8.80000000E+01  0.00000000E+00
  2.50000000E+02  8.60000000E+01  0.00000000E+00
  2.50000000E+02  8.40000000E+01  0.00000000E+00
  2.50000000E+02  8.20000000E+01  0.00000000E+00
  2.50000000E+02  8.00000000E+01  0.00000000E+00
  2.50000000E+02  7.80000000E+01  0.00000000E+00
  2.50000000E+02  7.60000000E+01  0.00000000E+00
  2.50000000E+02  7.40000000E+01  0.00000000E+00
  2.50000000E+02  7.20000000E+01  0.00000000E+00
  2.50000000E+02  7.00000000E+01  0.00000000E+00
  2.50000000E+02  6.80000000E+01  0.00000000E+00
  2.50000000E+02  6.60000000E+01  0.00000000E+00
  2.50000000E+02  6.40000000E+01  0.00000000E+00
  2.50000000E+02  6.20000000E+01  0.00000000E+00
  2.50000000E+02  6.00000000E+01  0.00000000E+00
  2.50000000E+02  5.80000000E+01  0.00000000E+00
  2.50000000E+02  5.60000000E+01  0.00000000E+00
  2.50000000E+02  5.40000000E+01  0.00000000E+00
  2.50000000E+02  5.20000000E+01  0.00000000E+00
  2.50000000E+02  5.00000000E+01  0.00000000E+00
  2.50000000E+02  4.80000000E+01  0.00000000E+00
  2.50000000E+02  4.60000000E+01  0.00000000E+00
  2.50000000E+02  4.40000000E+01  0.00000000E+00
  2.50000000E+02  4.20000000E+01  0.00000000E+00
  2.50000000E+02  4.00000000E+01  0.00000000E+00
  2.50000000E+02  3.80000000E+01  0.00000000E+00
  2.50000000E+02  3.60000000E+01  0.00000000E+00
  2.50000000E+02  3.40000000E+01  0.00000000E+00
  2.50000000E+02  3.20000000E+01  0.00000000E+00
  2.50000000E+02  3.00000000E+01  0.00000000E+00
  2.50000000E+02  2.80000000E+01  0.00000000E+00
  2.50000000E+02  2.60000000E+01  0.00000000E+00
  2.50000000E+02  2.40000000E+01  0.00000000E+00
  2.50000000E+02  2.20000000E+01  0.00000000E+00
  2.50000000E+02  2.00000000E+01  0.00000000E+00
  2.50000000E+02  1.80000000E+01  0.00000000E+00
  2.50000000E+02  1.60000000E+01  0.00000000E+00
  2.50000000E+02  1.40000000E+01  0.00000000E+00
  2.50000000E+02  1.20000000E+01  0.00000000E+00
  2.50000000E+02  1.00000000E+01  0.00000000E+00
  2.50000000E+02  8.00000000E+00  0.00000000E+00
  2.50000000E+02  6.00000000E+00  0.00000000E+00
  2.50000000E+02  4.00000000E+00  0.00000000E+00
  2.50000000E+02  2.00000000E+00  0.00000000E+00
  2.50000000E+02 -3.33066907E-14  0.00000000E+00
  2.60000000E+02  1.00000000E+02  0.00000000E+00
  2.60000000E+02  9.80000000E+01  0.00000000E+00
  2.60000000E+02  9.60000000E+01  0.00000000E+00
  2.60000000E+02  9.40000000E+01  0.00000000E+00
  2.60000000E+02  9.20000000E+01  0.00000000E+00
  2.60000000E+02  9.00000000E+01  0.00000000E+00
  2.60000000E+02  8.80000000E+01  0.00000000E+00
  2.60000000E+02  8.60000000E+01  0.00000000E+00
  2.60000000E+02  8.40000000E+01  0.00000000E+00
  2.60000000E+02  8.20000000E+01  0.00000000E+00
  2.60000000E+02  8.00000000E+01  0.00000000E+00
  2.60000000E+02  7.80000000E+01  0.00000000E+00
  2.60000000E+02  7.60000000E+01  0.00000000E+00
  2.60000000E+02  7.40000000E+01  0.00000000E+00
  2.60000000E+02  7.20000000E+01  0.00000000E+00
  2.60000000E+02  7.00000000E+01  0.00000000E+00
  2.60000000E+02  6.80000000E+01  0.00000000E+00
  2.60000000E+02  6.60000000E+01  0.00000000E+00
  2.60000000E+02  6.40000000E+01  0.00000000E+00
  2.60000000E+02  6.20000000E+01  0.00000000E+00
  2.60000000E+02  6.00000000E+01  0.00000000E+00
  2.60000000E+02  5.80000000E+01  0.00000000E+00
  2.60000000E+02  5.60000000E+01  0.00000000E+00
  2.60000000E+02  5.40000000E+01  0.00000000E+00
  2.60000000E+02  5.20000000E+01  0.00000000E+00
  2.60000000E+02  5.00000000E+01  0.00000000E+00
  2.60000000E+02  4.80000000E+01  0.00000000E+00
  2.60000000E+02  4.60000000E+01  0.00000000E+00
  2.60000000E+02  4.40000000E+01  0.00000000E+00
  2.60000000E+02  4.20000000E+01  0.00000000E+00
  2.60000000E+02  4.00000000E+01  0.00000000E+00
  2.60000000E+02  3.80000000E+01  0.00000000E+00
  2.60000000E+02  3.60000000E+01  0.00000000E+00
  2.60000000E+02  3.40000000E+01  0.00000000E+00
  2.60000000E+02  3.20000000E+01  0.00000000E+00
  2.60000000E+02  3.00000000E+01  0.00000000E+00
  2.60000000E+02  2.80000000E+01  0.00000000E+00
  2.60000000E+02  2.60000000E+01  0.00000000E+00
  2.60000000E+02  2.40000000E+01  0.00000000E+00
  2.60000000E+02  2.20000000E+01  0.00000000E+00
  2.60000000E+02  2.00000000E+01  0.00000000E+00
  2.60000000E+02  1.80000000E+01  0.00000000E+00
  2.60000000E+02  1.60000000E+01  0.00000000E+00
  2.60000000E+02  1.40000000E+01  0.00000000E+00
  2.60000000E+02  1.20000000E+01  0.00000000E+00
  2.60000000E+02  1.00000000E+01  0.00000000E+00
  2.60000000E+02  8.00000000E+00  0.00000000E+00
  2.60000000E+02  6.00000000E+00  0.00000000E+00
  2.60000000E+02  4.00000000E+00  0.00000000E+00
  2.60000000E+02  2.00000000E+00  0.00000000E+00
  2.60000000E+02 -3.33066907E-14  0.00000000E+00
  2.70000000E+02  1.00000000E+02  0.00000000E+00
  2.70000000E+02  9.80000000E+01  0.00000000E+00
  2.70000000E+02  9.60000000E+01  0.00000000E+00
  2.70000000E+02  9.40000000E+01  0.00000000E+00
  2.70000000E+02  9.20000000E+01  0.00000000E+00
  2.70000000E+02  9.00000000E+01  0.00000000E+00
  2.70000000E+02  8.80000000E+01  0.00000000E+00
  2.70000000E+02  8.60000000E+01  0.00000000E+00
  2.70000000E+02  8.40000000E+01  0.00000000E+00
  2.70000000E+02  8.20000000E+01  0.00000000E+00
  2.70000000E+02  8.00000000E+01  0.00000000E+00
  2.70000000E+02  7.80000000E+01  0.00000000E+00
  2.70000000E+02  7.60000000E+01  0.00000000E+00
  2.70000000E+02  7.40000000E+01  0.00000000E+00
  2.70000000E+02  7.20000000E+01  0.00000000E+00
  2.70000000E+02  7.00000000E+01  0.00000000E+00
  2.70000000E+02  6.80000000E+01  0.00000000E+00
  2.70000000E+02  6.60000000E+01  0.00000000E+00
  2.70000000E+02  6.40000000E+01  0.00000000E+00
  2.70000000E+02  6.20000000E+01  0.00000000E+00
  2.70000000E+02  6.00000000E+01  0.00000000E+00
  2.70000000E+02  5.80000000E+01  0.00000000E+00
  2.70000000E+02  5.60000000E+01  0.00000000E+00
  2.70000000E+02  5.40000000E+01  0.00000000E+00
  2.70000000E+02  5.20000000E+01  0.00000000E+00
  2.70000000E+02  5.00000000E+01  0.00000000E+00
  2.70000000E+02  4.80000000E+01  0.00000000E+00
  2.70000000E+02  4.60000000E+01  0.00000000E+00
  2.70000000E+02  4.40000000E+01  0.00000000E+00
  2.70000000E+02  4.20000000E+01  0.00000000E+00
  2.70000000E+02  4.00000000E+01  0.00000000E+00
  2.70000000E+02  3.80000000E+01  0.00000000E+00
  2.70000000E+02  3.60000000E+01  0.00000000E+00
  2.70000000E+02  3.40000000E+01  0.00000000E+00
  2.70000000E+02  3.20000000E+01  0.00000000E+00
  2.70000000E+02  3.00000000E+01  0.00000000E+00
  2.70000000E+02  2.80000000E+01  0.00000000E+00
  2.70000000E+02  2.60000000E+01  0.00000000E+00
  2.70000000E+02  2.40000000E+01  0.00000000E+00
  2.70000000E+02  2.20000000E+01  0.00000000E+00
  2.70000000E+02  2.00000000E+01  0.00000000E+00
  2.70000000E+02  1.80000000E+01  0.00000000E+00
  2.70000000E+02  1.60000000E+01  0.00000000E+00
  2.70000000E+02  1.40000000E+01  0.00000000E+00
  2.70000000E+02  1.20000000E+01  0.00000000E+00
  2.70000000E+02  1.00000000E+01  0.00000000E+00
  2.70000000E+02  8.00000000E+00  0.00000000E+00
  2.70000000E+02  6.00000000E+00  0.00000000E+00
  2.70000000E+02  4.00000000E+00  0.00000000E+00
  2.70000000E+02  2.00000000E+00  0.00000000E+00
  2.70000000E+02 -3.33066907E-14  0.00000000E+00
  2.80000000E+02  1.00000000E+02  0.00000000E+00
  2.80000000E+02  9.80000000E+01  0.00000000E+00
  2.80000000E+02  9.60000000E+01  0.00000000E+00
  2.80000000E+02  9.40000000E+01  0.00000000E+00
  2.80000000E+02  9.20000000E+01  0.00000000E+00
  2.80000000E+02  9.00000000E+01  0.00000000E+00
  2.80000000E+02  8.80000000E+01  0.00000000E+00
  2.80000000E+02  8.60000000E+01  0.00000000E+00
  2.80000000E+02  8.40000000E+01  0.00000000E+00
  2.80000000E+02  8.20000000E+01  0.00000000E+00
  2.80000000E+02  8.00000000E+01  0.00000000E+00
  2.80000000E+02  7.80000000E+01  0.00000000E+00
  2.80000000E+02  7.60000000E+01  0.00000000E+00
  2.80000000E+02  7.40000000E+01  0.00000000E+00
  2.80000000E+02  7.20000000E+01  0.00000000E+00
  2.80000000E+02  7.00000000E+01  0.00000000E+00
  2.80000000E+02  6.80000000E+01  0.00000000E+00
  2.80000000E+02  6.60000000E+01  0.00000000E+00
  2.80000000E+02  6.40000000E+01  0.00000000E+00
  2.80000000E+02  6.20000000E+01  0.00000000E+00
  2.80000000E+02  6.00000000E+01  0.00000000E+00
  2.80000000E+02  5.80000000E+01  0.00000000E+00
  2.80000000E+02  5.60000000E+01  0.00000000E+00
  2.80000000E+02  5.40000000E+01  0.00000000E+00
  2.80000000E+02  5.20000000E+01  0.00000000E+00
  2.80000000E+02  5.00000000E+01  0.00000000E+00
  2.80000000E+02  4.80000000E+01  0.00000000E+00
  2.80000000E+02  4.60000000E+01  0.00000000E+00
  2.80000000E+02  4.40000000E+01  0.00000000E+00
  2.80000000E+02  4.20000000E+01  0.00000000E+00
  2.80000000E+02  4.00000000E+01  0.00000000E+00
  2.80000000E+02  3.80000000E+01  0.00000000E+00
  2.80000000E+02  3.60000000E+01  0.00000000E+00
  2.80000000E+02  3.40000000E+01  0.00000000E+00
  2.80000000E+02  3.20000000E+01  0.00000000E+00
  2.80000000E+02  3.00000000E+01  0.00000000E+00
  2.80000000E+02  2.80000000E+01  0.00000000E+00
  2.80000000E+02  2.60000000E+01  0.00000000E+00
  2.80000000E+02  2.40000000E+01  0.00000000E+00
  2.80000000E+02  2.20000000E+01  0.00000000E+00
  2.80000000E+02  2.00000000E+01  0.00000000E+00
  2.80000000E+02  1.80000000E+01  0.00000000E+00
  2.80000000E+02  1.60000000E+01  0.00000000E+00
  2.80000000E+02  1.40000000E+01  0.00000000E+00
  2.80000000E+02  1.20000000E+01  0.00000000E+00
  2.80000000E+02  1.00000000E+01  0.00000000E+00
  2.80000000E+02  8.00000000E+00  0.00000000E+00
  2.80000000E+02  6.00000000E+00  0.00000000E+00
  2.80000000E+02  4.00000000E+00  0.00000000E+00
  2.80000000E+02  2.00000000E+00  0.00000000E+00
  2.80000000E+02 -3.33066907E-14  0.00000000E+00
  2.90000000E+02  1.00000000E+02  0.00000000E+00
  2.90000000E+02  9.80000000E+01  0.00000000E+00
  2.90000000E+02  9.60000000E+01  0.00000000E+00
  2.90000000E+02  9.40000000E+01  0.00000000E+00
  2.90000000E+02  9.20000000E+01  0.00000000E+00
  2.90000000E+02  9.00000000E+01  0.00000000E+00
  2.90000000E+02  8.80000000E+01  0.00000000E+00
  2.90000000E+02  8.60000000E+01  0.00000000E+00
  2.90000000E+02  8.40000000E+01  0.00000000E+00
  2.90000000E+02  8.20000000E+01  0.00000000E+00
  2.90000000E+02  8.00000000E+01  0.00000000E+00
  2.90000000E+02  7.80000000E+01  0.00000000E+00
  2.90000000E+02  7.60000000E+01  0.00000000E+00
  2.90000000E+02  7.40000000E+01  0.00000000E+00
  2.90000000E+02  7.20000000E+01  0.00000000E+00
  2.90000000E+02  7.00000000E+01  0.00000000E+00
  2.90000000E+02  6.80000000E+01  0.00000000E+00
  2.90000000E+02  6.60000000E+01  0.00000000E+00
  2.90000000E+02  6.40000000E+01  0.00000000E+00
  2.90000000E+02  6.20000000E+01  0.00000000E+00
  2.90000000E+02  6.00000000E+01  0.00000000E+00
  2.90000000E+02  5.80000000E+01  0.00000000E+00
  2.90000000E+02  5.60000000E+01  0.00000000E+00
  2.90000000E+02  5.40000000E+01  0.00000000E+00
  2.90000000E+02  5.20000000E+01  0.00000000E+00
  2.90000000E+02  5.00000000E+01  0.00000000E+00
  2.90000000E+02  4.80000000E+01  0.00000000E+00
  2.90000000E+02  4.60000000E+01  0.00000000E+00
  2.90000000E+02  4.40000000E+01  0.00000000E+00
  2.90000000E+02  4.20000000E+01  0.00000000E+00
  2.90000000E+02  4.00000000E+01  0.00000000E+00
  2.90000000E+02  3.80000000E+01  0.00000000E+00
  2.90000000E+02  3.60000000E+01  0.00000000E+00
  2.90000000E+02  3.40000000E+01  0.00000000E+00
  2.90000000E+02  3.20000000E+01  0.00000000E+00
  2.90000000E+02  3.00000000E+01  0.00000000E+00
  2.90000000E+02  2.80000000E+01  0.00000000E+00
  2.90000000E+02  2.60000000E+01  0.00000000E+00
  2.90000000E+02  2.40000000E+01  0.00000000E+00
  2.90000000E+02  2.20000000E+01  0.00000000E+00
  2.90000000E+02  2.00000000E+01  0.00000000E+00
  2.90000000E+02  1.80000000E+01  0.00000000E+00
  2.90000000E+02  1.60000000E+01  0.00000000E+00
  2.90000000E+02  1.40000000E+01  0.00000000E+00
  2.90000000E+02  1.20000000E+01  0.00000000E+00
  2.90000000E+02  1.00000000E+01  0.00000000E+00
  2.90000000E+02  8.00000000E+00  0.00000000E+00
  2.90000000E+02  6.00000000E+00  0.00000000E+00
  2.90000000E+02  4.00000000E+00  0.00000000E+00
  2.90000000E+02  2.00000000E+00  0.00000000E+00
  2.90000000E+02 -3.33066907E-14  0.00000000E+00
  3.00000000E+02  1.00000000E+02  0.00000000E+00
  3.00000000E+02  9.80000000E+01  0.00000000E+00
  3.00000000E+02  9.60000000E+01  0.00000000E+00
  3.00000000E+02  9.40000000E+01  0.00000000E+00
  3.00000000E+02  9.20000000E+01  0.00000000E+00
  3.00000000E+02  9.00000000E+01  0.00000000E+00
  3.00000000E+02  8.80000000E+01  0.00000000E+00
  3.00000000E+02  8.60000000E+01  0.00000000E+00
  3.00000000E+02  8.40000000E+01  0.00000000E+00
  3.00000000E+02  8.20000000E+01  0.00000000E+00
  3.00000000E+02  8.00000000E+01  0.00000000E+00
  3.00000000E+02  7.80000000E+01  0.00000000E+00
  3.00000000E+02  7.60000000E+01  0.00000000E+00
  3.00000000E+02  7.40000000E+01  0.00000000E+00
  3.00000000E+02  7.20000000E+01  0.00000000E+00
  3.00000000E+02  7.00000000E+01  0.00000000E+00
  3.00000000E+02  6.80000000E+01  0.00000000E+00
  3.00000000E+02  6.60000000E+01  0.00000000E+00
  3.00000000E+02  6.40000000E+01  0.00000000E+00
  3.00000000E+02  6.20000000E+01  0.00000000E+00
  3.00000000E+02  6.00000000E+01  0.00000000E+00
  3.00000000E+02  5.80000000E+01  0.00000000E+00
  3.00000000E+02  5.60000000E+01  0.00000000E+00
  3.00000000E+02  5.40000000E+01  0.00000000E+00
  3.00000000E+02  5.20000000E+01  0.00000000E+00
  3.00000000E+02  5.00000000E+01  0.00000000E+00
  3.00000000E+02  4.80000000E+01  0.00000000E+00
  3.00000000E+02  4.60000000E+01  0.00000000E+00
  3.00000000E+02  4.40000000E+01  0.00000000E+00
  3.00000000E+02  4.20000000E+01  0.00000000E+00
  3.00000000E+02  4.00000000E+01  0.00000000E+00
  3.00000000E+02  3.80000000E+01  0.00000000E+00
  3.00000000E+02  3.60000000E+01  0.00000000E+00
  3.00000000E+02  3.40000000E+01  0.00000000E+00
  3.00000000E+02  3.20000000E+01  0.00000000E+00
  3.00000000E+02  3.00000000E+01  0.00000000E+00
  3.00000000E+02  2.80000000E+01  0.00000000E+00
  3.00000000E+02  2.60000000E+01  0.00000000E+00
  3.00000000E+02  2.40000000E+01  0.00000000E+00
  3.00000000E+02  2.20000000E+01  0.00000000E+00
  3.00000000E+02  2.00000000E+01  0.00000000E+00
  3.00000000E+02  1.80000000E+01  0.00000000E+00
  3.00000000E+02  1.60000000E+01  0.00000000E+00
  3.00000000E+02  1.40000000E+01  0.00000000E+00
  3.00000000E+02  1.20000000E+01  0.00000000E+00
  3.00000000E+02  1.00000000E+01  0.00000000E+00
  3.00000000E+02  8.00000000E+00  0.00000000E+00
  3.00000000E+02  6.00000000E+00  0.00000000E+00
  3.00000000E+02  4.00000000E+00  0.00000000E+00
  3.00000000E+02  2.00000000E+00  0.00000000E+00
  3.00000000E+02 -3.33066907E-14  0.00000000E+00
  3.10000000E+02  1.00000000E+02  0.00000000E+00
  3.10000000E+02  9.80000000E+01  0.00000000E+00
  3.10000000E+02  9.60000000E+01  0.00000000E+00
  3.10000000E+02  9.40000000E+01  0.00000000E+00
  3.10000000E+02  9.20000000E+01  0.00000000E+00
  3.10000000E+02  9.00000000E+01  0.00000000E+00
  3.10000000E+02  8.80000000E+01  0.00000000E+00
  3.10000000E+02  8.60000000E+01  0.00000000E+00
  3.10000000E+02  8.40000000E+01  0.00000000E+00
  3.10000000E+02  8.20000000E+01  0.00000000E+00
  3.10000000E+02  8.00000000E+01  0.00000000E+00
  3.10000000E+02  7.80000000E+01  0.00000000E+00
  3.10000000E+02  7.60000000E+01  0.00000000E+00
  3.10000000E+02  7.40000000E+01  0.00000000E+00
  3.10000000E+02  7.20000000E+01  0.00000000E+00
  3.10000000E+02  7.00000000E+01  0.00000000E+00
  3.10000000E+02  6.80000000E+01  0.00000000E+00
  3.10000000E+02  6.60000000E+01  0.00000000E+00
  3.10000000E+02  6.40000000E+01  0.00000000E+00
  3.10000000E+02  6.20000000E+01  0.00000000E+00
  3.10000000E+02  6.00000000E+01  0.00000000E+00
  3.10000000E+02  5.80000000E+01  0.00000000E+00
  3.10000000E+02  5.60000000E+01  0.00000000E+00
  3.10000000E+02  5.40000000E+01  0.00000000E+00
  3.10000000E+02  5.20000000E+01  0.00000000E+00
  3.10000000E+02  5.00000000E+01  0.00000000E+00
  3.10000000E+02  4.80000000E+01  0.00000000E+00
  3.10000000E+02  4.60000000E+01  0.00000000E+00
  3.10000000E+02  4.40000000E+01  0.00000000E+00
  3.10000000E+02  4.20000000E+01  0.00000000E+00
  3.10000000E+02  4.00000000E+01  0.00000000E+00
  3.10000000E+02  3.80000000E+01  0.00000000E+00
  3.10000000E+02  3.60000000E+01  0.00000000E+00
  3.10000000E+02  3.40000000E+01  0.00000000E+00
  3.10000000E+02  3.20000000E+01  0.00000000E+00
  3.10000000E+02  3.00000000E+01  0.00000000E+00
  3.10000000E+02  2.80000000E+01  0.00000000E+00
  3.10000000E+02  2.60000000E+01  0.00000000E+00
  3.10000000E+02  2.40000000E+01  0.00000000E+00
  3.10000000E+02  2.20000000E+01  0.00000000E+00
  3.10000000E+02  2.00000000E+01  0.00000000E+00
  3.10000000E+02  1.80000000E+01  0.00000000E+00
  3.10000000E+02  1.60000000E+01  0.00000000E+00
  3.10000000E+02  1.40000000E+01  0.00000000E+00
  3.10000000E+02  1.20000000E+01  0.00000000E+00
  3.10000000E+02  1.00000000E+01  0.00000000E+00
  3.10000000E+02  8.00000000E+00  0.00000000E+00
  3.10000000E+02  6.00000000E+00  0.00000000E+00
  3.10000000E+02  4.00000000E+00  0.00000000E+00
  3.10000000E+02  2.00000000E+00  0.00000000E+00
  3.10000000E+02 -3.33066907E-14  0.00000000E+00
  3.20000000E+02  1.00000000E+02  0.00000000E+00
  3.20000000E+02  9.80000000E+01  0.00000000E+00
  3.20000000E+02  9.60000000E+01  0.00000000E+00
  3.20000000E+02  9.40000000E+01  0.00000000E+00
  3.20000000E+02  9.20000000E+01  0.00000000E+00
  3.20000000E+02  9.00000000E+01  0.00000000E+00
  3.20000000E+02  8.80000000E+01  0.00000000E+00
  3.20000000E+02  8.60000000E+01  0.00000000E+00
  3.20000000E+02  8.40000000E+01  0.00000000E+00
  3.20000000E+02  8.20000000E+01  0.00000000E+00
  3.20000000E+02  8.00000000E+01  0.00000000E+00
  3.20000000E+02  7.80000000E+01  0.00000000E+00
  3.20000000E+02  7.60000000E+01  0.00000000E+00
  3.20000000E+02  7.40000000E+01  0.00000000E+00
  3.20000000E+02  7.20000000E+01  0.00000000E+00
  3.20000000E+02  7.00000000E+01  0.00000000E+00
  3.20000000E+02  6.80000000E+01  0.00000000E+00
  3.20000000E+02  6.60000000E+01  0.00000000E+00
  3.20000000E+02  6.40000000E+01  0.00000000E+00
  3.20000000E+02  6.20000000E+01  0.00000000E+00
  3.20000000E+02  6.00000000E+01  0.00000000E+00
  3.20000000E+02  5.80000000E+01  0.00000000E+00
  3.20000000E+02  5.60000000E+01  0.00000000E+00
  3.20000000E+02  5.40000000E+01  0.00000000E+00
  3.20000000E+02  5.20000000E+01  0.00000000E+00
  3.20000000E+02  5.00000000E+01  0.00000000E+00
  3.20000000E+02  4.80000000E+01  0.00000000E+00
  3.20000000E+02  4.60000000E+01  0.00000000E+00
  3.20000000E+02  4.40000000E+01  0.00000000E+00
  3.20000000E+02  4.20000000E+01  0.00000000E+00
  3.20000000E+02  4.00000000E+01  0.00000000E+00
  3.20000000E+02  3.80000000E+01  0.00000000E+00
  3.20000000E+02  3.60000000E+01  0.00000000E+00
  3.20000000E+02  3.40000000E+01  0.00000000E+00
  3.20000000E+02  3.20000000E+01  0.00000000E+00
  3.20000000E+02  3.00000000E+01  0.00000000E+00
  3.20000000E+02  2.80000000E+01  0.00000000E+00
  3.20000000E+02  2.60000000E+01  0.00000000E+00
  3.20000000E+02  2.40000000E+01  0.00000000E+00
  3.20000000E+02  2.20000000E+01  0.00000000E+00
  3.20000000E+02  2.00000000E+01  0.00000000E+00
  3.20000000E+02  1.80000000E+01  0.00000000E+00
  3.20000000E+02  1.60000000E+01  0.00000000E+00
  3.20000000E+02  1.40000000E+01  0.00000000E+00
  3.20000000E+02  1.20000000E+01  0.00000000E+00
  3.20000000E+02  1.00000000E+01  0.00000000E+00
  3.20000000E+02  8.00000000E+00  0.00000000E+00
  3.20000000E+02  6.00000000E+00  0.00000000E+00
  3.20000000E+02  4.00000000E+00  0.00000000E+00
  3.20000000E+02  2.00000000E+00  0.00000000E+00
  3.20000000E+02 -3.33066907E-14  0.00000000E+00
  3.30000000E+02  1.00000000E+02  0.00000000E+00
  3.30000000E+02  9.80000000E+01  0.00000000E+00
  3.30000000E+02  9.60000000E+01  0.00000000E+00
  3.30000000E+02  9.40000000E+01  0.00000000E+00
  3.30000000E+02  9.20000000E+01  0.00000000E+00
  3.30000000E+02  9.00000000E+01  0.00000000E+00
  3.30000000E+02  8.80000000E+01  0.00000000E+00
  3.30000000E+02  8.60000000E+01  0.00000000E+00
  3.30000000E+02  8.40000000E+01  0.00000000E+00
  3.30000000E+02  8.20000000E+01  0.00000000E+00
  3.30000000E+02  8.00000000E+01  0.00000000E+00
  3.30000000E+02  7.80000000E+01  0.00000000E+00
  3.30000000E+02  7.60000000E+01  0.00000000E+00
  3.30000000E+02  7.40000000E+01  0.00000000E+00
  3.30000000E+02  7.20000000E+01  0.00000000E+00
  3.30000000E+02  7.00000000E+01  0.00000000E+00
  3.30000000E+02  6.80000000E+01  0.00000000E+00
  3.30000000E+02  6.60000000E+01  0.00000000E+00
  3.30000000E+02  6.40000000E+01  0.00000000E+00
  3.30000000E+02  6.20000000E+01  0.00000000E+00
  3.30000000E+02  6.00000000E+01  0.00000000E+00
  3.30000000E+02  5.80000000E+01  0.00000000E+00
  3.30000000E+02  5.60000000E+01  0.00000000E+00
  3.30000000E+02  5.40000000E+01  0.00000000E+00
  3.30000000E+02  5.20000000E+01  0.00000000E+00
  3.30000000E+02  5.00000000E+01  0.00000000E+00
  3.30000000E+02  4.80000000E+01  0.00000000E+00
  3.30000000E+02  4.60000000E+01  0.00000000E+00
  3.30000000E+02  4.40000000E+01  0.00000000E+00
  3.30000000E+02  4.20000000E+01  0.00000000E+00
  3.30000000E+02  4.00000000E+01  0.00000000E+00
  3.30000000E+02  3.80000000E+01  0.00000000E+00
  3.30000000E+02  3.60000000E+01  0.00000000E+00
  3.30000000E+02  3.40000000E+01  0.00000000E+00
  3.30000000E+02  3.20000000E+01  0.00000000E+00
  3.30000000E+02  3.00000000E+01  0.00000000E+00
  3.30000000E+02  2.80000000E+01  0.00000000E+00
  3.30000000E+02  2.60000000E+01  0.00000000E+00
  3.30000000E+02  2.40000000E+01  0.00000000E+00
  3.30000000E+02  2.20000000E+01  0.00000000E+00
  3.30000000E+02  2.00000000E+01  0.00000000E+00
  3.30000000E+02  1.80000000E+01  0.00000000E+00
  3.30000000E+02  1.60000000E+01  0.00000000E+00
  3.30000000E+02  1.40000000E+01  0.00000000E+00
  3.30000000E+02  1.20000000E+01  0.00000000E+00
  3.30000000E+02  1.00000000E+01  0.00000000E+00
  3.30000000E+02  8.00000000E+00  0.00000000E+00
  3.30000000E+02  6.00000000E+00  0.00000000E+00
  3.30000000E+02  4.00000000E+00  0.00000000E+00
  3.30000000E+02  2.00000000E+00  0.00000000E+00
  3.30000000E+02 -3.33066907E-14  0.00000000E+00
  3.40000000E+02  1.00000000E+02  0.00000000E+00
  3.40000000E+02  9.80000000E+01  0.00000000E+00
  3.40000000E+02  9.60000000E+01  0.00000000E+00
  3.40000000E+02  9.40000000E+01  0.00000000E+00
  3.40000000E+02  9.20000000E+01  0.00000000E+00
  3.40000000E+02  9.00000000E+01  0.00000000E+00
  3.40000000E+02  8.80000000E+01  0.00000000E+00
  3.40000000E+02  8.60000000E+01  0.00000000E+00
  3.40000000E+02  8.40000000E+01  0.00000000E+00
  3.40000000E+02  8.20000000E+01  0.00000000E+00
  3.40000000E+02  8.00000000E+01  0.00000000E+00
  3.40000000E+02  7.80000000E+01  0.00000000E+00
  3.40000000E+02  7.60000000E+01  0.00000000E+00
  3.40000000E+02  7.40000000E+01  0.00000000E+00
  3.40000000E+02  7.20000000E+01  0.00000000E+00
  3.40000000E+02  7.00000000E+01  0.00000000E+00
  3.40000000E+02  6.80000000E+01  0.00000000E+00
  3.40000000E+02  6.60000000E+01  0.00000000E+00
  3.40000000E+02  6.40000000E+01  0.00000000E+00
  3.40000000E+02  6.20000000E+01  0.00000000E+00
  3.40000000E+02  6.00000000E+01  0.00000000E+00
  3.40000000E+02  5.80000000E+01  0.00000000E+00
  3.40000000E+02  5.60000000E+01  0.00000000E+00
  3.40000000E+02  5.40000000E+01  0.00000000E+00
  3.40000000E+02  5.20000000E+01  0.00000000E+00
  3.40000000E+02  5.00000000E+01  0.00000000E+00
  3.40000000E+02  4.80000000E+01  0.00000000E+00
  3.40000000E+02  4.60000000E+01  0.00000000E+00
  3.40000000E+02  4.40000000E+01  0.00000000E+00
  3.40000000E+02  4.20000000E+01  0.00000000E+00
  3.40000000E+02  4.00000000E+01  0.00000000E+00
  3.40000000E+02  3.80000000E+01  0.00000000E+00
  3.40000000E+02  3.60000000E+01  0.00000000E+00
  3.40000000E+02  3.40000000E+01  0.00000000E+00
  3.40000000E+02  3.20000000E+01  0.00000000E+00
  3.40000000E+02  3.00000000E+01  0.00000000E+00
  3.40000000E+02  2.80000000E+01  0.00000000E+00
  3.40000000E+02  2.60000000E+01  0.00000000E+00
  3.40000000E+02  2.40000000E+01  0.00000000E+00
  3.40000000E+02  2.20000000E+01  0.00000000E+00
  3.40000000E+02  2.00000000E+01  0.00000000E+00
  3.40000000E+02  1.80000000E+01  0.00000000E+00
  3.40000000E+02  1.60000000E+01  0.00000000E+00
  3.40000000E+02  1.40000000E+01  0.00000000E+00
  3.40000000E+02  1.20000000E+01  0.00000000E+00
  3.40000000E+02  1.00000000E+01  0.00000000E+00
  3.40000000E+02  8.00000000E+00  0.00000000E+00
  3.40000000E+02  6.00000000E+00  0.00000000E+00
  3.40000000E+02  4.00000000E+00  0.00000000E+00
  3.40000000E+02  2.00000000E+00  0.00000000E+00
  3.40000000E+02 -3.33066907E-14  0.00000000E+00
  3.50000000E+02  1.00000000E+02  0.00000000E+00
  3.50000000E+02  9.80000000E+01  0.00000000E+00
  3.50000000E+02  9.60000000E+01  0.00000000E+00
  3.50000000E+02  9.40000000E+01  0.00000000E+00
  3.50000000E+02  9.20000000E+01  0.00000000E+00
  3.50000000E+02  9.00000000E+01  0.00000000E+00
  3.50000000E+02  8.80000000E+01  0.00000000E+00
  3.50000000E+02  8.60000000E+01  0.00000000E+00
  3.50000000E+02  8.40000000E+01  0.00000000E+00
  3.50000000E+02  8.20000000E+01  0.00000000E+00
  3.50000000E+02  8.00000000E+01  0.00000000E+00
  3.50000000E+02  7.80000000E+01  0.00000000E+00
  3.50000000E+02  7.60000000E+01  0.00000000E+00
  3.50000000E+02  7.40000000E+01  0.00000000E+00
  3.50000000E+02  7.20000000E+01  0.00000000E+00
  3.50000000E+02  7.00000000E+01  0.00000000E+00
  3.50000000E+02  6.80000000E+01  0.00000000E+00
  3.50000000E+02  6.60000000E+01  0.00000000E+00
  3.50000000E+02  6.40000000E+01  0.00000000E+00
  3.50000000E+02  6.20000000E+01  0.00000000E+00
  3.50000000E+02  6.00000000E+01  0.00000000E+00
  3.50000000E+02  5.80000000E+01  0.00000000E+00
  3.50000000E+02  5.60000000E+01  0.00000000E+00
  3.50000000E+02  5.40000000E+01  0.00000000E+00
  3.50000000E+02  5.20000000E+01  0.00000000E+00
  3.50000000E+02  5.00000000E+01  0.00000000E+00
  3.50000000E+02  4.80000000E+01  0.00000000E+00
  3.50000000E+02  4.60000000E+01  0.00000000E+00
  3.50000000E+02  4.40000000E+01  0.00000000E+00
  3.50000000E+02  4.20000000E+01  0.00000000E+00
  3.50000000E+02  4.00000000E+01  0.00000000E+00
  3.50000000E+02  3.80000000E+01  0.00000000E+00
  3.50000000E+02  3.60000000E+01  0.00000000E+00
  3.50000000E+02  3.40000000E+01  0.00000000E+00
  3.50000000E+02  3.20000000E+01  0.00000000E+00
  3.50000000E+02  3.00000000E+01  0.00000000E+00
  3.50000000E+02  2.80000000E+01  0.00000000E+00
  3.50000000E+02  2.60000000E+01  0.00000000E+00
  3.50000000E+02  2.40000000E+01  0.00000000E+00
  3.50000000E+02  2.20000000E+01  0.00000000E+00
  3.50000000E+02  2.00000000E+01  0.00000000E+00
  3.50000000E+02  1.80000000E+01  0.00000000E+00
  3.50000000E+02  1.60000000E+01  0.00000000E+00
  3.50000000E+02  1.40000000E+01  0.00000000E+00
  3.50000000E+02  1.20000000E+01  0.00000000E+00
  3.50000000E+02  1.00000000E+01  0.00000000E+00
  3.50000000E+02  8.00000000E+00  0.00000000E+00
  3.50000000E+02  6.00000000E+00  0.00000000E+00
  3.50000000E+02  4.00000000E+00  0.00000000E+00
  3.50000000E+02  2.00000000E+00  0.00000000E+00
  3.50000000E+02 -3.33066907E-14  0.00000000E+00
  3.60000000E+02  1.00000000E+02  0.00000000E+00
  3.60000000E+02  9.80000000E+01  0.00000000E+00
  3.60000000E+02  9.60000000E+01  0.00000000E+00
  3.60000000E+02  9.40000000E+01  0.00000000E+00
  3.60000000E+02  9.20000000E+01  0.00000000E+00
  3.60000000E+02  9.00000000E+01  0.00000000E+00
  3.60000000E+02  8.80000000E+01  0.00000000E+00
  3.60000000E+02  8.60000000E+01  0.00000000E+00
  3.60000000E+02  8.40000000E+01  0.00000000E+00
  3.60000000E+02  8.20000000E+01  0.00000000E+00
  3.60000000E+02  8.00000000E+01  0.00000000E+00
  3.60000000E+02  7.80000000E+01  0.00000000E+00
  3.60000000E+02  7.60000000E+01  0.00000000E+00
  3.60000000E+02  7.40000000E+01  0.00000000E+00
  3.60000000E+02  7.20000000E+01  0.00000000E+00
  3.60000000E+02  7.00000000E+01  0.00000000E+00
  3.60000000E+02  6.80000000E+01  0.00000000E+00
  3.60000000E+02  6.60000000E+01  0.00000000E+00
  3.60000000E+02  6.40000000E+01  0.00000000E+00
  3.60000000E+02  6.20000000E+01  0.00000000E+00
  3.60000000E+02  6.00000000E+01  0.00000000E+00
  3.60000000E+02  5.80000000E+01  0.00000000E+00
  3.60000000E+02  5.60000000E+01  0.00000000E+00
  3.60000000E+02  5.40000000E+01  0.00000000E+00
  3.60000000E+02  5.20000000E+01  0.00000000E+00
  3.60000000E+02  5.00000000E+01  0.00000000E+00
  3.60000000E+02  4.80000000E+01  0.00000000E+00
  3.60000000E+02  4.60000000E+01  0.00000000E+00
  3.60000000E+02  4.40000000E+01  0.00000000E+00
  3.60000000E+02  4.20000000E+01  0.00000000E+00
  3.60000000E+02  4.00000000E+01  0.00000000E+00
  3.60000000E+02  3.80000000E+01  0.00000000E+00
  3.60000000E+02  3.60000000E+01  0.00000000E+00
  3.60000000E+02  3.40000000E+01  0.00000000E+00
  3.60000000E+02  3.20000000E+01  0.00000000E+00
  3.60000000E+02  3.00000000E+01  0.00000000E+00
  3.60000000E+02  2.80000000E+01  0.00000000E+00
  3.60000000E+02  2.60000000E+01  0.00000000E+00
  3.60000000E+02  2.40000000E+01  0.00000000E+00
  3.60000000E+02  2.20000000E+01  0.00000000E+00
  3.60000000E+02  2.00000000E+01  0.00000000E+00
  3.60000000E+02  1.80000000E+01  0.00000000E+00
  3.60000000E+02  1.60000000E+01  0.00000000E+00
  3.60000000E+02  1.40000000E+01  0.00000000E+00
  3.60000000E+02  1.20000000E+01  0.00000000E+00
  3.60000000E+02  1.00000000E+01  0.00000000E+00
  3.60000000E+02  8.00000000E+00  0.00000000E+00
  3.60000000E+02  6.00000000E+00  0.00000000E+00
  3.60000000E+02  4.00000000E+00  0.00000000E+00
  3.60000000E+02  2.00000000E+00  0.00000000E+00
  3.60000000E+02 -3.33066907E-14  0.00000000E+00
  3.70000000E+02  1.00000000E+02  0.00000000E+00
  3.70000000E+02  9.80000000E+01  0.00000000E+00
  3.70000000E+02  9.60000000E+01  0.00000000E+00
  3.70000000E+02  9.40000000E+01  0.00000000E+00
  3.70000000E+02  9.20000000E+01  0.00000000E+00
  3.70000000E+02  9.00000000E+01  0.00000000E+00
  3.70000000E+02  8.80000000E+01  0.00000000E+00
  3.70000000E+02  8.60000000E+01  0.00000000E+00
  3.70000000E+02  8.40000000E+01  0.00000000E+00
  3.70000000E+02  8.20000000E+01  0.00000000E+00
  3.70000000E+02  8.00000000E+01  0.00000000E+00
  3.70000000E+02  7.80000000E+01  0.00000000E+00
  3.70000000E+02  7.60000000E+01  0.00000000E+00
  3.70000000E+02  7.40000000E+01  0.00000000E+00
  3.70000000E+02  7.20000000E+01  0.00000000E+00
  3.70000000E+02  7.00000000E+01  0.00000000E+00
  3.70000000E+02  6.80000000E+01  0.00000000E+00
  3.70000000E+02  6.60000000E+01  0.00000000E+00
  3.70000000E+02  6.40000000E+01  0.00000000E+00
  3.70000000E+02  6.20000000E+01  0.00000000E+00
  3.70000000E+02  6.00000000E+01  0.00000000E+00
  3.70000000E+02  5.80000000E+01  0.00000000E+00
  3.70000000E+02  5.60000000E+01  0.00000000E+00
  3.70000000E+02  5.40000000E+01  0.00000000E+00
  3.70000000E+02  5.20000000E+01  0.00000000E+00
  3.70000000E+02  5.00000000E+01  0.00000000E+00
  3.70000000E+02  4.80000000E+01  0.00000000E+00
  3.70000000E+02  4.60000000E+01  0.00000000E+00
  3.70000000E+02  4.40000000E+01  0.00000000E+00
  3.70000000E+02  4.20000000E+01  0.00000000E+00
  3.70000000E+02  4.00000000E+01  0.00000000E+00
  3.70000000E+02  3.80000000E+01  0.00000000E+00
  3.70000000E+02  3.60000000E+01  0.00000000E+00
  3.70000000E+02  3.40000000E+01  0.00000000E+00
  3.70000000E+02  3.20000000E+01  0.00000000E+00
  3.70000000E+02  3.00000000E+01  0.00000000E+00
  3.70000000E+02  2.80000000E+01  0.00000000E+00
  3.70000000E+02  2.60000000E+01  0.00000000E+00
  3.70000000E+02  2.40000000E+01  0.00000000E+00
  3.70000000E+02  2.20000000E+01  0.00000000E+00
  3.70000000E+02  2.00000000E+01  0.00000000E+00
  3.70000000E+02  1.80000000E+01  0.00000000E+00
  3.70000000E+02  1.60000000E+01  0.00000000E+00
  3.70000000E+02  1.40000000E+01  0.00000000E+00
  3.70000000E+02  1.20000000E+01  0.00000000E+00
  3.70000000E+02  1.00000000E+01  0.00000000E+00
  3.70000000E+02  8.00000000E+00  0.00000000E+00
  3.70000000E+02  6.00000000E+00  0.00000000E+00
  3.70000000E+02  4.00000000E+00  0.00000000E+00
  3.70000000E+02  2.00000000E+00  0.00000000E+00
  3.70000000E+02 -3.33066907E-14  0.00000000E+00
  3.80000000E+02  1.00000000E+02  0.00000000E+00
  3.80000000E+02  9.80000000E+01  0.00000000E+00
  3.80000000E+02  9.60000000E+01  0.00000000E+00
  3.80000000E+02  9.40000000E+01  0.00000000E+00
  3.80000000E+02  9.20000000E+01  0.00000000E+00
  3.80000000E+02  9.00000000E+01  0.00000000E+00
  3.80000000E+02  8.80000000E+01  0.00000000E+00
  3.80000000E+02  8.60000000E+01  0.00000000E+00
  3.80000000E+02  8.40000000E+01  0.00000000E+00
  3.80000000E+02  8.20000000E+01  0.00000000E+00
  3.80000000E+02  8.00000000E+01  0.00000000E+00
  3.80000000E+02  7.80000000E+01  0.00000000E+00
  3.80000000E+02  7.60000000E+01  0.00000000E+00
  3.80000000E+02  7.40000000E+01  0.00000000E+00
  3.80000000E+02  7.20000000E+01  0.00000000E+00
  3.80000000E+02  7.00000000E+01  0.00000000E+00
  3.80000000E+02  6.80000000E+01  0.00000000E+00
  3.80000000E+02  6.60000000E+01  0.00000000E+00
  3.80000000E+02  6.40000000E+01  0.00000000E+00
  3.80000000E+02  6.20000000E+01  0.00000000E+00
  3.80000000E+02  6.00000000E+01  0.00000000E+00
  3.80000000E+02  5.80000000E+01  0.00000000E+00
  3.80000000E+02  5.60000000E+01  0.00000000E+00
  3.80000000E+02  5.40000000E+01  0.00000000E+00
  3.80000000E+02  5.20000000E+01  0.00000000E+00
  3.80000000E+02  5.00000000E+01  0.00000000E+00
  3.80000000E+02  4.80000000E+01  0.00000000E+00
  3.80000000E+02  4.60000000E+01  0.00000000E+00
  3.80000000E+02  4.40000000E+01  0.00000000E+00
  3.80000000E+02  4.20000000E+01  0.00000000E+00
  3.80000000E+02  4.00000000E+01  0.00000000E+00
  3.80000000E+02  3.80000000E+01  0.00000000E+00
  3.80000000E+02  3.60000000E+01  0.00000000E+00
  3.80000000E+02  3.40000000E+01  0.00000000E+00
  3.80000000E+02  3.20000000E+01  0.00000000E+00
  3.80000000E+02  3.00000000E+01  0.00000000E+00
  3.80000000E+02  2.80000000E+01  0.00000000E+00
  3.80000000E+02  2.60000000E+01  0.00000000E+00
  3.80000000E+02  2.40000000E+01  0.00000000E+00
  3.80000000E+02  2.20000000E+01  0.00000000E+00
  3.80000000E+02  2.00000000E+01  0.00000000E+00
  3.80000000E+02  1.80000000E+01  0.00000000E+00
  3.80000000E+02  1.60000000E+01  0.00000000E+00
  3.80000000E+02  1.40000000E+01  0.00000000E+00
  3.80000000E+02  1.20000000E+01  0.00000000E+00
  3.80000000E+02  1.00000000E+01  0.00000000E+00
  3.80000000E+02  8.00000000E+00  0.00000000E+00
  3.80000000E+02  6.00000000E+00  0.00000000E+00
  3.80000000E+02  4.00000000E+00  0.00000000E+00
  3.80000000E+02  2.00000000E+00  0.00000000E+00
  3.80000000E+02 -3.33066907E-14  0.00000000E+00
  3.90000000E+02  1.00000000E+02  0.00000000E+00
  3.90000000E+02  9.80000000E+01  0.00000000E+00
  3.90000000E+02  9.60000000E+01  0.00000000E+00
  3.90000000E+02  9.40000000E+01  0.00000000E+00
  3.90000000E+02  9.20000000E+01  0.00000000E+00
  3.90000000E+02  9.00000000E+01  0.00000000E+00
  3.90000000E+02  8.80000000E+01  0.00000000E+00
  3.90000000E+02  8.60000000E+01  0.00000000E+00
  3.90000000E+02  8.40000000E+01  0.00000000E+00
  3.90000000E+02  8.20000000E+01  0.00000000E+00
  3.90000000E+02  8.00000000E+01  0.00000000E+00
  3.90000000E+02  7.80000000E+01  0.00000000E+00
  3.90000000E+02  7.60000000E+01  0.00000000E+00
  3.90000000E+02  7.40000000E+01  0.00000000E+00
  3.90000000E+02  7.20000000E+01  0.00000000E+00
  3.90000000E+02  7.00000000E+01  0.00000000E+00
  3.90000000E+02  6.80000000E+01  0.00000000E+00
  3.90000000E+02  6.60000000E+01  0.00000000E+00
  3.90000000E+02  6.40000000E+01  0.00000000E+00
  3.90000000E+02  6.20000000E+01  0.00000000E+00
  3.90000000E+02  6.00000000E+01  0.00000000E+00
  3.90000000E+02  5.80000000E+01  0.00000000E+00
  3.90000000E+02  5.60000000E+01  0.00000000E+00
  3.90000000E+02  5.40000000E+01  0.00000000E+00
  3.90000000E+02  5.20000000E+01  0.00000000E+00
  3.90000000E+02  5.00000000E+01  0.00000000E+00
  3.90000000E+02  4.80000000E+01  0.00000000E+00
  3.90000000E+02  4.60000000E+01  0.00000000E+00
  3.90000000E+02  4.40000000E+01  0.00000000E+00
  3.90000000E+02  4.20000000E+01  0.00000000E+00
  3.90000000E+02  4.00000000E+01  0.00000000E+00
  3.90000000E+02  3.80000000E+01  0.00000000E+00
  3.90000000E+02  3.60000000E+01  0.00000000E+00
  3.90000000E+02  3.40000000E+01  0.00000000E+00
  3.90000000E+02  3.20000000E+01  0.00000000E+00
  3.90000000E+02  3.00000000E+01  0.00000000E+00
  3.90000000E+02  2.80000000E+01  0.00000000E+00
  3.90000000E+02  2.60000000E+01  0.00000000E+00
  3.90000000E+02  2.40000000E+01  0.00000000E+00
  3.90000000E+02  2.20000000E+01  0.00000000E+00
  3.90000000E+02  2.00000000E+01  0.00000000E+00
  3.90000000E+02  1.80000000E+01  0.00000000E+00
  3.90000000E+02  1.60000000E+01  0.00000000E+00
  3.90000000E+02  1.40000000E+01  0.00000000E+00
  3.90000000E+02  1.20000000E+01  0.00000000E+00
  3.90000000E+02  1.00000000E+01  0.00000000E+00
  3.90000000E+02  8.00000000E+00  0.00000000E+00
  3.90000000E+02  6.00000000E+00  0.00000000E+00
  3.90000000E+02  4.00000000E+00  0.00000000E+00
  3.90000000E+02  2.00000000E+00  0.00000000E+00
  3.90000000E+02 -3.33066907E-14  0.00000000E+00
  4.00000000E+02  1.00000000E+02  0.00000000E+00
  4.00000000E+02  9.80000000E+01  0.00000000E+00
  4.00000000E+02  9.60000000E+01  0.00000000E+00
  4.00000000E+02  9.40000000E+01  0.00000000E+00
  4.00000000E+02  9.20000000E+01  0.00000000E+00
  4.00000000E+02  9.00000000E+01  0.00000000E+00
  4.00000000E+02  8.80000000E+01  0.00000000E+00
  4.00000000E+02  8.60000000E+01  0.00000000E+00
  4.00000000E+02  8.40000000E+01  0.00000000E+00
  4.00000000E+02  8.20000000E+01  0.00000000E+00
  4.00000000E+02  8.00000000E+01  0.00000000E+00
  4.00000000E+02  7.80000000E+01  0.00000000E+00
  4.00000000E+02  7.60000000E+01  0.00000000E+00
  4.00000000E+02  7.40000000E+01  0.00000000E+00
  4.00000000E+02  7.20000000E+01  0.00000000E+00
  4.00000000E+02  7.00000000E+01  0.00000000E+00
  4.00000000E+02  6.80000000E+01  0.00000000E+00
  4.00000000E+02  6.60000000E+01  0.00000000E+00
  4.00000000E+02  6.40000000E+01  0.00000000E+00
  4.00000000E+02  6.20000000E+01  0.00000000E+00
  4.00000000E+02  6.00000000E+01  0.00000000E+00
  4.00000000E+02  5.80000000E+01  0.00000000E+00
  4.00000000E+02  5.60000000E+01  0.00000000E+00
  4.00000000E+02  5.40000000E+01  0.00000000E+00
  4.00000000E+02  5.20000000E+01  0.00000000E+00
  4.00000000E+02  5.00000000E+01  0.00000000E+00
  4.00000000E+02  4.80000000E+01  0.00000000E+00
  4.00000000E+02  4.60000000E+01  0.00000000E+00
  4.00000000E+02  4.40000000E+01  0.00000000E+00
  4.00000000E+02  4.20000000E+01  0.00000000E+00
  4.00000000E+02  4.00000000E+01  0.00000000E+00
  4.00000000E+02  3.80000000E+01  0.00000000E+00
  4.00000000E+02  3.60000000E+01  0.00000000E+00
  4.00000000E+02  3.40000000E+01  0.00000000E+00
  4.00000000E+02  3.20000000E+01  0.00000000E+00
  4.00000000E+02  3.00000000E+01  0.00000000E+00
  4.00000000E+02  2.80000000E+01  0.00000000E+00
  4.00000000E+02  2.60000000E+01  0.00000000E+00
  4.00000000E+02  2.40000000E+01  0.00000000E+00
  4.00000000E+02  2.20000000E+01  0.00000000E+00
  4.00000000E+02  2.00000000E+01  0.00000000E+00
  4.00000000E+02  1.80000000E+01  0.00000000E+00
  4.00000000E+02  1.60000000E+01  0.00000000E+00
  4.00000000E+02  1.40000000E+01  0.00000000E+00
  4.00000000E+02  1.20000000E+01  0.00000000E+00
  4.00000000E+02  1.00000000E+01  0.00000000E+00
  4.00000000E+02  8.00000000E+00  0.00000000E+00
  4.00000000E+02  6.00000000E+00  0.00000000E+00
  4.00000000E+02  4.00000000E+00  0.00000000E+00
  4.00000000E+02  2.00000000E+00  0.00000000E+00
  4.00000000E+02 -3.33066907E-14  0.00000000E+00
  4.10000000E+02  1.00000000E+02  0.00000000E+00
  4.10000000E+02  9.80000000E+01  0.00000000E+00
  4.10000000E+02  9.60000000E+01  0.00000000E+00
  4.10000000E+02  9.40000000E+01  0.00000000E+00
  4.10000000E+02  9.20000000E+01  0.00000000E+00
  4.10000000E+02  9.00000000E+01  0.00000000E+00
  4.10000000E+02  8.80000000E+01  0.00000000E+00
  4.10000000E+02  8.60000000E+01  0.00000000E+00
  4.10000000E+02  8.40000000E+01  0.00000000E+00
  4.10000000E+02  8.20000000E+01  0.00000000E+00
  4.10000000E+02  8.00000000E+01  0.00000000E+00
  4.10000000E+02  7.80000000E+01  0.00000000E+00
  4.10000000E+02  7.60000000E+01  0.00000000E+00
  4.10000000E+02  7.40000000E+01  0.00000000E+00
  4.10000000E+02  7.20000000E+01  0.00000000E+00
  4.10000000E+02  7.00000000E+01  0.00000000E+00
  4.10000000E+02  6.80000000E+01  0.00000000E+00
  4.10000000E+02  6.60000000E+01  0.00000000E+00
  4.10000000E+02  6.40000000E+01  0.00000000E+00
  4.10000000E+02  6.20000000E+01  0.00000000E+00
  4.10000000E+02  6.00000000E+01  0.00000000E+00
  4.10000000E+02  5.80000000E+01  0.00000000E+00
  4.10000000E+02  5.60000000E+01  0.00000000E+00
  4.10000000E+02  5.40000000E+01  0.00000000E+00
  4.10000000E+02  5.20000000E+01  0.00000000E+00
  4.10000000E+02  5.00000000E+01  0.00000000E+00
  4.10000000E+02  4.80000000E+01  0.00000000E+00
  4.10000000E+02  4.60000000E+01  0.00000000E+00
  4.10000000E+02  4.40000000E+01  0.00000000E+00
  4.10000000E+02  4.20000000E+01  0.00000000E+00
  4.10000000E+02  4.00000000E+01  0.00000000E+00
  4.10000000E+02  3.80000000E+01  0.00000000E+00
  4.10000000E+02  3.60000000E+01  0.00000000E+00
  4.10000000E+02  3.40000000E+01  0.00000000E+00
  4.10000000E+02  3.20000000E+01  0.00000000E+00
  4.10000000E+02  3.00000000E+01  0.00000000E+00
  4.10000000E+02  2.80000000E+01  0.00000000E+00
  4.10000000E+02  2.60000000E+01  0.00000000E+00
  4.10000000E+02  2.40000000E+01  0.00000000E+00
  4.10000000E+02  2.20000000E+01  0.00000000E+00
  4.10000000E+02  2.00000000E+01  0.00000000E+00
  4.10000000E+02  1.80000000E+01  0.00000000E+00
  4.10000000E+02  1.60000000E+01  0.00000000E+00
  4.10000000E+02  1.40000000E+01  0.00000000E+00
  4.10000000E+02  1.20000000E+01  0.00000000E+00
  4.10000000E+02  1.00000000E+01  0.00000000E+00
  4.10000000E+02  8.00000000E+00  0.00000000E+00
  4.10000000E+02  6.00000000E+00  0.00000000E+00
  4.10000000E+02  4.00000000E+00  0.00000000E+00
  4.10000000E+02  2.00000000E+00  0.00000000E+00
  4.10000000E+02 -3.33066907E-14  0.00000000E+00
  4.20000000E+02  1.00000000E+02  0.00000000E+00
  4.20000000E+02  9.80000000E+01  0.00000000E+00
  4.20000000E+02  9.60000000E+01  0.00000000E+00
  4.20000000E+02  9.40000000E+01  0.00000000E+00
  4.20000000E+02  9.20000000E+01  0.00000000E+00
  4.20000000E+02  9.00000000E+01  0.00000000E+00
  4.20000000E+02  8.80000000E+01  0.00000000E+00
  4.20000000E+02  8.60000000E+01  0.00000000E+00
  4.20000000E+02  8.40000000E+01  0.00000000E+00
  4.20000000E+02  8.20000000E+01  0.00000000E+00
  4.20000000E+02  8.00000000E+01  0.00000000E+00
  4.20000000E+02  7.80000000E+01  0.00000000E+00
  4.20000000E+02  7.60000000E+01  0.00000000E+00
  4.20000000E+02  7.40000000E+01  0.00000000E+00
  4.20000000E+02  7.20000000E+01  0.00000000E+00
  4.20000000E+02  7.00000000E+01  0.00000000E+00
  4.20000000E+02  6.80000000E+01  0.00000000E+00
  4.20000000E+02  6.60000000E+01  0.00000000E+00
  4.20000000E+02  6.40000000E+01  0.00000000E+00
  4.20000000E+02  6.20000000E+01  0.00000000E+00
  4.20000000E+02  6.00000000E+01  0.00000000E+00
  4.20000000E+02  5.80000000E+01  0.00000000E+00
  4.20000000E+02  5.60000000E+01  0.00000000E+00
  4.20000000E+02  5.40000000E+01  0.00000000E+00
  4.20000000E+02  5.20000000E+01  0.00000000E+00
  4.20000000E+02  5.00000000E+01  0.00000000E+00
  4.20000000E+02  4.80000000E+01  0.00000000E+00
  4.20000000E+02  4.60000000E+01  0.00000000E+00
  4.20000000E+02  4.40000000E+01  0.00000000E+00
  4.20000000E+02  4.20000000E+01  0.00000000E+00
  4.20000000E+02  4.00000000E+01  0.00000000E+00
  4.20000000E+02  3.80000000E+01  0.00000000E+00
  4.20000000E+02  3.60000000E+01  0.00000000E+00
  4.20000000E+02  3.40000000E+01  0.00000000E+00
  4.20000000E+02  3.20000000E+01  0.00000000E+00
  4.20000000E+02  3.00000000E+01  0.00000000E+00
  4.20000000E+02  2.80000000E+01  0.00000000E+00
  4.20000000E+02  2.60000000E+01  0.00000000E+00
  4.20000000E+02  2.40000000E+01  0.00000000E+00
  4.20000000E+02  2.20000000E+01  0.00000000E+00
  4.20000000E+02  2.00000000E+01  0.00000000E+00
  4.20000000E+02  1.80000000E+01  0.00000000E+00
  4.20000000E+02  1.60000000E+01  0.00000000E+00
  4.20000000E+02  1.40000000E+01  0.00000000E+00
  4.20000000E+02  1.20000000E+01  0.00000000E+00
  4.20000000E+02  1.00000000E+01  0.00000000E+00
  4.20000000E+02  8.00000000E+00  0.00000000E+00
  4.20000000E+02  6.00000000E+00  0.00000000E+00
  4.20000000E+02  4.00000000E+00  0.00000000E+00
  4.20000000E+02  2.00000000E+00  0.00000000E+00
  4.20000000E+02 -3.33066907E-14  0.00000000E+00
  4.30000000E+02  1.00000000E+02  0.00000000E+00
  4.30000000E+02  9.80000000E+01  0.00000000E+00
  4.30000000E+02  9.60000000E+01  0.00000000E+00
  4.30000000E+02  9.40000000E+01  0.00000000E+00
  4.30000000E+02  9.20000000E+01  0.00000000E+00
  4.30000000E+02  9.00000000E+01  0.00000000E+00
  4.30000000E+02  8.80000000E+01  0.00000000E+00
  4.30000000E+02  8.60000000E+01  0.00000000E+00
  4.30000000E+02  8.40000000E+01  0.00000000E+00
  4.30000000E+02  8.20000000E+01  0.00000000E+00
  4.30000000E+02  8.00000000E+01  0.00000000E+00
  4.30000000E+02  7.80000000E+01  0.00000000E+00
  4.30000000E+02  7.60000000E+01  0.00000000E+00
  4.30000000E+02  7.40000000E+01  0.00000000E+00
  4.30000000E+02  7.20000000E+01  0.00000000E+00
  4.30000000E+02  7.00000000E+01  0.00000000E+00
  4.30000000E+02  6.80000000E+01  0.00000000E+00
  4.30000000E+02  6.60000000E+01  0.00000000E+00
  4.30000000E+02  6.40000000E+01  0.00000000E+00
  4.30000000E+02  6.20000000E+01  0.00000000E+00
  4.30000000E+02  6.00000000E+01  0.00000000E+00
  4.30000000E+02  5.80000000E+01  0.00000000E+00
  4.30000000E+02  5.60000000E+01  0.00000000E+00
  4.30000000E+02  5.40000000E+01  0.00000000E+00
  4.30000000E+02  5.20000000E+01  0.00000000E+00
  4.30000000E+02  5.00000000E+01  0.00000000E+00
  4.30000000E+02  4.80000000E+01  0.00000000E+00
  4.30000000E+02  4.60000000E+01  0.00000000E+00
  4.30000000E+02  4.40000000E+01  0.00000000E+00
  4.30000000E+02  4.20000000E+01  0.00000000E+00
  4.30000000E+02  4.00000000E+01  0.00000000E+00
  4.30000000E+02  3.80000000E+01  0.00000000E+00
  4.30000000E+02  3.60000000E+01  0.00000000E+00
  4.30000000E+02  3.40000000E+01  0.00000000E+00
  4.30000000E+02  3.20000000E+01  0.00000000E+00
  4.30000000E+02  3.00000000E+01  0.00000000E+00
  4.30000000E+02  2.80000000E+01  0.00000000E+00
  4.30000000E+02  2.60000000E+01  0.00000000E+00
  4.30000000E+02  2.40000000E+01  0.00000000E+00
  4.30000000E+02  2.20000000E+01  0.00000000E+00
  4.30000000E+02  2.00000000E+01  0.00000000E+00
  4.30000000E+02  1.80000000E+01  0.00000000E+00
  4.30000000E+02  1.60000000E+01  0.00000000E+00
  4.30000000E+02  1.40000000E+01  0.00000000E+00
  4.30000000E+02  1.20000000E+01  0.00000000E+00
  4.30000000E+02  1.00000000E+01  0.00000000E+00
  4.30000000E+02  8.00000000E+00  0.00000000E+00
  4.30000000E+02  6.00000000E+00  0.00000000E+00
  4.30000000E+02  4.00000000E+00  0.00000000E+00
  4.30000000E+02  2.00000000E+00  0.00000000E+00
  4.30000000E+02 -3.33066907E-14  0.00000000E+00
  4.40000000E+02  1.00000000E+02  0.00000000E+00
  4.40000000E+02  9.80000000E+01  0.00000000E+00
  4.40000000E+02  9.60000000E+01  0.00000000E+00
  4.40000000E+02  9.40000000E+01  0.00000000E+00
  4.40000000E+02  9.20000000E+01  0.00000000E+00
  4.40000000E+02  9.00000000E+01  0.00000000E+00
  4.40000000E+02  8.80000000E+01  0.00000000E+00
  4.40000000E+02  8.60000000E+01  0.00000000E+00
  4.40000000E+02  8.40000000E+01  0.00000000E+00
  4.40000000E+02  8.20000000E+01  0.00000000E+00
  4.40000000E+02  8.00000000E+01  0.00000000E+00
  4.40000000E+02  7.80000000E+01  0.00000000E+00
  4.40000000E+02  7.60000000E+01  0.00000000E+00
  4.40000000E+02  7.40000000E+01  0.00000000E+00
  4.40000000E+02  7.20000000E+01  0.00000000E+00
  4.40000000E+02  7.00000000E+01  0.00000000E+00
  4.40000000E+02  6.80000000E+01  0.00000000E+00
  4.40000000E+02  6.60000000E+01  0.00000000E+00
  4.40000000E+02  6.40000000E+01  0.00000000E+00
  4.40000000E+02  6.20000000E+01  0.00000000E+00
  4.40000000E+02  6.00000000E+01  0.00000000E+00
  4.40000000E+02  5.80000000E+01  0.00000000E+00
  4.40000000E+02  5.60000000E+01  0.00000000E+00
  4.40000000E+02  5.40000000E+01  0.00000000E+00
  4.40000000E+02  5.20000000E+01  0.00000000E+00
  4.40000000E+02  5.00000000E+01  0.00000000E+00
  4.40000000E+02  4.80000000E+01  0.00000000E+00
  4.40000000E+02  4.60000000E+01  0.00000000E+00
  4.40000000E+02  4.40000000E+01  0.00000000E+00
  4.40000000E+02  4.20000000E+01  0.00000000E+00
  4.40000000E+02  4.00000000E+01  0.00000000E+00
  4.40000000E+02  3.80000000E+01  0.00000000E+00
  4.40000000E+02  3.60000000E+01  0.00000000E+00
  4.40000000E+02  3.40000000E+01  0.00000000E+00
  4.40000000E+02  3.20000000E+01  0.00000000E+00
  4.40000000E+02  3.00000000E+01  0.00000000E+00
  4.40000000E+02  2.80000000E+01  0.00000000E+00
  4.40000000E+02  2.60000000E+01  0.00000000E+00
  4.40000000E+02  2.40000000E+01  0.00000000E+00
  4.40000000E+02  2.20000000E+01  0.00000000E+00
  4.40000000E+02  2.00000000E+01  0.00000000E+00
  4.40000000E+02  1.80000000E+01  0.00000000E+00
  4.40000000E+02  1.60000000E+01  0.00000000E+00
  4.40000000E+02  1.40000000E+01  0.00000000E+00
  4.40000000E+02  1.20000000E+01  0.00000000E+00
  4.40000000E+02  1.00000000E+01  0.00000000E+00
  4.40000000E+02  8.00000000E+00  0.00000000E+00
  4.40000000E+02  6.00000000E+00  0.00000000E+00
  4.40000000E+02  4.00000000E+00  0.00000000E+00
  4.40000000E+02  2.00000000E+00  0.00000000E+00
  4.40000000E+02 -3.33066907E-14  0.00000000E+00
  4.50000000E+02  1.00000000E+02  0.00000000E+00
  4.50000000E+02  9.80000000E+01  0.00000000E+00
  4.50000000E+02  9.60000000E+01  0.00000000E+00
  4.50000000E+02  9.40000000E+01  0.00000000E+00
  4.50000000E+02  9.20000000E+01  0.00000000E+00
  4.50000000E+02  9.00000000E+01  0.00000000E+00
  4.50000000E+02  8.80000000E+01  0.00000000E+00
  4.50000000E+02  8.60000000E+01  0.00000000E+00
  4.50000000E+02  8.40000000E+01  0.00000000E+00
  4.50000000E+02  8.20000000E+01  0.00000000E+00
  4.50000000E+02  8.00000000E+01  0.00000000E+00
  4.50000000E+02  7.80000000E+01  0.00000000E+00
  4.50000000E+02  7.60000000E+01  0.00000000E+00
  4.50000000E+02  7.40000000E+01  0.00000000E+00
  4.50000000E+02  7.20000000E+01  0.00000000E+00
  4.50000000E+02  7.00000000E+01  0.00000000E+00
  4.50000000E+02  6.80000000E+01  0.00000000E+00
  4.50000000E+02  6.60000000E+01  0.00000000E+00
  4.50000000E+02  6.40000000E+01  0.00000000E+00
  4.50000000E+02  6.20000000E+01  0.00000000E+00
  4.50000000E+02  6.00000000E+01  0.00000000E+00
  4.50000000E+02  5.80000000E+01  0.00000000E+00
  4.50000000E+02  5.60000000E+01  0.00000000E+00
  4.50000000E+02  5.40000000E+01  0.00000000E+00
  4.50000000E+02  5.20000000E+01  0.00000000E+00
  4.50000000E+02  5.00000000E+01  0.00000000E+00
  4.50000000E+02  4.80000000E+01  0.00000000E+00
  4.50000000E+02  4.60000000E+01  0.00000000E+00
  4.50000000E+02  4.40000000E+01  0.00000000E+00
  4.50000000E+02  4.20000000E+01  0.00000000E+00
  4.50000000E+02  4.00000000E+01  0.00000000E+00
  4.50000000E+02  3.80000000E+01  0.00000000E+00
  4.50000000E+02  3.60000000E+01  0.00000000E+00
  4.50000000E+02  3.40000000E+01  0.00000000E+00
  4.50000000E+02  3.20000000E+01  0.00000000E+00
  4.50000000E+02  3.00000000E+01  0.00000000E+00
  4.50000000E+02  2.80000000E+01  0.00000000E+00
  4.50000000E+02  2.60000000E+01  0.00000000E+00
  4.50000000E+02  2.40000000E+01  0.00000000E+00
  4.50000000E+02  2.20000000E+01  0.00000000E+00
  4.50000000E+02  2.00000000E+01  0.00000000E+00
  4.50000000E+02  1.80000000E+01  0.00000000E+00
  4.50000000E+02  1.60000000E+01  0.00000000E+00
  4.50000000E+02  1.40000000E+01  0.00000000E+00
  4.50000000E+02  1.20000000E+01  0.00000000E+00
  4.50000000E+02  1.00000000E+01  0.00000000E+00
  4.50000000E+02  8.00000000E+00  0.00000000E+00
  4.50000000E+02  6.00000000E+00  0.00000000E+00
  4.50000000E+02  4.00000000E+00  0.00000000E+00
  4.50000000E+02  2.00000000E+00  0.00000000E+00
  4.50000000E+02 -3.33066907E-14  0.00000000E+00
  4.60000000E+02  1.00000000E+02  0.00000000E+00
  4.60000000E+02  9.80000000E+01  0.00000000E+00
  4.60000000E+02  9.60000000E+01  0.00000000E+00
  4.60000000E+02  9.40000000E+01  0.00000000E+00
  4.60000000E+02  9.20000000E+01  0.00000000E+00
  4.60000000E+02  9.00000000E+01  0.00000000E+00
  4.60000000E+02  8.80000000E+01  0.00000000E+00
  4.60000000E+02  8.60000000E+01  0.00000000E+00
  4.60000000E+02  8.40000000E+01  0.00000000E+00
  4.60000000E+02  8.20000000E+01  0.00000000E+00
  4.60000000E+02  8.00000000E+01  0.00000000E+00
  4.60000000E+02  7.80000000E+01  0.00000000E+00
  4.60000000E+02  7.60000000E+01  0.00000000E+00
  4.60000000E+02  7.40000000E+01  0.00000000E+00
  4.60000000E+02  7.20000000E+01  0.00000000E+00
  4.60000000E+02  7.00000000E+01  0.00000000E+00
  4.60000000E+02  6.80000000E+01  0.00000000E+00
  4.60000000E+02  6.60000000E+01  0.00000000E+00
  4.60000000E+02  6.40000000E+01  0.00000000E+00
  4.60000000E+02  6.20000000E+01  0.00000000E+00
  4.60000000E+02  6.00000000E+01  0.00000000E+00
  4.60000000E+02  5.80000000E+01  0.00000000E+00
  4.60000000E+02  5.60000000E+01  0.00000000E+00
  4.60000000E+02  5.40000000E+01  0.00000000E+00
  4.60000000E+02  5.20000000E+01  0.00000000E+00
  4.60000000E+02  5.00000000E+01  0.00000000E+00
  4.60000000E+02  4.80000000E+01  0.00000000E+00
  4.60000000E+02  4.60000000E+01  0.00000000E+00
  4.60000000E+02  4.40000000E+01  0.00000000E+00
  4.60000000E+02  4.20000000E+01  0.00000000E+00
  4.60000000E+02  4.00000000E+01  0.00000000E+00
  4.60000000E+02  3.80000000E+01  0.00000000E+00
  4.60000000E+02  3.60000000E+01  0.00000000E+00
  4.60000000E+02  3.40000000E+01  0.00000000E+00
  4.60000000E+02  3.20000000E+01  0.00000000E+00
  4.60000000E+02  3.00000000E+01  0.00000000E+00
  4.60000000E+02  2.80000000E+01  0.00000000E+00
  4.60000000E+02  2.60000000E+01  0.00000000E+00
  4.60000000E+02  2.40000000E+01  0.00000000E+00
  4.60000000E+02  2.20000000E+01  0.00000000E+00
  4.60000000E+02  2.00000000E+01  0.00000000E+00
  4.60000000E+02  1.80000000E+01  0.00000000E+00
  4.60000000E+02  1.60000000E+01  0.00000000E+00
  4.60000000E+02  1.40000000E+01  0.00000000E+00
  4.60000000E+02  1.20000000E+01  0.00000000E+00
  4.60000000E+02  1.00000000E+01  0.00000000E+00
  4.60000000E+02  8.00000000E+00  0.00000000E+00
  4.60000000E+02  6.00000000E+00  0.00000000E+00
  4.60000000E+02  4.00000000E+00  0.00000000E+00
  4.60000000E+02  2.00000000E+00  0.00000000E+00
  4.60000000E+02 -3.33066907E-14  0.00000000E+00
  4.70000000E+02  1.00000000E+02  0.00000000E+00
  4.70000000E+02  9.80000000E+01  0.00000000E+00
  4.70000000E+02  9.60000000E+01  0.00000000E+00
  4.70000000E+02  9.40000000E+01  0.00000000E+00
  4.70000000E+02  9.20000000E+01  0.00000000E+00
  4.70000000E+02  9.00000000E+01  0.00000000E+00
  4.70000000E+02  8.80000000E+01  0.00000000E+00
  4.70000000E+02  8.60000000E+01  0.00000000E+00
  4.70000000E+02  8.40000000E+01  0.00000000E+00
  4.70000000E+02  8.20000000E+01  0.00000000E+00
  4.70000000E+02  8.00000000E+01  0.00000000E+00
  4.70000000E+02  7.80000000E+01  0.00000000E+00
  4.70000000E+02  7.60000000E+01  0.00000000E+00
  4.70000000E+02  7.40000000E+01  0.00000000E+00
  4.70000000E+02  7.20000000E+01  0.00000000E+00
  4.70000000E+02  7.00000000E+01  0.00000000E+00
  4.70000000E+02  6.80000000E+01  0.00000000E+00
  4.70000000E+02  6.60000000E+01  0.00000000E+00
  4.70000000E+02  6.40000000E+01  0.00000000E+00
  4.70000000E+02  6.20000000E+01  0.00000000E+00
  4.70000000E+02  6.00000000E+01  0.00000000E+00
  4.70000000E+02  5.80000000E+01  0.00000000E+00
  4.70000000E+02  5.60000000E+01  0.00000000E+00
  4.70000000E+02  5.40000000E+01  0.00000000E+00
  4.70000000E+02  5.20000000E+01  0.00000000E+00
  4.70000000E+02  5.00000000E+01  0.00000000E+00
  4.70000000E+02  4.80000000E+01  0.00000000E+00
  4.70000000E+02  4.60000000E+01  0.00000000E+00
  4.70000000E+02  4.40000000E+01  0.00000000E+00
  4.70000000E+02  4.20000000E+01  0.00000000E+00
  4.70000000E+02  4.00000000E+01  0.00000000E+00
  4.70000000E+02  3.80000000E+01  0.00000000E+00
  4.70000000E+02  3.60000000E+01  0.00000000E+00
  4.70000000E+02  3.40000000E+01  0.00000000E+00
  4.70000000E+02  3.20000000E+01  0.00000000E+00
  4.70000000E+02  3.00000000E+01  0.00000000E+00
  4.70000000E+02  2.80000000E+01  0.00000000E+00
  4.70000000E+02  2.60000000E+01  0.00000000E+00
  4.70000000E+02  2.40000000E+01  0.00000000E+00
  4.70000000E+02  2.20000000E+01  0.00000000E+00
  4.70000000E+02  2.00000000E+01  0.00000000E+00
  4.70000000E+02  1.80000000E+01  0.00000000E+00
  4.70000000E+02  1.60000000E+01  0.00000000E+00
  4.70000000E+02  1.40000000E+01  0.00000000E+00
  4.70000000E+02  1.20000000E+01  0.00000000E+00
  4.70000000E+02  1.00000000E+01  0.00000000E+00
  4.70000000E+02  8.00000000E+00  0.00000000E+00
  4.70000000E+02  6.00000000E+00  0.00000000E+00
  4.70000000E+02  4.00000000E+00  0.00000000E+00
  4.70000000E+02  2.00000000E+00  0.00000000E+00
  4.70000000E+02 -3.33066907E-14  0.00000000E+00
  4.80000000E+02  1.00000000E+02  0.00000000E+00
  4.80000000E+02  9.80000000E+01  0.00000000E+00
  4.80000000E+02  9.60000000E+01  0.00000000E+00
  4.80000000E+02  9.40000000E+01  0.00000000E+00
  4.80000000E+02  9.20000000E+01  0.00000000E+00
  4.80000000E+02  9.00000000E+01  0.00000000E+00
  4.80000000E+02  8.80000000E+01  0.00000000E+00
  4.80000000E+02  8.60000000E+01  0.00000000E+00
  4.80000000E+02  8.40000000E+01  0.00000000E+00
  4.80000000E+02  8.20000000E+01  0.00000000E+00
  4.80000000E+02  8.00000000E+01  0.00000000E+00
  4.80000000E+02  7.80000000E+01  0.00000000E+00
  4.80000000E+02  7.60000000E+01  0.00000000E+00
  4.80000000E+02  7.40000000E+01  0.00000000E+00
  4.80000000E+02  7.20000000E+01  0.00000000E+00
  4.80000000E+02  7.00000000E+01  0.00000000E+00
  4.80000000E+02  6.80000000E+01  0.00000000E+00
  4.80000000E+02  6.60000000E+01  0.00000000E+00
  4.80000000E+02  6.40000000E+01  0.00000000E+00
  4.80000000E+02  6.20000000E+01  0.00000000E+00
  4.80000000E+02  6.00000000E+01  0.00000000E+00
  4.80000000E+02  5.80000000E+01  0.00000000E+00
  4.80000000E+02  5.60000000E+01  0.00000000E+00
  4.80000000E+02  5.40000000E+01  0.00000000E+00
  4.80000000E+02  5.20000000E+01  0.00000000E+00
  4.80000000E+02  5.00000000E+01  0.00000000E+00
  4.80000000E+02  4.80000000E+01  0.00000000E+00
  4.80000000E+02  4.60000000E+01  0.00000000E+00
  4.80000000E+02  4.40000000E+01  0.00000000E+00
  4.80000000E+02  4.20000000E+01  0.00000000E+00
  4.80000000E+02  4.00000000E+01  0.00000000E+00
  4.80000000E+02  3.80000000E+01  0.00000000E+00
  4.80000000E+02  3.60000000E+01  0.00000000E+00
  4.80000000E+02  3.40000000E+01  0.00000000E+00
  4.80000000E+02  3.20000000E+01  0.00000000E+00
  4.80000000E+02  3.00000000E+01  0.00000000E+00
  4.80000000E+02  2.80000000E+01  0.00000000E+00
  4.80000000E+02  2.60000000E+01  0.00000000E+00
  4.80000000E+02  2.40000000E+01  0.00000000E+00
  4.80000000E+02  2.20000000E+01  0.00000000E+00
  4.80000000E+02  2.00000000E+01  0.00000000E+00
  4.80000000E+02  1.80000000E+01  0.00000000E+00
  4.80000000E+02  1.60000000E+01  0.00000000E+00
  4.80000000E+02  1.40000000E+01  0.00000000E+00
  4.80000000E+02  1.20000000E+01  0.00000000E+00
  4.80000000E+02  1.00000000E+01  0.00000000E+00
  4.80000000E+02  8.00000000E+00  0.00000000E+00
  4.80000000E+02  6.00000000E+00  0.00000000E+00
  4.80000000E+02  4.00000000E+00  0.00000000E+00
  4.80000000E+02  2.00000000E+00  0.00000000E+00
  4.80000000E+02 -3.33066907E-14  0.00000000E+00
  4.90000000E+02  1.00000000E+02  0.00000000E+00
  4.90000000E+02  9.80000000E+01  0.00000000E+00
  4.90000000E+02  9.60000000E+01  0.00000000E+00
  4.90000000E+02  9.40000000E+01  0.00000000E+00
  4.90000000E+02  9.20000000E+01  0.00000000E+00
  4.90000000E+02  9.00000000E+01  0.00000000E+00
  4.90000000E+02  8.80000000E+01  0.00000000E+00
  4.90000000E+02  8.60000000E+01  0.00000000E+00
  4.90000000E+02  8.40000000E+01  0.00000000E+00
  4.90000000E+02  8.20000000E+01  0.00000000E+00
  4.90000000E+02  8.00000000E+01  0.00000000E+00
  4.90000000E+02  7.80000000E+01  0.00000000E+00
  4.90000000E+02  7.60000000E+01  0.00000000E+00
  4.90000000E+02  7.40000000E+01  0.00000000E+00
  4.90000000E+02  7.20000000E+01  0.00000000E+00
  4.90000000E+02  7.00000000E+01  0.00000000E+00
  4.90000000E+02  6.80000000E+01  0.00000000E+00
  4.90000000E+02  6.60000000E+01  0.00000000E+00
  4.90000000E+02  6.40000000E+01  0.00000000E+00
  4.90000000E+02  6.20000000E+01  0.00000000E+00
  4.90000000E+02  6.00000000E+01  0.00000000E+00
  4.90000000E+02  5.80000000E+01  0.00000000E+00
  4.90000000E+02  5.60000000E+01  0.00000000E+00
  4.90000000E+02  5.40000000E+01  0.00000000E+00
  4.90000000E+02  5.20000000E+01  0.00000000E+00
  4.90000000E+02  5.00000000E+01  0.00000000E+00
  4.90000000E+02  4.80000000E+01  0.00000000E+00
  4.90000000E+02  4.60000000E+01  0.00000000E+00
  4.90000000E+02  4.40000000E+01  0.00000000E+00
  4.90000000E+02  4.20000000E+01  0.00000000E+00
  4.90000000E+02  4.00000000E+01  0.00000000E+00
  4.90000000E+02  3.80000000E+01  0.00000000E+00
  4.90000000E+02  3.60000000E+01  0.00000000E+00
  4.90000000E+02  3.40000000E+01  0.00000000E+00
  4.90000000E+02  3.20000000E+01  0.00000000E+00
  4.90000000E+02  3.00000000E+01  0.00000000E+00
  4.90000000E+02  2.80000000E+01  0.00000000E+00
  4.90000000E+02  2.60000000E+01  0.00000000E+00
  4.90000000E+02  2.40000000E+01  0.00000000E+00
  4.90000000E+02  2.20000000E+01  0.00000000E+00
  4.90000000E+02  2.00000000E+01  0.00000000E+00
  4.90000000E+02  1.80000000E+01  0.00000000E+00
  4.90000000E+02  1.60000000E+01  0.00000000E+00
  4.90000000E+02  1.40000000E+01  0.00000000E+00
  4.90000000E+02  1.20000000E+01  0.00000000E+00
  4.90000000E+02  1.00000000E+01  0.00000000E+00
  4.90000000E+02  8.00000000E+00  0.00000000E+00
  4.90000000E+02  6.00000000E+00  0.00000000E+00
  4.90000000E+02  4.00000000E+00  0.00000000E+00
  4.90000000E+02  2.00000000E+00  0.00000000E+00
  4.90000000E+02 -3.33066907E-14  0.00000000E+00
  5.00000000E+02  1.00000000E+02  0.00000000E+00
  5.00000000E+02  9.80000000E+01  0.00000000E+00
  5.00000000E+02  9.60000000E+01  0.00000000E+00
  5.00000000E+02  9.40000000E+01  0.00000000E+00
  5.00000000E+02  9.20000000E+01  0.00000000E+00
  5.00000000E+02  9.00000000E+01  0.00000000E+00
  5.00000000E+02  8.80000000E+01  0.00000000E+00
  5.00000000E+02  8.60000000E+01  0.00000000E+00
  5.00000000E+02  8.40000000E+01  0.00000000E+00
  5.00000000E+02  8.20000000E+01  0.00000000E+00
  5.00000000E+02  8.00000000E+01  0.00000000E+00
  5.00000000E+02  7.80000000E+01  0.00000000E+00
  5.00000000E+02  7.60000000E+01  0.00000000E+00
  5.00000000E+02  7.40000000E+01  0.00000000E+00
  5.00000000E+02  7.20000000E+01  0.00000000E+00
  5.00000000E+02  7.00000000E+01  0.00000000E+00
  5.00000000E+02  6.80000000E+01  0.00000000E+00
  5.00000000E+02  6.60000000E+01  0.00000000E+00
  5.00000000E+02  6.40000000E+01  0.00000000E+00
  5.00000000E+02  6.20000000E+01  0.00000000E+00
  5.00000000E+02  6.00000000E+01  0.00000000E+00
  5.00000000E+02  5.80000000E+01  0.00000000E+00
  5.00000000E+02  5.60000000E+01  0.00000000E+00
  5.00000000E+02  5.40000000E+01  0.00000000E+00
  5.00000000E+02  5.20000000E+01  0.00000000E+00
  5.00000000E+02  5.00000000E+01  0.00000000E+00
  5.00000000E+02  4.80000000E+01  0.00000000E+00
  5.00000000E+02  4.60000000E+01  0.00000000E+00
  5.00000000E+02  4.40000000E+01  0.00000000E+00
  5.00000000E+02  4.20000000E+01  0.00000000E+00
  5.00000000E+02  4.00000000E+01  0.00000000E+00
  5.00000000E+02  3.80000000E+01  0.00000000E+00
  5.00000000E+02  3.60000000E+01  0.00000000E+00
  5.00000000E+02  3.40000000E+01  0.00000000E+00
  5.00000000E+02  3.20000000E+01  0.00000000E+00
  5.00000000E+02  3.00000000E+01  0.00000000E+00
  5.00000000E+02  2.80000000E+01  0.00000000E+00
  5.00000000E+02  2.60000000E+01  0.00000000E+00
  5.00000000E+02  2.40000000E+01  0.00000000E+00
  5.00000000E+02  2.20000000E+01  0.00000000E+00
  5.00000000E+02  2.00000000E+01  0.00000000E+00
  5.00000000E+02  1.80000000E+01  0.00000000E+00
  5.00000000E+02  1.60000000E+01  0.00000000E+00
  5.00000000E+02  1.40000000E+01  0.00000000E+00
  5.00000000E+02  1.20000000E+01  0.00000000E+00
  5.00000000E+02  1.00000000E+01  0.00000000E+00
  5.00000000E+02  8.00000000E+00  0.00000000E+00
  5.00000000E+02  6.00000000E+00  0.00000000E+00
  5.00000000E+02  4.00000000E+00  0.00000000E+00
  5.00000000E+02  2.00000000E+00  0.00000000E+00
  5.00000000E+02 -3.33066907E-14  0.00000000E+00
  5.10000000E+02  1.00000000E+02  0.00000000E+00
  5.10000000E+02  9.80000000E+01  0.00000000E+00
  5.10000000E+02  9.60000000E+01  0.00000000E+00
  5.10000000E+02  9.40000000E+01  0.00000000E+00
  5.10000000E+02  9.20000000E+01  0.00000000E+00
  5.10000000E+02  9.00000000E+01  0.00000000E+00
  5.10000000E+02  8.80000000E+01  0.00000000E+00
  5.10000000E+02  8.60000000E+01  0.00000000E+00
  5.10000000E+02  8.40000000E+01  0.00000000E+00
  5.10000000E+02  8.20000000E+01  0.00000000E+00
  5.10000000E+02  8.00000000E+01  0.00000000E+00
  5.10000000E+02  7.80000000E+01  0.00000000E+00
  5.10000000E+02  7.60000000E+01  0.00000000E+00
  5.10000000E+02  7.40000000E+01  0.00000000E+00
  5.10000000E+02  7.20000000E+01  0.00000000E+00
  5.10000000E+02  7.00000000E+01  0.00000000E+00
  5.10000000E+02  6.80000000E+01  0.00000000E+00
  5.10000000E+02  6.60000000E+01  0.00000000E+00
  5.10000000E+02  6.40000000E+01  0.00000000E+00
  5.10000000E+02  6.20000000E+01  0.00000000E+00
  5.10000000E+02  6.00000000E+01  0.00000000E+00
  5.10000000E+02  5.80000000E+01  0.00000000E+00
  5.10000000E+02  5.60000000E+01  0.00000000E+00
  5.10000000E+02  5.40000000E+01  0.00000000E+00
  5.10000000E+02  5.20000000E+01  0.00000000E+00
  5.10000000E+02  5.00000000E+01  0.00000000E+00
  5.10000000E+02  4.80000000E+01  0.00000000E+00
  5.10000000E+02  4.60000000E+01  0.00000000E+00
  5.10000000E+02  4.40000000E+01  0.00000000E+00
  5.10000000E+02  4.20000000E+01  0.00000000E+00
  5.10000000E+02  4.00000000E+01  0.00000000E+00
  5.10000000E+02  3.80000000E+01  0.00000000E+00
  5.10000000E+02  3.60000000E+01  0.00000000E+00
  5.10000000E+02  3.40000000E+01  0.00000000E+00
  5.10000000E+02  3.20000000E+01  0.00000000E+00
  5.10000000E+02  3.00000000E+01  0.00000000E+00
  5.10000000E+02  2.80000000E+01  0.00000000E+00
  5.10000000E+02  2.60000000E+01  0.00000000E+00
  5.10000000E+02  2.40000000E+01  0.00000000E+00
  5.10000000E+02  2.20000000E+01  0.00000000E+00
  5.10000000E+02  2.00000000E+01  0.00000000E+00
  5.10000000E+02  1.80000000E+01  0.00000000E+00
  5.10000000E+02  1.60000000E+01  0.00000000E+00
  5.10000000E+02  1.40000000E+01  0.00000000E+00
  5.10000000E+02  1.20000000E+01  0.00000000E+00
  5.10000000E+02  1.00000000E+01  0.00000000E+00
  5.10000000E+02  8.00000000E+00  0.00000000E+00
  5.10000000E+02  6.00000000E+00  0.00000000E+00
  5.10000000E+02  4.00000000E+00  0.00000000E+00
  5.10000000E+02  2.00000000E+00  0.00000000E+00
  5.10000000E+02 -3.33066907E-14  0.00000000E+00
  5.20000000E+02  1.00000000E+02  0.00000000E+00
  5.20000000E+02  9.80000000E+01  0.00000000E+00
  5.20000000E+02  9.60000000E+01  0.00000000E+00
  5.20000000E+02  9.40000000E+01  0.00000000E+00
  5.20000000E+02  9.20000000E+01  0.00000000E+00
  5.20000000E+02  9.00000000E+01  0.00000000E+00
  5.20000000E+02  8.80000000E+01  0.00000000E+00
  5.20000000E+02  8.60000000E+01  0.00000000E+00
  5.20000000E+02  8.40000000E+01  0.00000000E+00
  5.20000000E+02  8.20000000E+01  0.00000000E+00
  5.20000000E+02  8.00000000E+01  0.00000000E+00
  5.20000000E+02  7.80000000E+01  0.00000000E+00
  5.20000000E+02  7.60000000E+01  0.00000000E+00
  5.20000000E+02  7.40000000E+01  0.00000000E+00
  5.20000000E+02  7.20000000E+01  0.00000000E+00
  5.20000000E+02  7.00000000E+01  0.00000000E+00
  5.20000000E+02  6.80000000E+01  0.00000000E+00
  5.20000000E+02  6.60000000E+01  0.00000000E+00
  5.20000000E+02  6.40000000E+01  0.00000000E+00
  5.20000000E+02  6.20000000E+01  0.00000000E+00
  5.20000000E+02  6.00000000E+01  0.00000000E+00
  5.20000000E+02  5.80000000E+01  0.00000000E+00
  5.20000000E+02  5.60000000E+01  0.00000000E+00
  5.20000000E+02  5.40000000E+01  0.00000000E+00
  5.20000000E+02  5.20000000E+01  0.00000000E+00
  5.20000000E+02  5.00000000E+01  0.00000000E+00
  5.20000000E+02  4.80000000E+01  0.00000000E+00
  5.20000000E+02  4.60000000E+01  0.00000000E+00
  5.20000000E+02  4.40000000E+01  0.00000000E+00
  5.20000000E+02  4.20000000E+01  0.00000000E+00
  5.20000000E+02  4.00000000E+01  0.00000000E+00
  5.20000000E+02  3.80000000E+01  0.00000000E+00
  5.20000000E+02  3.60000000E+01  0.00000000E+00
  5.20000000E+02  3.40000000E+01  0.00000000E+00
  5.20000000E+02  3.20000000E+01  0.00000000E+00
  5.20000000E+02  3.00000000E+01  0.00000000E+00
  5.20000000E+02  2.80000000E+01  0.00000000E+00
  5.20000000E+02  2.60000000E+01  0.00000000E+00
  5.20000000E+02  2.40000000E+01  0.00000000E+00
  5.20000000E+02  2.20000000E+01  0.00000000E+00
  5.20000000E+02  2.00000000E+01  0.00000000E+00
  5.20000000E+02  1.80000000E+01  0.00000000E+00
  5.20000000E+02  1.60000000E+01  0.00000000E+00
  5.20000000E+02  1.40000000E+01  0.00000000E+00
  5.20000000E+02  1.20000000E+01  0.00000000E+00
  5.20000000E+02  1.00000000E+01  0.00000000E+00
  5.20000000E+02  8.00000000E+00  0.00000000E+00
  5.20000000E+02  6.00000000E+00  0.00000000E+00
  5.20000000E+02  4.00000000E+00  0.00000000E+00
  5.20000000E+02  2.00000000E+00  0.00000000E+00
  5.20000000E+02 -3.33066907E-14  0.00000000E+00
  5.30000000E+02  1.00000000E+02  0.00000000E+00
  5.30000000E+02  9.80000000E+01  0.00000000E+00
  5.30000000E+02  9.60000000E+01  0.00000000E+00
  5.30000000E+02  9.40000000E+01  0.00000000E+00
  5.30000000E+02  9.20000000E+01  0.00000000E+00
  5.30000000E+02  9.00000000E+01  0.00000000E+00
  5.30000000E+02  8.80000000E+01  0.00000000E+00
  5.30000000E+02  8.60000000E+01  0.00000000E+00
  5.30000000E+02  8.40000000E+01  0.00000000E+00
  5.30000000E+02  8.20000000E+01  0.00000000E+00
  5.30000000E+02  8.00000000E+01  0.00000000E+00
  5.30000000E+02  7.80000000E+01  0.00000000E+00
  5.30000000E+02  7.60000000E+01  0.00000000E+00
  5.30000000E+02  7.40000000E+01  0.00000000E+00
  5.30000000E+02  7.20000000E+01  0.00000000E+00
  5.30000000E+02  7.00000000E+01  0.00000000E+00
  5.30000000E+02  6.80000000E+01  0.00000000E+00
  5.30000000E+02  6.60000000E+01  0.00000000E+00
  5.30000000E+02  6.40000000E+01  0.00000000E+00
  5.30000000E+02  6.20000000E+01  0.00000000E+00
  5.30000000E+02  6.00000000E+01  0.00000000E+00
  5.30000000E+02  5.80000000E+01  0.00000000E+00
  5.30000000E+02  5.60000000E+01  0.00000000E+00
  5.30000000E+02  5.40000000E+01  0.00000000E+00
  5.30000000E+02  5.20000000E+01  0.00000000E+00
  5.30000000E+02  5.00000000E+01  0.00000000E+00
  5.30000000E+02  4.80000000E+01  0.00000000E+00
  5.30000000E+02  4.60000000E+01  0.00000000E+00
  5.30000000E+02  4.40000000E+01  0.00000000E+00
  5.30000000E+02  4.20000000E+01  0.00000000E+00
  5.30000000E+02  4.00000000E+01  0.00000000E+00
  5.30000000E+02  3.80000000E+01  0.00000000E+00
  5.30000000E+02  3.60000000E+01  0.00000000E+00
  5.30000000E+02  3.40000000E+01  0.00000000E+00
  5.30000000E+02  3.20000000E+01  0.00000000E+00
  5.30000000E+02  3.00000000E+01  0.00000000E+00
  5.30000000E+02  2.80000000E+01  0.00000000E+00
  5.30000000E+02  2.60000000E+01  0.00000000E+00
  5.30000000E+02  2.40000000E+01  0.00000000E+00
  5.30000000E+02  2.20000000E+01  0.00000000E+00
  5.30000000E+02  2.00000000E+01  0.00000000E+00
  5.30000000E+02  1.80000000E+01  0.00000000E+00
  5.30000000E+02  1.60000000E+01  0.00000000E+00
  5.30000000E+02  1.40000000E+01  0.00000000E+00
  5.30000000E+02  1.20000000E+01  0.00000000E+00
  5.30000000E+02  1.00000000E+01  0.00000000E+00
  5.30000000E+02  8.00000000E+00  0.00000000E+00
  5.30000000E+02  6.00000000E+00  0.00000000E+00
  5.30000000E+02  4.00000000E+00  0.00000000E+00
  5.30000000E+02  2.00000000E+00  0.00000000E+00
  5.30000000E+02 -3.33066907E-14  0.00000000E+00
  5.40000000E+02  1.00000000E+02  0.00000000E+00
  5.40000000E+02  9.80000000E+01  0.00000000E+00
  5.40000000E+02  9.60000000E+01  0.00000000E+00
  5.40000000E+02  9.40000000E+01  0.00000000E+00
  5.40000000E+02  9.20000000E+01  0.00000000E+00
  5.40000000E+02  9.00000000E+01  0.00000000E+00
  5.40000000E+02  8.80000000E+01  0.00000000E+00
  5.40000000E+02  8.60000000E+01  0.00000000E+00
  5.40000000E+02  8.40000000E+01  0.00000000E+00
  5.40000000E+02  8.20000000E+01  0.00000000E+00
  5.40000000E+02  8.00000000E+01  0.00000000E+00
  5.40000000E+02  7.80000000E+01  0.00000000E+00
  5.40000000E+02  7.60000000E+01  0.00000000E+00
  5.40000000E+02  7.40000000E+01  0.00000000E+00
  5.40000000E+02  7.20000000E+01  0.00000000E+00
  5.40000000E+02  7.00000000E+01  0.00000000E+00
  5.40000000E+02  6.80000000E+01  0.00000000E+00
  5.40000000E+02  6.60000000E+01  0.00000000E+00
  5.40000000E+02  6.40000000E+01  0.00000000E+00
  5.40000000E+02  6.20000000E+01  0.00000000E+00
  5.40000000E+02  6.00000000E+01  0.00000000E+00
  5.40000000E+02  5.80000000E+01  0.00000000E+00
  5.40000000E+02  5.60000000E+01  0.00000000E+00
  5.40000000E+02  5.40000000E+01  0.00000000E+00
  5.40000000E+02  5.20000000E+01  0.00000000E+00
  5.40000000E+02  5.00000000E+01  0.00000000E+00
  5.40000000E+02  4.80000000E+01  0.00000000E+00
  5.40000000E+02  4.60000000E+01  0.00000000E+00
  5.40000000E+02  4.40000000E+01  0.00000000E+00
  5.40000000E+02  4.20000000E+01  0.00000000E+00
  5.40000000E+02  4.00000000E+01  0.00000000E+00
  5.40000000E+02  3.80000000E+01  0.00000000E+00
  5.40000000E+02  3.60000000E+01  0.00000000E+00
  5.40000000E+02  3.40000000E+01  0.00000000E+00
  5.40000000E+02  3.20000000E+01  0.00000000E+00
  5.40000000E+02  3.00000000E+01  0.00000000E+00
  5.40000000E+02  2.80000000E+01  0.00000000E+00
  5.40000000E+02  2.60000000E+01  0.00000000E+00
  5.40000000E+02  2.40000000E+01  0.00000000E+00
  5.40000000E+02  2.20000000E+01  0.00000000E+00
  5.40000000E+02  2.00000000E+01  0.00000000E+00
  5.40000000E+02  1.80000000E+01  0.00000000E+00
  5.40000000E+02  1.60000000E+01  0.00000000E+00
  5.40000000E+02  1.40000000E+01  0.00000000E+00
  5.40000000E+02  1.20000000E+01  0.00000000E+00
  5.40000000E+02  1.00000000E+01  0.00000000E+00
  5.40000000E+02  8.00000000E+00  0.00000000E+00
  5.40000000E+02  6.00000000E+00  0.00000000E+00
  5.40000000E+02  4.00000000E+00  0.00000000E+00
  5.40000000E+02  2.00000000E+00  0.00000000E+00
  5.40000000E+02 -3.33066907E-14  0.00000000E+00
  5.50000000E+02  1.00000000E+02  0.00000000E+00
  5.50000000E+02  9.80000000E+01  0.00000000E+00
  5.50000000E+02  9.60000000E+01  0.00000000E+00
  5.50000000E+02  9.40000000E+01  0.00000000E+00
  5.50000000E+02  9.20000000E+01  0.00000000E+00
  5.50000000E+02  9.00000000E+01  0.00000000E+00
  5.50000000E+02  8.80000000E+01  0.00000000E+00
  5.50000000E+02  8.60000000E+01  0.00000000E+00
  5.50000000E+02  8.40000000E+01  0.00000000E+00
  5.50000000E+02  8.20000000E+01  0.00000000E+00
  5.50000000E+02  8.00000000E+01  0.00000000E+00
  5.50000000E+02  7.80000000E+01  0.00000000E+00
  5.50000000E+02  7.60000000E+01  0.00000000E+00
  5.50000000E+02  7.40000000E+01  0.00000000E+00
  5.50000000E+02  7.20000000E+01  0.00000000E+00
  5.50000000E+02  7.00000000E+01  0.00000000E+00
  5.50000000E+02  6.80000000E+01  0.00000000E+00
  5.50000000E+02  6.60000000E+01  0.00000000E+00
  5.50000000E+02  6.40000000E+01  0.00000000E+00
  5.50000000E+02  6.20000000E+01  0.00000000E+00
  5.50000000E+02  6.00000000E+01  0.00000000E+00
  5.50000000E+02  5.80000000E+01  0.00000000E+00
  5.50000000E+02  5.60000000E+01  0.00000000E+00
  5.50000000E+02  5.40000000E+01  0.00000000E+00
  5.50000000E+02  5.20000000E+01  0.00000000E+00
  5.50000000E+02  5.00000000E+01  0.00000000E+00
  5.50000000E+02  4.80000000E+01  0.00000000E+00
  5.50000000E+02  4.60000000E+01  0.00000000E+00
  5.50000000E+02  4.40000000E+01  0.00000000E+00
  5.50000000E+02  4.20000000E+01  0.00000000E+00
  5.50000000E+02  4.00000000E+01  0.00000000E+00
  5.50000000E+02  3.80000000E+01  0.00000000E+00
  5.50000000E+02  3.60000000E+01  0.00000000E+00
  5.50000000E+02  3.40000000E+01  0.00000000E+00
  5.50000000E+02  3.20000000E+01  0.00000000E+00
  5.50000000E+02  3.00000000E+01  0.00000000E+00
  5.50000000E+02  2.80000000E+01  0.00000000E+00
  5.50000000E+02  2.60000000E+01  0.00000000E+00
  5.50000000E+02  2.40000000E+01  0.00000000E+00
  5.50000000E+02  2.20000000E+01  0.00000000E+00
  5.50000000E+02  2.00000000E+01  0.00000000E+00
  5.50000000E+02  1.80000000E+01  0.00000000E+00
  5.50000000E+02  1.60000000E+01  0.00000000E+00
  5.50000000E+02  1.40000000E+01  0.00000000E+00
  5.50000000E+02  1.20000000E+01  0.00000000E+00
  5.50000000E+02  1.00000000E+01  0.00000000E+00
  5.50000000E+02  8.00000000E+00  0.00000000E+00
  5.50000000E+02  6.00000000E+00  0.00000000E+00
  5.50000000E+02  4.00000000E+00  0.00000000E+00
  5.50000000E+02  2.00000000E+00  0.00000000E+00
  5.50000000E+02 -3.33066907E-14  0.00000000E+00
  5.60000000E+02  1.00000000E+02  0.00000000E+00
  5.60000000E+02  9.80000000E+01  0.00000000E+00
  5.60000000E+02  9.60000000E+01  0.00000000E+00
  5.60000000E+02  9.40000000E+01  0.00000000E+00
  5.60000000E+02  9.20000000E+01  0.00000000E+00
  5.60000000E+02  9.00000000E+01  0.00000000E+00
  5.60000000E+02  8.80000000E+01  0.00000000E+00
  5.60000000E+02  8.60000000E+01  0.00000000E+00
  5.60000000E+02  8.40000000E+01  0.00000000E+00
  5.60000000E+02  8.20000000E+01  0.00000000E+00
  5.60000000E+02  8.00000000E+01  0.00000000E+00
  5.60000000E+02  7.80000000E+01  0.00000000E+00
  5.60000000E+02  7.60000000E+01  0.00000000E+00
  5.60000000E+02  7.40000000E+01  0.00000000E+00
  5.60000000E+02  7.20000000E+01  0.00000000E+00
  5.60000000E+02  7.00000000E+01  0.00000000E+00
  5.60000000E+02  6.80000000E+01  0.00000000E+00
  5.60000000E+02  6.60000000E+01  0.00000000E+00
  5.60000000E+02  6.40000000E+01  0.00000000E+00
  5.60000000E+02  6.20000000E+01  0.00000000E+00
  5.60000000E+02  6.00000000E+01  0.00000000E+00
  5.60000000E+02  5.80000000E+01  0.00000000E+00
  5.60000000E+02  5.60000000E+01  0.00000000E+00
  5.60000000E+02  5.40000000E+01  0.00000000E+00
  5.60000000E+02  5.20000000E+01  0.00000000E+00
  5.60000000E+02  5.00000000E+01  0.00000000E+00
  5.60000000E+02  4.80000000E+01  0.00000000E+00
  5.60000000E+02  4.60000000E+01  0.00000000E+00
  5.60000000E+02  4.40000000E+01  0.00000000E+00
  5.60000000E+02  4.20000000E+01  0.00000000E+00
  5.60000000E+02  4.00000000E+01  0.00000000E+00
  5.60000000E+02  3.80000000E+01  0.00000000E+00
  5.60000000E+02  3.60000000E+01  0.00000000E+00
  5.60000000E+02  3.40000000E+01  0.00000000E+00
  5.60000000E+02  3.20000000E+01  0.00000000E+00
  5.60000000E+02  3.00000000E+01  0.00000000E+00
  5.60000000E+02  2.80000000E+01  0.00000000E+00
  5.60000000E+02  2.60000000E+01  0.00000000E+00
  5.60000000E+02  2.40000000E+01  0.00000000E+00
  5.60000000E+02  2.20000000E+01  0.00000000E+00
  5.60000000E+02  2.00000000E+01  0.00000000E+00
  5.60000000E+02  1.80000000E+01  0.00000000E+00
  5.60000000E+02  1.60000000E+01  0.00000000E+00
  5.60000000E+02  1.40000000E+01  0.00000000E+00
  5.60000000E+02  1.20000000E+01  0.00000000E+00
  5.60000000E+02  1.00000000E+01  0.00000000E+00
  5.60000000E+02  8.00000000E+00  0.00000000E+00
  5.60000000E+02  6.00000000E+00  0.00000000E+00
  5.60000000E+02  4.00000000E+00  0.00000000E+00
  5.60000000E+02  2.00000000E+00  0.00000000E+00
  5.60000000E+02 -3.33066907E-14  0.00000000E+00
  5.70000000E+02  1.00000000E+02  0.00000000E+00
  5.70000000E+02  9.80000000E+01  0.00000000E+00
  5.70000000E+02  9.60000000E+01  0.00000000E+00
  5.70000000E+02  9.40000000E+01  0.00000000E+00
  5.70000000E+02  9.20000000E+01  0.00000000E+00
  5.70000000E+02  9.00000000E+01  0.00000000E+00
  5.70000000E+02  8.80000000E+01  0.00000000E+00
  5.70000000E+02  8.60000000E+01  0.00000000E+00
  5.70000000E+02  8.40000000E+01  0.00000000E+00
  5.70000000E+02  8.20000000E+01  0.00000000E+00
  5.70000000E+02  8.00000000E+01  0.00000000E+00
  5.70000000E+02  7.80000000E+01  0.00000000E+00
  5.70000000E+02  7.60000000E+01  0.00000000E+00
  5.70000000E+02  7.40000000E+01  0.00000000E+00
  5.70000000E+02  7.20000000E+01  0.00000000E+00
  5.70000000E+02  7.00000000E+01  0.00000000E+00
  5.70000000E+02  6.80000000E+01  0.00000000E+00
  5.70000000E+02  6.60000000E+01  0.00000000E+00
  5.70000000E+02  6.40000000E+01  0.00000000E+00
  5.70000000E+02  6.20000000E+01  0.00000000E+00
  5.70000000E+02  6.00000000E+01  0.00000000E+00
  5.70000000E+02  5.80000000E+01  0.00000000E+00
  5.70000000E+02  5.60000000E+01  0.00000000E+00
  5.70000000E+02  5.40000000E+01  0.00000000E+00
  5.70000000E+02  5.20000000E+01  0.00000000E+00
  5.70000000E+02  5.00000000E+01  0.00000000E+00
  5.70000000E+02  4.80000000E+01  0.00000000E+00
  5.70000000E+02  4.60000000E+01  0.00000000E+00
  5.70000000E+02  4.40000000E+01  0.00000000E+00
  5.70000000E+02  4.20000000E+01  0.00000000E+00
  5.70000000E+02  4.00000000E+01  0.00000000E+00
  5.70000000E+02  3.80000000E+01  0.00000000E+00
  5.70000000E+02  3.60000000E+01  0.00000000E+00
  5.70000000E+02  3.40000000E+01  0.00000000E+00
  5.70000000E+02  3.20000000E+01  0.00000000E+00
  5.70000000E+02  3.00000000E+01  0.00000000E+00
  5.70000000E+02  2.80000000E+01  0.00000000E+00
  5.70000000E+02  2.60000000E+01  0.00000000E+00
  5.70000000E+02  2.40000000E+01  0.00000000E+00
  5.70000000E+02  2.20000000E+01  0.00000000E+00
  5.70000000E+02  2.00000000E+01  0.00000000E+00
  5.70000000E+02  1.80000000E+01  0.00000000E+00
  5.70000000E+02  1.60000000E+01  0.00000000E+00
  5.70000000E+02  1.40000000E+01  0.00000000E+00
  5.70000000E+02  1.20000000E+01  0.00000000E+00
  5.70000000E+02  1.00000000E+01  0.00000000E+00
  5.70000000E+02  8.00000000E+00  0.00000000E+00
  5.70000000E+02  6.00000000E+00  0.00000000E+00
  5.70000000E+02  4.00000000E+00  0.00000000E+00
  5.70000000E+02  2.00000000E+00  0.00000000E+00
  5.70000000E+02 -3.33066907E-14  0.00000000E+00
  5.80000000E+02  1.00000000E+02  0.00000000E+00
  5.80000000E+02  9.80000000E+01  0.00000000E+00
  5.80000000E+02  9.60000000E+01  0.00000000E+00
  5.80000000E+02  9.40000000E+01  0.00000000E+00
  5.80000000E+02  9.20000000E+01  0.00000000E+00
  5.80000000E+02  9.00000000E+01  0.00000000E+00
  5.80000000E+02  8.80000000E+01  0.00000000E+00
  5.80000000E+02  8.60000000E+01  0.00000000E+00
  5.80000000E+02  8.40000000E+01  0.00000000E+00
  5.80000000E+02  8.20000000E+01  0.00000000E+00
  5.80000000E+02  8.00000000E+01  0.00000000E+00
  5.80000000E+02  7.80000000E+01  0.00000000E+00
  5.80000000E+02  7.60000000E+01  0.00000000E+00
  5.80000000E+02  7.40000000E+01  0.00000000E+00
  5.80000000E+02  7.20000000E+01  0.00000000E+00
  5.80000000E+02  7.00000000E+01  0.00000000E+00
  5.80000000E+02  6.80000000E+01  0.00000000E+00
  5.80000000E+02  6.60000000E+01  0.00000000E+00
  5.80000000E+02  6.40000000E+01  0.00000000E+00
  5.80000000E+02  6.20000000E+01  0.00000000E+00
  5.80000000E+02  6.00000000E+01  0.00000000E+00
  5.80000000E+02  5.80000000E+01  0.00000000E+00
  5.80000000E+02  5.60000000E+01  0.00000000E+00
  5.80000000E+02  5.40000000E+01  0.00000000E+00
  5.80000000E+02  5.20000000E+01  0.00000000E+00
  5.80000000E+02  5.00000000E+01  0.00000000E+00
  5.80000000E+02  4.80000000E+01  0.00000000E+00
  5.80000000E+02  4.60000000E+01  0.00000000E+00
  5.80000000E+02  4.40000000E+01  0.00000000E+00
  5.80000000E+02  4.20000000E+01  0.00000000E+00
  5.80000000E+02  4.00000000E+01  0.00000000E+00
  5.80000000E+02  3.80000000E+01  0.00000000E+00
  5.80000000E+02  3.60000000E+01  0.00000000E+00
  5.80000000E+02  3.40000000E+01  0.00000000E+00
  5.80000000E+02  3.20000000E+01  0.00000000E+00
  5.80000000E+02  3.00000000E+01  0.00000000E+00
  5.80000000E+02  2.80000000E+01  0.00000000E+00
  5.80000000E+02  2.60000000E+01  0.00000000E+00
  5.80000000E+02  2.40000000E+01  0.00000000E+00
  5.80000000E+02  2.20000000E+01  0.00000000E+00
  5.80000000E+02  2.00000000E+01  0.00000000E+00
  5.80000000E+02  1.80000000E+01  0.00000000E+00
  5.80000000E+02  1.60000000E+01  0.00000000E+00
  5.80000000E+02  1.40000000E+01  0.00000000E+00
  5.80000000E+02  1.20000000E+01  0.00000000E+00
  5.80000000E+02  1.00000000E+01  0.00000000E+00
  5.80000000E+02  8.00000000E+00  0.00000000E+00
  5.80000000E+02  6.00000000E+00  0.00000000E+00
  5.80000000E+02  4.00000000E+00  0.00000000E+00
  5.80000000E+02  2.00000000E+00  0.00000000E+00
  5.80000000E+02 -3.33066907E-14  0.00000000E+00
  5.90000000E+02  1.00000000E+02  0.00000000E+00
  5.90000000E+02  9.80000000E+01  0.00000000E+00
  5.90000000E+02  9.60000000E+01  0.00000000E+00
  5.90000000E+02  9.40000000E+01  0.00000000E+00
  5.90000000E+02  9.20000000E+01  0.00000000E+00
  5.90000000E+02  9.00000000E+01  0.00000000E+00
  5.90000000E+02  8.80000000E+01  0.00000000E+00
  5.90000000E+02  8.60000000E+01  0.00000000E+00
  5.90000000E+02  8.40000000E+01  0.00000000E+00
  5.90000000E+02  8.20000000E+01  0.00000000E+00
  5.90000000E+02  8.00000000E+01  0.00000000E+00
  5.90000000E+02  7.80000000E+01  0.00000000E+00
  5.90000000E+02  7.60000000E+01  0.00000000E+00
  5.90000000E+02  7.40000000E+01  0.00000000E+00
  5.90000000E+02  7.20000000E+01  0.00000000E+00
  5.90000000E+02  7.00000000E+01  0.00000000E+00
  5.90000000E+02  6.80000000E+01  0.00000000E+00
  5.90000000E+02  6.60000000E+01  0.00000000E+00
  5.90000000E+02  6.40000000E+01  0.00000000E+00
  5.90000000E+02  6.20000000E+01  0.00000000E+00
  5.90000000E+02  6.00000000E+01  0.00000000E+00
  5.90000000E+02  5.80000000E+01  0.00000000E+00
  5.90000000E+02  5.60000000E+01  0.00000000E+00
  5.90000000E+02  5.40000000E+01  0.00000000E+00
  5.90000000E+02  5.20000000E+01  0.00000000E+00
  5.90000000E+02  5.00000000E+01  0.00000000E+00
  5.90000000E+02  4.80000000E+01  0.00000000E+00
  5.90000000E+02  4.60000000E+01  0.00000000E+00
  5.90000000E+02  4.40000000E+01  0.00000000E+00
  5.90000000E+02  4.20000000E+01  0.00000000E+00
  5.90000000E+02  4.00000000E+01  0.00000000E+00
  5.90000000E+02  3.80000000E+01  0.00000000E+00
  5.90000000E+02  3.60000000E+01  0.00000000E+00
  5.90000000E+02  3.40000000E+01  0.00000000E+00
  5.90000000E+02  3.20000000E+01  0.00000000E+00
  5.90000000E+02  3.00000000E+01  0.00000000E+00
  5.90000000E+02  2.80000000E+01  0.00000000E+00
  5.90000000E+02  2.60000000E+01  0.00000000E+00
  5.90000000E+02  2.40000000E+01  0.00000000E+00
  5.90000000E+02  2.20000000E+01  0.00000000E+00
  5.90000000E+02  2.00000000E+01  0.00000000E+00
  5.90000000E+02  1.80000000E+01  0.00000000E+00
  5.90000000E+02  1.60000000E+01  0.00000000E+00
  5.90000000E+02  1.40000000E+01  0.00000000E+00
  5.90000000E+02  1.20000000E+01  0.00000000E+00
  5.90000000E+02  1.00000000E+01  0.00000000E+00
  5.90000000E+02  8.00000000E+00  0.00000000E+00
  5.90000000E+02  6.00000000E+00  0.00000000E+00
  5.90000000E+02  4.00000000E+00  0.00000000E+00
  5.90000000E+02  2.00000000E+00  0.00000000E+00
  5.90000000E+02 -3.33066907E-14  0.00000000E+00
  6.00000000E+02  1.00000000E+02  0.00000000E+00
  6.00000000E+02  9.80000000E+01  0.00000000E+00
  6.00000000E+02  9.60000000E+01  0.00000000E+00
  6.00000000E+02  9.40000000E+01  0.00000000E+00
  6.00000000E+02  9.20000000E+01  0.00000000E+00
  6.00000000E+02  9.00000000E+01  0.00000000E+00
  6.00000000E+02  8.80000000E+01  0.00000000E+00
  6.00000000E+02  8.60000000E+01  0.00000000E+00
  6.00000000E+02  8.40000000E+01  0.00000000E+00
  6.00000000E+02  8.20000000E+01  0.00000000E+00
  6.00000000E+02  8.00000000E+01  0.00000000E+00
  6.00000000E+02  7.80000000E+01  0.00000000E+00
  6.00000000E+02  7.60000000E+01  0.00000000E+00
  6.00000000E+02  7.40000000E+01  0.00000000E+00
  6.00000000E+02  7.20000000E+01  0.00000000E+00
  6.00000000E+02  7.00000000E+01  0.00000000E+00
  6.00000000E+02  6.80000000E+01  0.00000000E+00
  6.00000000E+02  6.60000000E+01  0.00000000E+00
  6.00000000E+02  6.40000000E+01  0.00000000E+00
  6.00000000E+02  6.20000000E+01  0.00000000E+00
  6.00000000E+02  6.00000000E+01  0.00000000E+00
  6.00000000E+02  5.80000000E+01  0.00000000E+00
  6.00000000E+02  5.60000000E+01  0.00000000E+00
  6.00000000E+02  5.40000000E+01  0.00000000E+00
  6.00000000E+02  5.20000000E+01  0.00000000E+00
  6.00000000E+02  5.00000000E+01  0.00000000E+00
  6.00000000E+02  4.80000000E+01  0.00000000E+00
  6.00000000E+02  4.60000000E+01  0.00000000E+00
  6.00000000E+02  4.40000000E+01  0.00000000E+00
  6.00000000E+02  4.20000000E+01  0.00000000E+00
  6.00000000E+02  4.00000000E+01  0.00000000E+00
  6.00000000E+02  3.80000000E+01  0.00000000E+00
  6.00000000E+02  3.60000000E+01  0.00000000E+00
  6.00000000E+02  3.40000000E+01  0.00000000E+00
  6.00000000E+02  3.20000000E+01  0.00000000E+00
  6.00000000E+02  3.00000000E+01  0.00000000E+00
  6.00000000E+02  2.80000000E+01  0.00000000E+00
  6.00000000E+02  2.60000000E+01  0.00000000E+00
  6.00000000E+02  2.40000000E+01  0.00000000E+00
  6.00000000E+02  2.20000000E+01  0.00000000E+00
  6.00000000E+02  2.00000000E+01  0.00000000E+00
  6.00000000E+02  1.80000000E+01  0.00000000E+00
  6.00000000E+02  1.60000000E+01  0.00000000E+00
  6.00000000E+02  1.40000000E+01  0.00000000E+00
  6.00000000E+02  1.20000000E+01  0.00000000E+00
  6.00000000E+02  1.00000000E+01  0.00000000E+00
  6.00000000E+02  8.00000000E+00  0.00000000E+00
  6.00000000E+02  6.00000000E+00  0.00000000E+00
  6.00000000E+02  4.00000000E+00  0.00000000E+00
  6.00000000E+02  2.00000000E+00  0.00000000E+00
  6.00000000E+02 -3.33066907E-14  0.00000000E+00
  6.10000000E+02  1.00000000E+02  0.00000000E+00
  6.10000000E+02  9.80000000E+01  0.00000000E+00
  6.10000000E+02  9.60000000E+01  0.00000000E+00
  6.10000000E+02  9.40000000E+01  0.00000000E+00
  6.10000000E+02  9.20000000E+01  0.00000000E+00
  6.10000000E+02  9.00000000E+01  0.00000000E+00
  6.10000000E+02  8.80000000E+01  0.00000000E+00
  6.10000000E+02  8.60000000E+01  0.00000000E+00
  6.10000000E+02  8.40000000E+01  0.00000000E+00
  6.10000000E+02  8.20000000E+01  0.00000000E+00
  6.10000000E+02  8.00000000E+01  0.00000000E+00
  6.10000000E+02  7.80000000E+01  0.00000000E+00
  6.10000000E+02  7.60000000E+01  0.00000000E+00
  6.10000000E+02  7.40000000E+01  0.00000000E+00
  6.10000000E+02  7.20000000E+01  0.00000000E+00
  6.10000000E+02  7.00000000E+01  0.00000000E+00
  6.10000000E+02  6.80000000E+01  0.00000000E+00
  6.10000000E+02  6.60000000E+01  0.00000000E+00
  6.10000000E+02  6.40000000E+01  0.00000000E+00
  6.10000000E+02  6.20000000E+01  0.00000000E+00
  6.10000000E+02  6.00000000E+01  0.00000000E+00
  6.10000000E+02  5.80000000E+01  0.00000000E+00
  6.10000000E+02  5.60000000E+01  0.00000000E+00
  6.10000000E+02  5.40000000E+01  0.00000000E+00
  6.10000000E+02  5.20000000E+01  0.00000000E+00
  6.10000000E+02  5.00000000E+01  0.00000000E+00
  6.10000000E+02  4.80000000E+01  0.00000000E+00
  6.10000000E+02  4.60000000E+01  0.00000000E+00
  6.10000000E+02  4.40000000E+01  0.00000000E+00
  6.10000000E+02  4.20000000E+01  0.00000000E+00
  6.10000000E+02  4.00000000E+01  0.00000000E+00
  6.10000000E+02  3.80000000E+01  0.00000000E+00
  6.10000000E+02  3.60000000E+01  0.00000000E+00
  6.10000000E+02  3.40000000E+01  0.00000000E+00
  6.10000000E+02  3.20000000E+01  0.00000000E+00
  6.10000000E+02  3.00000000E+01  0.00000000E+00
  6.10000000E+02  2.80000000E+01  0.00000000E+00
  6.10000000E+02  2.60000000E+01  0.00000000E+00
  6.10000000E+02  2.40000000E+01  0.00000000E+00
  6.10000000E+02  2.20000000E+01  0.00000000E+00
  6.10000000E+02  2.00000000E+01  0.00000000E+00
  6.10000000E+02  1.80000000E+01  0.00000000E+00
  6.10000000E+02  1.60000000E+01  0.00000000E+00
  6.10000000E+02  1.40000000E+01  0.00000000E+00
  6.10000000E+02  1.20000000E+01  0.00000000E+00
  6.10000000E+02  1.00000000E+01  0.00000000E+00
  6.10000000E+02  8.00000000E+00  0.00000000E+00
  6.10000000E+02  6.00000000E+00  0.00000000E+00
  6.10000000E+02  4.00000000E+00  0.00000000E+00
  6.10000000E+02  2.00000000E+00  0.00000000E+00
  6.10000000E+02 -3.33066907E-14  0.00000000E+00
  6.20000000E+02  1.00000000E+02  0.00000000E+00
  6.20000000E+02  9.80000000E+01  0.00000000E+00
  6.20000000E+02  9.60000000E+01  0.00000000E+00
  6.20000000E+02  9.40000000E+01  0.00000000E+00
  6.20000000E+02  9.20000000E+01  0.00000000E+00
  6.20000000E+02  9.00000000E+01  0.00000000E+00
  6.20000000E+02  8.80000000E+01  0.00000000E+00
  6.20000000E+02  8.60000000E+01  0.00000000E+00
  6.20000000E+02  8.40000000E+01  0.00000000E+00
  6.20000000E+02  8.20000000E+01  0.00000000E+00
  6.20000000E+02  8.00000000E+01  0.00000000E+00
  6.20000000E+02  7.80000000E+01  0.00000000E+00
  6.20000000E+02  7.60000000E+01  0.00000000E+00
  6.20000000E+02  7.40000000E+01  0.00000000E+00
  6.20000000E+02  7.20000000E+01  0.00000000E+00
  6.20000000E+02  7.00000000E+01  0.00000000E+00
  6.20000000E+02  6.80000000E+01  0.00000000E+00
  6.20000000E+02  6.60000000E+01  0.00000000E+00
  6.20000000E+02  6.40000000E+01  0.00000000E+00
  6.20000000E+02  6.20000000E+01  0.00000000E+00
  6.20000000E+02  6.00000000E+01  0.00000000E+00
  6.20000000E+02  5.80000000E+01  0.00000000E+00
  6.20000000E+02  5.60000000E+01  0.00000000E+00
  6.20000000E+02  5.40000000E+01  0.00000000E+00
  6.20000000E+02  5.20000000E+01  0.00000000E+00
  6.20000000E+02  5.00000000E+01  0.00000000E+00
  6.20000000E+02  4.80000000E+01  0.00000000E+00
  6.20000000E+02  4.60000000E+01  0.00000000E+00
  6.20000000E+02  4.40000000E+01  0.00000000E+00
  6.20000000E+02  4.20000000E+01  0.00000000E+00
  6.20000000E+02  4.00000000E+01  0.00000000E+00
  6.20000000E+02  3.80000000E+01  0.00000000E+00
  6.20000000E+02  3.60000000E+01  0.00000000E+00
  6.20000000E+02  3.40000000E+01  0.00000000E+00
  6.20000000E+02  3.20000000E+01  0.00000000E+00
  6.20000000E+02  3.00000000E+01  0.00000000E+00
  6.20000000E+02  2.80000000E+01  0.00000000E+00
  6.20000000E+02  2.60000000E+01  0.00000000E+00
  6.20000000E+02  2.40000000E+01  0.00000000E+00
  6.20000000E+02  2.20000000E+01  0.00000000E+00
  6.20000000E+02  2.00000000E+01  0.00000000E+00
  6.20000000E+02  1.80000000E+01  0.00000000E+00
  6.20000000E+02  1.60000000E+01  0.00000000E+00
  6.20000000E+02  1.40000000E+01  0.00000000E+00
  6.20000000E+02  1.20000000E+01  0.00000000E+00
  6.20000000E+02  1.00000000E+01  0.00000000E+00
  6.20000000E+02  8.00000000E+00  0.00000000E+00
  6.20000000E+02  6.00000000E+00  0.00000000E+00
  6.20000000E+02  4.00000000E+00  0.00000000E+00
  6.20000000E+02  2.00000000E+00  0.00000000E+00
  6.20000000E+02 -3.33066907E-14  0.00000000E+00
  6.30000000E+02  1.00000000E+02  0.00000000E+00
  6.30000000E+02  9.80000000E+01  0.00000000E+00
  6.30000000E+02  9.60000000E+01  0.00000000E+00
  6.30000000E+02  9.40000000E+01  0.00000000E+00
  6.30000000E+02  9.20000000E+01  0.00000000E+00
  6.30000000E+02  9.00000000E+01  0.00000000E+00
  6.30000000E+02  8.80000000E+01  0.00000000E+00
  6.30000000E+02  8.60000000E+01  0.00000000E+00
  6.30000000E+02  8.40000000E+01  0.00000000E+00
  6.30000000E+02  8.20000000E+01  0.00000000E+00
  6.30000000E+02  8.00000000E+01  0.00000000E+00
  6.30000000E+02  7.80000000E+01  0.00000000E+00
  6.30000000E+02  7.60000000E+01  0.00000000E+00
  6.30000000E+02  7.40000000E+01  0.00000000E+00
  6.30000000E+02  7.20000000E+01  0.00000000E+00
  6.30000000E+02  7.00000000E+01  0.00000000E+00
  6.30000000E+02  6.80000000E+01  0.00000000E+00
  6.30000000E+02  6.60000000E+01  0.00000000E+00
  6.30000000E+02  6.40000000E+01  0.00000000E+00
  6.30000000E+02  6.20000000E+01  0.00000000E+00
  6.30000000E+02  6.00000000E+01  0.00000000E+00
  6.30000000E+02  5.80000000E+01  0.00000000E+00
  6.30000000E+02  5.60000000E+01  0.00000000E+00
  6.30000000E+02  5.40000000E+01  0.00000000E+00
  6.30000000E+02  5.20000000E+01  0.00000000E+00
  6.30000000E+02  5.00000000E+01  0.00000000E+00
  6.30000000E+02  4.80000000E+01  0.00000000E+00
  6.30000000E+02  4.60000000E+01  0.00000000E+00
  6.30000000E+02  4.40000000E+01  0.00000000E+00
  6.30000000E+02  4.20000000E+01  0.00000000E+00
  6.30000000E+02  4.00000000E+01  0.00000000E+00
  6.30000000E+02  3.80000000E+01  0.00000000E+00
  6.30000000E+02  3.60000000E+01  0.00000000E+00
  6.30000000E+02  3.40000000E+01  0.00000000E+00
  6.30000000E+02  3.20000000E+01  0.00000000E+00
  6.30000000E+02  3.00000000E+01  0.00000000E+00
  6.30000000E+02  2.80000000E+01  0.00000000E+00
  6.30000000E+02  2.60000000E+01  0.00000000E+00
  6.30000000E+02  2.40000000E+01  0.00000000E+00
  6.30000000E+02  2.20000000E+01  0.00000000E+00
  6.30000000E+02  2.00000000E+01  0.00000000E+00
  6.30000000E+02  1.80000000E+01  0.00000000E+00
  6.30000000E+02  1.60000000E+01  0.00000000E+00
  6.30000000E+02  1.40000000E+01  0.00000000E+00
  6.30000000E+02  1.20000000E+01  0.00000000E+00
  6.30000000E+02  1.00000000E+01  0.00000000E+00
  6.30000000E+02  8.00000000E+00  0.00000000E+00
  6.30000000E+02  6.00000000E+00  0.00000000E+00
  6.30000000E+02  4.00000000E+00  0.00000000E+00
  6.30000000E+02  2.00000000E+00  0.00000000E+00
  6.30000000E+02 -3.33066907E-14  0.00000000E+00
  6.40000000E+02  1.00000000E+02  0.00000000E+00
  6.40000000E+02  9.80000000E+01  0.00000000E+00
  6.40000000E+02  9.60000000E+01  0.00000000E+00
  6.40000000E+02  9.40000000E+01  0.00000000E+00
  6.40000000E+02  9.20000000E+01  0.00000000E+00
  6.40000000E+02  9.00000000E+01  0.00000000E+00
  6.40000000E+02  8.80000000E+01  0.00000000E+00
  6.40000000E+02  8.60000000E+01  0.00000000E+00
  6.40000000E+02  8.40000000E+01  0.00000000E+00
  6.40000000E+02  8.20000000E+01  0.00000000E+00
  6.40000000E+02  8.00000000E+01  0.00000000E+00
  6.40000000E+02  7.80000000E+01  0.00000000E+00
  6.40000000E+02  7.60000000E+01  0.00000000E+00
  6.40000000E+02  7.40000000E+01  0.00000000E+00
  6.40000000E+02  7.20000000E+01  0.00000000E+00
  6.40000000E+02  7.00000000E+01  0.00000000E+00
  6.40000000E+02  6.80000000E+01  0.00000000E+00
  6.40000000E+02  6.60000000E+01  0.00000000E+00
  6.40000000E+02  6.40000000E+01  0.00000000E+00
  6.40000000E+02  6.20000000E+01  0.00000000E+00
  6.40000000E+02  6.00000000E+01  0.00000000E+00
  6.40000000E+02  5.80000000E+01  0.00000000E+00
  6.40000000E+02  5.60000000E+01  0.00000000E+00
  6.40000000E+02  5.40000000E+01  0.00000000E+00
  6.40000000E+02  5.20000000E+01  0.00000000E+00
  6.40000000E+02  5.00000000E+01  0.00000000E+00
  6.40000000E+02  4.80000000E+01  0.00000000E+00
  6.40000000E+02  4.60000000E+01  0.00000000E+00
  6.40000000E+02  4.40000000E+01  0.00000000E+00
  6.40000000E+02  4.20000000E+01  0.00000000E+00
  6.40000000E+02  4.00000000E+01  0.00000000E+00
  6.40000000E+02  3.80000000E+01  0.00000000E+00
  6.40000000E+02  3.60000000E+01  0.00000000E+00
  6.40000000E+02  3.40000000E+01  0.00000000E+00
  6.40000000E+02  3.20000000E+01  0.00000000E+00
  6.40000000E+02  3.00000000E+01  0.00000000E+00
  6.40000000E+02  2.80000000E+01  0.00000000E+00
  6.40000000E+02  2.60000000E+01  0.00000000E+00
  6.40000000E+02  2.40000000E+01  0.00000000E+00
  6.40000000E+02  2.20000000E+01  0.00000000E+00
  6.40000000E+02  2.00000000E+01  0.00000000E+00
  6.40000000E+02  1.80000000E+01  0.00000000E+00
  6.40000000E+02  1.60000000E+01  0.00000000E+00
  6.40000000E+02  1.40000000E+01  0.00000000E+00
  6.40000000E+02  1.20000000E+01  0.00000000E+00
  6.40000000E+02  1.00000000E+01  0.00000000E+00
  6.40000000E+02  8.00000000E+00  0.00000000E+00
  6.40000000E+02  6.00000000E+00  0.00000000E+00
  6.40000000E+02  4.00000000E+00  0.00000000E+00
  6.40000000E+02  2.00000000E+00  0.00000000E+00
  6.40000000E+02 -3.33066907E-14  0.00000000E+00
  6.50000000E+02  1.00000000E+02  0.00000000E+00
  6.50000000E+02  9.80000000E+01  0.00000000E+00
  6.50000000E+02  9.60000000E+01  0.00000000E+00
  6.50000000E+02  9.40000000E+01  0.00000000E+00
  6.50000000E+02  9.20000000E+01  0.00000000E+00
  6.50000000E+02  9.00000000E+01  0.00000000E+00
  6.50000000E+02  8.80000000E+01  0.00000000E+00
  6.50000000E+02  8.60000000E+01  0.00000000E+00
  6.50000000E+02  8.40000000E+01  0.00000000E+00
  6.50000000E+02  8.20000000E+01  0.00000000E+00
  6.50000000E+02  8.00000000E+01  0.00000000E+00
  6.50000000E+02  7.80000000E+01  0.00000000E+00
  6.50000000E+02  7.60000000E+01  0.00000000E+00
  6.50000000E+02  7.40000000E+01  0.00000000E+00
  6.50000000E+02  7.20000000E+01  0.00000000E+00
  6.50000000E+02  7.00000000E+01  0.00000000E+00
  6.50000000E+02  6.80000000E+01  0.00000000E+00
  6.50000000E+02  6.60000000E+01  0.00000000E+00
  6.50000000E+02  6.40000000E+01  0.00000000E+00
  6.50000000E+02  6.20000000E+01  0.00000000E+00
  6.50000000E+02  6.00000000E+01  0.00000000E+00
  6.50000000E+02  5.80000000E+01  0.00000000E+00
  6.50000000E+02  5.60000000E+01  0.00000000E+00
  6.50000000E+02  5.40000000E+01  0.00000000E+00
  6.50000000E+02  5.20000000E+01  0.00000000E+00
  6.50000000E+02  5.00000000E+01  0.00000000E+00
  6.50000000E+02  4.80000000E+01  0.00000000E+00
  6.50000000E+02  4.60000000E+01  0.00000000E+00
  6.50000000E+02  4.40000000E+01  0.00000000E+00
  6.50000000E+02  4.20000000E+01  0.00000000E+00
  6.50000000E+02  4.00000000E+01  0.00000000E+00
  6.50000000E+02  3.80000000E+01  0.00000000E+00
  6.50000000E+02  3.60000000E+01  0.00000000E+00
  6.50000000E+02  3.40000000E+01  0.00000000E+00
  6.50000000E+02  3.20000000E+01  0.00000000E+00
  6.50000000E+02  3.00000000E+01  0.00000000E+00
  6.50000000E+02  2.80000000E+01  0.00000000E+00
  6.50000000E+02  2.60000000E+01  0.00000000E+00
  6.50000000E+02  2.40000000E+01  0.00000000E+00
  6.50000000E+02  2.20000000E+01  0.00000000E+00
  6.50000000E+02  2.00000000E+01  0.00000000E+00
  6.50000000E+02  1.80000000E+01  0.00000000E+00
  6.50000000E+02  1.60000000E+01  0.00000000E+00
  6.50000000E+02  1.40000000E+01  0.00000000E+00
  6.50000000E+02  1.20000000E+01  0.00000000E+00
  6.50000000E+02  1.00000000E+01  0.00000000E+00
  6.50000000E+02  8.00000000E+00  0.00000000E+00
  6.50000000E+02  6.00000000E+00  0.00000000E+00
  6.50000000E+02  4.00000000E+00  0.00000000E+00
  6.50000000E+02  2.00000000E+00  0.00000000E+00
  6.50000000E+02 -3.33066907E-14  0.00000000E+00
  6.60000000E+02  1.00000000E+02  0.00000000E+00
  6.60000000E+02  9.80000000E+01  0.00000000E+00
  6.60000000E+02  9.60000000E+01  0.00000000E+00
  6.60000000E+02  9.40000000E+01  0.00000000E+00
  6.60000000E+02  9.20000000E+01  0.00000000E+00
  6.60000000E+02  9.00000000E+01  0.00000000E+00
  6.60000000E+02  8.80000000E+01  0.00000000E+00
  6.60000000E+02  8.60000000E+01  0.00000000E+00
  6.60000000E+02  8.40000000E+01  0.00000000E+00
  6.60000000E+02  8.20000000E+01  0.00000000E+00
  6.60000000E+02  8.00000000E+01  0.00000000E+00
  6.60000000E+02  7.80000000E+01  0.00000000E+00
  6.60000000E+02  7.60000000E+01  0.00000000E+00
  6.60000000E+02  7.40000000E+01  0.00000000E+00
  6.60000000E+02  7.20000000E+01  0.00000000E+00
  6.60000000E+02  7.00000000E+01  0.00000000E+00
  6.60000000E+02  6.80000000E+01  0.00000000E+00
  6.60000000E+02  6.60000000E+01  0.00000000E+00
  6.60000000E+02  6.40000000E+01  0.00000000E+00
  6.60000000E+02  6.20000000E+01  0.00000000E+00
  6.60000000E+02  6.00000000E+01  0.00000000E+00
  6.60000000E+02  5.80000000E+01  0.00000000E+00
  6.60000000E+02  5.60000000E+01  0.00000000E+00
  6.60000000E+02  5.40000000E+01  0.00000000E+00
  6.60000000E+02  5.20000000E+01  0.00000000E+00
  6.60000000E+02  5.00000000E+01  0.00000000E+00
  6.60000000E+02  4.80000000E+01  0.00000000E+00
  6.60000000E+02  4.60000000E+01  0.00000000E+00
  6.60000000E+02  4.40000000E+01  0.00000000E+00
  6.60000000E+02  4.20000000E+01  0.00000000E+00
  6.60000000E+02  4.00000000E+01  0.00000000E+00
  6.60000000E+02  3.80000000E+01  0.00000000E+00
  6.60000000E+02  3.60000000E+01  0.00000000E+00
  6.60000000E+02  3.40000000E+01  0.00000000E+00
  6.60000000E+02  3.20000000E+01  0.00000000E+00
  6.60000000E+02  3.00000000E+01  0.00000000E+00
  6.60000000E+02  2.80000000E+01  0.00000000E+00
  6.60000000E+02  2.60000000E+01  0.00000000E+00
  6.60000000E+02  2.40000000E+01  0.00000000E+00
  6.60000000E+02  2.20000000E+01  0.00000000E+00
  6.60000000E+02  2.00000000E+01  0.00000000E+00
  6.60000000E+02  1.80000000E+01  0.00000000E+00
  6.60000000E+02  1.60000000E+01  0.00000000E+00
  6.60000000E+02  1.40000000E+01  0.00000000E+00
  6.60000000E+02  1.20000000E+01  0.00000000E+00
  6.60000000E+02  1.00000000E+01  0.00000000E+00
  6.60000000E+02  8.00000000E+00  0.00000000E+00
  6.60000000E+02  6.00000000E+00  0.00000000E+00
  6.60000000E+02  4.00000000E+00  0.00000000E+00
  6.60000000E+02  2.00000000E+00  0.00000000E+00
  6.60000000E+02 -3.33066907E-14  0.00000000E+00
  6.70000000E+02  1.00000000E+02  0.00000000E+00
  6.70000000E+02  9.80000000E+01  0.00000000E+00
  6.70000000E+02  9.60000000E+01  0.00000000E+00
  6.70000000E+02  9.40000000E+01  0.00000000E+00
  6.70000000E+02  9.20000000E+01  0.00000000E+00
  6.70000000E+02  9.00000000E+01  0.00000000E+00
  6.70000000E+02  8.80000000E+01  0.00000000E+00
  6.70000000E+02  8.60000000E+01  0.00000000E+00
  6.70000000E+02  8.40000000E+01  0.00000000E+00
  6.70000000E+02  8.20000000E+01  0.00000000E+00
  6.70000000E+02  8.00000000E+01  0.00000000E+00
  6.70000000E+02  7.80000000E+01  0.00000000E+00
  6.70000000E+02  7.60000000E+01  0.00000000E+00
  6.70000000E+02  7.40000000E+01  0.00000000E+00
  6.70000000E+02  7.20000000E+01  0.00000000E+00
  6.70000000E+02  7.00000000E+01  0.00000000E+00
  6.70000000E+02  6.80000000E+01  0.00000000E+00
  6.70000000E+02  6.60000000E+01  0.00000000E+00
  6.70000000E+02  6.40000000E+01  0.00000000E+00
  6.70000000E+02  6.20000000E+01  0.00000000E+00
  6.70000000E+02  6.00000000E+01  0.00000000E+00
  6.70000000E+02  5.80000000E+01  0.00000000E+00
  6.70000000E+02  5.60000000E+01  0.00000000E+00
  6.70000000E+02  5.40000000E+01  0.00000000E+00
  6.70000000E+02  5.20000000E+01  0.00000000E+00
  6.70000000E+02  5.00000000E+01  0.00000000E+00
  6.70000000E+02  4.80000000E+01  0.00000000E+00
  6.70000000E+02  4.60000000E+01  0.00000000E+00
  6.70000000E+02  4.40000000E+01  0.00000000E+00
  6.70000000E+02  4.20000000E+01  0.00000000E+00
  6.70000000E+02  4.00000000E+01  0.00000000E+00
  6.70000000E+02  3.80000000E+01  0.00000000E+00
  6.70000000E+02  3.60000000E+01  0.00000000E+00
  6.70000000E+02  3.40000000E+01  0.00000000E+00
  6.70000000E+02  3.20000000E+01  0.00000000E+00
  6.70000000E+02  3.00000000E+01  0.00000000E+00
  6.70000000E+02  2.80000000E+01  0.00000000E+00
  6.70000000E+02  2.60000000E+01  0.00000000E+00
  6.70000000E+02  2.40000000E+01  0.00000000E+00
  6.70000000E+02  2.20000000E+01  0.00000000E+00
  6.70000000E+02  2.00000000E+01  0.00000000E+00
  6.70000000E+02  1.80000000E+01  0.00000000E+00
  6.70000000E+02  1.60000000E+01  0.00000000E+00
  6.70000000E+02  1.40000000E+01  0.00000000E+00
  6.70000000E+02  1.20000000E+01  0.00000000E+00
  6.70000000E+02  1.00000000E+01  0.00000000E+00
  6.70000000E+02  8.00000000E+00  0.00000000E+00
  6.70000000E+02  6.00000000E+00  0.00000000E+00
  6.70000000E+02  4.00000000E+00  0.00000000E+00
  6.70000000E+02  2.00000000E+00  0.00000000E+00
  6.70000000E+02 -3.33066907E-14  0.00000000E+00
  6.80000000E+02  1.00000000E+02  0.00000000E+00
  6.80000000E+02  9.80000000E+01  0.00000000E+00
  6.80000000E+02  9.60000000E+01  0.00000000E+00
  6.80000000E+02  9.40000000E+01  0.00000000E+00
  6.80000000E+02  9.20000000E+01  0.00000000E+00
  6.80000000E+02  9.00000000E+01  0.00000000E+00
  6.80000000E+02  8.80000000E+01  0.00000000E+00
  6.80000000E+02  8.60000000E+01  0.00000000E+00
  6.80000000E+02  8.40000000E+01  0.00000000E+00
  6.80000000E+02  8.20000000E+01  0.00000000E+00
  6.80000000E+02  8.00000000E+01  0.00000000E+00
  6.80000000E+02  7.80000000E+01  0.00000000E+00
  6.80000000E+02  7.60000000E+01  0.00000000E+00
  6.80000000E+02  7.40000000E+01  0.00000000E+00
  6.80000000E+02  7.20000000E+01  0.00000000E+00
  6.80000000E+02  7.00000000E+01  0.00000000E+00
  6.80000000E+02  6.80000000E+01  0.00000000E+00
  6.80000000E+02  6.60000000E+01  0.00000000E+00
  6.80000000E+02  6.40000000E+01  0.00000000E+00
  6.80000000E+02  6.20000000E+01  0.00000000E+00
  6.80000000E+02  6.00000000E+01  0.00000000E+00
  6.80000000E+02  5.80000000E+01  0.00000000E+00
  6.80000000E+02  5.60000000E+01  0.00000000E+00
  6.80000000E+02  5.40000000E+01  0.00000000E+00
  6.80000000E+02  5.20000000E+01  0.00000000E+00
  6.80000000E+02  5.00000000E+01  0.00000000E+00
  6.80000000E+02  4.80000000E+01  0.00000000E+00
  6.80000000E+02  4.60000000E+01  0.00000000E+00
  6.80000000E+02  4.40000000E+01  0.00000000E+00
  6.80000000E+02  4.20000000E+01  0.00000000E+00
  6.80000000E+02  4.00000000E+01  0.00000000E+00
  6.80000000E+02  3.80000000E+01  0.00000000E+00
  6.80000000E+02  3.60000000E+01  0.00000000E+00
  6.80000000E+02  3.40000000E+01  0.00000000E+00
  6.80000000E+02  3.20000000E+01  0.00000000E+00
  6.80000000E+02  3.00000000E+01  0.00000000E+00
  6.80000000E+02  2.80000000E+01  0.00000000E+00
  6.80000000E+02  2.60000000E+01  0.00000000E+00
  6.80000000E+02  2.40000000E+01  0.00000000E+00
  6.80000000E+02  2.20000000E+01  0.00000000E+00
  6.80000000E+02  2.00000000E+01  0.00000000E+00
  6.80000000E+02  1.80000000E+01  0.00000000E+00
  6.80000000E+02  1.60000000E+01  0.00000000E+00
  6.80000000E+02  1.40000000E+01  0.00000000E+00
  6.80000000E+02  1.20000000E+01  0.00000000E+00
  6.80000000E+02  1.00000000E+01  0.00000000E+00
  6.80000000E+02  8.00000000E+00  0.00000000E+00
  6.80000000E+02  6.00000000E+00  0.00000000E+00
  6.80000000E+02  4.00000000E+00  0.00000000E+00
  6.80000000E+02  2.00000000E+00  0.00000000E+00
  6.80000000E+02 -3.33066907E-14  0.00000000E+00
  6.90000000E+02  1.00000000E+02  0.00000000E+00
  6.90000000E+02  9.80000000E+01  0.00000000E+00
  6.90000000E+02  9.60000000E+01  0.00000000E+00
  6.90000000E+02  9.40000000E+01  0.00000000E+00
  6.90000000E+02  9.20000000E+01  0.00000000E+00
  6.90000000E+02  9.00000000E+01  0.00000000E+00
  6.90000000E+02  8.80000000E+01  0.00000000E+00
  6.90000000E+02  8.60000000E+01  0.00000000E+00
  6.90000000E+02  8.40000000E+01  0.00000000E+00
  6.90000000E+02  8.20000000E+01  0.00000000E+00
  6.90000000E+02  8.00000000E+01  0.00000000E+00
  6.90000000E+02  7.80000000E+01  0.00000000E+00
  6.90000000E+02  7.60000000E+01  0.00000000E+00
  6.90000000E+02  7.40000000E+01  0.00000000E+00
  6.90000000E+02  7.20000000E+01  0.00000000E+00
  6.90000000E+02  7.00000000E+01  0.00000000E+00
  6.90000000E+02  6.80000000E+01  0.00000000E+00
  6.90000000E+02  6.60000000E+01  0.00000000E+00
  6.90000000E+02  6.40000000E+01  0.00000000E+00
  6.90000000E+02  6.20000000E+01  0.00000000E+00
  6.90000000E+02  6.00000000E+01  0.00000000E+00
  6.90000000E+02  5.80000000E+01  0.00000000E+00
  6.90000000E+02  5.60000000E+01  0.00000000E+00
  6.90000000E+02  5.40000000E+01  0.00000000E+00
  6.90000000E+02  5.20000000E+01  0.00000000E+00
  6.90000000E+02  5.00000000E+01  0.00000000E+00
  6.90000000E+02  4.80000000E+01  0.00000000E+00
  6.90000000E+02  4.60000000E+01  0.00000000E+00
  6.90000000E+02  4.40000000E+01  0.00000000E+00
  6.90000000E+02  4.20000000E+01  0.00000000E+00
  6.90000000E+02  4.00000000E+01  0.00000000E+00
  6.90000000E+02  3.80000000E+01  0.00000000E+00
  6.90000000E+02  3.60000000E+01  0.00000000E+00
  6.90000000E+02  3.40000000E+01  0.00000000E+00
  6.90000000E+02  3.20000000E+01  0.00000000E+00
  6.90000000E+02  3.00000000E+01  0.00000000E+00
  6.90000000E+02  2.80000000E+01  0.00000000E+00
  6.90000000E+02  2.60000000E+01  0.00000000E+00
  6.90000000E+02  2.40000000E+01  0.00000000E+00
  6.90000000E+02  2.20000000E+01  0.00000000E+00
  6.90000000E+02  2.00000000E+01  0.00000000E+00
  6.90000000E+02  1.80000000E+01  0.00000000E+00
  6.90000000E+02  1.60000000E+01  0.00000000E+00
  6.90000000E+02  1.40000000E+01  0.00000000E+00
  6.90000000E+02  1.20000000E+01  0.00000000E+00
  6.90000000E+02  1.00000000E+01  0.00000000E+00
  6.90000000E+02  8.00000000E+00  0.00000000E+00
  6.90000000E+02  6.00000000E+00  0.00000000E+00
  6.90000000E+02  4.00000000E+00  0.00000000E+00
  6.90000000E+02  2.00000000E+00  0.00000000E+00
  6.90000000E+02 -3.33066907E-14  0.00000000E+00
  7.00000000E+02  1.00000000E+02  0.00000000E+00
  7.00000000E+02  9.80000000E+01  0.00000000E+00
  7.00000000E+02  9.60000000E+01  0.00000000E+00
  7.00000000E+02  9.40000000E+01  0.00000000E+00
  7.00000000E+02  9.20000000E+01  0.00000000E+00
  7.00000000E+02  9.00000000E+01  0.00000000E+00
  7.00000000E+02  8.80000000E+01  0.00000000E+00
  7.00000000E+02  8.60000000E+01  0.00000000E+00
  7.00000000E+02  8.40000000E+01  0.00000000E+00
  7.00000000E+02  8.20000000E+01  0.00000000E+00
  7.00000000E+02  8.00000000E+01  0.00000000E+00
  7.00000000E+02  7.80000000E+01  0.00000000E+00
  7.00000000E+02  7.60000000E+01  0.00000000E+00
  7.00000000E+02  7.40000000E+01  0.00000000E+00
  7.00000000E+02  7.20000000E+01  0.00000000E+00
  7.00000000E+02  7.00000000E+01  0.00000000E+00
  7.00000000E+02  6.80000000E+01  0.00000000E+00
  7.00000000E+02  6.60000000E+01  0.00000000E+00
  7.00000000E+02  6.40000000E+01  0.00000000E+00
  7.00000000E+02  6.20000000E+01  0.00000000E+00
  7.00000000E+02  6.00000000E+01  0.00000000E+00
  7.00000000E+02  5.80000000E+01  0.00000000E+00
  7.00000000E+02  5.60000000E+01  0.00000000E+00
  7.00000000E+02  5.40000000E+01  0.00000000E+00
  7.00000000E+02  5.20000000E+01  0.00000000E+00
  7.00000000E+02  5.00000000E+01  0.00000000E+00
  7.00000000E+02  4.80000000E+01  0.00000000E+00
  7.00000000E+02  4.60000000E+01  0.00000000E+00
  7.00000000E+02  4.40000000E+01  0.00000000E+00
  7.00000000E+02  4.20000000E+01  0.00000000E+00
  7.00000000E+02  4.00000000E+01  0.00000000E+00
  7.00000000E+02  3.80000000E+01  0.00000000E+00
  7.00000000E+02  3.60000000E+01  0.00000000E+00
  7.00000000E+02  3.40000000E+01  0.00000000E+00
  7.00000000E+02  3.20000000E+01  0.00000000E+00
  7.00000000E+02  3.00000000E+01  0.00000000E+00
  7.00000000E+02  2.80000000E+01  0.00000000E+00
  7.00000000E+02  2.60000000E+01  0.00000000E+00
  7.00000000E+02  2.40000000E+01  0.00000000E+00
  7.00000000E+02  2.20000000E+01  0.00000000E+00
  7.00000000E+02  2.00000000E+01  0.00000000E+00
  7.00000000E+02  1.80000000E+01  0.00000000E+00
  7.00000000E+02  1.60000000E+01  0.00000000E+00
  7.00000000E+02  1.40000000E+01  0.00000000E+00
  7.00000000E+02  1.20000000E+01  0.00000000E+00
  7.00000000E+02  1.00000000E+01  0.00000000E+00
  7.00000000E+02  8.00000000E+00  0.00000000E+00
  7.00000000E+02  6.00000000E+00  0.00000000E+00
  7.00000000E+02  4.00000000E+00  0.00000000E+00
  7.00000000E+02  2.00000000E+00  0.00000000E+00
  7.00000000E+02 -3.33066907E-14  0.00000000E+00
  7.10000000E+02  1.00000000E+02  0.00000000E+00
  7.10000000E+02  9.80000000E+01  0.00000000E+00
  7.10000000E+02  9.60000000E+01  0.00000000E+00
  7.10000000E+02  9.40000000E+01  0.00000000E+00
  7.10000000E+02  9.20000000E+01  0.00000000E+00
  7.10000000E+02  9.00000000E+01  0.00000000E+00
  7.10000000E+02  8.80000000E+01  0.00000000E+00
  7.10000000E+02  8.60000000E+01  0.00000000E+00
  7.10000000E+02  8.40000000E+01  0.00000000E+00
  7.10000000E+02  8.20000000E+01  0.00000000E+00
  7.10000000E+02  8.00000000E+01  0.00000000E+00
  7.10000000E+02  7.80000000E+01  0.00000000E+00
  7.10000000E+02  7.60000000E+01  0.00000000E+00
  7.10000000E+02  7.40000000E+01  0.00000000E+00
  7.10000000E+02  7.20000000E+01  0.00000000E+00
  7.10000000E+02  7.00000000E+01  0.00000000E+00
  7.10000000E+02  6.80000000E+01  0.00000000E+00
  7.10000000E+02  6.60000000E+01  0.00000000E+00
  7.10000000E+02  6.40000000E+01  0.00000000E+00
  7.10000000E+02  6.20000000E+01  0.00000000E+00
  7.10000000E+02  6.00000000E+01  0.00000000E+00
  7.10000000E+02  5.80000000E+01  0.00000000E+00
  7.10000000E+02  5.60000000E+01  0.00000000E+00
  7.10000000E+02  5.40000000E+01  0.00000000E+00
  7.10000000E+02  5.20000000E+01  0.00000000E+00
  7.10000000E+02  5.00000000E+01  0.00000000E+00
  7.10000000E+02  4.80000000E+01  0.00000000E+00
  7.10000000E+02  4.60000000E+01  0.00000000E+00
  7.10000000E+02  4.40000000E+01  0.00000000E+00
  7.10000000E+02  4.20000000E+01  0.00000000E+00
  7.10000000E+02  4.00000000E+01  0.00000000E+00
  7.10000000E+02  3.80000000E+01  0.00000000E+00
  7.10000000E+02  3.60000000E+01  0.00000000E+00
  7.10000000E+02  3.40000000E+01  0.00000000E+00
  7.10000000E+02  3.20000000E+01  0.00000000E+00
  7.10000000E+02  3.00000000E+01  0.00000000E+00
  7.10000000E+02  2.80000000E+01  0.00000000E+00
  7.10000000E+02  2.60000000E+01  0.00000000E+00
  7.10000000E+02  2.40000000E+01  0.00000000E+00
  7.10000000E+02  2.20000000E+01  0.00000000E+00
  7.10000000E+02  2.00000000E+01  0.00000000E+00
  7.10000000E+02  1.80000000E+01  0.00000000E+00
  7.10000000E+02  1.60000000E+01  0.00000000E+00
  7.10000000E+02  1.40000000E+01  0.00000000E+00
  7.10000000E+02  1.20000000E+01  0.00000000E+00
  7.10000000E+02  1.00000000E+01  0.00000000E+00
  7.10000000E+02  8.00000000E+00  0.00000000E+00
  7.10000000E+02  6.00000000E+00  0.00000000E+00
  7.10000000E+02  4.00000000E+00  0.00000000E+00
  7.10000000E+02  2.00000000E+00  0.00000000E+00
  7.10000000E+02 -3.33066907E-14  0.00000000E+00
  7.20000000E+02  1.00000000E+02  0.00000000E+00
  7.20000000E+02  9.80000000E+01  0.00000000E+00
  7.20000000E+02  9.60000000E+01  0.00000000E+00
  7.20000000E+02  9.40000000E+01  0.00000000E+00
  7.20000000E+02  9.20000000E+01  0.00000000E+00
  7.20000000E+02  9.00000000E+01  0.00000000E+00
  7.20000000E+02  8.80000000E+01  0.00000000E+00
  7.20000000E+02  8.60000000E+01  0.00000000E+00
  7.20000000E+02  8.40000000E+01  0.00000000E+00
  7.20000000E+02  8.20000000E+01  0.00000000E+00
  7.20000000E+02  8.00000000E+01  0.00000000E+00
  7.20000000E+02  7.80000000E+01  0.00000000E+00
  7.20000000E+02  7.60000000E+01  0.00000000E+00
  7.20000000E+02  7.40000000E+01  0.00000000E+00
  7.20000000E+02  7.20000000E+01  0.00000000E+00
  7.20000000E+02  7.00000000E+01  0.00000000E+00
  7.20000000E+02  6.80000000E+01  0.00000000E+00
  7.20000000E+02  6.60000000E+01  0.00000000E+00
  7.20000000E+02  6.40000000E+01  0.00000000E+00
  7.20000000E+02  6.20000000E+01  0.00000000E+00
  7.20000000E+02  6.00000000E+01  0.00000000E+00
  7.20000000E+02  5.80000000E+01  0.00000000E+00
  7.20000000E+02  5.60000000E+01  0.00000000E+00
  7.20000000E+02  5.40000000E+01  0.00000000E+00
  7.20000000E+02  5.20000000E+01  0.00000000E+00
  7.20000000E+02  5.00000000E+01  0.00000000E+00
  7.20000000E+02  4.80000000E+01  0.00000000E+00
  7.20000000E+02  4.60000000E+01  0.00000000E+00
  7.20000000E+02  4.40000000E+01  0.00000000E+00
  7.20000000E+02  4.20000000E+01  0.00000000E+00
  7.20000000E+02  4.00000000E+01  0.00000000E+00
  7.20000000E+02  3.80000000E+01  0.00000000E+00
  7.20000000E+02  3.60000000E+01  0.00000000E+00
  7.20000000E+02  3.40000000E+01  0.00000000E+00
  7.20000000E+02  3.20000000E+01  0.00000000E+00
  7.20000000E+02  3.00000000E+01  0.00000000E+00
  7.20000000E+02  2.80000000E+01  0.00000000E+00
  7.20000000E+02  2.60000000E+01  0.00000000E+00
  7.20000000E+02  2.40000000E+01  0.00000000E+00
  7.20000000E+02  2.20000000E+01  0.00000000E+00
  7.20000000E+02  2.00000000E+01  0.00000000E+00
  7.20000000E+02  1.80000000E+01  0.00000000E+00
  7.20000000E+02  1.60000000E+01  0.00000000E+00
  7.20000000E+02  1.40000000E+01  0.00000000E+00
  7.20000000E+02  1.20000000E+01  0.00000000E+00
  7.20000000E+02  1.00000000E+01  0.00000000E+00
  7.20000000E+02  8.00000000E+00  0.00000000E+00
  7.20000000E+02  6.00000000E+00  0.00000000E+00
  7.20000000E+02  4.00000000E+00  0.00000000E+00
  7.20000000E+02  2.00000000E+00  0.00000000E+00
  7.20000000E+02 -3.33066907E-14  0.00000000E+00
  7.30000000E+02  1.00000000E+02  0.00000000E+00
  7.30000000E+02  9.80000000E+01  0.00000000E+00
  7.30000000E+02  9.60000000E+01  0.00000000E+00
  7.30000000E+02  9.40000000E+01  0.00000000E+00
  7.30000000E+02  9.20000000E+01  0.00000000E+00
  7.30000000E+02  9.00000000E+01  0.00000000E+00
  7.30000000E+02  8.80000000E+01  0.00000000E+00
  7.30000000E+02  8.60000000E+01  0.00000000E+00
  7.30000000E+02  8.40000000E+01  0.00000000E+00
  7.30000000E+02  8.20000000E+01  0.00000000E+00
  7.30000000E+02  8.00000000E+01  0.00000000E+00
  7.30000000E+02  7.80000000E+01  0.00000000E+00
  7.30000000E+02  7.60000000E+01  0.00000000E+00
  7.30000000E+02  7.40000000E+01  0.00000000E+00
  7.30000000E+02  7.20000000E+01  0.00000000E+00
  7.30000000E+02  7.00000000E+01  0.00000000E+00
  7.30000000E+02  6.80000000E+01  0.00000000E+00
  7.30000000E+02  6.60000000E+01  0.00000000E+00
  7.30000000E+02  6.40000000E+01  0.00000000E+00
  7.30000000E+02  6.20000000E+01  0.00000000E+00
  7.30000000E+02  6.00000000E+01  0.00000000E+00
  7.30000000E+02  5.80000000E+01  0.00000000E+00
  7.30000000E+02  5.60000000E+01  0.00000000E+00
  7.30000000E+02  5.40000000E+01  0.00000000E+00
  7.30000000E+02  5.20000000E+01  0.00000000E+00
  7.30000000E+02  5.00000000E+01  0.00000000E+00
  7.30000000E+02  4.80000000E+01  0.00000000E+00
  7.30000000E+02  4.60000000E+01  0.00000000E+00
  7.30000000E+02  4.40000000E+01  0.00000000E+00
  7.30000000E+02  4.20000000E+01  0.00000000E+00
  7.30000000E+02  4.00000000E+01  0.00000000E+00
  7.30000000E+02  3.80000000E+01  0.00000000E+00
  7.30000000E+02  3.60000000E+01  0.00000000E+00
  7.30000000E+02  3.40000000E+01  0.00000000E+00
  7.30000000E+02  3.20000000E+01  0.00000000E+00
  7.30000000E+02  3.00000000E+01  0.00000000E+00
  7.30000000E+02  2.80000000E+01  0.00000000E+00
  7.30000000E+02  2.60000000E+01  0.00000000E+00
  7.30000000E+02  2.40000000E+01  0.00000000E+00
  7.30000000E+02  2.20000000E+01  0.00000000E+00
  7.30000000E+02  2.00000000E+01  0.00000000E+00
  7.30000000E+02  1.80000000E+01  0.00000000E+00
  7.30000000E+02  1.60000000E+01  0.00000000E+00
  7.30000000E+02  1.40000000E+01  0.00000000E+00
  7.30000000E+02  1.20000000E+01  0.00000000E+00
  7.30000000E+02  1.00000000E+01  0.00000000E+00
  7.30000000E+02  8.00000000E+00  0.00000000E+00
  7.30000000E+02  6.00000000E+00  0.00000000E+00
  7.30000000E+02  4.00000000E+00  0.00000000E+00
  7.30000000E+02  2.00000000E+00  0.00000000E+00
  7.30000000E+02 -3.33066907E-14  0.00000000E+00
  7.40000000E+02  1.00000000E+02  0.00000000E+00
  7.40000000E+02  9.80000000E+01  0.00000000E+00
  7.40000000E+02  9.60000000E+01  0.00000000E+00
  7.40000000E+02  9.40000000E+01  0.00000000E+00
  7.40000000E+02  9.20000000E+01  0.00000000E+00
  7.40000000E+02  9.00000000E+01  0.00000000E+00
  7.40000000E+02  8.80000000E+01  0.00000000E+00
  7.40000000E+02  8.60000000E+01  0.00000000E+00
  7.40000000E+02  8.40000000E+01  0.00000000E+00
  7.40000000E+02  8.20000000E+01  0.00000000E+00
  7.40000000E+02  8.00000000E+01  0.00000000E+00
  7.40000000E+02  7.80000000E+01  0.00000000E+00
  7.40000000E+02  7.60000000E+01  0.00000000E+00
  7.40000000E+02  7.40000000E+01  0.00000000E+00
  7.40000000E+02  7.20000000E+01  0.00000000E+00
  7.40000000E+02  7.00000000E+01  0.00000000E+00
  7.40000000E+02  6.80000000E+01  0.00000000E+00
  7.40000000E+02  6.60000000E+01  0.00000000E+00
  7.40000000E+02  6.40000000E+01  0.00000000E+00
  7.40000000E+02  6.20000000E+01  0.00000000E+00
  7.40000000E+02  6.00000000E+01  0.00000000E+00
  7.40000000E+02  5.80000000E+01  0.00000000E+00
  7.40000000E+02  5.60000000E+01  0.00000000E+00
  7.40000000E+02  5.40000000E+01  0.00000000E+00
  7.40000000E+02  5.20000000E+01  0.00000000E+00
  7.40000000E+02  5.00000000E+01  0.00000000E+00
  7.40000000E+02  4.80000000E+01  0.00000000E+00
  7.40000000E+02  4.60000000E+01  0.00000000E+00
  7.40000000E+02  4.40000000E+01  0.00000000E+00
  7.40000000E+02  4.20000000E+01  0.00000000E+00
  7.40000000E+02  4.00000000E+01  0.00000000E+00
  7.40000000E+02  3.80000000E+01  0.00000000E+00
  7.40000000E+02  3.60000000E+01  0.00000000E+00
  7.40000000E+02  3.40000000E+01  0.00000000E+00
  7.40000000E+02  3.20000000E+01  0.00000000E+00
  7.40000000E+02  3.00000000E+01  0.00000000E+00
  7.40000000E+02  2.80000000E+01  0.00000000E+00
  7.40000000E+02  2.60000000E+01  0.00000000E+00
  7.40000000E+02  2.40000000E+01  0.00000000E+00
  7.40000000E+02  2.20000000E+01  0.00000000E+00
  7.40000000E+02  2.00000000E+01  0.00000000E+00
  7.40000000E+02  1.80000000E+01  0.00000000E+00
  7.40000000E+02  1.60000000E+01  0.00000000E+00
  7.40000000E+02  1.40000000E+01  0.00000000E+00
  7.40000000E+02  1.20000000E+01  0.00000000E+00
  7.40000000E+02  1.00000000E+01  0.00000000E+00
  7.40000000E+02  8.00000000E+00  0.00000000E+00
  7.40000000E+02  6.00000000E+00  0.00000000E+00
  7.40000000E+02  4.00000000E+00  0.00000000E+00
  7.40000000E+02  2.00000000E+00  0.00000000E+00
  7.40000000E+02 -3.33066907E-14  0.00000000E+00
  7.50000000E+02  1.00000000E+02  0.00000000E+00
  7.50000000E+02  9.80000000E+01  0.00000000E+00
  7.50000000E+02  9.60000000E+01  0.00000000E+00
  7.50000000E+02  9.40000000E+01  0.00000000E+00
  7.50000000E+02  9.20000000E+01  0.00000000E+00
  7.50000000E+02  9.00000000E+01  0.00000000E+00
  7.50000000E+02  8.80000000E+01  0.00000000E+00
  7.50000000E+02  8.60000000E+01  0.00000000E+00
  7.50000000E+02  8.40000000E+01  0.00000000E+00
  7.50000000E+02  8.20000000E+01  0.00000000E+00
  7.50000000E+02  8.00000000E+01  0.00000000E+00
  7.50000000E+02  7.80000000E+01  0.00000000E+00
  7.50000000E+02  7.60000000E+01  0.00000000E+00
  7.50000000E+02  7.40000000E+01  0.00000000E+00
  7.50000000E+02  7.20000000E+01  0.00000000E+00
  7.50000000E+02  7.00000000E+01  0.00000000E+00
  7.50000000E+02  6.80000000E+01  0.00000000E+00
  7.50000000E+02  6.60000000E+01  0.00000000E+00
  7.50000000E+02  6.40000000E+01  0.00000000E+00
  7.50000000E+02  6.20000000E+01  0.00000000E+00
  7.50000000E+02  6.00000000E+01  0.00000000E+00
  7.50000000E+02  5.80000000E+01  0.00000000E+00
  7.50000000E+02  5.60000000E+01  0.00000000E+00
  7.50000000E+02  5.40000000E+01  0.00000000E+00
  7.50000000E+02  5.20000000E+01  0.00000000E+00
  7.50000000E+02  5.00000000E+01  0.00000000E+00
  7.50000000E+02  4.80000000E+01  0.00000000E+00
  7.50000000E+02  4.60000000E+01  0.00000000E+00
  7.50000000E+02  4.40000000E+01  0.00000000E+00
  7.50000000E+02  4.20000000E+01  0.00000000E+00
  7.50000000E+02  4.00000000E+01  0.00000000E+00
  7.50000000E+02  3.80000000E+01  0.00000000E+00
  7.50000000E+02  3.60000000E+01  0.00000000E+00
  7.50000000E+02  3.40000000E+01  0.00000000E+00
  7.50000000E+02  3.20000000E+01  0.00000000E+00
  7.50000000E+02  3.00000000E+01  0.00000000E+00
  7.50000000E+02  2.80000000E+01  0.00000000E+00
  7.50000000E+02  2.60000000E+01  0.00000000E+00
  7.50000000E+02  2.40000000E+01  0.00000000E+00
  7.50000000E+02  2.20000000E+01  0.00000000E+00
  7.50000000E+02  2.00000000E+01  0.00000000E+00
  7.50000000E+02  1.80000000E+01  0.00000000E+00
  7.50000000E+02  1.60000000E+01  0.00000000E+00
  7.50000000E+02  1.40000000E+01  0.00000000E+00
  7.50000000E+02  1.20000000E+01  0.00000000E+00
  7.50000000E+02  1.00000000E+01  0.00000000E+00
  7.50000000E+02  8.00000000E+00  0.00000000E+00
  7.50000000E+02  6.00000000E+00  0.00000000E+00
  7.50000000E+02  4.00000000E+00  0.00000000E+00
  7.50000000E+02  2.00000000E+00  0.00000000E+00
  7.50000000E+02 -3.33066907E-14  0.00000000E+00
  7.60000000E+02  1.00000000E+02  0.00000000E+00
  7.60000000E+02  9.80000000E+01  0.00000000E+00
  7.60000000E+02  9.60000000E+01  0.00000000E+00
  7.60000000E+02  9.40000000E+01  0.00000000E+00
  7.60000000E+02  9.20000000E+01  0.00000000E+00
  7.60000000E+02  9.00000000E+01  0.00000000E+00
  7.60000000E+02  8.80000000E+01  0.00000000E+00
  7.60000000E+02  8.60000000E+01  0.00000000E+00
  7.60000000E+02  8.40000000E+01  0.00000000E+00
  7.60000000E+02  8.20000000E+01  0.00000000E+00
  7.60000000E+02  8.00000000E+01  0.00000000E+00
  7.60000000E+02  7.80000000E+01  0.00000000E+00
  7.60000000E+02  7.60000000E+01  0.00000000E+00
  7.60000000E+02  7.40000000E+01  0.00000000E+00
  7.60000000E+02  7.20000000E+01  0.00000000E+00
  7.60000000E+02  7.00000000E+01  0.00000000E+00
  7.60000000E+02  6.80000000E+01  0.00000000E+00
  7.60000000E+02  6.60000000E+01  0.00000000E+00
  7.60000000E+02  6.40000000E+01  0.00000000E+00
  7.60000000E+02  6.20000000E+01  0.00000000E+00
  7.60000000E+02  6.00000000E+01  0.00000000E+00
  7.60000000E+02  5.80000000E+01  0.00000000E+00
  7.60000000E+02  5.60000000E+01  0.00000000E+00
  7.60000000E+02  5.40000000E+01  0.00000000E+00
  7.60000000E+02  5.20000000E+01  0.00000000E+00
  7.60000000E+02  5.00000000E+01  0.00000000E+00
  7.60000000E+02  4.80000000E+01  0.00000000E+00
  7.60000000E+02  4.60000000E+01  0.00000000E+00
  7.60000000E+02  4.40000000E+01  0.00000000E+00
  7.60000000E+02  4.20000000E+01  0.00000000E+00
  7.60000000E+02  4.00000000E+01  0.00000000E+00
  7.60000000E+02  3.80000000E+01  0.00000000E+00
  7.60000000E+02  3.60000000E+01  0.00000000E+00
  7.60000000E+02  3.40000000E+01  0.00000000E+00
  7.60000000E+02  3.20000000E+01  0.00000000E+00
  7.60000000E+02  3.00000000E+01  0.00000000E+00
  7.60000000E+02  2.80000000E+01  0.00000000E+00
  7.60000000E+02  2.60000000E+01  0.00000000E+00
  7.60000000E+02  2.40000000E+01  0.00000000E+00
  7.60000000E+02  2.20000000E+01  0.00000000E+00
  7.60000000E+02  2.00000000E+01  0.00000000E+00
  7.60000000E+02  1.80000000E+01  0.00000000E+00
  7.60000000E+02  1.60000000E+01  0.00000000E+00
  7.60000000E+02  1.40000000E+01  0.00000000E+00
  7.60000000E+02  1.20000000E+01  0.00000000E+00
  7.60000000E+02  1.00000000E+01  0.00000000E+00
  7.60000000E+02  8.00000000E+00  0.00000000E+00
  7.60000000E+02  6.00000000E+00  0.00000000E+00
  7.60000000E+02  4.00000000E+00  0.00000000E+00
  7.60000000E+02  2.00000000E+00  0.00000000E+00
  7.60000000E+02 -3.33066907E-14  0.00000000E+00
  7.70000000E+02  1.00000000E+02  0.00000000E+00
  7.70000000E+02  9.80000000E+01  0.00000000E+00
  7.70000000E+02  9.60000000E+01  0.00000000E+00
  7.70000000E+02  9.40000000E+01  0.00000000E+00
  7.70000000E+02  9.20000000E+01  0.00000000E+00
  7.70000000E+02  9.00000000E+01  0.00000000E+00
  7.70000000E+02  8.80000000E+01  0.00000000E+00
  7.70000000E+02  8.60000000E+01  0.00000000E+00
  7.70000000E+02  8.40000000E+01  0.00000000E+00
  7.70000000E+02  8.20000000E+01  0.00000000E+00
  7.70000000E+02  8.00000000E+01  0.00000000E+00
  7.70000000E+02  7.80000000E+01  0.00000000E+00
  7.70000000E+02  7.60000000E+01  0.00000000E+00
  7.70000000E+02  7.40000000E+01  0.00000000E+00
  7.70000000E+02  7.20000000E+01  0.00000000E+00
  7.70000000E+02  7.00000000E+01  0.00000000E+00
  7.70000000E+02  6.80000000E+01  0.00000000E+00
  7.70000000E+02  6.60000000E+01  0.00000000E+00
  7.70000000E+02  6.40000000E+01  0.00000000E+00
  7.70000000E+02  6.20000000E+01  0.00000000E+00
  7.70000000E+02  6.00000000E+01  0.00000000E+00
  7.70000000E+02  5.80000000E+01  0.00000000E+00
  7.70000000E+02  5.60000000E+01  0.00000000E+00
  7.70000000E+02  5.40000000E+01  0.00000000E+00
  7.70000000E+02  5.20000000E+01  0.00000000E+00
  7.70000000E+02  5.00000000E+01  0.00000000E+00
  7.70000000E+02  4.80000000E+01  0.00000000E+00
  7.70000000E+02  4.60000000E+01  0.00000000E+00
  7.70000000E+02  4.40000000E+01  0.00000000E+00
  7.70000000E+02  4.20000000E+01  0.00000000E+00
  7.70000000E+02  4.00000000E+01  0.00000000E+00
  7.70000000E+02  3.80000000E+01  0.00000000E+00
  7.70000000E+02  3.60000000E+01  0.00000000E+00
  7.70000000E+02  3.40000000E+01  0.00000000E+00
  7.70000000E+02  3.20000000E+01  0.00000000E+00
  7.70000000E+02  3.00000000E+01  0.00000000E+00
  7.70000000E+02  2.80000000E+01  0.00000000E+00
  7.70000000E+02  2.60000000E+01  0.00000000E+00
  7.70000000E+02  2.40000000E+01  0.00000000E+00
  7.70000000E+02  2.20000000E+01  0.00000000E+00
  7.70000000E+02  2.00000000E+01  0.00000000E+00
  7.70000000E+02  1.80000000E+01  0.00000000E+00
  7.70000000E+02  1.60000000E+01  0.00000000E+00
  7.70000000E+02  1.40000000E+01  0.00000000E+00
  7.70000000E+02  1.20000000E+01  0.00000000E+00
  7.70000000E+02  1.00000000E+01  0.00000000E+00
  7.70000000E+02  8.00000000E+00  0.00000000E+00
  7.70000000E+02  6.00000000E+00  0.00000000E+00
  7.70000000E+02  4.00000000E+00  0.00000000E+00
  7.70000000E+02  2.00000000E+00  0.00000000E+00
  7.70000000E+02 -3.33066907E-14  0.00000000E+00
  7.80000000E+02  1.00000000E+02  0.00000000E+00
  7.80000000E+02  9.80000000E+01  0.00000000E+00
  7.80000000E+02  9.60000000E+01  0.00000000E+00
  7.80000000E+02  9.40000000E+01  0.00000000E+00
  7.80000000E+02  9.20000000E+01  0.00000000E+00
  7.80000000E+02  9.00000000E+01  0.00000000E+00
  7.80000000E+02  8.80000000E+01  0.00000000E+00
  7.80000000E+02  8.60000000E+01  0.00000000E+00
  7.80000000E+02  8.40000000E+01  0.00000000E+00
  7.80000000E+02  8.20000000E+01  0.00000000E+00
  7.80000000E+02  8.00000000E+01  0.00000000E+00
  7.80000000E+02  7.80000000E+01  0.00000000E+00
  7.80000000E+02  7.60000000E+01  0.00000000E+00
  7.80000000E+02  7.40000000E+01  0.00000000E+00
  7.80000000E+02  7.20000000E+01  0.00000000E+00
  7.80000000E+02  7.00000000E+01  0.00000000E+00
  7.80000000E+02  6.80000000E+01  0.00000000E+00
  7.80000000E+02  6.60000000E+01  0.00000000E+00
  7.80000000E+02  6.40000000E+01  0.00000000E+00
  7.80000000E+02  6.20000000E+01  0.00000000E+00
  7.80000000E+02  6.00000000E+01  0.00000000E+00
  7.80000000E+02  5.80000000E+01  0.00000000E+00
  7.80000000E+02  5.60000000E+01  0.00000000E+00
  7.80000000E+02  5.40000000E+01  0.00000000E+00
  7.80000000E+02  5.20000000E+01  0.00000000E+00
  7.80000000E+02  5.00000000E+01  0.00000000E+00
  7.80000000E+02  4.80000000E+01  0.00000000E+00
  7.80000000E+02  4.60000000E+01  0.00000000E+00
  7.80000000E+02  4.40000000E+01  0.00000000E+00
  7.80000000E+02  4.20000000E+01  0.00000000E+00
  7.80000000E+02  4.00000000E+01  0.00000000E+00
  7.80000000E+02  3.80000000E+01  0.00000000E+00
  7.80000000E+02  3.60000000E+01  0.00000000E+00
  7.80000000E+02  3.40000000E+01  0.00000000E+00
  7.80000000E+02  3.20000000E+01  0.00000000E+00
  7.80000000E+02  3.00000000E+01  0.00000000E+00
  7.80000000E+02  2.80000000E+01  0.00000000E+00
  7.80000000E+02  2.60000000E+01  0.00000000E+00
  7.80000000E+02  2.40000000E+01  0.00000000E+00
  7.80000000E+02  2.20000000E+01  0.00000000E+00
  7.80000000E+02  2.00000000E+01  0.00000000E+00
  7.80000000E+02  1.80000000E+01  0.00000000E+00
  7.80000000E+02  1.60000000E+01  0.00000000E+00
  7.80000000E+02  1.40000000E+01  0.00000000E+00
  7.80000000E+02  1.20000000E+01  0.00000000E+00
  7.80000000E+02  1.00000000E+01  0.00000000E+00
  7.80000000E+02  8.00000000E+00  0.00000000E+00
  7.80000000E+02  6.00000000E+00  0.00000000E+00
  7.80000000E+02  4.00000000E+00  0.00000000E+00
  7.80000000E+02  2.00000000E+00  0.00000000E+00
  7.80000000E+02 -3.33066907E-14  0.00000000E+00
  7.90000000E+02  1.00000000E+02  0.00000000E+00
  7.90000000E+02  9.80000000E+01  0.00000000E+00
  7.90000000E+02  9.60000000E+01  0.00000000E+00
  7.90000000E+02  9.40000000E+01  0.00000000E+00
  7.90000000E+02  9.20000000E+01  0.00000000E+00
  7.90000000E+02  9.00000000E+01  0.00000000E+00
  7.90000000E+02  8.80000000E+01  0.00000000E+00
  7.90000000E+02  8.60000000E+01  0.00000000E+00
  7.90000000E+02  8.40000000E+01  0.00000000E+00
  7.90000000E+02  8.20000000E+01  0.00000000E+00
  7.90000000E+02  8.00000000E+01  0.00000000E+00
  7.90000000E+02  7.80000000E+01  0.00000000E+00
  7.90000000E+02  7.60000000E+01  0.00000000E+00
  7.90000000E+02  7.40000000E+01  0.00000000E+00
  7.90000000E+02  7.20000000E+01  0.00000000E+00
  7.90000000E+02  7.00000000E+01  0.00000000E+00
  7.90000000E+02  6.80000000E+01  0.00000000E+00
  7.90000000E+02  6.60000000E+01  0.00000000E+00
  7.90000000E+02  6.40000000E+01  0.00000000E+00
  7.90000000E+02  6.20000000E+01  0.00000000E+00
  7.90000000E+02  6.00000000E+01  0.00000000E+00
  7.90000000E+02  5.80000000E+01  0.00000000E+00
  7.90000000E+02  5.60000000E+01  0.00000000E+00
  7.90000000E+02  5.40000000E+01  0.00000000E+00
  7.90000000E+02  5.20000000E+01  0.00000000E+00
  7.90000000E+02  5.00000000E+01  0.00000000E+00
  7.90000000E+02  4.80000000E+01  0.00000000E+00
  7.90000000E+02  4.60000000E+01  0.00000000E+00
  7.90000000E+02  4.40000000E+01  0.00000000E+00
  7.90000000E+02  4.20000000E+01  0.00000000E+00
  7.90000000E+02  4.00000000E+01  0.00000000E+00
  7.90000000E+02  3.80000000E+01  0.00000000E+00
  7.90000000E+02  3.60000000E+01  0.00000000E+00
  7.90000000E+02  3.40000000E+01  0.00000000E+00
  7.90000000E+02  3.20000000E+01  0.00000000E+00
  7.90000000E+02  3.00000000E+01  0.00000000E+00
  7.90000000E+02  2.80000000E+01  0.00000000E+00
  7.90000000E+02  2.60000000E+01  0.00000000E+00
  7.90000000E+02  2.40000000E+01  0.00000000E+00
  7.90000000E+02  2.20000000E+01  0.00000000E+00
  7.90000000E+02  2.00000000E+01  0.00000000E+00
  7.90000000E+02  1.80000000E+01  0.00000000E+00
  7.90000000E+02  1.60000000E+01  0.00000000E+00
  7.90000000E+02  1.40000000E+01  0.00000000E+00
  7.90000000E+02  1.20000000E+01  0.00000000E+00
  7.90000000E+02  1.00000000E+01  0.00000000E+00
  7.90000000E+02  8.00000000E+00  0.00000000E+00
  7.90000000E+02  6.00000000E+00  0.00000000E+00
  7.90000000E+02  4.00000000E+00  0.00000000E+00
  7.90000000E+02  2.00000000E+00  0.00000000E+00
  7.90000000E+02 -3.33066907E-14  0.00000000E+00
  8.00000000E+02  1.00000000E+02  0.00000000E+00
  8.00000000E+02  9.80000000E+01  0.00000000E+00
  8.00000000E+02  9.60000000E+01  0.00000000E+00
  8.00000000E+02  9.40000000E+01  0.00000000E+00
  8.00000000E+02  9.20000000E+01  0.00000000E+00
  8.00000000E+02  9.00000000E+01  0.00000000E+00
  8.00000000E+02  8.80000000E+01  0.00000000E+00
  8.00000000E+02  8.60000000E+01  0.00000000E+00
  8.00000000E+02  8.40000000E+01  0.00000000E+00
  8.00000000E+02  8.20000000E+01  0.00000000E+00
  8.00000000E+02  8.00000000E+01  0.00000000E+00
  8.00000000E+02  7.80000000E+01  0.00000000E+00
  8.00000000E+02  7.60000000E+01  0.00000000E+00
  8.00000000E+02  7.40000000E+01  0.00000000E+00
  8.00000000E+02  7.20000000E+01  0.00000000E+00
  8.00000000E+02  7.00000000E+01  0.00000000E+00
  8.00000000E+02  6.80000000E+01  0.00000000E+00
  8.00000000E+02  6.60000000E+01  0.00000000E+00
  8.00000000E+02  6.40000000E+01  0.00000000E+00
  8.00000000E+02  6.20000000E+01  0.00000000E+00
  8.00000000E+02  6.00000000E+01  0.00000000E+00
  8.00000000E+02  5.80000000E+01  0.00000000E+00
  8.00000000E+02  5.60000000E+01  0.00000000E+00
  8.00000000E+02  5.40000000E+01  0.00000000E+00
  8.00000000E+02  5.20000000E+01  0.00000000E+00
  8.00000000E+02  5.00000000E+01  0.00000000E+00
  8.00000000E+02  4.80000000E+01  0.00000000E+00
  8.00000000E+02  4.60000000E+01  0.00000000E+00
  8.00000000E+02  4.40000000E+01  0.00000000E+00
  8.00000000E+02  4.20000000E+01  0.00000000E+00
  8.00000000E+02  4.00000000E+01  0.00000000E+00
  8.00000000E+02  3.80000000E+01  0.00000000E+00
  8.00000000E+02  3.60000000E+01  0.00000000E+00
  8.00000000E+02  3.40000000E+01  0.00000000E+00
  8.00000000E+02  3.20000000E+01  0.00000000E+00
  8.00000000E+02  3.00000000E+01  0.00000000E+00
  8.00000000E+02  2.80000000E+01  0.00000000E+00
  8.00000000E+02  2.60000000E+01  0.00000000E+00
  8.00000000E+02  2.40000000E+01  0.00000000E+00
  8.00000000E+02  2.20000000E+01  0.00000000E+00
  8.00000000E+02  2.00000000E+01  0.00000000E+00
  8.00000000E+02  1.80000000E+01  0.00000000E+00
  8.00000000E+02  1.60000000E+01  0.00000000E+00
  8.00000000E+02  1.40000000E+01  0.00000000E+00
  8.00000000E+02  1.20000000E+01  0.00000000E+00
  8.00000000E+02  1.00000000E+01  0.00000000E+00
  8.00000000E+02  8.00000000E+00  0.00000000E+00
  8.00000000E+02  6.00000000E+00  0.00000000E+00
  8.00000000E+02  4.00000000E+00  0.00000000E+00
  8.00000000E+02  2.00000000E+00  0.00000000E+00
  8.00000000E+02 -3.33066907E-14  0.00000000E+00
  8.10000000E+02  1.00000000E+02  0.00000000E+00
  8.10000000E+02  9.80000000E+01  0.00000000E+00
  8.10000000E+02  9.60000000E+01  0.00000000E+00
  8.10000000E+02  9.40000000E+01  0.00000000E+00
  8.10000000E+02  9.20000000E+01  0.00000000E+00
  8.10000000E+02  9.00000000E+01  0.00000000E+00
  8.10000000E+02  8.80000000E+01  0.00000000E+00
  8.10000000E+02  8.60000000E+01  0.00000000E+00
  8.10000000E+02  8.40000000E+01  0.00000000E+00
  8.10000000E+02  8.20000000E+01  0.00000000E+00
  8.10000000E+02  8.00000000E+01  0.00000000E+00
  8.10000000E+02  7.80000000E+01  0.00000000E+00
  8.10000000E+02  7.60000000E+01  0.00000000E+00
  8.10000000E+02  7.40000000E+01  0.00000000E+00
  8.10000000E+02  7.20000000E+01  0.00000000E+00
  8.10000000E+02  7.00000000E+01  0.00000000E+00
  8.10000000E+02  6.80000000E+01  0.00000000E+00
  8.10000000E+02  6.60000000E+01  0.00000000E+00
  8.10000000E+02  6.40000000E+01  0.00000000E+00
  8.10000000E+02  6.20000000E+01  0.00000000E+00
  8.10000000E+02  6.00000000E+01  0.00000000E+00
  8.10000000E+02  5.80000000E+01  0.00000000E+00
  8.10000000E+02  5.60000000E+01  0.00000000E+00
  8.10000000E+02  5.40000000E+01  0.00000000E+00
  8.10000000E+02  5.20000000E+01  0.00000000E+00
  8.10000000E+02  5.00000000E+01  0.00000000E+00
  8.10000000E+02  4.80000000E+01  0.00000000E+00
  8.10000000E+02  4.60000000E+01  0.00000000E+00
  8.10000000E+02  4.40000000E+01  0.00000000E+00
  8.10000000E+02  4.20000000E+01  0.00000000E+00
  8.10000000E+02  4.00000000E+01  0.00000000E+00
  8.10000000E+02  3.80000000E+01  0.00000000E+00
  8.10000000E+02  3.60000000E+01  0.00000000E+00
  8.10000000E+02  3.40000000E+01  0.00000000E+00
  8.10000000E+02  3.20000000E+01  0.00000000E+00
  8.10000000E+02  3.00000000E+01  0.00000000E+00
  8.10000000E+02  2.80000000E+01  0.00000000E+00
  8.10000000E+02  2.60000000E+01  0.00000000E+00
  8.10000000E+02  2.40000000E+01  0.00000000E+00
  8.10000000E+02  2.20000000E+01  0.00000000E+00
  8.10000000E+02  2.00000000E+01  0.00000000E+00
  8.10000000E+02  1.80000000E+01  0.00000000E+00
  8.10000000E+02  1.60000000E+01  0.00000000E+00
  8.10000000E+02  1.40000000E+01  0.00000000E+00
  8.10000000E+02  1.20000000E+01  0.00000000E+00
  8.10000000E+02  1.00000000E+01  0.00000000E+00
  8.10000000E+02  8.00000000E+00  0.00000000E+00
  8.10000000E+02  6.00000000E+00  0.00000000E+00
  8.10000000E+02  4.00000000E+00  0.00000000E+00
  8.10000000E+02  2.00000000E+00  0.00000000E+00
  8.10000000E+02 -3.33066907E-14  0.00000000E+00
  8.20000000E+02  1.00000000E+02  0.00000000E+00
  8.20000000E+02  9.80000000E+01  0.00000000E+00
  8.20000000E+02  9.60000000E+01  0.00000000E+00
  8.20000000E+02  9.40000000E+01  0.00000000E+00
  8.20000000E+02  9.20000000E+01  0.00000000E+00
  8.20000000E+02  9.00000000E+01  0.00000000E+00
  8.20000000E+02  8.80000000E+01  0.00000000E+00
  8.20000000E+02  8.60000000E+01  0.00000000E+00
  8.20000000E+02  8.40000000E+01  0.00000000E+00
  8.20000000E+02  8.20000000E+01  0.00000000E+00
  8.20000000E+02  8.00000000E+01  0.00000000E+00
  8.20000000E+02  7.80000000E+01  0.00000000E+00
  8.20000000E+02  7.60000000E+01  0.00000000E+00
  8.20000000E+02  7.40000000E+01  0.00000000E+00
  8.20000000E+02  7.20000000E+01  0.00000000E+00
  8.20000000E+02  7.00000000E+01  0.00000000E+00
  8.20000000E+02  6.80000000E+01  0.00000000E+00
  8.20000000E+02  6.60000000E+01  0.00000000E+00
  8.20000000E+02  6.40000000E+01  0.00000000E+00
  8.20000000E+02  6.20000000E+01  0.00000000E+00
  8.20000000E+02  6.00000000E+01  0.00000000E+00
  8.20000000E+02  5.80000000E+01  0.00000000E+00
  8.20000000E+02  5.60000000E+01  0.00000000E+00
  8.20000000E+02  5.40000000E+01  0.00000000E+00
  8.20000000E+02  5.20000000E+01  0.00000000E+00
  8.20000000E+02  5.00000000E+01  0.00000000E+00
  8.20000000E+02  4.80000000E+01  0.00000000E+00
  8.20000000E+02  4.60000000E+01  0.00000000E+00
  8.20000000E+02  4.40000000E+01  0.00000000E+00
  8.20000000E+02  4.20000000E+01  0.00000000E+00
  8.20000000E+02  4.00000000E+01  0.00000000E+00
  8.20000000E+02  3.80000000E+01  0.00000000E+00
  8.20000000E+02  3.60000000E+01  0.00000000E+00
  8.20000000E+02  3.40000000E+01  0.00000000E+00
  8.20000000E+02  3.20000000E+01  0.00000000E+00
  8.20000000E+02  3.00000000E+01  0.00000000E+00
  8.20000000E+02  2.80000000E+01  0.00000000E+00
  8.20000000E+02  2.60000000E+01  0.00000000E+00
  8.20000000E+02  2.40000000E+01  0.00000000E+00
  8.20000000E+02  2.20000000E+01  0.00000000E+00
  8.20000000E+02  2.00000000E+01  0.00000000E+00
  8.20000000E+02  1.80000000E+01  0.00000000E+00
  8.20000000E+02  1.60000000E+01  0.00000000E+00
  8.20000000E+02  1.40000000E+01  0.00000000E+00
  8.20000000E+02  1.20000000E+01  0.00000000E+00
  8.20000000E+02  1.00000000E+01  0.00000000E+00
  8.20000000E+02  8.00000000E+00  0.00000000E+00
  8.20000000E+02  6.00000000E+00  0.00000000E+00
  8.20000000E+02  4.00000000E+00  0.00000000E+00
  8.20000000E+02  2.00000000E+00  0.00000000E+00
  8.20000000E+02 -3.33066907E-14  0.00000000E+00
  8.30000000E+02  1.00000000E+02  0.00000000E+00
  8.30000000E+02  9.80000000E+01  0.00000000E+00
  8.30000000E+02  9.60000000E+01  0.00000000E+00
  8.30000000E+02  9.40000000E+01  0.00000000E+00
  8.30000000E+02  9.20000000E+01  0.00000000E+00
  8.30000000E+02  9.00000000E+01  0.00000000E+00
  8.30000000E+02  8.80000000E+01  0.00000000E+00
  8.30000000E+02  8.60000000E+01  0.00000000E+00
  8.30000000E+02  8.40000000E+01  0.00000000E+00
  8.30000000E+02  8.20000000E+01  0.00000000E+00
  8.30000000E+02  8.00000000E+01  0.00000000E+00
  8.30000000E+02  7.80000000E+01  0.00000000E+00
  8.30000000E+02  7.60000000E+01  0.00000000E+00
  8.30000000E+02  7.40000000E+01  0.00000000E+00
  8.30000000E+02  7.20000000E+01  0.00000000E+00
  8.30000000E+02  7.00000000E+01  0.00000000E+00
  8.30000000E+02  6.80000000E+01  0.00000000E+00
  8.30000000E+02  6.60000000E+01  0.00000000E+00
  8.30000000E+02  6.40000000E+01  0.00000000E+00
  8.30000000E+02  6.20000000E+01  0.00000000E+00
  8.30000000E+02  6.00000000E+01  0.00000000E+00
  8.30000000E+02  5.80000000E+01  0.00000000E+00
  8.30000000E+02  5.60000000E+01  0.00000000E+00
  8.30000000E+02  5.40000000E+01  0.00000000E+00
  8.30000000E+02  5.20000000E+01  0.00000000E+00
  8.30000000E+02  5.00000000E+01  0.00000000E+00
  8.30000000E+02  4.80000000E+01  0.00000000E+00
  8.30000000E+02  4.60000000E+01  0.00000000E+00
  8.30000000E+02  4.40000000E+01  0.00000000E+00
  8.30000000E+02  4.20000000E+01  0.00000000E+00
  8.30000000E+02  4.00000000E+01  0.00000000E+00
  8.30000000E+02  3.80000000E+01  0.00000000E+00
  8.30000000E+02  3.60000000E+01  0.00000000E+00
  8.30000000E+02  3.40000000E+01  0.00000000E+00
  8.30000000E+02  3.20000000E+01  0.00000000E+00
  8.30000000E+02  3.00000000E+01  0.00000000E+00
  8.30000000E+02  2.80000000E+01  0.00000000E+00
  8.30000000E+02  2.60000000E+01  0.00000000E+00
  8.30000000E+02  2.40000000E+01  0.00000000E+00
  8.30000000E+02  2.20000000E+01  0.00000000E+00
  8.30000000E+02  2.00000000E+01  0.00000000E+00
  8.30000000E+02  1.80000000E+01  0.00000000E+00
  8.30000000E+02  1.60000000E+01  0.00000000E+00
  8.30000000E+02  1.40000000E+01  0.00000000E+00
  8.30000000E+02  1.20000000E+01  0.00000000E+00
  8.30000000E+02  1.00000000E+01  0.00000000E+00
  8.30000000E+02  8.00000000E+00  0.00000000E+00
  8.30000000E+02  6.00000000E+00  0.00000000E+00
  8.30000000E+02  4.00000000E+00  0.00000000E+00
  8.30000000E+02  2.00000000E+00  0.00000000E+00
  8.30000000E+02 -3.33066907E-14  0.00000000E+00
  8.40000000E+02  1.00000000E+02  0.00000000E+00
  8.40000000E+02  9.80000000E+01  0.00000000E+00
  8.40000000E+02  9.60000000E+01  0.00000000E+00
  8.40000000E+02  9.40000000E+01  0.00000000E+00
  8.40000000E+02  9.20000000E+01  0.00000000E+00
  8.40000000E+02  9.00000000E+01  0.00000000E+00
  8.40000000E+02  8.80000000E+01  0.00000000E+00
  8.40000000E+02  8.60000000E+01  0.00000000E+00
  8.40000000E+02  8.40000000E+01  0.00000000E+00
  8.40000000E+02  8.20000000E+01  0.00000000E+00
  8.40000000E+02  8.00000000E+01  0.00000000E+00
  8.40000000E+02  7.80000000E+01  0.00000000E+00
  8.40000000E+02  7.60000000E+01  0.00000000E+00
  8.40000000E+02  7.40000000E+01  0.00000000E+00
  8.40000000E+02  7.20000000E+01  0.00000000E+00
  8.40000000E+02  7.00000000E+01  0.00000000E+00
  8.40000000E+02  6.80000000E+01  0.00000000E+00
  8.40000000E+02  6.60000000E+01  0.00000000E+00
  8.40000000E+02  6.40000000E+01  0.00000000E+00
  8.40000000E+02  6.20000000E+01  0.00000000E+00
  8.40000000E+02  6.00000000E+01  0.00000000E+00
  8.40000000E+02  5.80000000E+01  0.00000000E+00
  8.40000000E+02  5.60000000E+01  0.00000000E+00
  8.40000000E+02  5.40000000E+01  0.00000000E+00
  8.40000000E+02  5.20000000E+01  0.00000000E+00
  8.40000000E+02  5.00000000E+01  0.00000000E+00
  8.40000000E+02  4.80000000E+01  0.00000000E+00
  8.40000000E+02  4.60000000E+01  0.00000000E+00
  8.40000000E+02  4.40000000E+01  0.00000000E+00
  8.40000000E+02  4.20000000E+01  0.00000000E+00
  8.40000000E+02  4.00000000E+01  0.00000000E+00
  8.40000000E+02  3.80000000E+01  0.00000000E+00
  8.40000000E+02  3.60000000E+01  0.00000000E+00
  8.40000000E+02  3.40000000E+01  0.00000000E+00
  8.40000000E+02  3.20000000E+01  0.00000000E+00
  8.40000000E+02  3.00000000E+01  0.00000000E+00
  8.40000000E+02  2.80000000E+01  0.00000000E+00
  8.40000000E+02  2.60000000E+01  0.00000000E+00
  8.40000000E+02  2.40000000E+01  0.00000000E+00
  8.40000000E+02  2.20000000E+01  0.00000000E+00
  8.40000000E+02  2.00000000E+01  0.00000000E+00
  8.40000000E+02  1.80000000E+01  0.00000000E+00
  8.40000000E+02  1.60000000E+01  0.00000000E+00
  8.40000000E+02  1.40000000E+01  0.00000000E+00
  8.40000000E+02  1.20000000E+01  0.00000000E+00
  8.40000000E+02  1.00000000E+01  0.00000000E+00
  8.40000000E+02  8.00000000E+00  0.00000000E+00
  8.40000000E+02  6.00000000E+00  0.00000000E+00
  8.40000000E+02  4.00000000E+00  0.00000000E+00
  8.40000000E+02  2.00000000E+00  0.00000000E+00
  8.40000000E+02 -3.33066907E-14  0.00000000E+00
  8.50000000E+02  1.00000000E+02  0.00000000E+00
  8.50000000E+02  9.80000000E+01  0.00000000E+00
  8.50000000E+02  9.60000000E+01  0.00000000E+00
  8.50000000E+02  9.40000000E+01  0.00000000E+00
  8.50000000E+02  9.20000000E+01  0.00000000E+00
  8.50000000E+02  9.00000000E+01  0.00000000E+00
  8.50000000E+02  8.80000000E+01  0.00000000E+00
  8.50000000E+02  8.60000000E+01  0.00000000E+00
  8.50000000E+02  8.40000000E+01  0.00000000E+00
  8.50000000E+02  8.20000000E+01  0.00000000E+00
  8.50000000E+02  8.00000000E+01  0.00000000E+00
  8.50000000E+02  7.80000000E+01  0.00000000E+00
  8.50000000E+02  7.60000000E+01  0.00000000E+00
  8.50000000E+02  7.40000000E+01  0.00000000E+00
  8.50000000E+02  7.20000000E+01  0.00000000E+00
  8.50000000E+02  7.00000000E+01  0.00000000E+00
  8.50000000E+02  6.80000000E+01  0.00000000E+00
  8.50000000E+02  6.60000000E+01  0.00000000E+00
  8.50000000E+02  6.40000000E+01  0.00000000E+00
  8.50000000E+02  6.20000000E+01  0.00000000E+00
  8.50000000E+02  6.00000000E+01  0.00000000E+00
  8.50000000E+02  5.80000000E+01  0.00000000E+00
  8.50000000E+02  5.60000000E+01  0.00000000E+00
  8.50000000E+02  5.40000000E+01  0.00000000E+00
  8.50000000E+02  5.20000000E+01  0.00000000E+00
  8.50000000E+02  5.00000000E+01  0.00000000E+00
  8.50000000E+02  4.80000000E+01  0.00000000E+00
  8.50000000E+02  4.60000000E+01  0.00000000E+00
  8.50000000E+02  4.40000000E+01  0.00000000E+00
  8.50000000E+02  4.20000000E+01  0.00000000E+00
  8.50000000E+02  4.00000000E+01  0.00000000E+00
  8.50000000E+02  3.80000000E+01  0.00000000E+00
  8.50000000E+02  3.60000000E+01  0.00000000E+00
  8.50000000E+02  3.40000000E+01  0.00000000E+00
  8.50000000E+02  3.20000000E+01  0.00000000E+00
  8.50000000E+02  3.00000000E+01  0.00000000E+00
  8.50000000E+02  2.80000000E+01  0.00000000E+00
  8.50000000E+02  2.60000000E+01  0.00000000E+00
  8.50000000E+02  2.40000000E+01  0.00000000E+00
  8.50000000E+02  2.20000000E+01  0.00000000E+00
  8.50000000E+02  2.00000000E+01  0.00000000E+00
  8.50000000E+02  1.80000000E+01  0.00000000E+00
  8.50000000E+02  1.60000000E+01  0.00000000E+00
  8.50000000E+02  1.40000000E+01  0.00000000E+00
  8.50000000E+02  1.20000000E+01  0.00000000E+00
  8.50000000E+02  1.00000000E+01  0.00000000E+00
  8.50000000E+02  8.00000000E+00  0.00000000E+00
  8.50000000E+02  6.00000000E+00  0.00000000E+00
  8.50000000E+02  4.00000000E+00  0.00000000E+00
  8.50000000E+02  2.00000000E+00  0.00000000E+00
  8.50000000E+02 -3.33066907E-14  0.00000000E+00
  8.60000000E+02  1.00000000E+02  0.00000000E+00
  8.60000000E+02  9.80000000E+01  0.00000000E+00
  8.60000000E+02  9.60000000E+01  0.00000000E+00
  8.60000000E+02  9.40000000E+01  0.00000000E+00
  8.60000000E+02  9.20000000E+01  0.00000000E+00
  8.60000000E+02  9.00000000E+01  0.00000000E+00
  8.60000000E+02  8.80000000E+01  0.00000000E+00
  8.60000000E+02  8.60000000E+01  0.00000000E+00
  8.60000000E+02  8.40000000E+01  0.00000000E+00
  8.60000000E+02  8.20000000E+01  0.00000000E+00
  8.60000000E+02  8.00000000E+01  0.00000000E+00
  8.60000000E+02  7.80000000E+01  0.00000000E+00
  8.60000000E+02  7.60000000E+01  0.00000000E+00
  8.60000000E+02  7.40000000E+01  0.00000000E+00
  8.60000000E+02  7.20000000E+01  0.00000000E+00
  8.60000000E+02  7.00000000E+01  0.00000000E+00
  8.60000000E+02  6.80000000E+01  0.00000000E+00
  8.60000000E+02  6.60000000E+01  0.00000000E+00
  8.60000000E+02  6.40000000E+01  0.00000000E+00
  8.60000000E+02  6.20000000E+01  0.00000000E+00
  8.60000000E+02  6.00000000E+01  0.00000000E+00
  8.60000000E+02  5.80000000E+01  0.00000000E+00
  8.60000000E+02  5.60000000E+01  0.00000000E+00
  8.60000000E+02  5.40000000E+01  0.00000000E+00
  8.60000000E+02  5.20000000E+01  0.00000000E+00
  8.60000000E+02  5.00000000E+01  0.00000000E+00
  8.60000000E+02  4.80000000E+01  0.00000000E+00
  8.60000000E+02  4.60000000E+01  0.00000000E+00
  8.60000000E+02  4.40000000E+01  0.00000000E+00
  8.60000000E+02  4.20000000E+01  0.00000000E+00
  8.60000000E+02  4.00000000E+01  0.00000000E+00
  8.60000000E+02  3.80000000E+01  0.00000000E+00
  8.60000000E+02  3.60000000E+01  0.00000000E+00
  8.60000000E+02  3.40000000E+01  0.00000000E+00
  8.60000000E+02  3.20000000E+01  0.00000000E+00
  8.60000000E+02  3.00000000E+01  0.00000000E+00
  8.60000000E+02  2.80000000E+01  0.00000000E+00
  8.60000000E+02  2.60000000E+01  0.00000000E+00
  8.60000000E+02  2.40000000E+01  0.00000000E+00
  8.60000000E+02  2.20000000E+01  0.00000000E+00
  8.60000000E+02  2.00000000E+01  0.00000000E+00
  8.60000000E+02  1.80000000E+01  0.00000000E+00
  8.60000000E+02  1.60000000E+01  0.00000000E+00
  8.60000000E+02  1.40000000E+01  0.00000000E+00
  8.60000000E+02  1.20000000E+01  0.00000000E+00
  8.60000000E+02  1.00000000E+01  0.00000000E+00
  8.60000000E+02  8.00000000E+00  0.00000000E+00
  8.60000000E+02  6.00000000E+00  0.00000000E+00
  8.60000000E+02  4.00000000E+00  0.00000000E+00
  8.60000000E+02  2.00000000E+00  0.00000000E+00
  8.60000000E+02 -3.33066907E-14  0.00000000E+00
  8.70000000E+02  1.00000000E+02  0.00000000E+00
  8.70000000E+02  9.80000000E+01  0.00000000E+00
  8.70000000E+02  9.60000000E+01  0.00000000E+00
  8.70000000E+02  9.40000000E+01  0.00000000E+00
  8.70000000E+02  9.20000000E+01  0.00000000E+00
  8.70000000E+02  9.00000000E+01  0.00000000E+00
  8.70000000E+02  8.80000000E+01  0.00000000E+00
  8.70000000E+02  8.60000000E+01  0.00000000E+00
  8.70000000E+02  8.40000000E+01  0.00000000E+00
  8.70000000E+02  8.20000000E+01  0.00000000E+00
  8.70000000E+02  8.00000000E+01  0.00000000E+00
  8.70000000E+02  7.80000000E+01  0.00000000E+00
  8.70000000E+02  7.60000000E+01  0.00000000E+00
  8.70000000E+02  7.40000000E+01  0.00000000E+00
  8.70000000E+02  7.20000000E+01  0.00000000E+00
  8.70000000E+02  7.00000000E+01  0.00000000E+00
  8.70000000E+02  6.80000000E+01  0.00000000E+00
  8.70000000E+02  6.60000000E+01  0.00000000E+00
  8.70000000E+02  6.40000000E+01  0.00000000E+00
  8.70000000E+02  6.20000000E+01  0.00000000E+00
  8.70000000E+02  6.00000000E+01  0.00000000E+00
  8.70000000E+02  5.80000000E+01  0.00000000E+00
  8.70000000E+02  5.60000000E+01  0.00000000E+00
  8.70000000E+02  5.40000000E+01  0.00000000E+00
  8.70000000E+02  5.20000000E+01  0.00000000E+00
  8.70000000E+02  5.00000000E+01  0.00000000E+00
  8.70000000E+02  4.80000000E+01  0.00000000E+00
  8.70000000E+02  4.60000000E+01  0.00000000E+00
  8.70000000E+02  4.40000000E+01  0.00000000E+00
  8.70000000E+02  4.20000000E+01  0.00000000E+00
  8.70000000E+02  4.00000000E+01  0.00000000E+00
  8.70000000E+02  3.80000000E+01  0.00000000E+00
  8.70000000E+02  3.60000000E+01  0.00000000E+00
  8.70000000E+02  3.40000000E+01  0.00000000E+00
  8.70000000E+02  3.20000000E+01  0.00000000E+00
  8.70000000E+02  3.00000000E+01  0.00000000E+00
  8.70000000E+02  2.80000000E+01  0.00000000E+00
  8.70000000E+02  2.60000000E+01  0.00000000E+00
  8.70000000E+02  2.40000000E+01  0.00000000E+00
  8.70000000E+02  2.20000000E+01  0.00000000E+00
  8.70000000E+02  2.00000000E+01  0.00000000E+00
  8.70000000E+02  1.80000000E+01  0.00000000E+00
  8.70000000E+02  1.60000000E+01  0.00000000E+00
  8.70000000E+02  1.40000000E+01  0.00000000E+00
  8.70000000E+02  1.20000000E+01  0.00000000E+00
  8.70000000E+02  1.00000000E+01  0.00000000E+00
  8.70000000E+02  8.00000000E+00  0.00000000E+00
  8.70000000E+02  6.00000000E+00  0.00000000E+00
  8.70000000E+02  4.00000000E+00  0.00000000E+00
  8.70000000E+02  2.00000000E+00  0.00000000E+00
  8.70000000E+02 -3.33066907E-14  0.00000000E+00
  8.80000000E+02  1.00000000E+02  0.00000000E+00
  8.80000000E+02  9.80000000E+01  0.00000000E+00
  8.80000000E+02  9.60000000E+01  0.00000000E+00
  8.80000000E+02  9.40000000E+01  0.00000000E+00
  8.80000000E+02  9.20000000E+01  0.00000000E+00
  8.80000000E+02  9.00000000E+01  0.00000000E+00
  8.80000000E+02  8.80000000E+01  0.00000000E+00
  8.80000000E+02  8.60000000E+01  0.00000000E+00
  8.80000000E+02  8.40000000E+01  0.00000000E+00
  8.80000000E+02  8.20000000E+01  0.00000000E+00
  8.80000000E+02  8.00000000E+01  0.00000000E+00
  8.80000000E+02  7.80000000E+01  0.00000000E+00
  8.80000000E+02  7.60000000E+01  0.00000000E+00
  8.80000000E+02  7.40000000E+01  0.00000000E+00
  8.80000000E+02  7.20000000E+01  0.00000000E+00
  8.80000000E+02  7.00000000E+01  0.00000000E+00
  8.80000000E+02  6.80000000E+01  0.00000000E+00
  8.80000000E+02  6.60000000E+01  0.00000000E+00
  8.80000000E+02  6.40000000E+01  0.00000000E+00
  8.80000000E+02  6.20000000E+01  0.00000000E+00
  8.80000000E+02  6.00000000E+01  0.00000000E+00
  8.80000000E+02  5.80000000E+01  0.00000000E+00
  8.80000000E+02  5.60000000E+01  0.00000000E+00
  8.80000000E+02  5.40000000E+01  0.00000000E+00
  8.80000000E+02  5.20000000E+01  0.00000000E+00
  8.80000000E+02  5.00000000E+01  0.00000000E+00
  8.80000000E+02  4.80000000E+01  0.00000000E+00
  8.80000000E+02  4.60000000E+01  0.00000000E+00
  8.80000000E+02  4.40000000E+01  0.00000000E+00
  8.80000000E+02  4.20000000E+01  0.00000000E+00
  8.80000000E+02  4.00000000E+01  0.00000000E+00
  8.80000000E+02  3.80000000E+01  0.00000000E+00
  8.80000000E+02  3.60000000E+01  0.00000000E+00
  8.80000000E+02  3.40000000E+01  0.00000000E+00
  8.80000000E+02  3.20000000E+01  0.00000000E+00
  8.80000000E+02  3.00000000E+01  0.00000000E+00
  8.80000000E+02  2.80000000E+01  0.00000000E+00
  8.80000000E+02  2.60000000E+01  0.00000000E+00
  8.80000000E+02  2.40000000E+01  0.00000000E+00
  8.80000000E+02  2.20000000E+01  0.00000000E+00
  8.80000000E+02  2.00000000E+01  0.00000000E+00
  8.80000000E+02  1.80000000E+01  0.00000000E+00
  8.80000000E+02  1.60000000E+01  0.00000000E+00
  8.80000000E+02  1.40000000E+01  0.00000000E+00
  8.80000000E+02  1.20000000E+01  0.00000000E+00
  8.80000000E+02  1.00000000E+01  0.00000000E+00
  8.80000000E+02  8.00000000E+00  0.00000000E+00
  8.80000000E+02  6.00000000E+00  0.00000000E+00
  8.80000000E+02  4.00000000E+00  0.00000000E+00
  8.80000000E+02  2.00000000E+00  0.00000000E+00
  8.80000000E+02 -3.33066907E-14  0.00000000E+00
  8.90000000E+02  1.00000000E+02  0.00000000E+00
  8.90000000E+02  9.80000000E+01  0.00000000E+00
  8.90000000E+02  9.60000000E+01  0.00000000E+00
  8.90000000E+02  9.40000000E+01  0.00000000E+00
  8.90000000E+02  9.20000000E+01  0.00000000E+00
  8.90000000E+02  9.00000000E+01  0.00000000E+00
  8.90000000E+02  8.80000000E+01  0.00000000E+00
  8.90000000E+02  8.60000000E+01  0.00000000E+00
  8.90000000E+02  8.40000000E+01  0.00000000E+00
  8.90000000E+02  8.20000000E+01  0.00000000E+00
  8.90000000E+02  8.00000000E+01  0.00000000E+00
  8.90000000E+02  7.80000000E+01  0.00000000E+00
  8.90000000E+02  7.60000000E+01  0.00000000E+00
  8.90000000E+02  7.40000000E+01  0.00000000E+00
  8.90000000E+02  7.20000000E+01  0.00000000E+00
  8.90000000E+02  7.00000000E+01  0.00000000E+00
  8.90000000E+02  6.80000000E+01  0.00000000E+00
  8.90000000E+02  6.60000000E+01  0.00000000E+00
  8.90000000E+02  6.40000000E+01  0.00000000E+00
  8.90000000E+02  6.20000000E+01  0.00000000E+00
  8.90000000E+02  6.00000000E+01  0.00000000E+00
  8.90000000E+02  5.80000000E+01  0.00000000E+00
  8.90000000E+02  5.60000000E+01  0.00000000E+00
  8.90000000E+02  5.40000000E+01  0.00000000E+00
  8.90000000E+02  5.20000000E+01  0.00000000E+00
  8.90000000E+02  5.00000000E+01  0.00000000E+00
  8.90000000E+02  4.80000000E+01  0.00000000E+00
  8.90000000E+02  4.60000000E+01  0.00000000E+00
  8.90000000E+02  4.40000000E+01  0.00000000E+00
  8.90000000E+02  4.20000000E+01  0.00000000E+00
  8.90000000E+02  4.00000000E+01  0.00000000E+00
  8.90000000E+02  3.80000000E+01  0.00000000E+00
  8.90000000E+02  3.60000000E+01  0.00000000E+00
  8.90000000E+02  3.40000000E+01  0.00000000E+00
  8.90000000E+02  3.20000000E+01  0.00000000E+00
  8.90000000E+02  3.00000000E+01  0.00000000E+00
  8.90000000E+02  2.80000000E+01  0.00000000E+00
  8.90000000E+02  2.60000000E+01  0.00000000E+00
  8.90000000E+02  2.40000000E+01  0.00000000E+00
  8.90000000E+02  2.20000000E+01  0.00000000E+00
  8.90000000E+02  2.00000000E+01  0.00000000E+00
  8.90000000E+02  1.80000000E+01  0.00000000E+00
  8.90000000E+02  1.60000000E+01  0.00000000E+00
  8.90000000E+02  1.40000000E+01  0.00000000E+00
  8.90000000E+02  1.20000000E+01  0.00000000E+00
  8.90000000E+02  1.00000000E+01  0.00000000E+00
  8.90000000E+02  8.00000000E+00  0.00000000E+00
  8.90000000E+02  6.00000000E+00  0.00000000E+00
  8.90000000E+02  4.00000000E+00  0.00000000E+00
  8.90000000E+02  2.00000000E+00  0.00000000E+00
  8.90000000E+02 -3.33066907E-14  0.00000000E+00
  9.00000000E+02  1.00000000E+02  0.00000000E+00
  9.00000000E+02  9.80000000E+01  0.00000000E+00
  9.00000000E+02  9.60000000E+01  0.00000000E+00
  9.00000000E+02  9.40000000E+01  0.00000000E+00
  9.00000000E+02  9.20000000E+01  0.00000000E+00
  9.00000000E+02  9.00000000E+01  0.00000000E+00
  9.00000000E+02  8.80000000E+01  0.00000000E+00
  9.00000000E+02  8.60000000E+01  0.00000000E+00
  9.00000000E+02  8.40000000E+01  0.00000000E+00
  9.00000000E+02  8.20000000E+01  0.00000000E+00
  9.00000000E+02  8.00000000E+01  0.00000000E+00
  9.00000000E+02  7.80000000E+01  0.00000000E+00
  9.00000000E+02  7.60000000E+01  0.00000000E+00
  9.00000000E+02  7.40000000E+01  0.00000000E+00
  9.00000000E+02  7.20000000E+01  0.00000000E+00
  9.00000000E+02  7.00000000E+01  0.00000000E+00
  9.00000000E+02  6.80000000E+01  0.00000000E+00
  9.00000000E+02  6.60000000E+01  0.00000000E+00
  9.00000000E+02  6.40000000E+01  0.00000000E+00
  9.00000000E+02  6.20000000E+01  0.00000000E+00
  9.00000000E+02  6.00000000E+01  0.00000000E+00
  9.00000000E+02  5.80000000E+01  0.00000000E+00
  9.00000000E+02  5.60000000E+01  0.00000000E+00
  9.00000000E+02  5.40000000E+01  0.00000000E+00
  9.00000000E+02  5.20000000E+01  0.00000000E+00
  9.00000000E+02  5.00000000E+01  0.00000000E+00
  9.00000000E+02  4.80000000E+01  0.00000000E+00
  9.00000000E+02  4.60000000E+01  0.00000000E+00
  9.00000000E+02  4.40000000E+01  0.00000000E+00
  9.00000000E+02  4.20000000E+01  0.00000000E+00
  9.00000000E+02  4.00000000E+01  0.00000000E+00
  9.00000000E+02  3.80000000E+01  0.00000000E+00
  9.00000000E+02  3.60000000E+01  0.00000000E+00
  9.00000000E+02  3.40000000E+01  0.00000000E+00
  9.00000000E+02  3.20000000E+01  0.00000000E+00
  9.00000000E+02  3.00000000E+01  0.00000000E+00
  9.00000000E+02  2.80000000E+01  0.00000000E+00
  9.00000000E+02  2.60000000E+01  0.00000000E+00
  9.00000000E+02  2.40000000E+01  0.00000000E+00
  9.00000000E+02  2.20000000E+01  0.00000000E+00
  9.00000000E+02  2.00000000E+01  0.00000000E+00
  9.00000000E+02  1.80000000E+01  0.00000000E+00
  9.00000000E+02  1.60000000E+01  0.00000000E+00
  9.00000000E+02  1.40000000E+01  0.00000000E+00
  9.00000000E+02  1.20000000E+01  0.00000000E+00
  9.00000000E+02  1.00000000E+01  0.00000000E+00
  9.00000000E+02  8.00000000E+00  0.00000000E+00
  9.00000000E+02  6.00000000E+00  0.00000000E+00
  9.00000000E+02  4.00000000E+00  0.00000000E+00
  9.00000000E+02  2.00000000E+00  0.00000000E+00
  9.00000000E+02 -3.33066907E-14  0.00000000E+00
  9.10000000E+02  1.00000000E+02  0.00000000E+00
  9.10000000E+02  9.80000000E+01  0.00000000E+00
  9.10000000E+02  9.60000000E+01  0.00000000E+00
  9.10000000E+02  9.40000000E+01  0.00000000E+00
  9.10000000E+02  9.20000000E+01  0.00000000E+00
  9.10000000E+02  9.00000000E+01  0.00000000E+00
  9.10000000E+02  8.80000000E+01  0.00000000E+00
  9.10000000E+02  8.60000000E+01  0.00000000E+00
  9.10000000E+02  8.40000000E+01  0.00000000E+00
  9.10000000E+02  8.20000000E+01  0.00000000E+00
  9.10000000E+02  8.00000000E+01  0.00000000E+00
  9.10000000E+02  7.80000000E+01  0.00000000E+00
  9.10000000E+02  7.60000000E+01  0.00000000E+00
  9.10000000E+02  7.40000000E+01  0.00000000E+00
  9.10000000E+02  7.20000000E+01  0.00000000E+00
  9.10000000E+02  7.00000000E+01  0.00000000E+00
  9.10000000E+02  6.80000000E+01  0.00000000E+00
  9.10000000E+02  6.60000000E+01  0.00000000E+00
  9.10000000E+02  6.40000000E+01  0.00000000E+00
  9.10000000E+02  6.20000000E+01  0.00000000E+00
  9.10000000E+02  6.00000000E+01  0.00000000E+00
  9.10000000E+02  5.80000000E+01  0.00000000E+00
  9.10000000E+02  5.60000000E+01  0.00000000E+00
  9.10000000E+02  5.40000000E+01  0.00000000E+00
  9.10000000E+02  5.20000000E+01  0.00000000E+00
  9.10000000E+02  5.00000000E+01  0.00000000E+00
  9.10000000E+02  4.80000000E+01  0.00000000E+00
  9.10000000E+02  4.60000000E+01  0.00000000E+00
  9.10000000E+02  4.40000000E+01  0.00000000E+00
  9.10000000E+02  4.20000000E+01  0.00000000E+00
  9.10000000E+02  4.00000000E+01  0.00000000E+00
  9.10000000E+02  3.80000000E+01  0.00000000E+00
  9.10000000E+02  3.60000000E+01  0.00000000E+00
  9.10000000E+02  3.40000000E+01  0.00000000E+00
  9.10000000E+02  3.20000000E+01  0.00000000E+00
  9.10000000E+02  3.00000000E+01  0.00000000E+00
  9.10000000E+02  2.80000000E+01  0.00000000E+00
  9.10000000E+02  2.60000000E+01  0.00000000E+00
  9.10000000E+02  2.40000000E+01  0.00000000E+00
  9.10000000E+02  2.20000000E+01  0.00000000E+00
  9.10000000E+02  2.00000000E+01  0.00000000E+00
  9.10000000E+02  1.80000000E+01  0.00000000E+00
  9.10000000E+02  1.60000000E+01  0.00000000E+00
  9.10000000E+02  1.40000000E+01  0.00000000E+00
  9.10000000E+02  1.20000000E+01  0.00000000E+00
  9.10000000E+02  1.00000000E+01  0.00000000E+00
  9.10000000E+02  8.00000000E+00  0.00000000E+00
  9.10000000E+02  6.00000000E+00  0.00000000E+00
  9.10000000E+02  4.00000000E+00  0.00000000E+00
  9.10000000E+02  2.00000000E+00  0.00000000E+00
  9.10000000E+02 -3.33066907E-14  0.00000000E+00
  9.20000000E+02  1.00000000E+02  0.00000000E+00
  9.20000000E+02  9.80000000E+01  0.00000000E+00
  9.20000000E+02  9.60000000E+01  0.00000000E+00
  9.20000000E+02  9.40000000E+01  0.00000000E+00
  9.20000000E+02  9.20000000E+01  0.00000000E+00
  9.20000000E+02  9.00000000E+01  0.00000000E+00
  9.20000000E+02  8.80000000E+01  0.00000000E+00
  9.20000000E+02  8.60000000E+01  0.00000000E+00
  9.20000000E+02  8.40000000E+01  0.00000000E+00
  9.20000000E+02  8.20000000E+01  0.00000000E+00
  9.20000000E+02  8.00000000E+01  0.00000000E+00
  9.20000000E+02  7.80000000E+01  0.00000000E+00
  9.20000000E+02  7.60000000E+01  0.00000000E+00
  9.20000000E+02  7.40000000E+01  0.00000000E+00
  9.20000000E+02  7.20000000E+01  0.00000000E+00
  9.20000000E+02  7.00000000E+01  0.00000000E+00
  9.20000000E+02  6.80000000E+01  0.00000000E+00
  9.20000000E+02  6.60000000E+01  0.00000000E+00
  9.20000000E+02  6.40000000E+01  0.00000000E+00
  9.20000000E+02  6.20000000E+01  0.00000000E+00
  9.20000000E+02  6.00000000E+01  0.00000000E+00
  9.20000000E+02  5.80000000E+01  0.00000000E+00
  9.20000000E+02  5.60000000E+01  0.00000000E+00
  9.20000000E+02  5.40000000E+01  0.00000000E+00
  9.20000000E+02  5.20000000E+01  0.00000000E+00
  9.20000000E+02  5.00000000E+01  0.00000000E+00
  9.20000000E+02  4.80000000E+01  0.00000000E+00
  9.20000000E+02  4.60000000E+01  0.00000000E+00
  9.20000000E+02  4.40000000E+01  0.00000000E+00
  9.20000000E+02  4.20000000E+01  0.00000000E+00
  9.20000000E+02  4.00000000E+01  0.00000000E+00
  9.20000000E+02  3.80000000E+01  0.00000000E+00
  9.20000000E+02  3.60000000E+01  0.00000000E+00
  9.20000000E+02  3.40000000E+01  0.00000000E+00
  9.20000000E+02  3.20000000E+01  0.00000000E+00
  9.20000000E+02  3.00000000E+01  0.00000000E+00
  9.20000000E+02  2.80000000E+01  0.00000000E+00
  9.20000000E+02  2.60000000E+01  0.00000000E+00
  9.20000000E+02  2.40000000E+01  0.00000000E+00
  9.20000000E+02  2.20000000E+01  0.00000000E+00
  9.20000000E+02  2.00000000E+01  0.00000000E+00
  9.20000000E+02  1.80000000E+01  0.00000000E+00
  9.20000000E+02  1.60000000E+01  0.00000000E+00
  9.20000000E+02  1.40000000E+01  0.00000000E+00
  9.20000000E+02  1.20000000E+01  0.00000000E+00
  9.20000000E+02  1.00000000E+01  0.00000000E+00
  9.20000000E+02  8.00000000E+00  0.00000000E+00
  9.20000000E+02  6.00000000E+00  0.00000000E+00
  9.20000000E+02  4.00000000E+00  0.00000000E+00
  9.20000000E+02  2.00000000E+00  0.00000000E+00
  9.20000000E+02 -3.33066907E-14  0.00000000E+00
  9.30000000E+02  1.00000000E+02  0.00000000E+00
  9.30000000E+02  9.80000000E+01  0.00000000E+00
  9.30000000E+02  9.60000000E+01  0.00000000E+00
  9.30000000E+02  9.40000000E+01  0.00000000E+00
  9.30000000E+02  9.20000000E+01  0.00000000E+00
  9.30000000E+02  9.00000000E+01  0.00000000E+00
  9.30000000E+02  8.80000000E+01  0.00000000E+00
  9.30000000E+02  8.60000000E+01  0.00000000E+00
  9.30000000E+02  8.40000000E+01  0.00000000E+00
  9.30000000E+02  8.20000000E+01  0.00000000E+00
  9.30000000E+02  8.00000000E+01  0.00000000E+00
  9.30000000E+02  7.80000000E+01  0.00000000E+00
  9.30000000E+02  7.60000000E+01  0.00000000E+00
  9.30000000E+02  7.40000000E+01  0.00000000E+00
  9.30000000E+02  7.20000000E+01  0.00000000E+00
  9.30000000E+02  7.00000000E+01  0.00000000E+00
  9.30000000E+02  6.80000000E+01  0.00000000E+00
  9.30000000E+02  6.60000000E+01  0.00000000E+00
  9.30000000E+02  6.40000000E+01  0.00000000E+00
  9.30000000E+02  6.20000000E+01  0.00000000E+00
  9.30000000E+02  6.00000000E+01  0.00000000E+00
  9.30000000E+02  5.80000000E+01  0.00000000E+00
  9.30000000E+02  5.60000000E+01  0.00000000E+00
  9.30000000E+02  5.40000000E+01  0.00000000E+00
  9.30000000E+02  5.20000000E+01  0.00000000E+00
  9.30000000E+02  5.00000000E+01  0.00000000E+00
  9.30000000E+02  4.80000000E+01  0.00000000E+00
  9.30000000E+02  4.60000000E+01  0.00000000E+00
  9.30000000E+02  4.40000000E+01  0.00000000E+00
  9.30000000E+02  4.20000000E+01  0.00000000E+00
  9.30000000E+02  4.00000000E+01  0.00000000E+00
  9.30000000E+02  3.80000000E+01  0.00000000E+00
  9.30000000E+02  3.60000000E+01  0.00000000E+00
  9.30000000E+02  3.40000000E+01  0.00000000E+00
  9.30000000E+02  3.20000000E+01  0.00000000E+00
  9.30000000E+02  3.00000000E+01  0.00000000E+00
  9.30000000E+02  2.80000000E+01  0.00000000E+00
  9.30000000E+02  2.60000000E+01  0.00000000E+00
  9.30000000E+02  2.40000000E+01  0.00000000E+00
  9.30000000E+02  2.20000000E+01  0.00000000E+00
  9.30000000E+02  2.00000000E+01  0.00000000E+00
  9.30000000E+02  1.80000000E+01  0.00000000E+00
  9.30000000E+02  1.60000000E+01  0.00000000E+00
  9.30000000E+02  1.40000000E+01  0.00000000E+00
  9.30000000E+02  1.20000000E+01  0.00000000E+00
  9.30000000E+02  1.00000000E+01  0.00000000E+00
  9.30000000E+02  8.00000000E+00  0.00000000E+00
  9.30000000E+02  6.00000000E+00  0.00000000E+00
  9.30000000E+02  4.00000000E+00  0.00000000E+00
  9.30000000E+02  2.00000000E+00  0.00000000E+00
  9.30000000E+02 -3.33066907E-14  0.00000000E+00
  9.40000000E+02  1.00000000E+02  0.00000000E+00
  9.40000000E+02  9.80000000E+01  0.00000000E+00
  9.40000000E+02  9.60000000E+01  0.00000000E+00
  9.40000000E+02  9.40000000E+01  0.00000000E+00
  9.40000000E+02  9.20000000E+01  0.00000000E+00
  9.40000000E+02  9.00000000E+01  0.00000000E+00
  9.40000000E+02  8.80000000E+01  0.00000000E+00
  9.40000000E+02  8.60000000E+01  0.00000000E+00
  9.40000000E+02  8.40000000E+01  0.00000000E+00
  9.40000000E+02  8.20000000E+01  0.00000000E+00
  9.40000000E+02  8.00000000E+01  0.00000000E+00
  9.40000000E+02  7.80000000E+01  0.00000000E+00
  9.40000000E+02  7.60000000E+01  0.00000000E+00
  9.40000000E+02  7.40000000E+01  0.00000000E+00
  9.40000000E+02  7.20000000E+01  0.00000000E+00
  9.40000000E+02  7.00000000E+01  0.00000000E+00
  9.40000000E+02  6.80000000E+01  0.00000000E+00
  9.40000000E+02  6.60000000E+01  0.00000000E+00
  9.40000000E+02  6.40000000E+01  0.00000000E+00
  9.40000000E+02  6.20000000E+01  0.00000000E+00
  9.40000000E+02  6.00000000E+01  0.00000000E+00
  9.40000000E+02  5.80000000E+01  0.00000000E+00
  9.40000000E+02  5.60000000E+01  0.00000000E+00
  9.40000000E+02  5.40000000E+01  0.00000000E+00
  9.40000000E+02  5.20000000E+01  0.00000000E+00
  9.40000000E+02  5.00000000E+01  0.00000000E+00
  9.40000000E+02  4.80000000E+01  0.00000000E+00
  9.40000000E+02  4.60000000E+01  0.00000000E+00
  9.40000000E+02  4.40000000E+01  0.00000000E+00
  9.40000000E+02  4.20000000E+01  0.00000000E+00
  9.40000000E+02  4.00000000E+01  0.00000000E+00
  9.40000000E+02  3.80000000E+01  0.00000000E+00
  9.40000000E+02  3.60000000E+01  0.00000000E+00
  9.40000000E+02  3.40000000E+01  0.00000000E+00
  9.40000000E+02  3.20000000E+01  0.00000000E+00
  9.40000000E+02  3.00000000E+01  0.00000000E+00
  9.40000000E+02  2.80000000E+01  0.00000000E+00
  9.40000000E+02  2.60000000E+01  0.00000000E+00
  9.40000000E+02  2.40000000E+01  0.00000000E+00
  9.40000000E+02  2.20000000E+01  0.00000000E+00
  9.40000000E+02  2.00000000E+01  0.00000000E+00
  9.40000000E+02  1.80000000E+01  0.00000000E+00
  9.40000000E+02  1.60000000E+01  0.00000000E+00
  9.40000000E+02  1.40000000E+01  0.00000000E+00
  9.40000000E+02  1.20000000E+01  0.00000000E+00
  9.40000000E+02  1.00000000E+01  0.00000000E+00
  9.40000000E+02  8.00000000E+00  0.00000000E+00
  9.40000000E+02  6.00000000E+00  0.00000000E+00
  9.40000000E+02  4.00000000E+00  0.00000000E+00
  9.40000000E+02  2.00000000E+00  0.00000000E+00
  9.40000000E+02 -3.33066907E-14  0.00000000E+00
  9.50000000E+02  1.00000000E+02  0.00000000E+00
  9.50000000E+02  9.80000000E+01  0.00000000E+00
  9.50000000E+02  9.60000000E+01  0.00000000E+00
  9.50000000E+02  9.40000000E+01  0.00000000E+00
  9.50000000E+02  9.20000000E+01  0.00000000E+00
  9.50000000E+02  9.00000000E+01  0.00000000E+00
  9.50000000E+02  8.80000000E+01  0.00000000E+00
  9.50000000E+02  8.60000000E+01  0.00000000E+00
  9.50000000E+02  8.40000000E+01  0.00000000E+00
  9.50000000E+02  8.20000000E+01  0.00000000E+00
  9.50000000E+02  8.00000000E+01  0.00000000E+00
  9.50000000E+02  7.80000000E+01  0.00000000E+00
  9.50000000E+02  7.60000000E+01  0.00000000E+00
  9.50000000E+02  7.40000000E+01  0.00000000E+00
  9.50000000E+02  7.20000000E+01  0.00000000E+00
  9.50000000E+02  7.00000000E+01  0.00000000E+00
  9.50000000E+02  6.80000000E+01  0.00000000E+00
  9.50000000E+02  6.60000000E+01  0.00000000E+00
  9.50000000E+02  6.40000000E+01  0.00000000E+00
  9.50000000E+02  6.20000000E+01  0.00000000E+00
  9.50000000E+02  6.00000000E+01  0.00000000E+00
  9.50000000E+02  5.80000000E+01  0.00000000E+00
  9.50000000E+02  5.60000000E+01  0.00000000E+00
  9.50000000E+02  5.40000000E+01  0.00000000E+00
  9.50000000E+02  5.20000000E+01  0.00000000E+00
  9.50000000E+02  5.00000000E+01  0.00000000E+00
  9.50000000E+02  4.80000000E+01  0.00000000E+00
  9.50000000E+02  4.60000000E+01  0.00000000E+00
  9.50000000E+02  4.40000000E+01  0.00000000E+00
  9.50000000E+02  4.20000000E+01  0.00000000E+00
  9.50000000E+02  4.00000000E+01  0.00000000E+00
  9.50000000E+02  3.80000000E+01  0.00000000E+00
  9.50000000E+02  3.60000000E+01  0.00000000E+00
  9.50000000E+02  3.40000000E+01  0.00000000E+00
  9.50000000E+02  3.20000000E+01  0.00000000E+00
  9.50000000E+02  3.00000000E+01  0.00000000E+00
  9.50000000E+02  2.80000000E+01  0.00000000E+00
  9.50000000E+02  2.60000000E+01  0.00000000E+00
  9.50000000E+02  2.40000000E+01  0.00000000E+00
  9.50000000E+02  2.20000000E+01  0.00000000E+00
  9.50000000E+02  2.00000000E+01  0.00000000E+00
  9.50000000E+02  1.80000000E+01  0.00000000E+00
  9.50000000E+02  1.60000000E+01  0.00000000E+00
  9.50000000E+02  1.40000000E+01  0.00000000E+00
  9.50000000E+02  1.20000000E+01  0.00000000E+00
  9.50000000E+02  1.00000000E+01  0.00000000E+00
  9.50000000E+02  8.00000000E+00  0.00000000E+00
  9.50000000E+02  6.00000000E+00  0.00000000E+00
  9.50000000E+02  4.00000000E+00  0.00000000E+00
  9.50000000E+02  2.00000000E+00  0.00000000E+00
  9.50000000E+02 -3.33066907E-14  0.00000000E+00
  9.60000000E+02  1.00000000E+02  0.00000000E+00
  9.60000000E+02  9.80000000E+01  0.00000000E+00
  9.60000000E+02  9.60000000E+01  0.00000000E+00
  9.60000000E+02  9.40000000E+01  0.00000000E+00
  9.60000000E+02  9.20000000E+01  0.00000000E+00
  9.60000000E+02  9.00000000E+01  0.00000000E+00
  9.60000000E+02  8.80000000E+01  0.00000000E+00
  9.60000000E+02  8.60000000E+01  0.00000000E+00
  9.60000000E+02  8.40000000E+01  0.00000000E+00
  9.60000000E+02  8.20000000E+01  0.00000000E+00
  9.60000000E+02  8.00000000E+01  0.00000000E+00
  9.60000000E+02  7.80000000E+01  0.00000000E+00
  9.60000000E+02  7.60000000E+01  0.00000000E+00
  9.60000000E+02  7.40000000E+01  0.00000000E+00
  9.60000000E+02  7.20000000E+01  0.00000000E+00
  9.60000000E+02  7.00000000E+01  0.00000000E+00
  9.60000000E+02  6.80000000E+01  0.00000000E+00
  9.60000000E+02  6.60000000E+01  0.00000000E+00
  9.60000000E+02  6.40000000E+01  0.00000000E+00
  9.60000000E+02  6.20000000E+01  0.00000000E+00
  9.60000000E+02  6.00000000E+01  0.00000000E+00
  9.60000000E+02  5.80000000E+01  0.00000000E+00
  9.60000000E+02  5.60000000E+01  0.00000000E+00
  9.60000000E+02  5.40000000E+01  0.00000000E+00
  9.60000000E+02  5.20000000E+01  0.00000000E+00
  9.60000000E+02  5.00000000E+01  0.00000000E+00
  9.60000000E+02  4.80000000E+01  0.00000000E+00
  9.60000000E+02  4.60000000E+01  0.00000000E+00
  9.60000000E+02  4.40000000E+01  0.00000000E+00
  9.60000000E+02  4.20000000E+01  0.00000000E+00
  9.60000000E+02  4.00000000E+01  0.00000000E+00
  9.60000000E+02  3.80000000E+01  0.00000000E+00
  9.60000000E+02  3.60000000E+01  0.00000000E+00
  9.60000000E+02  3.40000000E+01  0.00000000E+00
  9.60000000E+02  3.20000000E+01  0.00000000E+00
  9.60000000E+02  3.00000000E+01  0.00000000E+00
  9.60000000E+02  2.80000000E+01  0.00000000E+00
  9.60000000E+02  2.60000000E+01  0.00000000E+00
  9.60000000E+02  2.40000000E+01  0.00000000E+00
  9.60000000E+02  2.20000000E+01  0.00000000E+00
  9.60000000E+02  2.00000000E+01  0.00000000E+00
  9.60000000E+02  1.80000000E+01  0.00000000E+00
  9.60000000E+02  1.60000000E+01  0.00000000E+00
  9.60000000E+02  1.40000000E+01  0.00000000E+00
  9.60000000E+02  1.20000000E+01  0.00000000E+00
  9.60000000E+02  1.00000000E+01  0.00000000E+00
  9.60000000E+02  8.00000000E+00  0.00000000E+00
  9.60000000E+02  6.00000000E+00  0.00000000E+00
  9.60000000E+02  4.00000000E+00  0.00000000E+00
  9.60000000E+02  2.00000000E+00  0.00000000E+00
  9.60000000E+02 -3.33066907E-14  0.00000000E+00
  9.70000000E+02  1.00000000E+02  0.00000000E+00
  9.70000000E+02  9.80000000E+01  0.00000000E+00
  9.70000000E+02  9.60000000E+01  0.00000000E+00
  9.70000000E+02  9.40000000E+01  0.00000000E+00
  9.70000000E+02  9.20000000E+01  0.00000000E+00
  9.70000000E+02  9.00000000E+01  0.00000000E+00
  9.70000000E+02  8.80000000E+01  0.00000000E+00
  9.70000000E+02  8.60000000E+01  0.00000000E+00
  9.70000000E+02  8.40000000E+01  0.00000000E+00
  9.70000000E+02  8.20000000E+01  0.00000000E+00
  9.70000000E+02  8.00000000E+01  0.00000000E+00
  9.70000000E+02  7.80000000E+01  0.00000000E+00
  9.70000000E+02  7.60000000E+01  0.00000000E+00
  9.70000000E+02  7.40000000E+01  0.00000000E+00
  9.70000000E+02  7.20000000E+01  0.00000000E+00
  9.70000000E+02  7.00000000E+01  0.00000000E+00
  9.70000000E+02  6.80000000E+01  0.00000000E+00
  9.70000000E+02  6.60000000E+01  0.00000000E+00
  9.70000000E+02  6.40000000E+01  0.00000000E+00
  9.70000000E+02  6.20000000E+01  0.00000000E+00
  9.70000000E+02  6.00000000E+01  0.00000000E+00
  9.70000000E+02  5.80000000E+01  0.00000000E+00
  9.70000000E+02  5.60000000E+01  0.00000000E+00
  9.70000000E+02  5.40000000E+01  0.00000000E+00
  9.70000000E+02  5.20000000E+01  0.00000000E+00
  9.70000000E+02  5.00000000E+01  0.00000000E+00
  9.70000000E+02  4.80000000E+01  0.00000000E+00
  9.70000000E+02  4.60000000E+01  0.00000000E+00
  9.70000000E+02  4.40000000E+01  0.00000000E+00
  9.70000000E+02  4.20000000E+01  0.00000000E+00
  9.70000000E+02  4.00000000E+01  0.00000000E+00
  9.70000000E+02  3.80000000E+01  0.00000000E+00
  9.70000000E+02  3.60000000E+01  0.00000000E+00
  9.70000000E+02  3.40000000E+01  0.00000000E+00
  9.70000000E+02  3.20000000E+01  0.00000000E+00
  9.70000000E+02  3.00000000E+01  0.00000000E+00
  9.70000000E+02  2.80000000E+01  0.00000000E+00
  9.70000000E+02  2.60000000E+01  0.00000000E+00
  9.70000000E+02  2.40000000E+01  0.00000000E+00
  9.70000000E+02  2.20000000E+01  0.00000000E+00
  9.70000000E+02  2.00000000E+01  0.00000000E+00
  9.70000000E+02  1.80000000E+01  0.00000000E+00
  9.70000000E+02  1.60000000E+01  0.00000000E+00
  9.70000000E+02  1.40000000E+01  0.00000000E+00
  9.70000000E+02  1.20000000E+01  0.00000000E+00
  9.70000000E+02  1.00000000E+01  0.00000000E+00
  9.70000000E+02  8.00000000E+00  0.00000000E+00
  9.70000000E+02  6.00000000E+00  0.00000000E+00
  9.70000000E+02  4.00000000E+00  0.00000000E+00
  9.70000000E+02  2.00000000E+00  0.00000000E+00
  9.70000000E+02 -3.33066907E-14  0.00000000E+00
  9.80000000E+02  1.00000000E+02  0.00000000E+00
  9.80000000E+02  9.80000000E+01  0.00000000E+00
  9.80000000E+02  9.60000000E+01  0.00000000E+00
  9.80000000E+02  9.40000000E+01  0.00000000E+00
  9.80000000E+02  9.20000000E+01  0.00000000E+00
  9.80000000E+02  9.00000000E+01  0.00000000E+00
  9.80000000E+02  8.80000000E+01  0.00000000E+00
  9.80000000E+02  8.60000000E+01  0.00000000E+00
  9.80000000E+02  8.40000000E+01  0.00000000E+00
  9.80000000E+02  8.20000000E+01  0.00000000E+00
  9.80000000E+02  8.00000000E+01  0.00000000E+00
  9.80000000E+02  7.80000000E+01  0.00000000E+00
  9.80000000E+02  7.60000000E+01  0.00000000E+00
  9.80000000E+02  7.40000000E+01  0.00000000E+00
  9.80000000E+02  7.20000000E+01  0.00000000E+00
  9.80000000E+02  7.00000000E+01  0.00000000E+00
  9.80000000E+02  6.80000000E+01  0.00000000E+00
  9.80000000E+02  6.60000000E+01  0.00000000E+00
  9.80000000E+02  6.40000000E+01  0.00000000E+00
  9.80000000E+02  6.20000000E+01  0.00000000E+00
  9.80000000E+02  6.00000000E+01  0.00000000E+00
  9.80000000E+02  5.80000000E+01  0.00000000E+00
  9.80000000E+02  5.60000000E+01  0.00000000E+00
  9.80000000E+02  5.40000000E+01  0.00000000E+00
  9.80000000E+02  5.20000000E+01  0.00000000E+00
  9.80000000E+02  5.00000000E+01  0.00000000E+00
  9.80000000E+02  4.80000000E+01  0.00000000E+00
  9.80000000E+02  4.60000000E+01  0.00000000E+00
  9.80000000E+02  4.40000000E+01  0.00000000E+00
  9.80000000E+02  4.20000000E+01  0.00000000E+00
  9.80000000E+02  4.00000000E+01  0.00000000E+00
  9.80000000E+02  3.80000000E+01  0.00000000E+00
  9.80000000E+02  3.60000000E+01  0.00000000E+00
  9.80000000E+02  3.40000000E+01  0.00000000E+00
  9.80000000E+02  3.20000000E+01  0.00000000E+00
  9.80000000E+02  3.00000000E+01  0.00000000E+00
  9.80000000E+02  2.80000000E+01  0.00000000E+00
  9.80000000E+02  2.60000000E+01  0.00000000E+00
  9.80000000E+02  2.40000000E+01  0.00000000E+00
  9.80000000E+02  2.20000000E+01  0.00000000E+00
  9.80000000E+02  2.00000000E+01  0.00000000E+00
  9.80000000E+02  1.80000000E+01  0.00000000E+00
  9.80000000E+02  1.60000000E+01  0.00000000E+00
  9.80000000E+02  1.40000000E+01  0.00000000E+00
  9.80000000E+02  1.20000000E+01  0.00000000E+00
  9.80000000E+02  1.00000000E+01  0.00000000E+00
  9.80000000E+02  8.00000000E+00  0.00000000E+00
  9.80000000E+02  6.00000000E+00  0.00000000E+00
  9.80000000E+02  4.00000000E+00  0.00000000E+00
  9.80000000E+02  2.00000000E+00  0.00000000E+00
  9.80000000E+02 -3.33066907E-14  0.00000000E+00
  9.90000000E+02  1.00000000E+02  0.00000000E+00
  9.90000000E+02  9.80000000E+01  0.00000000E+00
  9.90000000E+02  9.60000000E+01  0.00000000E+00
  9.90000000E+02  9.40000000E+01  0.00000000E+00
  9.90000000E+02  9.20000000E+01  0.00000000E+00
  9.90000000E+02  9.00000000E+01  0.00000000E+00
  9.90000000E+02  8.80000000E+01  0.00000000E+00
  9.90000000E+02  8.60000000E+01  0.00000000E+00
  9.90000000E+02  8.40000000E+01  0.00000000E+00
  9.90000000E+02  8.20000000E+01  0.00000000E+00
  9.90000000E+02  8.00000000E+01  0.00000000E+00
  9.90000000E+02  7.80000000E+01  0.00000000E+00
  9.90000000E+02  7.60000000E+01  0.00000000E+00
  9.90000000E+02  7.40000000E+01  0.00000000E+00
  9.90000000E+02  7.20000000E+01  0.00000000E+00
  9.90000000E+02  7.00000000E+01  0.00000000E+00
  9.90000000E+02  6.80000000E+01  0.00000000E+00
  9.90000000E+02  6.60000000E+01  0.00000000E+00
  9.90000000E+02  6.40000000E+01  0.00000000E+00
  9.90000000E+02  6.20000000E+01  0.00000000E+00
  9.90000000E+02  6.00000000E+01  0.00000000E+00
  9.90000000E+02  5.80000000E+01  0.00000000E+00
  9.90000000E+02  5.60000000E+01  0.00000000E+00
  9.90000000E+02  5.40000000E+01  0.00000000E+00
  9.90000000E+02  5.20000000E+01  0.00000000E+00
  9.90000000E+02  5.00000000E+01  0.00000000E+00
  9.90000000E+02  4.80000000E+01  0.00000000E+00
  9.90000000E+02  4.60000000E+01  0.00000000E+00
  9.90000000E+02  4.40000000E+01  0.00000000E+00
  9.90000000E+02  4.20000000E+01  0.00000000E+00
  9.90000000E+02  4.00000000E+01  0.00000000E+00
  9.90000000E+02  3.80000000E+01  0.00000000E+00
  9.90000000E+02  3.60000000E+01  0.00000000E+00
  9.90000000E+02  3.40000000E+01  0.00000000E+00
  9.90000000E+02  3.20000000E+01  0.00000000E+00
  9.90000000E+02  3.00000000E+01  0.00000000E+00
  9.90000000E+02  2.80000000E+01  0.00000000E+00
  9.90000000E+02  2.60000000E+01  0.00000000E+00
  9.90000000E+02  2.40000000E+01  0.00000000E+00
  9.90000000E+02  2.20000000E+01  0.00000000E+00
  9.90000000E+02  2.00000000E+01  0.00000000E+00
  9.90000000E+02  1.80000000E+01  0.00000000E+00
  9.90000000E+02  1.60000000E+01  0.00000000E+00
  9.90000000E+02  1.40000000E+01  0.00000000E+00
  9.90000000E+02  1.20000000E+01  0.00000000E+00
  9.90000000E+02  1.00000000E+01  0.00000000E+00
  9.90000000E+02  8.00000000E+00  0.00000000E+00
  9.90000000E+02  6.00000000E+00  0.00000000E+00
  9.90000000E+02  4.00000000E+00  0.00000000E+00
  9.90000000E+02  2.00000000E+00  0.00000000E+00
  9.90000000E+02 -3.33066907E-14  0.00000000E+00
  1.00000000E+03  1.00000000E+02  0.00000000E+00
  1.00000000E+03  9.80000000E+01  0.00000000E+00
  1.00000000E+03  9.60000000E+01  0.00000000E+00
  1.00000000E+03  9.40000000E+01  0.00000000E+00
  1.00000000E+03  9.20000000E+01  0.00000000E+00
  1.00000000E+03  9.00000000E+01  0.00000000E+00
  1.00000000E+03  8.80000000E+01  0.00000000E+00
  1.00000000E+03  8.60000000E+01  0.00000000E+00
  1.00000000E+03  8.40000000E+01  0.00000000E+00
  1.00000000E+03  8.20000000E+01  0.00000000E+00
  1.00000000E+03  8.00000000E+01  0.00000000E+00
  1.00000000E+03  7.80000000E+01  0.00000000E+00
  1.00000000E+03  7.60000000E+01  0.00000000E+00
  1.00000000E+03  7.40000000E+01  0.00000000E+00
  1.00000000E+03  7.20000000E+01  0.00000000E+00
  1.00000000E+03  7.00000000E+01  0.00000000E+00
  1.00000000E+03  6.80000000E+01  0.00000000E+00
  1.00000000E+03  6.60000000E+01  0.00000000E+00
  1.00000000E+03  6.40000000E+01  0.00000000E+00
  1.00000000E+03  6.20000000E+01  0.00000000E+00
  1.00000000E+03  6.00000000E+01  0.00000000E+00
  1.00000000E+03  5.80000000E+01  0.00000000E+00
  1.00000000E+03  5.60000000E+01  0.00000000E+00
  1.00000000E+03  5.40000000E+01  0.00000000E+00
  1.00000000E+03  5.20000000E+01  0.00000000E+00
  1.00000000E+03  5.00000000E+01  0.00000000E+00
  1.00000000E+03  4.80000000E+01  0.00000000E+00
  1.00000000E+03  4.60000000E+01  0.00000000E+00
  1.00000000E+03  4.40000000E+01  0.00000000E+00
  1.00000000E+03  4.20000000E+01  0.00000000E+00
  1.00000000E+03  4.00000000E+01  0.00000000E+00
  1.00000000E+03  3.80000000E+01  0.00000000E+00
  1.00000000E+03  3.60000000E+01  0.00000000E+00
  1.00000000E+03  3.40000000E+01  0.00000000E+00
  1.00000000E+03  3.20000000E+01  0.00000000E+00
  1.00000000E+03  3.00000000E+01  0.00000000E+00
  1.00000000E+03  2.80000000E+01  0.00000000E+00
  1.00000000E+03  2.60000000E+01  0.00000000E+00
  1.00000000E+03  2.40000000E+01  0.00000000E+00
  1.00000000E+03  2.20000000E+01  0.00000000E+00
  1.00000000E+03  2.00000000E+01  0.00000000E+00
  1.00000000E+03  1.80000000E+01  0.00000000E+00
  1.00000000E+03  1.60000000E+01  0.00000000E+00
  1.00000000E+03  1.40000000E+01  0.00000000E+00
  1.00000000E+03  1.20000000E+01  0.00000000E+00
  1.00000000E+03  1.00000000E+01  0.00000000E+00
  1.00000000E+03  8.00000000E+00  0.00000000E+00
  1.00000000E+03  6.00000000E+00  0.00000000E+00
  1.00000000E+03  4.00000000E+00  0.00000000E+00
  1.00000000E+03  2.00000000E+00  0.00000000E+00
  1.00000000E+03 -3.33066907E-14  0.00000000E+00
CELLS      5000     25000
         4           0           1          52          51
         4           1           2          53          52
         4           2           3          54          53
         4           3           4          55          54
         4           4           5          56          55
         4           5           6          57          56
         4           6           7          58          57
         4           7           8          59          58
         4           8           9          60          59
         4           9          10          61          60
         4          10          11          62          61
         4          11          12          63          62
         4          12          13          64          63
         4          13          14          65          64
         4          14          15          66          65
         4          15          16          67          66
         4          16          17          68          67
         4          17          18          69          68
         4          18          19          70          69
         4          19          20          71          70
         4          20          21          72          71
         4          21          22          73          72
         4          22          23          74          73
         4          23          24          75          74
         4          24          25          76          75
         4          25          26          77          76
         4          26          27          78          77
         4          27          28          79          78
         4          28          29          80          79
         4          29          30          81          80
         4          30          31          82          81
         4          31          32          83          82
         4          32          33          84          83
         4          33          34          85          84
         4          34          35          86          85
         4          35          36          87          86
         4          36          37          88          87
         4          37          38          89          88
         4          38          39          90          89
         4          39          40          91          90
         4          40          41          92          91
         4          41          42          93          92
         4          42          43          94          93
         4          43          44          95          94
         4          44          45          96          95
         4          45          46          97          96
         4          46          47          98          97
         4          47          48          99          98
         4          48          49         100          99
         4          49          50         101         100
         4          51          52         103         102
         4          52          53         104         103
         4          53          54         105         104
         4          54          55         106         105
         4          55          56         107         106
         4          56          57         108         107
         4          57          58         109         108
         4          58          59         110         109
         4          59          60         111         110
         4          60          61         112         111
         4          61          62         113         112
         4          62          63         114         113
         4          63          64         115         114
         4          64          65         116         115
         4          65          66         117         116
         4          66          67         118         117
         4          67          68         119         118
         4          68          69         120         119
         4          69          70         121         120
         4          70          71         122         121
         4          71          72         123         122
         4          72          73         124         123
         4          73          74         125         124
         4          74          75         126         125
         4          75          76         127         126
         4          76          77         128         127
         4          77          78         129         128
         4          78          79         130         129
         4          79          80         131         130
         4          80          81         132         131
         4          81          82         133         132
         4          82          83         134         133
         4          83          84         135         134
         4          84          85         136         135
         4          85          86         137         136
         4          86          87         138         137
         4          87          88         139         138
         4          88          89         140         139
         4          89          90         141         140
         4          90          91         142         141
         4          91          92         143         142
         4          92          93         144         143
         4          93          94         145         144
         4          94          95         146         145
         4          95          96         147         146
         4          96          97         148         147
         4          97          98         149         148
         4          98          99         150         149
         4          99         100         151         150
         4         100         101         152         151
         4         102         103         154         153
         4         103         104         155         154
         4         104         105         156         155
         4         105         106         157         156
         4         106         107         158         157
         4         107         108         159         158
         4         108         109         160         159
         4         109         110         161         160
         4         110         111         162         161
         4         111         112         163         162
         4         112         113         164         163
         4         113         114         165         164
         4         114         115         166         165
         4         115         116         167         166
         4         116         117         168         167
         4         117         118         169         168
         4         118         119         170         169
         4         119         120         171         170
         4         120         121         172         171
         4         121         122         173         172
         4         122         123         174         173
         4         123         124         175         174
         4         124         125         176         175
         4         125         126         177         176
         4         126         127         178         177
         4         127         128         179         178
         4         128         129         180         179
         4         129         130         181         180
         4         130         131         182         181
         4         131         132         183         182
         4         132         133         184         183
         4         133         134         185         184
         4         134         135         186         185
         4         135         136         187         186
         4         136         137         188         187
         4         137         138         189         188
         4         138         139         190         189
         4         139         140         191         190
         4         140         141         192         191
         4         141         142         193         192
         4         142         143         194         193
         4         143         144         195         194
         4         144         145         196         195
         4         145         146         197         196
         4         146         147         198         197
         4         147         148         199         198
         4         148         149         200         199
         4         149         150         201         200
         4         150         151         202         201
         4         151         152         203         202
         4         153         154         205         204
         4         154         155         206         205
         4         155         156         207         206
         4         156         157         208         207
         4         157         158         209         208
         4         158         159         210         209
         4         159         160         211         210
         4         160         161         212         211
         4         161         162         213         212
         4         162         163         214         213
         4         163         164         215         214
         4         164         165         216         215
         4         165         166         217         216
         4         166         167         218         217
         4         167         168         219         218
         4         168         169         220         219
         4         169         170         221         220
         4         170         171         222         221
         4         171         172         223         222
         4         172         173         224         223
         4         173         174         225         224
         4         174         175         226         225
         4         175         176         227         226
         4         176         177         228         227
         4         177         178         229         228
         4         178         179         230         229
         4         179         180         231         230
         4         180         181         232         231
         4         181         182         233         232
         4         182         183         234         233
         4         183         184         235         234
         4         184         185         236         235
         4         185         186         237         236
         4         186         187         238         237
         4         187         188         239         238
         4         188         189         240         239
         4         189         190         241         240
         4         190         191         242         241
         4         191         192         243         242
         4         192         193         244         243
         4         193         194         245         244
         4         194         195         246         245
         4         195         196         247         246
         4         196         197         248         247
         4         197         198         249         248
         4         198         199         250         249
         4         199         200         251         250
         4         200         201         252         251
         4         201         202         253         252
         4         202         203         254         253
         4         204         205         256         255
         4         205         206         257         256
         4         206         207         258         257
         4         207         208         259         258
         4         208         209         260         259
         4         209         210         261         260
         4         210         211         262         261
         4         211         212         263         262
         4         212         213         264         263
         4         213         214         265         264
         4         214         215         266         265
         4         215         216         267         266
         4         216         217         268         267
         4         217         218         269         268
         4         218         219         270         269
         4         219         220         271         270
         4         220         221         272         271
         4         221         222         273         272
         4         222         223         274         273
         4         223         224         275         274
         4         224         225         276         275
         4         225         226         277         276
         4         226         227         278         277
         4         227         228         279         278
         4         228         229         280         279
         4         229         230         281         280
         4         230         231         282         281
         4         231         232         283         282
         4         232         233         284         283
         4         233         234         285         284
         4         234         235         286         285
         4         235         236         287         286
         4         236         237         288         287
         4         237         238         289         288
         4         238         239         290         289
         4         239         240         291         290
         4         240         241         292         291
         4         241         242         293         292
         4         242         243         294         293
         4         243         244         295         294
         4         244         245         296         295
         4         245         246         297         296
         4         246         247         298         297
         4         247         248         299         298
         4         248         249         300         299
         4         249         250         301         300
         4         250         251         302         301
         4         251         252         303         302
         4         252         253         304         303
         4         253         254         305         304
         4         255         256         307         306
         4         256         257         308         307
         4         257         258         309         308
         4         258         259         310         309
         4         259         260         311         310
         4         260         261         312         311
         4         261         262         313         312
         4         262         263         314         313
         4         263         264         315         314
         4         264         265         316         315
         4         265         266         317         316
         4         266         267         318         317
         4         267         268         319         318
         4         268         269         320         319
         4         269         270         321         320
         4         270         271         322         321
         4         271         272         323         322
         4         272         273         324         323
         4         273         274         325         324
         4         274         275         326         325
         4         275         276         327         326
         4         276         277         328         327
         4         277         278         329         328
         4         278         279         330         329
         4         279         280         331         330
         4         280         281         332         331
         4         281         282         333         332
         4         282         283         334         333
         4         283         284         335         334
         4         284         285         336         335
         4         285         286         337         336
         4         286         287         338         337
         4         287         288         339         338
         4         288         289         340         339
         4         289         290         341         340
         4         290         291         342         341
         4         291         292         343         342
         4         292         293         344         343
         4         293         294         345         344
         4         294         295         346         345
         4         295         296         347         346
         4         296         297         348         347
         4         297         298         349         348
         4         298         299         350         349
         4         299         300         351         350
         4         300         301         352         351
         4         301         302         353         352
         4         302         303         354         353
         4         303         304         355         354
         4         304         305         356         355
         4         306         307         358         357
         4         307         308         359         358
         4         308         309         360         359
         4         309         310         361         360
         4         310         311         362         361
         4         311         312         363         362
         4         312         313         364         363
         4         313         314         365         364
         4         314         315         366         365
         4         315         316         367         366
         4         316         317         368         367
         4         317         318         369         368
         4         318         319         370         369
         4         319         320         371         370
         4         320         321         372         371
         4         321         322         373         372
         4         322         323         374         373
         4         323         324         375         374
         4         324         325         376         375
         4         325         326         377         376
         4         326         327         378         377
         4         327         328         379         378
         4         328         329         380         379
         4         329         330         381         380
         4         330         331         382         381
         4         331         332         383         382
         4         332         333         384         383
         4         333         334         385         384
         4         334         335         386         385
         4         335         336         387         386
         4         336         337         388         387
         4         337         338         389         388
         4         338         339         390         389
         4         339         340         391         390
         4         340         341         392         391
         4         341         342         393         392
         4         342         343         394         393
         4         343         344         395         394
         4         344         345         396         395
         4         345         346         397         396
         4         346         347         398         397
         4         347         348         399         398
         4         348         349         400         399
         4         349         350         401         400
         4         350         351         402         401
         4         351         352         403         402
         4         352         353         404         403
         4         353         354         405         404
         4         354         355         406         405
         4         355         356         407         406
         4         357         358         409         408
         4         358         359         410         409
         4         359         360         411         410
         4         360         361         412         411
         4         361         362         413         412
         4         362         363         414         413
         4         363         364         415         414
         4         364         365         416         415
         4         365         366         417         416
         4         366         367         418         417
         4         367         368         419         418
         4         368         369         420         419
         4         369         370         421         420
         4         370         371         422         421
         4         371         372         423         422
         4         372         373         424         423
         4         373         374         425         424
         4         374         375         426         425
         4         375         376         427         426
         4         376         377         428         427
         4         377         378         429         428
         4         378         379         430         429
         4         379         380         431         430
         4         380         381         432         431
         4         381         382         433         432
         4         382         383         434         433
         4         383         384         435         434
         4         384         385         436         435
         4         385         386         437         436
         4         386         387         438         437
         4         387         388         439         438
         4         388         389         440         439
         4         389         390         441         440
         4         390         391         442         441
         4         391         392         443         442
         4         392         393         444         443
         4         393         394         445         444
         4         394         395         446         445
         4         395         396         447         446
         4         396         397         448         447
         4         397         398         449         448
         4         398         399         450         449
         4         399         400         451         450
         4         400         401         452         451
         4         401         402         453         452
         4         402         403         454         453
         4         403         404         455         454
         4         404         405         456         455
         4         405         406         457         456
         4         406         407         458         457
         4         408         409         460         459
         4         409         410         461         460
         4         410         411         462         461
         4         411         412         463         462
         4         412         413         464         463
         4         413         414         465         464
         4         414         415         466         465
         4         415         416         467         466
         4         416         417         468         467
         4         417         418         469         468
         4         418         419         470         469
         4         419         420         471         470
         4         420         421         472         471
         4         421         422         473         472
         4         422         423         474         473
         4         423         424         475         474
         4         424         425         476         475
         4         425         426         477         476
         4         426         427         478         477
         4         427         428         479         478
         4         428         429         480         479
         4         429         430         481         480
         4         430         431         482         481
         4         431         432         483         482
         4         432         433         484         483
         4         433         434         485         484
         4         434         435         486         485
         4         435         436         487         486
         4         436         437         488         487
         4         437         438         489         488
         4         438         439         490         489
         4         439         440         491         490
         4         440         441         492         491
         4         441         442         493         492
         4         442         443         494         493
         4         443         444         495         494
         4         444         445         496         495
         4         445         446         497         496
         4         446         447         498         497
         4         447         448         499         498
         4         448         449         500         499
         4         449         450         501         500
         4         450         451         502         501
         4         451         452         503         502
         4         452         453         504         503
         4         453         454         505         504
         4         454         455         506         505
         4         455         456         507         506
         4         456         457         508         507
         4         457         458         509         508
         4         459         460         511         510
         4         460         461         512         511
         4         461         462         513         512
         4         462         463         514         513
         4         463         464         515         514
         4         464         465         516         515
         4         465         466         517         516
         4         466         467         518         517
         4         467         468         519         518
         4         468         469         520         519
         4         469         470         521         520
         4         470         471         522         521
         4         471         472         523         522
         4         472         473         524         523
         4         473         474         525         524
         4         474         475         526         525
         4         475         476         527         526
         4         476         477         528         527
         4         477         478         529         528
         4         478         479         530         529
         4         479         480         531         530
         4         480         481         532         531
         4         481         482         533         532
         4         482         483         534         533
         4         483         484         535         534
         4         484         485         536         535
         4         485         486         537         536
         4         486         487         538         537
         4         487         488         539         538
         4         488         489         540         539
         4         489         490         541         540
         4         490         491         542         541
         4         491         492         543         542
         4         492         493         544         543
         4         493         494         545         544
         4         494         495         546         545
         4         495         496         547         546
         4         496         497         548         547
         4         497         498         549         548
         4         498         499         550         549
         4         499         500         551         550
         4         500         501         552         551
         4         501         502         553         552
         4         502         503         554         553
         4         503         504         555         554
         4         504         505         556         555
         4         505         506         557         556
         4         506         507         558         557
         4         507         508         559         558
         4         508         509         560         559
         4         510         511         562         561
         4         511         512         563         562
         4         512         513         564         563
         4         513         514         565         564
         4         514         515         566         565
         4         515         516         567         566
         4         516         517         568         567
         4         517         518         569         568
         4         518         519         570         569
         4         519         520         571         570
         4         520         521         572         571
         4         521         522         573         572
         4         522         523         574         573
         4         523         524         575         574
         4         524         525         576         575
         4         525         526         577         576
         4         526         527         578         577
         4         527         528         579         578
         4         528         529         580         579
         4         529         530         581         580
         4         530         531         582         581
         4         531         532         583         582
         4         532         533         584         583
         4         533         534         585         584
         4         534         535         586         585
         4         535         536         587         586
         4         536         537         588         587
         4         537         538         589         588
         4         538         539         590         589
         4         539         540         591         590
         4         540         541         592         591
         4         541         542         593         592
         4         542         543         594         593
         4         543         544         595         594
         4         544         545         596         595
         4         545         546         597         596
         4         546         547         598         597
         4         547         548         599         598
         4         548         549         600         599
         4         549         550         601         600
         4         550         551         602         601
         4         551         552         603         602
         4         552         553         604         603
         4         553         554         605         604
         4         554         555         606         605
         4         555         556         607         606
         4         556         557         608         607
         4         557         558         609         608
         4         558         559         610         609
         4         559         560         611         610
         4         561         562         613         612
         4         562         563         614         613
         4         563         564         615         614
         4         564         565         616         615
         4         565         566         617         616
         4         566         567         618         617
         4         567         568         619         618
         4         568         569         620         619
         4         569         570         621         620
         4         570         571         622         621
         4         571         572         623         622
         4         572         573         624         623
         4         573         574         625         624
         4         574         575         626         625
         4         575         576         627         626
         4         576         577         628         627
         4         577         578         629         628
         4         578         579         630         629
         4         579         580         631         630
         4         580         581         632         631
         4         581         582         633         632
         4         582         583         634         633
         4         583         584         635         634
         4         584         585         636         635
         4         585         586         637         636
         4         586         587         638         637
         4         587         588         639         638
         4         588         589         640         639
         4         589         590         641         640
         4         590         591         642         641
         4         591         592         643         642
         4         592         593         644         643
         4         593         594         645         644
         4         594         595         646         645
         4         595         596         647         646
         4         596         597         648         647
         4         597         598         649         648
         4         598         599         650         649
         4         599         600         651         650
         4         600         601         652         651
         4         601         602         653         652
         4         602         603         654         653
         4         603         604         655         654
         4         604         605         656         655
         4         605         606         657         656
         4         606         607         658         657
         4         607         608         659         658
         4         608         609         660         659
         4         609         610         661         660
         4         610         611         662         661
         4         612         613         664         663
         4         613         614         665         664
         4         614         615         666         665
         4         615         616         667         666
         4         616         617         668         667
         4         617         618         669         668
         4         618         619         670         669
         4         619         620         671         670
         4         620         621         672         671
         4         621         622         673         672
         4         622         623         674         673
         4         623         624         675         674
         4         624         625         676         675
         4         625         626         677         676
         4         626         627         678         677
         4         627         628         679         678
         4         628         629         680         679
         4         629         630         681         680
         4         630         631         682         681
         4         631         632         683         682
         4         632         633         684         683
         4         633         634         685         684
         4         634         635         686         685
         4         635         636         687         686
         4         636         637         688         687
         4         637         638         689         688
         4         638         639         690         689
         4         639         640         691         690
         4         640         641         692         691
         4         641         642         693         692
         4         642         643         694         693
         4         643         644         695         694
         4         644         645         696         695
         4         645         646         697         696
         4         646         647         698         697
         4         647         648         699         698
         4         648         649         700         699
         4         649         650         701         700
         4         650         651         702         701
         4         651         652         703         702
         4         652         653         704         703
         4         653         654         705         704
         4         654         655         706         705
         4         655         656         707         706
         4         656         657         708         707
         4         657         658         709         708
         4         658         659         710         709
         4         659         660         711         710
         4         660         661         712         711
         4         661         662         713         712
         4         663         664         715         714
         4         664         665         716         715
         4         665         666         717         716
         4         666         667         718         717
         4         667         668         719         718
         4         668         669         720         719
         4         669         670         721         720
         4         670         671         722         721
         4         671         672         723         722
         4         672         673         724         723
         4         673         674         725         724
         4         674         675         726         725
         4         675         676         727         726
         4         676         677         728         727
         4         677         678         729         728
         4         678         679         730         729
         4         679         680         731         730
         4         680         681         732         731
         4         681         682         733         732
         4         682         683         734         733
         4         683         684         735         734
         4         684         685         736         735
         4         685         686         737         736
         4         686         687         738         737
         4         687         688         739         738
         4         688         689         740         739
         4         689         690         741         740
         4         690         691         742         741
         4         691         692         743         742
         4         692         693         744         743
         4         693         694         745         744
         4         694         695         746         745
         4         695         696         747         746
         4         696         697         748         747
         4         697         698         749         748
         4         698         699         750         749
         4         699         700         751         750
         4         700         701         752         751
         4         701         702         753         752
         4         702         703         754         753
         4         703         704         755         754
         4         704         705         756         755
         4         705         706         757         756
         4         706         707         758         757
         4         707         708         759         758
         4         708         709         760         759
         4         709         710         761         760
         4         710         711         762         761
         4         711         712         763         762
         4         712         713         764         763
         4         714         715         766         765
         4         715         716         767         766
         4         716         717         768         767
         4         717         718         769         768
         4         718         719         770         769
         4         719         720         771         770
         4         720         721         772         771
         4         721         722         773         772
         4         722         723         774         773
         4         723         724         775         774
         4         724         725         776         775
         4         725         726         777         776
         4         726         727         778         777
         4         727         728         779         778
         4         728         729         780         779
         4         729         730         781         780
         4         730         731         782         781
         4         731         732         783         782
         4         732         733         784         783
         4         733         734         785         784
         4         734         735         786         785
         4         735         736         787         786
         4         736         737         788         787
         4         737         738         789         788
         4         738         739         790         789
         4         739         740         791         790
         4         740         741         792         791
         4         741         742         793         792
         4         742         743         794         793
         4         743         744         795         794
         4         744         745         796         795
         4         745         746         797         796
         4         746         747         798         797
         4         747         748         799         798
         4         748         749         800         799
         4         749         750         801         800
         4         750         751         802         801
         4         751         752         803         802
         4         752         753         804         803
         4         753         754         805         804
         4         754         755         806         805
         4         755         756         807         806
         4         756         757         808         807
         4         757         758         809         808
         4         758         759         810         809
         4         759         760         811         810
         4         760         761         812         811
         4         761         762         813         812
         4         762         763         814         813
         4         763         764         815         814
         4         765         766         817         816
         4         766         767         818         817
         4         767         768         819         818
         4         768         769         820         819
         4         769         770         821         820
         4         770         771         822         821
         4         771         772         823         822
         4         772         773         824         823
         4         773         774         825         824
         4         774         775         826         825
         4         775         776         827         826
         4         776         777         828         827
         4         777         778         829         828
         4         778         779         830         829
         4         779         780         831         830
         4         780         781         832         831
         4         781         782         833         832
         4         782         783         834         833
         4         783         784         835         834
         4         784         785         836         835
         4         785         786         837         836
         4         786         787         838         837
         4         787         788         839         838
         4         788         789         840         839
         4         789         790         841         840
         4         790         791         842         841
         4         791         792         843         842
         4         792         793         844         843
         4         793         794         845         844
         4         794         795         846         845
         4         795         796         847         846
         4         796         797         848         847
         4         797         798         849         848
         4         798         799         850         849
         4         799         800         851         850
         4         800         801         852         851
         4         801         802         853         852
         4         802         803         854         853
         4         803         804         855         854
         4         804         805         856         855
         4         805         806         857         856
         4         806         807         858         857
         4         807         808         859         858
         4         808         809         860         859
         4         809         810         861         860
         4         810         811         862         861
         4         811         812         863         862
         4         812         813         864         863
         4         813         814         865         864
         4         814         815         866         865
         4         816         817         868         867
         4         817         818         869         868
         4         818         819         870         869
         4         819         820         871         870
         4         820         821         872         871
         4         821         822         873         872
         4         822         823         874         873
         4         823         824         875         874
         4         824         825         876         875
         4         825         826         877         876
         4         826         827         878         877
         4         827         828         879         878
         4         828         829         880         879
         4         829         830         881         880
         4         830         831         882         881
         4         831         832         883         882
         4         832         833         884         883
         4         833         834         885         884
         4         834         835         886         885
         4         835         836         887         886
         4         836         837         888         887
         4         837         838         889         888
         4         838         839         890         889
         4         839         840         891         890
         4         840         841         892         891
         4         841         842         893         892
         4         842         843         894         893
         4         843         844         895         894
         4         844         845         896         895
         4         845         846         897         896
         4         846         847         898         897
         4         847         848         899         898
         4         848         849         900         899
         4         849         850         901         900
         4         850         851         902         901
         4         851         852         903         902
         4         852         853         904         903
         4         853         854         905         904
         4         854         855         906         905
         4         855         856         907         906
         4         856         857         908         907
         4         857         858         909         908
         4         858         859         910         909
         4         859         860         911         910
         4         860         861         912         911
         4         861         862         913         912
         4         862         863         914         913
         4         863         864         915         914
         4         864         865         916         915
         4         865         866         917         916
         4         867         868         919         918
         4         868         869         920         919
         4         869         870         921         920
         4         870         871         922         921
         4         871         872         923         922
         4         872         873         924         923
         4         873         874         925         924
         4         874         875         926         925
         4         875         876         927         926
         4         876         877         928         927
         4         877         878         929         928
         4         878         879         930         929
         4         879         880         931         930
         4         880         881         932         931
         4         881         882         933         932
         4         882         883         934         933
         4         883         884         935         934
         4         884         885         936         935
         4         885         886         937         936
         4         886         887         938         937
         4         887         888         939         938
         4         888         889         940         939
         4         889         890         941         940
         4         890         891         942         941
         4         891         892         943         942
         4         892         893         944         943
         4         893         894         945         944
         4         894         895         946         945
         4         895         896         947         946
         4         896         897         948         947
         4         897         898         949         948
         4         898         899         950         949
         4         899         900         951         950
         4         900         901         952         951
         4         901         902         953         952
         4         902         903         954         953
         4         903         904         955         954
         4         904         905         956         955
         4         905         906         957         956
         4         906         907         958         957
         4         907         908         959         958
         4         908         909         960         959
         4         909         910         961         960
         4         910         911         962         961
         4         911         912         963         962
         4         912         913         964         963
         4         913         914         965         964
         4         914         915         966         965
         4         915         916         967         966
         4         916         917         968         967
         4         918         919         970         969
         4         919         920         971         970
         4         920         921         972         971
         4         921         922         973         972
         4         922         923         974         973
         4         923         924         975         974
         4         924         925         976         975
         4         925         926         977         976
         4         926         927         978         977
         4         927         928         979         978
         4         928         929         980         979
         4         929         930         981         980
         4         930         931         982         981
         4         931         932         983         982
         4         932         933         984         983
         4         933         934         985         984
         4         934         935         986         985
         4         935         936         987         986
         4         936         937         988         987
         4         937         938         989         988
         4         938         939         990         989
         4         939         940         991         990
         4         940         941         992         991
         4         941         942         993         992
         4         942         943         994         993
         4         943         944         995         994
         4         944         945         996         995
         4         945         946         997         996
         4         946         947         998         997
         4         947         948         999         998
         4         948         949        1000         999
         4         949         950        1001        1000
         4         950         951        1002        1001
         4         951         952        1003        1002
         4         952         953        1004        1003
         4         953         954        1005        1004
         4         954         955        1006        1005
         4         955         956        1007        1006
         4         956         957        1008        1007
         4         957         958        1009        1008
         4         958         959        1010        1009
         4         959         960        1011        1010
         4         960         961        1012        1011
         4         961         962        1013        1012
         4         962         963        1014        1013
         4         963         964        1015        1014
         4         964         965        1016        1015
         4         965         966        1017        1016
         4         966         967        1018        1017
         4         967         968        1019        1018
         4         969         970        1021        1020
         4         970         971        1022        1021
         4         971         972        1023        1022
         4         972         973        1024        1023
         4         973         974        1025        1024
         4         974         975        1026        1025
         4         975         976        1027        1026
         4         976         977        1028        1027
         4         977         978        1029        1028
         4         978         979        1030        1029
         4         979         980        1031        1030
         4         980         981        1032        1031
         4         981         982        1033        1032
         4         982         983        1034        1033
         4         983         984        1035        1034
         4         984         985        1036        1035
         4         985         986        1037        1036
         4         986         987        1038        1037
         4         987         988        1039        1038
         4         988         989        1040        1039
         4         989         990        1041        1040
         4         990         991        1042        1041
         4         991         992        1043        1042
         4         992         993        1044        1043
         4         993         994        1045        1044
         4         994         995        1046        1045
         4         995         996        1047        1046
         4         996         997        1048        1047
         4         997         998        1049        1048
         4         998         999        1050        1049
         4         999        1000        1051        1050
         4        1000        1001        1052        1051
         4        1001        1002        1053        1052
         4        1002        1003        1054        1053
         4        1003        1004        1055        1054
         4        1004        1005        1056        1055
         4        1005        1006        1057        1056
         4        1006        1007        1058        1057
         4        1007        1008        1059        1058
         4        1008        1009        1060        1059
         4        1009        1010        1061        1060
         4        1010        1011        1062        1061
         4        1011        1012        1063        1062
         4        1012        1013        1064        1063
         4        1013        1014        1065        1064
         4        1014        1015        1066        1065
         4        1015        1016        1067        1066
         4        1016        1017        1068        1067
         4        1017        1018        1069        1068
         4        1018        1019        1070        1069
         4        1020        1021        1072        1071
         4        1021        1022        1073        1072
         4        1022        1023        1074        1073
         4        1023        1024        1075        1074
         4        1024        1025        1076        1075
         4        1025        1026        1077        1076
         4        1026        1027        1078        1077
         4        1027        1028        1079        1078
         4        1028        1029        1080        1079
         4        1029        1030        1081        1080
         4        1030        1031        1082        1081
         4        1031        1032        1083        1082
         4        1032        1033        1084        1083
         4        1033        1034        1085        1084
         4        1034        1035        1086        1085
         4        1035        1036        1087        1086
         4        1036        1037        1088        1087
         4        1037        1038        1089        1088
         4        1038        1039        1090        1089
         4        1039        1040        1091        1090
         4        1040        1041        1092        1091
         4        1041        1042        1093        1092
         4        1042        1043        1094        1093
         4        1043        1044        1095        1094
         4        1044        1045        1096        1095
         4        1045        1046        1097        1096
         4        1046        1047        1098        1097
         4        1047        1048        1099        1098
         4        1048        1049        1100        1099
         4        1049        1050        1101        1100
         4        1050        1051        1102        1101
         4        1051        1052        1103        1102
         4        1052        1053        1104        1103
         4        1053        1054        1105        1104
         4        1054        1055        1106        1105
         4        1055        1056        1107        1106
         4        1056        1057        1108        1107
         4        1057        1058        1109        1108
         4        1058        1059        1110        1109
         4        1059        1060        1111        1110
         4        1060        1061        1112        1111
         4        1061        1062        1113        1112
         4        1062        1063        1114        1113
         4        1063        1064        1115        1114
         4        1064        1065        1116        1115
         4        1065        1066        1117        1116
         4        1066        1067        1118        1117
         4        1067        1068        1119        1118
         4        1068        1069        1120        1119
         4        1069        1070        1121        1120
         4        1071        1072        1123        1122
         4        1072        1073        1124        1123
         4        1073        1074        1125        1124
         4        1074        1075        1126        1125
         4        1075        1076        1127        1126
         4        1076        1077        1128        1127
         4        1077        1078        1129        1128
         4        1078        1079        1130        1129
         4        1079        1080        1131        1130
         4        1080        1081        1132        1131
         4        1081        1082        1133        1132
         4        1082        1083        1134        1133
         4        1083        1084        1135        1134
         4        1084        1085        1136        1135
         4        1085        1086        1137        1136
         4        1086        1087        1138        1137
         4        1087        1088        1139        1138
         4        1088        1089        1140        1139
         4        1089        1090        1141        1140
         4        1090        1091        1142        1141
         4        1091        1092        1143        1142
         4        1092        1093        1144        1143
         4        1093        1094        1145        1144
         4        1094        1095        1146        1145
         4        1095        1096        1147        1146
         4        1096        1097        1148        1147
         4        1097        1098        1149        1148
         4        1098        1099        1150        1149
         4        1099        1100        1151        1150
         4        1100        1101        1152        1151
         4        1101        1102        1153        1152
         4        1102        1103        1154        1153
         4        1103        1104        1155        1154
         4        1104        1105        1156        1155
         4        1105        1106        1157        1156
         4        1106        1107        1158        1157
         4        1107        1108        1159        1158
         4        1108        1109        1160        1159
         4        1109        1110        1161        1160
         4        1110        1111        1162        1161
         4        1111        1112        1163        1162
         4        1112        1113        1164        1163
         4        1113        1114        1165        1164
         4        1114        1115        1166        1165
         4        1115        1116        1167        1166
         4        1116        1117        1168        1167
         4        1117        1118        1169        1168
         4        1118        1119        1170        1169
         4        1119        1120        1171        1170
         4        1120        1121        1172        1171
         4        1122        1123        1174        1173
         4        1123        1124        1175        1174
         4        1124        1125        1176        1175
         4        1125        1126        1177        1176
         4        1126        1127        1178        1177
         4        1127        1128        1179        1178
         4        1128        1129        1180        1179
         4        1129        1130        1181        1180
         4        1130        1131        1182        1181
         4        1131        1132        1183        1182
         4        1132        1133        1184        1183
         4        1133        1134        1185        1184
         4        1134        1135        1186        1185
         4        1135        1136        1187        1186
         4        1136        1137        1188        1187
         4        1137        1138        1189        1188
         4        1138        1139        1190        1189
         4        1139        1140        1191        1190
         4        1140        1141        1192        1191
         4        1141        1142        1193        1192
         4        1142        1143        1194        1193
         4        1143        1144        1195        1194
         4        1144        1145        1196        1195
         4        1145        1146        1197        1196
         4        1146        1147        1198        1197
         4        1147        1148        1199        1198
         4        1148        1149        1200        1199
         4        1149        1150        1201        1200
         4        1150        1151        1202        1201
         4        1151        1152        1203        1202
         4        1152        1153        1204        1203
         4        1153        1154        1205        1204
         4        1154        1155        1206        1205
         4        1155        1156        1207        1206
         4        1156        1157        1208        1207
         4        1157        1158        1209        1208
         4        1158        1159        1210        1209
         4        1159        1160        1211        1210
         4        1160        1161        1212        1211
         4        1161        1162        1213        1212
         4        1162        1163        1214        1213
         4        1163        1164        1215        1214
         4        1164        1165        1216        1215
         4        1165        1166        1217        1216
         4        1166        1167        1218        1217
         4        1167        1168        1219        1218
         4        1168        1169        1220        1219
         4        1169        1170        1221        1220
         4        1170        1171        1222        1221
         4        1171        1172        1223        1222
         4        1173        1174        1225        1224
         4        1174        1175        1226        1225
         4        1175        1176        1227        1226
         4        1176        1177        1228        1227
         4        1177        1178        1229        1228
         4        1178        1179        1230        1229
         4        1179        1180        1231        1230
         4        1180        1181        1232        1231
         4        1181        1182        1233        1232
         4        1182        1183        1234        1233
         4        1183        1184        1235        1234
         4        1184        1185        1236        1235
         4        1185        1186        1237        1236
         4        1186        1187        1238        1237
         4        1187        1188        1239        1238
         4        1188        1189        1240        1239
         4        1189        1190        1241        1240
         4        1190        1191        1242        1241
         4        1191        1192        1243        1242
         4        1192        1193        1244        1243
         4        1193        1194        1245        1244
         4        1194        1195        1246        1245
         4        1195        1196        1247        1246
         4        1196        1197        1248        1247
         4        1197        1198        1249        1248
         4        1198        1199        1250        1249
         4        1199        1200        1251        1250
         4        1200        1201        1252        1251
         4        1201        1202        1253        1252
         4        1202        1203        1254        1253
         4        1203        1204        1255        1254
         4        1204        1205        1256        1255
         4        1205        1206        1257        1256
         4        1206        1207        1258        1257
         4        1207        1208        1259        1258
         4        1208        1209        1260        1259
         4        1209        1210        1261        1260
         4        1210        1211        1262        1261
         4        1211        1212        1263        1262
         4        1212        1213        1264        1263
         4        1213        1214        1265        1264
         4        1214        1215        1266        1265
         4        1215        1216        1267        1266
         4        1216        1217        1268        1267
         4        1217        1218        1269        1268
         4        1218        1219        1270        1269
         4        1219        1220        1271        1270
         4        1220        1221        1272        1271
         4        1221        1222        1273        1272
         4        1222        1223        1274        1273
         4        1224        1225        1276        1275
         4        1225        1226        1277        1276
         4        1226        1227        1278        1277
         4        1227        1228        1279        1278
         4        1228        1229        1280        1279
         4        1229        1230        1281        1280
         4        1230        1231        1282        1281
         4        1231        1232        1283        1282
         4        1232        1233        1284        1283
         4        1233        1234        1285        1284
         4        1234        1235        1286        1285
         4        1235        1236        1287        1286
         4        1236        1237        1288        1287
         4        1237        1238        1289        1288
         4        1238        1239        1290        1289
         4        1239        1240        1291        1290
         4        1240        1241        1292        1291
         4        1241        1242        1293        1292
         4        1242        1243        1294        1293
         4        1243        1244        1295        1294
         4        1244        1245        1296        1295
         4        1245        1246        1297        1296
         4        1246        1247        1298        1297
         4        1247        1248        1299        1298
         4        1248        1249        1300        1299
         4        1249        1250        1301        1300
         4        1250        1251        1302        1301
         4        1251        1252        1303        1302
         4        1252        1253        1304        1303
         4        1253        1254        1305        1304
         4        1254        1255        1306        1305
         4        1255        1256        1307        1306
         4        1256        1257        1308        1307
         4        1257        1258        1309        1308
         4        1258        1259        1310        1309
         4        1259        1260        1311        1310
         4        1260        1261        1312        1311
         4        1261        1262        1313        1312
         4        1262        1263        1314        1313
         4        1263        1264        1315        1314
         4        1264        1265        1316        1315
         4        1265        1266        1317        1316
         4        1266        1267        1318        1317
         4        1267        1268        1319        1318
         4        1268        1269        1320        1319
         4        1269        1270        1321        1320
         4        1270        1271        1322        1321
         4        1271        1272        1323        1322
         4        1272        1273        1324        1323
         4        1273        1274        1325        1324
         4        1275        1276        1327        1326
         4        1276        1277        1328        1327
         4        1277        1278        1329        1328
         4        1278        1279        1330        1329
         4        1279        1280        1331        1330
         4        1280        1281        1332        1331
         4        1281        1282        1333        1332
         4        1282        1283        1334        1333
         4        1283        1284        1335        1334
         4        1284        1285        1336        1335
         4        1285        1286        1337        1336
         4        1286        1287        1338        1337
         4        1287        1288        1339        1338
         4        1288        1289        1340        1339
         4        1289        1290        1341        1340
         4        1290        1291        1342        1341
         4        1291        1292        1343        1342
         4        1292        1293        1344        1343
         4        1293        1294        1345        1344
         4        1294        1295        1346        1345
         4        1295        1296        1347        1346
         4        1296        1297        1348        1347
         4        1297        1298        1349        1348
         4        1298        1299        1350        1349
         4        1299        1300        1351        1350
         4        1300        1301        1352        1351
         4        1301        1302        1353        1352
         4        1302        1303        1354        1353
         4        1303        1304        1355        1354
         4        1304        1305        1356        1355
         4        1305        1306        1357        1356
         4        1306        1307        1358        1357
         4        1307        1308        1359        1358
         4        1308        1309        1360        1359
         4        1309        1310        1361        1360
         4        1310        1311        1362        1361
         4        1311        1312        1363        1362
         4        1312        1313        1364        1363
         4        1313        1314        1365        1364
         4        1314        1315        1366        1365
         4        1315        1316        1367        1366
         4        1316        1317        1368        1367
         4        1317        1318        1369        1368
         4        1318        1319        1370        1369
         4        1319        1320        1371        1370
         4        1320        1321        1372        1371
         4        1321        1322        1373        1372
         4        1322        1323        1374        1373
         4        1323        1324        1375        1374
         4        1324        1325        1376        1375
         4        1326        1327        1378        1377
         4        1327        1328        1379        1378
         4        1328        1329        1380        1379
         4        1329        1330        1381        1380
         4        1330        1331        1382        1381
         4        1331        1332        1383        1382
         4        1332        1333        1384        1383
         4        1333        1334        1385        1384
         4        1334        1335        1386        1385
         4        1335        1336        1387        1386
         4        1336        1337        1388        1387
         4        1337        1338        1389        1388
         4        1338        1339        1390        1389
         4        1339        1340        1391        1390
         4        1340        1341        1392        1391
         4        1341        1342        1393        1392
         4        1342        1343        1394        1393
         4        1343        1344        1395        1394
         4        1344        1345        1396        1395
         4        1345        1346        1397        1396
         4        1346        1347        1398        1397
         4        1347        1348        1399        1398
         4        1348        1349        1400        1399
         4        1349        1350        1401        1400
         4        1350        1351        1402        1401
         4        1351        1352        1403        1402
         4        1352        1353        1404        1403
         4        1353        1354        1405        1404
         4        1354        1355        1406        1405
         4        1355        1356        1407        1406
         4        1356        1357        1408        1407
         4        1357        1358        1409        1408
         4        1358        1359        1410        1409
         4        1359        1360        1411        1410
         4        1360        1361        1412        1411
         4        1361        1362        1413        1412
         4        1362        1363        1414        1413
         4        1363        1364        1415        1414
         4        1364        1365        1416        1415
         4        1365        1366        1417        1416
         4        1366        1367        1418        1417
         4        1367        1368        1419        1418
         4        1368        1369        1420        1419
         4        1369        1370        1421        1420
         4        1370        1371        1422        1421
         4        1371        1372        1423        1422
         4        1372        1373        1424        1423
         4        1373        1374        1425        1424
         4        1374        1375        1426        1425
         4        1375        1376        1427        1426
         4        1377        1378        1429        1428
         4        1378        1379        1430        1429
         4        1379        1380        1431        1430
         4        1380        1381        1432        1431
         4        1381        1382        1433        1432
         4        1382        1383        1434        1433
         4        1383        1384        1435        1434
         4        1384        1385        1436        1435
         4        1385        1386        1437        1436
         4        1386        1387        1438        1437
         4        1387        1388        1439        1438
         4        1388        1389        1440        1439
         4        1389        1390        1441        1440
         4        1390        1391        1442        1441
         4        1391        1392        1443        1442
         4        1392        1393        1444        1443
         4        1393        1394        1445        1444
         4        1394        1395        1446        1445
         4        1395        1396        1447        1446
         4        1396        1397        1448        1447
         4        1397        1398        1449        1448
         4        1398        1399        1450        1449
         4        1399        1400        1451        1450
         4        1400        1401        1452        1451
         4        1401        1402        1453        1452
         4        1402        1403        1454        1453
         4        1403        1404        1455        1454
         4        1404        1405        1456        1455
         4        1405        1406        1457        1456
         4        1406        1407        1458        1457
         4        1407        1408        1459        1458
         4        1408        1409        1460        1459
         4        1409        1410        1461        1460
         4        1410        1411        1462        1461
         4        1411        1412        1463        1462
         4        1412        1413        1464        1463
         4        1413        1414        1465        1464
         4        1414        1415        1466        1465
         4        1415        1416        1467        1466
         4        1416        1417        1468        1467
         4        1417        1418        1469        1468
         4        1418        1419        1470        1469
         4        1419        1420        1471        1470
         4        1420        1421        1472        1471
         4        1421        1422        1473        1472
         4        1422        1423        1474        1473
         4        1423        1424        1475        1474
         4        1424        1425        1476        1475
         4        1425        1426        1477        1476
         4        1426        1427        1478        1477
         4        1428        1429        1480        1479
         4        1429        1430        1481        1480
         4        1430        1431        1482        1481
         4        1431        1432        1483        1482
         4        1432        1433        1484        1483
         4        1433        1434        1485        1484
         4        1434        1435        1486        1485
         4        1435        1436        1487        1486
         4        1436        1437        1488        1487
         4        1437        1438        1489        1488
         4        1438        1439        1490        1489
         4        1439        1440        1491        1490
         4        1440        1441        1492        1491
         4        1441        1442        1493        1492
         4        1442        1443        1494        1493
         4        1443        1444        1495        1494
         4        1444        1445        1496        1495
         4        1445        1446        1497        1496
         4        1446        1447        1498        1497
         4        1447        1448        1499        1498
         4        1448        1449        1500        1499
         4        1449        1450        1501        1500
         4        1450        1451        1502        1501
         4        1451        1452        1503        1502
         4        1452        1453        1504        1503
         4        1453        1454        1505        1504
         4        1454        1455        1506        1505
         4        1455        1456        1507        1506
         4        1456        1457        1508        1507
         4        1457        1458        1509        1508
         4        1458        1459        1510        1509
         4        1459        1460        1511        1510
         4        1460        1461        1512        1511
         4        1461        1462        1513        1512
         4        1462        1463        1514        1513
         4        1463        1464        1515        1514
         4        1464        1465        1516        1515
         4        1465        1466        1517        1516
         4        1466        1467        1518        1517
         4        1467        1468        1519        1518
         4        1468        1469        1520        1519
         4        1469        1470        1521        1520
         4        1470        1471        1522        1521
         4        1471        1472        1523        1522
         4        1472        1473        1524        1523
         4        1473        1474        1525        1524
         4        1474        1475        1526        1525
         4        1475        1476        1527        1526
         4        1476        1477        1528        1527
         4        1477        1478        1529        1528
         4        1479        1480        1531        1530
         4        1480        1481        1532        1531
         4        1481        1482        1533        1532
         4        1482        1483        1534        1533
         4        1483        1484        1535        1534
         4        1484        1485        1536        1535
         4        1485        1486        1537        1536
         4        1486        1487        1538        1537
         4        1487        1488        1539        1538
         4        1488        1489        1540        1539
         4        1489        1490        1541        1540
         4        1490        1491        1542        1541
         4        1491        1492        1543        1542
         4        1492        1493        1544        1543
         4        1493        1494        1545        1544
         4        1494        1495        1546        1545
         4        1495        1496        1547        1546
         4        1496        1497        1548        1547
         4        1497        1498        1549        1548
         4        1498        1499        1550        1549
         4        1499        1500        1551        1550
         4        1500        1501        1552        1551
         4        1501        1502        1553        1552
         4        1502        1503        1554        1553
         4        1503        1504        1555        1554
         4        1504        1505        1556        1555
         4        1505        1506        1557        1556
         4        1506        1507        1558        1557
         4        1507        1508        1559        1558
         4        1508        1509        1560        1559
         4        1509        1510        1561        1560
         4        1510        1511        1562        1561
         4        1511        1512        1563        1562
         4        1512        1513        1564        1563
         4        1513        1514        1565        1564
         4        1514        1515        1566        1565
         4        1515        1516        1567        1566
         4        1516        1517        1568        1567
         4        1517        1518        1569        1568
         4        1518        1519        1570        1569
         4        1519        1520        1571        1570
         4        1520        1521        1572        1571
         4        1521        1522        1573        1572
         4        1522        1523        1574        1573
         4        1523        1524        1575        1574
         4        1524        1525        1576        1575
         4        1525        1526        1577        1576
         4        1526        1527        1578        1577
         4        1527        1528        1579        1578
         4        1528        1529        1580        1579
         4        1530        1531        1582        1581
         4        1531        1532        1583        1582
         4        1532        1533        1584        1583
         4        1533        1534        1585        1584
         4        1534        1535        1586        1585
         4        1535        1536        1587        1586
         4        1536        1537        1588        1587
         4        1537        1538        1589        1588
         4        1538        1539        1590        1589
         4        1539        1540        1591        1590
         4        1540        1541        1592        1591
         4        1541        1542        1593        1592
         4        1542        1543        1594        1593
         4        1543        1544        1595        1594
         4        1544        1545        1596        1595
         4        1545        1546        1597        1596
         4        1546        1547        1598        1597
         4        1547        1548        1599        1598
         4        1548        1549        1600        1599
         4        1549        1550        1601        1600
         4        1550        1551        1602        1601
         4        1551        1552        1603        1602
         4        1552        1553        1604        1603
         4        1553        1554        1605        1604
         4        1554        1555        1606        1605
         4        1555        1556        1607        1606
         4        1556        1557        1608        1607
         4        1557        1558        1609        1608
         4        1558        1559        1610        1609
         4        1559        1560        1611        1610
         4        1560        1561        1612        1611
         4        1561        1562        1613        1612
         4        1562        1563        1614        1613
         4        1563        1564        1615        1614
         4        1564        1565        1616        1615
         4        1565        1566        1617        1616
         4        1566        1567        1618        1617
         4        1567        1568        1619        1618
         4        1568        1569        1620        1619
         4        1569        1570        1621        1620
         4        1570        1571        1622        1621
         4        1571        1572        1623        1622
         4        1572        1573        1624        1623
         4        1573        1574        1625        1624
         4        1574        1575        1626        1625
         4        1575        1576        1627        1626
         4        1576        1577        1628        1627
         4        1577        1578        1629        1628
         4        1578        1579        1630        1629
         4        1579        1580        1631        1630
         4        1581        1582        1633        1632
         4        1582        1583        1634        1633
         4        1583        1584        1635        1634
         4        1584        1585        1636        1635
         4        1585        1586        1637        1636
         4        1586        1587        1638        1637
         4        1587        1588        1639        1638
         4        1588        1589        1640        1639
         4        1589        1590        1641        1640
         4        1590        1591        1642        1641
         4        1591        1592        1643        1642
         4        1592        1593        1644        1643
         4        1593        1594        1645        1644
         4        1594        1595        1646        1645
         4        1595        1596        1647        1646
         4        1596        1597        1648        1647
         4        1597        1598        1649        1648
         4        1598        1599        1650        1649
         4        1599        1600        1651        1650
         4        1600        1601        1652        1651
         4        1601        1602        1653        1652
         4        1602        1603        1654        1653
         4        1603        1604        1655        1654
         4        1604        1605        1656        1655
         4        1605        1606        1657        1656
         4        1606        1607        1658        1657
         4        1607        1608        1659        1658
         4        1608        1609        1660        1659
         4        1609        1610        1661        1660
         4        1610        1611        1662        1661
         4        1611        1612        1663        1662
         4        1612        1613        1664        1663
         4        1613        1614        1665        1664
         4        1614        1615        1666        1665
         4        1615        1616        1667        1666
         4        1616        1617        1668        1667
         4        1617        1618        1669        1668
         4        1618        1619        1670        1669
         4        1619        1620        1671        1670
         4        1620        1621        1672        1671
         4        1621        1622        1673        1672
         4        1622        1623        1674        1673
         4        1623        1624        1675        1674
         4        1624        1625        1676        1675
         4        1625        1626        1677        1676
         4        1626        1627        1678        1677
         4        1627        1628        1679        1678
         4        1628        1629        1680        1679
         4        1629        1630        1681        1680
         4        1630        1631        1682        1681
         4        1632        1633        1684        1683
         4        1633        1634        1685        1684
         4        1634        1635        1686        1685
         4        1635        1636        1687        1686
         4        1636        1637        1688        1687
         4        1637        1638        1689        1688
         4        1638        1639        1690        1689
         4        1639        1640        1691        1690
         4        1640        1641        1692        1691
         4        1641        1642        1693        1692
         4        1642        1643        1694        1693
         4        1643        1644        1695        1694
         4        1644        1645        1696        1695
         4        1645        1646        1697        1696
         4        1646        1647        1698        1697
         4        1647        1648        1699        1698
         4        1648        1649        1700        1699
         4        1649        1650        1701        1700
         4        1650        1651        1702        1701
         4        1651        1652        1703        1702
         4        1652        1653        1704        1703
         4        1653        1654        1705        1704
         4        1654        1655        1706        1705
         4        1655        1656        1707        1706
         4        1656        1657        1708        1707
         4        1657        1658        1709        1708
         4        1658        1659        1710        1709
         4        1659        1660        1711        1710
         4        1660        1661        1712        1711
         4        1661        1662        1713        1712
         4        1662        1663        1714        1713
         4        1663        1664        1715        1714
         4        1664        1665        1716        1715
         4        1665        1666        1717        1716
         4        1666        1667        1718        1717
         4        1667        1668        1719        1718
         4        1668        1669        1720        1719
         4        1669        1670        1721        1720
         4        1670        1671        1722        1721
         4        1671        1672        1723        1722
         4        1672        1673        1724        1723
         4        1673        1674        1725        1724
         4        1674        1675        1726        1725
         4        1675        1676        1727        1726
         4        1676        1677        1728        1727
         4        1677        1678        1729        1728
         4        1678        1679        1730        1729
         4        1679        1680        1731        1730
         4        1680        1681        1732        1731
         4        1681        1682        1733        1732
         4        1683        1684        1735        1734
         4        1684        1685        1736        1735
         4        1685        1686        1737        1736
         4        1686        1687        1738        1737
         4        1687        1688        1739        1738
         4        1688        1689        1740        1739
         4        1689        1690        1741        1740
         4        1690        1691        1742        1741
         4        1691        1692        1743        1742
         4        1692        1693        1744        1743
         4        1693        1694        1745        1744
         4        1694        1695        1746        1745
         4        1695        1696        1747        1746
         4        1696        1697        1748        1747
         4        1697        1698        1749        1748
         4        1698        1699        1750        1749
         4        1699        1700        1751        1750
         4        1700        1701        1752        1751
         4        1701        1702        1753        1752
         4        1702        1703        1754        1753
         4        1703        1704        1755        1754
         4        1704        1705        1756        1755
         4        1705        1706        1757        1756
         4        1706        1707        1758        1757
         4        1707        1708        1759        1758
         4        1708        1709        1760        1759
         4        1709        1710        1761        1760
         4        1710        1711        1762        1761
         4        1711        1712        1763        1762
         4        1712        1713        1764        1763
         4        1713        1714        1765        1764
         4        1714        1715        1766        1765
         4        1715        1716        1767        1766
         4        1716        1717        1768        1767
         4        1717        1718        1769        1768
         4        1718        1719        1770        1769
         4        1719        1720        1771        1770
         4        1720        1721        1772        1771
         4        1721        1722        1773        1772
         4        1722        1723        1774        1773
         4        1723        1724        1775        1774
         4        1724        1725        1776        1775
         4        1725        1726        1777        1776
         4        1726        1727        1778        1777
         4        1727        1728        1779        1778
         4        1728        1729        1780        1779
         4        1729        1730        1781        1780
         4        1730        1731        1782        1781
         4        1731        1732        1783        1782
         4        1732        1733        1784        1783
         4        1734        1735        1786        1785
         4        1735        1736        1787        1786
         4        1736        1737        1788        1787
         4        1737        1738        1789        1788
         4        1738        1739        1790        1789
         4        1739        1740        1791        1790
         4        1740        1741        1792        1791
         4        1741        1742        1793        1792
         4        1742        1743        1794        1793
         4        1743        1744        1795        1794
         4        1744        1745        1796        1795
         4        1745        1746        1797        1796
         4        1746        1747        1798        1797
         4        1747        1748        1799        1798
         4        1748        1749        1800        1799
         4        1749        1750        1801        1800
         4        1750        1751        1802        1801
         4        1751        1752        1803        1802
         4        1752        1753        1804        1803
         4        1753        1754        1805        1804
         4        1754        1755        1806        1805
         4        1755        1756        1807        1806
         4        1756        1757        1808        1807
         4        1757        1758        1809        1808
         4        1758        1759        1810        1809
         4        1759        1760        1811        1810
         4        1760        1761        1812        1811
         4        1761        1762        1813        1812
         4        1762        1763        1814        1813
         4        1763        1764        1815        1814
         4        1764        1765        1816        1815
         4        1765        1766        1817        1816
         4        1766        1767        1818        1817
         4        1767        1768        1819        1818
         4        1768        1769        1820        1819
         4        1769        1770        1821        1820
         4        1770        1771        1822        1821
         4        1771        1772        1823        1822
         4        1772        1773        1824        1823
         4        1773        1774        1825        1824
         4        1774        1775        1826        1825
         4        1775        1776        1827        1826
         4        1776        1777        1828        1827
         4        1777        1778        1829        1828
         4        1778        1779        1830        1829
         4        1779        1780        1831        1830
         4        1780        1781        1832        1831
         4        1781        1782        1833        1832
         4        1782        1783        1834        1833
         4        1783        1784        1835        1834
         4        1785        1786        1837        1836
         4        1786        1787        1838        1837
         4        1787        1788        1839        1838
         4        1788        1789        1840        1839
         4        1789        1790        1841        1840
         4        1790        1791        1842        1841
         4        1791        1792        1843        1842
         4        1792        1793        1844        1843
         4        1793        1794        1845        1844
         4        1794        1795        1846        1845
         4        1795        1796        1847        1846
         4        1796        1797        1848        1847
         4        1797        1798        1849        1848
         4        1798        1799        1850        1849
         4        1799        1800        1851        1850
         4        1800        1801        1852        1851
         4        1801        1802        1853        1852
         4        1802        1803        1854        1853
         4        1803        1804        1855        1854
         4        1804        1805        1856        1855
         4        1805        1806        1857        1856
         4        1806        1807        1858        1857
         4        1807        1808        1859        1858
         4        1808        1809        1860        1859
         4        1809        1810        1861        1860
         4        1810        1811        1862        1861
         4        1811        1812        1863        1862
         4        1812        1813        1864        1863
         4        1813        1814        1865        1864
         4        1814        1815        1866        1865
         4        1815        1816        1867        1866
         4        1816        1817        1868        1867
         4        1817        1818        1869        1868
         4        1818        1819        1870        1869
         4        1819        1820        1871        1870
         4        1820        1821        1872        1871
         4        1821        1822        1873        1872
         4        1822        1823        1874        1873
         4        1823        1824        1875        1874
         4        1824        1825        1876        1875
         4        1825        1826        1877        1876
         4        1826        1827        1878        1877
         4        1827        1828        1879        1878
         4        1828        1829        1880        1879
         4        1829        1830        1881        1880
         4        1830        1831        1882        1881
         4        1831        1832        1883        1882
         4        1832        1833        1884        1883
         4        1833        1834        1885        1884
         4        1834        1835        1886        1885
         4        1836        1837        1888        1887
         4        1837        1838        1889        1888
         4        1838        1839        1890        1889
         4        1839        1840        1891        1890
         4        1840        1841        1892        1891
         4        1841        1842        1893        1892
         4        1842        1843        1894        1893
         4        1843        1844        1895        1894
         4        1844        1845        1896        1895
         4        1845        1846        1897        1896
         4        1846        1847        1898        1897
         4        1847        1848        1899        1898
         4        1848        1849        1900        1899
         4        1849        1850        1901        1900
         4        1850        1851        1902        1901
         4        1851        1852        1903        1902
         4        1852        1853        1904        1903
         4        1853        1854        1905        1904
         4        1854        1855        1906        1905
         4        1855        1856        1907        1906
         4        1856        1857        1908        1907
         4        1857        1858        1909        1908
         4        1858        1859        1910        1909
         4        1859        1860        1911        1910
         4        1860        1861        1912        1911
         4        1861        1862        1913        1912
         4        1862        1863        1914        1913
         4        1863        1864        1915        1914
         4        1864        1865        1916        1915
         4        1865        1866        1917        1916
         4        1866        1867        1918        1917
         4        1867        1868        1919        1918
         4        1868        1869        1920        1919
         4        1869        1870        1921        1920
         4        1870        1871        1922        1921
         4        1871        1872        1923        1922
         4        1872        1873        1924        1923
         4        1873        1874        1925        1924
         4        1874        1875        1926        1925
         4        1875        1876        1927        1926
         4        1876        1877        1928        1927
         4        1877        1878        1929        1928
         4        1878        1879        1930        1929
         4        1879        1880        1931        1930
         4        1880        1881        1932        1931
         4        1881        1882        1933        1932
         4        1882        1883        1934        1933
         4        1883        1884        1935        1934
         4        1884        1885        1936        1935
         4        1885        1886        1937        1936
         4        1887        1888        1939        1938
         4        1888        1889        1940        1939
         4        1889        1890        1941        1940
         4        1890        1891        1942        1941
         4        1891        1892        1943        1942
         4        1892        1893        1944        1943
         4        1893        1894        1945        1944
         4        1894        1895        1946        1945
         4        1895        1896        1947        1946
         4        1896        1897        1948        1947
         4        1897        1898        1949        1948
         4        1898        1899        1950        1949
         4        1899        1900        1951        1950
         4        1900        1901        1952        1951
         4        1901        1902        1953        1952
         4        1902        1903        1954        1953
         4        1903        1904        1955        1954
         4        1904        1905        1956        1955
         4        1905        1906        1957        1956
         4        1906        1907        1958        1957
         4        1907        1908        1959        1958
         4        1908        1909        1960        1959
         4        1909        1910        1961        1960
         4        1910        1911        1962        1961
         4        1911        1912        1963        1962
         4        1912        1913        1964        1963
         4        1913        1914        1965        1964
         4        1914        1915        1966        1965
         4        1915        1916        1967        1966
         4        1916        1917        1968        1967
         4        1917        1918        1969        1968
         4        1918        1919        1970        1969
         4        1919        1920        1971        1970
         4        1920        1921        1972        1971
         4        1921        1922        1973        1972
         4        1922        1923        1974        1973
         4        1923        1924        1975        1974
         4        1924        1925        1976        1975
         4        1925        1926        1977        1976
         4        1926        1927        1978        1977
         4        1927        1928        1979        1978
         4        1928        1929        1980        1979
         4        1929        1930        1981        1980
         4        1930        1931        1982        1981
         4        1931        1932        1983        1982
         4        1932        1933        1984        1983
         4        1933        1934        1985        1984
         4        1934        1935        1986        1985
         4        1935        1936        1987        1986
         4        1936        1937        1988        1987
         4        1938        1939        1990        1989
         4        1939        1940        1991        1990
         4        1940        1941        1992        1991
         4        1941        1942        1993        1992
         4        1942        1943        1994        1993
         4        1943        1944        1995        1994
         4        1944        1945        1996        1995
         4        1945        1946        1997        1996
         4        1946        1947        1998        1997
         4        1947        1948        1999        1998
         4        1948        1949        2000        1999
         4        1949        1950        2001        2000
         4        1950        1951        2002        2001
         4        1951        1952        2003        2002
         4        1952        1953        2004        2003
         4        1953        1954        2005        2004
         4        1954        1955        2006        2005
         4        1955        1956        2007        2006
         4        1956        1957        2008        2007
         4        1957        1958        2009        2008
         4        1958        1959        2010        2009
         4        1959        1960        2011        2010
         4        1960        1961        2012        2011
         4        1961        1962        2013        2012
         4        1962        1963        2014        2013
         4        1963        1964        2015        2014
         4        1964        1965        2016        2015
         4        1965        1966        2017        2016
         4        1966        1967        2018        2017
         4        1967        1968        2019        2018
         4        1968        1969        2020        2019
         4        1969        1970        2021        2020
         4        1970        1971        2022        2021
         4        1971        1972        2023        2022
         4        1972        1973        2024        2023
         4        1973        1974        2025        2024
         4        1974        1975        2026        2025
         4        1975        1976        2027        2026
         4        1976        1977        2028        2027
         4        1977        1978        2029        2028
         4        1978        1979        2030        2029
         4        1979        1980        2031        2030
         4        1980        1981        2032        2031
         4        1981        1982        2033        2032
         4        1982        1983        2034        2033
         4        1983        1984        2035        2034
         4        1984        1985        2036        2035
         4        1985        1986        2037        2036
         4        1986        1987        2038        2037
         4        1987        1988        2039        2038
         4        1989        1990        2041        2040
         4        1990        1991        2042        2041
         4        1991        1992        2043        2042
         4        1992        1993        2044        2043
         4        1993        1994        2045        2044
         4        1994        1995        2046        2045
         4        1995        1996        2047        2046
         4        1996        1997        2048        2047
         4        1997        1998        2049        2048
         4        1998        1999        2050        2049
         4        1999        2000        2051        2050
         4        2000        2001        2052        2051
         4        2001        2002        2053        2052
         4        2002        2003        2054        2053
         4        2003        2004        2055        2054
         4        2004        2005        2056        2055
         4        2005        2006        2057        2056
         4        2006        2007        2058        2057
         4        2007        2008        2059        2058
         4        2008        2009        2060        2059
         4        2009        2010        2061        2060
         4        2010        2011        2062        2061
         4        2011        2012        2063        2062
         4        2012        2013        2064        2063
         4        2013        2014        2065        2064
         4        2014        2015        2066        2065
         4        2015        2016        2067        2066
         4        2016        2017        2068        2067
         4        2017        2018        2069        2068
         4        2018        2019        2070        2069
         4        2019        2020        2071        2070
         4        2020        2021        2072        2071
         4        2021        2022        2073        2072
         4        2022        2023        2074        2073
         4        2023        2024        2075        2074
         4        2024        2025        2076        2075
         4        2025        2026        2077        2076
         4        2026        2027        2078        2077
         4        2027        2028        2079        2078
         4        2028        2029        2080        2079
         4        2029        2030        2081        2080
         4        2030        2031        2082        2081
         4        2031        2032        2083        2082
         4        2032        2033        2084        2083
         4        2033        2034        2085        2084
         4        2034        2035        2086        2085
         4        2035        2036        2087        2086
         4        2036        2037        2088        2087
         4        2037        2038        2089        2088
         4        2038        2039        2090        2089
         4        2040        2041        2092        2091
         4        2041        2042        2093        2092
         4        2042        2043        2094        2093
         4        2043        2044        2095        2094
         4        2044        2045        2096        2095
         4        2045        2046        2097        2096
         4        2046        2047        2098        2097
         4        2047        2048        2099        2098
         4        2048        2049        2100        2099
         4        2049        2050        2101        2100
         4        2050        2051        2102        2101
         4        2051        2052        2103        2102
         4        2052        2053        2104        2103
         4        2053        2054        2105        2104
         4        2054        2055        2106        2105
         4        2055        2056        2107        2106
         4        2056        2057        2108        2107
         4        2057        2058        2109        2108
         4        2058        2059        2110        2109
         4        2059        2060        2111        2110
         4        2060        2061        2112        2111
         4        2061        2062        2113        2112
         4        2062        2063        2114        2113
         4        2063        2064        2115        2114
         4        2064        2065        2116        2115
         4        2065        2066        2117        2116
         4        2066        2067        2118        2117
         4        2067        2068        2119        2118
         4        2068        2069        2120        2119
         4        2069        2070        2121        2120
         4        2070        2071        2122        2121
         4        2071        2072        2123        2122
         4        2072        2073        2124        2123
         4        2073        2074        2125        2124
         4        2074        2075        2126        2125
         4        2075        2076        2127        2126
         4        2076        2077        2128        2127
         4        2077        2078        2129        2128
         4        2078        2079        2130        2129
         4        2079        2080        2131        2130
         4        2080        2081        2132        2131
         4        2081        2082        2133        2132
         4        2082        2083        2134        2133
         4        2083        2084        2135        2134
         4        2084        2085        2136        2135
         4        2085        2086        2137        2136
         4        2086        2087        2138        2137
         4        2087        2088        2139        2138
         4        2088        2089        2140        2139
         4        2089        2090        2141        2140
         4        2091        2092        2143        2142
         4        2092        2093        2144        2143
         4        2093        2094        2145        2144
         4        2094        2095        2146        2145
         4        2095        2096        2147        2146
         4        2096        2097        2148        2147
         4        2097        2098        2149        2148
         4        2098        2099        2150        2149
         4        2099        2100        2151        2150
         4        2100        2101        2152        2151
         4        2101        2102        2153        2152
         4        2102        2103        2154        2153
         4        2103        2104        2155        2154
         4        2104        2105        2156        2155
         4        2105        2106        2157        2156
         4        2106        2107        2158        2157
         4        2107        2108        2159        2158
         4        2108        2109        2160        2159
         4        2109        2110        2161        2160
         4        2110        2111        2162        2161
         4        2111        2112        2163        2162
         4        2112        2113        2164        2163
         4        2113        2114        2165        2164
         4        2114        2115        2166        2165
         4        2115        2116        2167        2166
         4        2116        2117        2168        2167
         4        2117        2118        2169        2168
         4        2118        2119        2170        2169
         4        2119        2120        2171        2170
         4        2120        2121        2172        2171
         4        2121        2122        2173        2172
         4        2122        2123        2174        2173
         4        2123        2124        2175        2174
         4        2124        2125        2176        2175
         4        2125        2126        2177        2176
         4        2126        2127        2178        2177
         4        2127        2128        2179        2178
         4        2128        2129        2180        2179
         4        2129        2130        2181        2180
         4        2130        2131        2182        2181
         4        2131        2132        2183        2182
         4        2132        2133        2184        2183
         4        2133        2134        2185        2184
         4        2134        2135        2186        2185
         4        2135        2136        2187        2186
         4        2136        2137        2188        2187
         4        2137        2138        2189        2188
         4        2138        2139        2190        2189
         4        2139        2140        2191        2190
         4        2140        2141        2192        2191
         4        2142        2143        2194        2193
         4        2143        2144        2195        2194
         4        2144        2145        2196        2195
         4        2145        2146        2197        2196
         4        2146        2147        2198        2197
         4        2147        2148        2199        2198
         4        2148        2149        2200        2199
         4        2149        2150        2201        2200
         4        2150        2151        2202        2201
         4        2151        2152        2203        2202
         4        2152        2153        2204        2203
         4        2153        2154        2205        2204
         4        2154        2155        2206        2205
         4        2155        2156        2207        2206
         4        2156        2157        2208        2207
         4        2157        2158        2209        2208
         4        2158        2159        2210        2209
         4        2159        2160        2211        2210
         4        2160        2161        2212        2211
         4        2161        2162        2213        2212
         4        2162        2163        2214        2213
         4        2163        2164        2215        2214
         4        2164        2165        2216        2215
         4        2165        2166        2217        2216
         4        2166        2167        2218        2217
         4        2167        2168        2219        2218
         4        2168        2169        2220        2219
         4        2169        2170        2221        2220
         4        2170        2171        2222        2221
         4        2171        2172        2223        2222
         4        2172        2173        2224        2223
         4        2173        2174        2225        2224
         4        2174        2175        2226        2225
         4        2175        2176        2227        2226
         4        2176        2177        2228        2227
         4        2177        2178        2229        2228
         4        2178        2179        2230        2229
         4        2179        2180        2231        2230
         4        2180        2181        2232        2231
         4        2181        2182        2233        2232
         4        2182        2183        2234        2233
         4        2183        2184        2235        2234
         4        2184        2185        2236        2235
         4        2185        2186        2237        2236
         4        2186        2187        2238        2237
         4        2187        2188        2239        2238
         4        2188        2189        2240        2239
         4        2189        2190        2241        2240
         4        2190        2191        2242        2241
         4        2191        2192        2243        2242
         4        2193        2194        2245        2244
         4        2194        2195        2246        2245
         4        2195        2196        2247        2246
         4        2196        2197        2248        2247
         4        2197        2198        2249        2248
         4        2198        2199        2250        2249
         4        2199        2200        2251        2250
         4        2200        2201        2252        2251
         4        2201        2202        2253        2252
         4        2202        2203        2254        2253
         4        2203        2204        2255        2254
         4        2204        2205        2256        2255
         4        2205        2206        2257        2256
         4        2206        2207        2258        2257
         4        2207        2208        2259        2258
         4        2208        2209        2260        2259
         4        2209        2210        2261        2260
         4        2210        2211        2262        2261
         4        2211        2212        2263        2262
         4        2212        2213        2264        2263
         4        2213        2214        2265        2264
         4        2214        2215        2266        2265
         4        2215        2216        2267        2266
         4        2216        2217        2268        2267
         4        2217        2218        2269        2268
         4        2218        2219        2270        2269
         4        2219        2220        2271        2270
         4        2220        2221        2272        2271
         4        2221        2222        2273        2272
         4        2222        2223        2274        2273
         4        2223        2224        2275        2274
         4        2224        2225        2276        2275
         4        2225        2226        2277        2276
         4        2226        2227        2278        2277
         4        2227        2228        2279        2278
         4        2228        2229        2280        2279
         4        2229        2230        2281        2280
         4        2230        2231        2282        2281
         4        2231        2232        2283        2282
         4        2232        2233        2284        2283
         4        2233        2234        2285        2284
         4        2234        2235        2286        2285
         4        2235        2236        2287        2286
         4        2236        2237        2288        2287
         4        2237        2238        2289        2288
         4        2238        2239        2290        2289
         4        2239        2240        2291        2290
         4        2240        2241        2292        2291
         4        2241        2242        2293        2292
         4        2242        2243        2294        2293
         4        2244        2245        2296        2295
         4        2245        2246        2297        2296
         4        2246        2247        2298        2297
         4        2247        2248        2299        2298
         4        2248        2249        2300        2299
         4        2249        2250        2301        2300
         4        2250        2251        2302        2301
         4        2251        2252        2303        2302
         4        2252        2253        2304        2303
         4        2253        2254        2305        2304
         4        2254        2255        2306        2305
         4        2255        2256        2307        2306
         4        2256        2257        2308        2307
         4        2257        2258        2309        2308
         4        2258        2259        2310        2309
         4        2259        2260        2311        2310
         4        2260        2261        2312        2311
         4        2261        2262        2313        2312
         4        2262        2263        2314        2313
         4        2263        2264        2315        2314
         4        2264        2265        2316        2315
         4        2265        2266        2317        2316
         4        2266        2267        2318        2317
         4        2267        2268        2319        2318
         4        2268        2269        2320        2319
         4        2269        2270        2321        2320
         4        2270        2271        2322        2321
         4        2271        2272        2323        2322
         4        2272        2273        2324        2323
         4        2273        2274        2325        2324
         4        2274        2275        2326        2325
         4        2275        2276        2327        2326
         4        2276        2277        2328        2327
         4        2277        2278        2329        2328
         4        2278        2279        2330        2329
         4        2279        2280        2331        2330
         4        2280        2281        2332        2331
         4        2281        2282        2333        2332
         4        2282        2283        2334        2333
         4        2283        2284        2335        2334
         4        2284        2285        2336        2335
         4        2285        2286        2337        2336
         4        2286        2287        2338        2337
         4        2287        2288        2339        2338
         4        2288        2289        2340        2339
         4        2289        2290        2341        2340
         4        2290        2291        2342        2341
         4        2291        2292        2343        2342
         4        2292        2293        2344        2343
         4        2293        2294        2345        2344
         4        2295        2296        2347        2346
         4        2296        2297        2348        2347
         4        2297        2298        2349        2348
         4        2298        2299        2350        2349
         4        2299        2300        2351        2350
         4        2300        2301        2352        2351
         4        2301        2302        2353        2352
         4        2302        2303        2354        2353
         4        2303        2304        2355        2354
         4        2304        2305        2356        2355
         4        2305        2306        2357        2356
         4        2306        2307        2358        2357
         4        2307        2308        2359        2358
         4        2308        2309        2360        2359
         4        2309        2310        2361        2360
         4        2310        2311        2362        2361
         4        2311        2312        2363        2362
         4        2312        2313        2364        2363
         4        2313        2314        2365        2364
         4        2314        2315        2366        2365
         4        2315        2316        2367        2366
         4        2316        2317        2368        2367
         4        2317        2318        2369        2368
         4        2318        2319        2370        2369
         4        2319        2320        2371        2370
         4        2320        2321        2372        2371
         4        2321        2322        2373        2372
         4        2322        2323        2374        2373
         4        2323        2324        2375        2374
         4        2324        2325        2376        2375
         4        2325        2326        2377        2376
         4        2326        2327        2378        2377
         4        2327        2328        2379        2378
         4        2328        2329        2380        2379
         4        2329        2330        2381        2380
         4        2330        2331        2382        2381
         4        2331        2332        2383        2382
         4        2332        2333        2384        2383
         4        2333        2334        2385        2384
         4        2334        2335        2386        2385
         4        2335        2336        2387        2386
         4        2336        2337        2388        2387
         4        2337        2338        2389        2388
         4        2338        2339        2390        2389
         4        2339        2340        2391        2390
         4        2340        2341        2392        2391
         4        2341        2342        2393        2392
         4        2342        2343        2394        2393
         4        2343        2344        2395        2394
         4        2344        2345        2396        2395
         4        2346        2347        2398        2397
         4        2347        2348        2399        2398
         4        2348        2349        2400        2399
         4        2349        2350        2401        2400
         4        2350        2351        2402        2401
         4        2351        2352        2403        2402
         4        2352        2353        2404        2403
         4        2353        2354        2405        2404
         4        2354        2355        2406        2405
         4        2355        2356        2407        2406
         4        2356        2357        2408        2407
         4        2357        2358        2409        2408
         4        2358        2359        2410        2409
         4        2359        2360        2411        2410
         4        2360        2361        2412        2411
         4        2361        2362        2413        2412
         4        2362        2363        2414        2413
         4        2363        2364        2415        2414
         4        2364        2365        2416        2415
         4        2365        2366        2417        2416
         4        2366        2367        2418        2417
         4        2367        2368        2419        2418
         4        2368        2369        2420        2419
         4        2369        2370        2421        2420
         4        2370        2371        2422        2421
         4        2371        2372        2423        2422
         4        2372        2373        2424        2423
         4        2373        2374        2425        2424
         4        2374        2375        2426        2425
         4        2375        2376        2427        2426
         4        2376        2377        2428        2427
         4        2377        2378        2429        2428
         4        2378        2379        2430        2429
         4        2379        2380        2431        2430
         4        2380        2381        2432        2431
         4        2381        2382        2433        2432
         4        2382        2383        2434        2433
         4        2383        2384        2435        2434
         4        2384        2385        2436        2435
         4        2385        2386        2437        2436
         4        2386        2387        2438        2437
         4        2387        2388        2439        2438
         4        2388        2389        2440        2439
         4        2389        2390        2441        2440
         4        2390        2391        2442        2441
         4        2391        2392        2443        2442
         4        2392        2393        2444        2443
         4        2393        2394        2445        2444
         4        2394        2395        2446        2445
         4        2395        2396        2447        2446
         4        2397        2398        2449        2448
         4        2398        2399        2450        2449
         4        2399        2400        2451        2450
         4        2400        2401        2452        2451
         4        2401        2402        2453        2452
         4        2402        2403        2454        2453
         4        2403        2404        2455        2454
         4        2404        2405        2456        2455
         4        2405        2406        2457        2456
         4        2406        2407        2458        2457
         4        2407        2408        2459        2458
         4        2408        2409        2460        2459
         4        2409        2410        2461        2460
         4        2410        2411        2462        2461
         4        2411        2412        2463        2462
         4        2412        2413        2464        2463
         4        2413        2414        2465        2464
         4        2414        2415        2466        2465
         4        2415        2416        2467        2466
         4        2416        2417        2468        2467
         4        2417        2418        2469        2468
         4        2418        2419        2470        2469
         4        2419        2420        2471        2470
         4        2420        2421        2472        2471
         4        2421        2422        2473        2472
         4        2422        2423        2474        2473
         4        2423        2424        2475        2474
         4        2424        2425        2476        2475
         4        2425        2426        2477        2476
         4        2426        2427        2478        2477
         4        2427        2428        2479        2478
         4        2428        2429        2480        2479
         4        2429        2430        2481        2480
         4        2430        2431        2482        2481
         4        2431        2432        2483        2482
         4        2432        2433        2484        2483
         4        2433        2434        2485        2484
         4        2434        2435        2486        2485
         4        2435        2436        2487        2486
         4        2436        2437        2488        2487
         4        2437        2438        2489        2488
         4        2438        2439        2490        2489
         4        2439        2440        2491        2490
         4        2440        2441        2492        2491
         4        2441        2442        2493        2492
         4        2442        2443        2494        2493
         4        2443        2444        2495        2494
         4        2444        2445        2496        2495
         4        2445        2446        2497        2496
         4        2446        2447        2498        2497
         4        2448        2449        2500        2499
         4        2449        2450        2501        2500
         4        2450        2451        2502        2501
         4        2451        2452        2503        2502
         4        2452        2453        2504        2503
         4        2453        2454        2505        2504
         4        2454        2455        2506        2505
         4        2455        2456        2507        2506
         4        2456        2457        2508        2507
         4        2457        2458        2509        2508
         4        2458        2459        2510        2509
         4        2459        2460        2511        2510
         4        2460        2461        2512        2511
         4        2461        2462        2513        2512
         4        2462        2463        2514        2513
         4        2463        2464        2515        2514
         4        2464        2465        2516        2515
         4        2465        2466        2517        2516
         4        2466        2467        2518        2517
         4        2467        2468        2519        2518
         4        2468        2469        2520        2519
         4        2469        2470        2521        2520
         4        2470        2471        2522        2521
         4        2471        2472        2523        2522
         4        2472        2473        2524        2523
         4        2473        2474        2525        2524
         4        2474        2475        2526        2525
         4        2475        2476        2527        2526
         4        2476        2477        2528        2527
         4        2477        2478        2529        2528
         4        2478        2479        2530        2529
         4        2479        2480        2531        2530
         4        2480        2481        2532        2531
         4        2481        2482        2533        2532
         4        2482        2483        2534        2533
         4        2483        2484        2535        2534
         4        2484        2485        2536        2535
         4        2485        2486        2537        2536
         4        2486        2487        2538        2537
         4        2487        2488        2539        2538
         4        2488        2489        2540        2539
         4        2489        2490        2541        2540
         4        2490        2491        2542        2541
         4        2491        2492        2543        2542
         4        2492        2493        2544        2543
         4        2493        2494        2545        2544
         4        2494        2495        2546        2545
         4        2495        2496        2547        2546
         4        2496        2497        2548        2547
         4        2497        2498        2549        2548
         4        2499        2500        2551        2550
         4        2500        2501        2552        2551
         4        2501        2502        2553        2552
         4        2502        2503        2554        2553
         4        2503        2504        2555        2554
         4        2504        2505        2556        2555
         4        2505        2506        2557        2556
         4        2506        2507        2558        2557
         4        2507        2508        2559        2558
         4        2508        2509        2560        2559
         4        2509        2510        2561        2560
         4        2510        2511        2562        2561
         4        2511        2512        2563        2562
         4        2512        2513        2564        2563
         4        2513        2514        2565        2564
         4        2514        2515        2566        2565
         4        2515        2516        2567        2566
         4        2516        2517        2568        2567
         4        2517        2518        2569        2568
         4        2518        2519        2570        2569
         4        2519        2520        2571        2570
         4        2520        2521        2572        2571
         4        2521        2522        2573        2572
         4        2522        2523        2574        2573
         4        2523        2524        2575        2574
         4        2524        2525        2576        2575
         4        2525        2526        2577        2576
         4        2526        2527        2578        2577
         4        2527        2528        2579        2578
         4        2528        2529        2580        2579
         4        2529        2530        2581        2580
         4        2530        2531        2582        2581
         4        2531        2532        2583        2582
         4        2532        2533        2584        2583
         4        2533        2534        2585        2584
         4        2534        2535        2586        2585
         4        2535        2536        2587        2586
         4        2536        2537        2588        2587
         4        2537        2538        2589        2588
         4        2538        2539        2590        2589
         4        2539        2540        2591        2590
         4        2540        2541        2592        2591
         4        2541        2542        2593        2592
         4        2542        2543        2594        2593
         4        2543        2544        2595        2594
         4        2544        2545        2596        2595
         4        2545        2546        2597        2596
         4        2546        2547        2598        2597
         4        2547        2548        2599        2598
         4        2548        2549        2600        2599
         4        2550        2551        2602        2601
         4        2551        2552        2603        2602
         4        2552        2553        2604        2603
         4        2553        2554        2605        2604
         4        2554        2555        2606        2605
         4        2555        2556        2607        2606
         4        2556        2557        2608        2607
         4        2557        2558        2609        2608
         4        2558        2559        2610        2609
         4        2559        2560        2611        2610
         4        2560        2561        2612        2611
         4        2561        2562        2613        2612
         4        2562        2563        2614        2613
         4        2563        2564        2615        2614
         4        2564        2565        2616        2615
         4        2565        2566        2617        2616
         4        2566        2567        2618        2617
         4        2567        2568        2619        2618
         4        2568        2569        2620        2619
         4        2569        2570        2621        2620
         4        2570        2571        2622        2621
         4        2571        2572        2623        2622
         4        2572        2573        2624        2623
         4        2573        2574        2625        2624
         4        2574        2575        2626        2625
         4        2575        2576        2627        2626
         4        2576        2577        2628        2627
         4        2577        2578        2629        2628
         4        2578        2579        2630        2629
         4        2579        2580        2631        2630
         4        2580        2581        2632        2631
         4        2581        2582        2633        2632
         4        2582        2583        2634        2633
         4        2583        2584        2635        2634
         4        2584        2585        2636        2635
         4        2585        2586        2637        2636
         4        2586        2587        2638        2637
         4        2587        2588        2639        2638
         4        2588        2589        2640        2639
         4        2589        2590        2641        2640
         4        2590        2591        2642        2641
         4        2591        2592        2643        2642
         4        2592        2593        2644        2643
         4        2593        2594        2645        2644
         4        2594        2595        2646        2645
         4        2595        2596        2647        2646
         4        2596        2597        2648        2647
         4        2597        2598        2649        2648
         4        2598        2599        2650        2649
         4        2599        2600        2651        2650
         4        2601        2602        2653        2652
         4        2602        2603        2654        2653
         4        2603        2604        2655        2654
         4        2604        2605        2656        2655
         4        2605        2606        2657        2656
         4        2606        2607        2658        2657
         4        2607        2608        2659        2658
         4        2608        2609        2660        2659
         4        2609        2610        2661        2660
         4        2610        2611        2662        2661
         4        2611        2612        2663        2662
         4        2612        2613        2664        2663
         4        2613        2614        2665        2664
         4        2614        2615        2666        2665
         4        2615        2616        2667        2666
         4        2616        2617        2668        2667
         4        2617        2618        2669        2668
         4        2618        2619        2670        2669
         4        2619        2620        2671        2670
         4        2620        2621        2672        2671
         4        2621        2622        2673        2672
         4        2622        2623        2674        2673
         4        2623        2624        2675        2674
         4        2624        2625        2676        2675
         4        2625        2626        2677        2676
         4        2626        2627        2678        2677
         4        2627        2628        2679        2678
         4        2628        2629        2680        2679
         4        2629        2630        2681        2680
         4        2630        2631        2682        2681
         4        2631        2632        2683        2682
         4        2632        2633        2684        2683
         4        2633        2634        2685        2684
         4        2634        2635        2686        2685
         4        2635        2636        2687        2686
         4        2636        2637        2688        2687
         4        2637        2638        2689        2688
         4        2638        2639        2690        2689
         4        2639        2640        2691        2690
         4        2640        2641        2692        2691
         4        2641        2642        2693        2692
         4        2642        2643        2694        2693
         4        2643        2644        2695        2694
         4        2644        2645        2696        2695
         4        2645        2646        2697        2696
         4        2646        2647        2698        2697
         4        2647        2648        2699        2698
         4        2648        2649        2700        2699
         4        2649        2650        2701        2700
         4        2650        2651        2702        2701
         4        2652        2653        2704        2703
         4        2653        2654        2705        2704
         4        2654        2655        2706        2705
         4        2655        2656        2707        2706
         4        2656        2657        2708        2707
         4        2657        2658        2709        2708
         4        2658        2659        2710        2709
         4        2659        2660        2711        2710
         4        2660        2661        2712        2711
         4        2661        2662        2713        2712
         4        2662        2663        2714        2713
         4        2663        2664        2715        2714
         4        2664        2665        2716        2715
         4        2665        2666        2717        2716
         4        2666        2667        2718        2717
         4        2667        2668        2719        2718
         4        2668        2669        2720        2719
         4        2669        2670        2721        2720
         4        2670        2671        2722        2721
         4        2671        2672        2723        2722
         4        2672        2673        2724        2723
         4        2673        2674        2725        2724
         4        2674        2675        2726        2725
         4        2675        2676        2727        2726
         4        2676        2677        2728        2727
         4        2677        2678        2729        2728
         4        2678        2679        2730        2729
         4        2679        2680        2731        2730
         4        2680        2681        2732        2731
         4        2681        2682        2733        2732
         4        2682        2683        2734        2733
         4        2683        2684        2735        2734
         4        2684        2685        2736        2735
         4        2685        2686        2737        2736
         4        2686        2687        2738        2737
         4        2687        2688        2739        2738
         4        2688        2689        2740        2739
         4        2689        2690        2741        2740
         4        2690        2691        2742        2741
         4        2691        2692        2743        2742
         4        2692        2693        2744        2743
         4        2693        2694        2745        2744
         4        2694        2695        2746        2745
         4        2695        2696        2747        2746
         4        2696        2697        2748        2747
         4        2697        2698        2749        2748
         4        2698        2699        2750        2749
         4        2699        2700        2751        2750
         4        2700        2701        2752        2751
         4        2701        2702        2753        2752
         4        2703        2704        2755        2754
         4        2704        2705        2756        2755
         4        2705        2706        2757        2756
         4        2706        2707        2758        2757
         4        2707        2708        2759        2758
         4        2708        2709        2760        2759
         4        2709        2710        2761        2760
         4        2710        2711        2762        2761
         4        2711        2712        2763        2762
         4        2712        2713        2764        2763
         4        2713        2714        2765        2764
         4        2714        2715        2766        2765
         4        2715        2716        2767        2766
         4        2716        2717        2768        2767
         4        2717        2718        2769        2768
         4        2718        2719        2770        2769
         4        2719        2720        2771        2770
         4        2720        2721        2772        2771
         4        2721        2722        2773        2772
         4        2722        2723        2774        2773
         4        2723        2724        2775        2774
         4        2724        2725        2776        2775
         4        2725        2726        2777        2776
         4        2726        2727        2778        2777
         4        2727        2728        2779        2778
         4        2728        2729        2780        2779
         4        2729        2730        2781        2780
         4        2730        2731        2782        2781
         4        2731        2732        2783        2782
         4        2732        2733        2784        2783
         4        2733        2734        2785        2784
         4        2734        2735        2786        2785
         4        2735        2736        2787        2786
         4        2736        2737        2788        2787
         4        2737        2738        2789        2788
         4        2738        2739        2790        2789
         4        2739        2740        2791        2790
         4        2740        2741        2792        2791
         4        2741        2742        2793        2792
         4        2742        2743        2794        2793
         4        2743        2744        2795        2794
         4        2744        2745        2796        2795
         4        2745        2746        2797        2796
         4        2746        2747        2798        2797
         4        2747        2748        2799        2798
         4        2748        2749        2800        2799
         4        2749        2750        2801        2800
         4        2750        2751        2802        2801
         4        2751        2752        2803        2802
         4        2752        2753        2804        2803
         4        2754        2755        2806        2805
         4        2755        2756        2807        2806
         4        2756        2757        2808        2807
         4        2757        2758        2809        2808
         4        2758        2759        2810        2809
         4        2759        2760        2811        2810
         4        2760        2761        2812        2811
         4        2761        2762        2813        2812
         4        2762        2763        2814        2813
         4        2763        2764        2815        2814
         4        2764        2765        2816        2815
         4        2765        2766        2817        2816
         4        2766        2767        2818        2817
         4        2767        2768        2819        2818
         4        2768        2769        2820        2819
         4        2769        2770        2821        2820
         4        2770        2771        2822        2821
         4        2771        2772        2823        2822
         4        2772        2773        2824        2823
         4        2773        2774        2825        2824
         4        2774        2775        2826        2825
         4        2775        2776        2827        2826
         4        2776        2777        2828        2827
         4        2777        2778        2829        2828
         4        2778        2779        2830        2829
         4        2779        2780        2831        2830
         4        2780        2781        2832        2831
         4        2781        2782        2833        2832
         4        2782        2783        2834        2833
         4        2783        2784        2835        2834
         4        2784        2785        2836        2835
         4        2785        2786        2837        2836
         4        2786        2787        2838        2837
         4        2787        2788        2839        2838
         4        2788        2789        2840        2839
         4        2789        2790        2841        2840
         4        2790        2791        2842        2841
         4        2791        2792        2843        2842
         4        2792        2793        2844        2843
         4        2793        2794        2845        2844
         4        2794        2795        2846        2845
         4        2795        2796        2847        2846
         4        2796        2797        2848        2847
         4        2797        2798        2849        2848
         4        2798        2799        2850        2849
         4        2799        2800        2851        2850
         4        2800        2801        2852        2851
         4        2801        2802        2853        2852
         4        2802        2803        2854        2853
         4        2803        2804        2855        2854
         4        2805        2806        2857        2856
         4        2806        2807        2858        2857
         4        2807        2808        2859        2858
         4        2808        2809        2860        2859
         4        2809        2810        2861        2860
         4        2810        2811        2862        2861
         4        2811        2812        2863        2862
         4        2812        2813        2864        2863
         4        2813        2814        2865        2864
         4        2814        2815        2866        2865
         4        2815        2816        2867        2866
         4        2816        2817        2868        2867
         4        2817        2818        2869        2868
         4        2818        2819        2870        2869
         4        2819        2820        2871        2870
         4        2820        2821        2872        2871
         4        2821        2822        2873        2872
         4        2822        2823        2874        2873
         4        2823        2824        2875        2874
         4        2824        2825        2876        2875
         4        2825        2826        2877        2876
         4        2826        2827        2878        2877
         4        2827        2828        2879        2878
         4        2828        2829        2880        2879
         4        2829        2830        2881        2880
         4        2830        2831        2882        2881
         4        2831        2832        2883        2882
         4        2832        2833        2884        2883
         4        2833        2834        2885        2884
         4        2834        2835        2886        2885
         4        2835        2836        2887        2886
         4        2836        2837        2888        2887
         4        2837        2838        2889        2888
         4        2838        2839        2890        2889
         4        2839        2840        2891        2890
         4        2840        2841        2892        2891
         4        2841        2842        2893        2892
         4        2842        2843        2894        2893
         4        2843        2844        2895        2894
         4        2844        2845        2896        2895
         4        2845        2846        2897        2896
         4        2846        2847        2898        2897
         4        2847        2848        2899        2898
         4        2848        2849        2900        2899
         4        2849        2850        2901        2900
         4        2850        2851        2902        2901
         4        2851        2852        2903        2902
         4        2852        2853        2904        2903
         4        2853        2854        2905        2904
         4        2854        2855        2906        2905
         4        2856        2857        2908        2907
         4        2857        2858        2909        2908
         4        2858        2859        2910        2909
         4        2859        2860        2911        2910
         4        2860        2861        2912        2911
         4        2861        2862        2913        2912
         4        2862        2863        2914        2913
         4        2863        2864        2915        2914
         4        2864        2865        2916        2915
         4        2865        2866        2917        2916
         4        2866        2867        2918        2917
         4        2867        2868        2919        2918
         4        2868        2869        2920        2919
         4        2869        2870        2921        2920
         4        2870        2871        2922        2921
         4        2871        2872        2923        2922
         4        2872        2873        2924        2923
         4        2873        2874        2925        2924
         4        2874        2875        2926        2925
         4        2875        2876        2927        2926
         4        2876        2877        2928        2927
         4        2877        2878        2929        2928
         4        2878        2879        2930        2929
         4        2879        2880        2931        2930
         4        2880        2881        2932        2931
         4        2881        2882        2933        2932
         4        2882        2883        2934        2933
         4        2883        2884        2935        2934
         4        2884        2885        2936        2935
         4        2885        2886        2937        2936
         4        2886        2887        2938        2937
         4        2887        2888        2939        2938
         4        2888        2889        2940        2939
         4        2889        2890        2941        2940
         4        2890        2891        2942        2941
         4        2891        2892        2943        2942
         4        2892        2893        2944        2943
         4        2893        2894        2945        2944
         4        2894        2895        2946        2945
         4        2895        2896        2947        2946
         4        2896        2897        2948        2947
         4        2897        2898        2949        2948
         4        2898        2899        2950        2949
         4        2899        2900        2951        2950
         4        2900        2901        2952        2951
         4        2901        2902        2953        2952
         4        2902        2903        2954        2953
         4        2903        2904        2955        2954
         4        2904        2905        2956        2955
         4        2905        2906        2957        2956
         4        2907        2908        2959        2958
         4        2908        2909        2960        2959
         4        2909        2910        2961        2960
         4        2910        2911        2962        2961
         4        2911        2912        2963        2962
         4        2912        2913        2964        2963
         4        2913        2914        2965        2964
         4        2914        2915        2966        2965
         4        2915        2916        2967        2966
         4        2916        2917        2968        2967
         4        2917        2918        2969        2968
         4        2918        2919        2970        2969
         4        2919        2920        2971        2970
         4        2920        2921        2972        2971
         4        2921        2922        2973        2972
         4        2922        2923        2974        2973
         4        2923        2924        2975        2974
         4        2924        2925        2976        2975
         4        2925        2926        2977        2976
         4        2926        2927        2978        2977
         4        2927        2928        2979        2978
         4        2928        2929        2980        2979
         4        2929        2930        2981        2980
         4        2930        2931        2982        2981
         4        2931        2932        2983        2982
         4        2932        2933        2984        2983
         4        2933        2934        2985        2984
         4        2934        2935        2986        2985
         4        2935        2936        2987        2986
         4        2936        2937        2988        2987
         4        2937        2938        2989        2988
         4        2938        2939        2990        2989
         4        2939        2940        2991        2990
         4        2940        2941        2992        2991
         4        2941        2942        2993        2992
         4        2942        2943        2994        2993
         4        2943        2944        2995        2994
         4        2944        2945        2996        2995
         4        2945        2946        2997        2996
         4        2946        2947        2998        2997
         4        2947        2948        2999        2998
         4        2948        2949        3000        2999
         4        2949        2950        3001        3000
         4        2950        2951        3002        3001
         4        2951        2952        3003        3002
         4        2952        2953        3004        3003
         4        2953        2954        3005        3004
         4        2954        2955        3006        3005
         4        2955        2956        3007        3006
         4        2956        2957        3008        3007
         4        2958        2959        3010        3009
         4        2959        2960        3011        3010
         4        2960        2961        3012        3011
         4        2961        2962        3013        3012
         4        2962        2963        3014        3013
         4        2963        2964        3015        3014
         4        2964        2965        3016        3015
         4        2965        2966        3017        3016
         4        2966        2967        3018        3017
         4        2967        2968        3019        3018
         4        2968        2969        3020        3019
         4        2969        2970        3021        3020
         4        2970        2971        3022        3021
         4        2971        2972        3023        3022
         4        2972        2973        3024        3023
         4        2973        2974        3025        3024
         4        2974        2975        3026        3025
         4        2975        2976        3027        3026
         4        2976        2977        3028        3027
         4        2977        2978        3029        3028
         4        2978        2979        3030        3029
         4        2979        2980        3031        3030
         4        2980        2981        3032        3031
         4        2981        2982        3033        3032
         4        2982        2983        3034        3033
         4        2983        2984        3035        3034
         4        2984        2985        3036        3035
         4        2985        2986        3037        3036
         4        2986        2987        3038        3037
         4        2987        2988        3039        3038
         4        2988        2989        3040        3039
         4        2989        2990        3041        3040
         4        2990        2991        3042        3041
         4        2991        2992        3043        3042
         4        2992        2993        3044        3043
         4        2993        2994        3045        3044
         4        2994        2995        3046        3045
         4        2995        2996        3047        3046
         4        2996        2997        3048        3047
         4        2997        2998        3049        3048
         4        2998        2999        3050        3049
         4        2999        3000        3051        3050
         4        3000        3001        3052        3051
         4        3001        3002        3053        3052
         4        3002        3003        3054        3053
         4        3003        3004        3055        3054
         4        3004        3005        3056        3055
         4        3005        3006        3057        3056
         4        3006        3007        3058        3057
         4        3007        3008        3059        3058
         4        3009        3010        3061        3060
         4        3010        3011        3062        3061
         4        3011        3012        3063        3062
         4        3012        3013        3064        3063
         4        3013        3014        3065        3064
         4        3014        3015        3066        3065
         4        3015        3016        3067        3066
         4        3016        3017        3068        3067
         4        3017        3018        3069        3068
         4        3018        3019        3070        3069
         4        3019        3020        3071        3070
         4        3020        3021        3072        3071
         4        3021        3022        3073        3072
         4        3022        3023        3074        3073
         4        3023        3024        3075        3074
         4        3024        3025        3076        3075
         4        3025        3026        3077        3076
         4        3026        3027        3078        3077
         4        3027        3028        3079        3078
         4        3028        3029        3080        3079
         4        3029        3030        3081        3080
         4        3030        3031        3082        3081
         4        3031        3032        3083        3082
         4        3032        3033        3084        3083
         4        3033        3034        3085        3084
         4        3034        3035        3086        3085
         4        3035        3036        3087        3086
         4        3036        3037        3088        3087
         4        3037        3038        3089        3088
         4        3038        3039        3090        3089
         4        3039        3040        3091        3090
         4        3040        3041        3092        3091
         4        3041        3042        3093        3092
         4        3042        3043        3094        3093
         4        3043        3044        3095        3094
         4        3044        3045        3096        3095
         4        3045        3046        3097        3096
         4        3046        3047        3098        3097
         4        3047        3048        3099        3098
         4        3048        3049        3100        3099
         4        3049        3050        3101        3100
         4        3050        3051        3102        3101
         4        3051        3052        3103        3102
         4        3052        3053        3104        3103
         4        3053        3054        3105        3104
         4        3054        3055        3106        3105
         4        3055        3056        3107        3106
         4        3056        3057        3108        3107
         4        3057        3058        3109        3108
         4        3058        3059        3110        3109
         4        3060        3061        3112        3111
         4        3061        3062        3113        3112
         4        3062        3063        3114        3113
         4        3063        3064        3115        3114
         4        3064        3065        3116        3115
         4        3065        3066        3117        3116
         4        3066        3067        3118        3117
         4        3067        3068        3119        3118
         4        3068        3069        3120        3119
         4        3069        3070        3121        3120
         4        3070        3071        3122        3121
         4        3071        3072        3123        3122
         4        3072        3073        3124        3123
         4        3073        3074        3125        3124
         4        3074        3075        3126        3125
         4        3075        3076        3127        3126
         4        3076        3077        3128        3127
         4        3077        3078        3129        3128
         4        3078        3079        3130        3129
         4        3079        3080        3131        3130
         4        3080        3081        3132        3131
         4        3081        3082        3133        3132
         4        3082        3083        3134        3133
         4        3083        3084        3135        3134
         4        3084        3085        3136        3135
         4        3085        3086        3137        3136
         4        3086        3087        3138        3137
         4        3087        3088        3139        3138
         4        3088        3089        3140        3139
         4        3089        3090        3141        3140
         4        3090        3091        3142        3141
         4        3091        3092        3143        3142
         4        3092        3093        3144        3143
         4        3093        3094        3145        3144
         4        3094        3095        3146        3145
         4        3095        3096        3147        3146
         4        3096        3097        3148        3147
         4        3097        3098        3149        3148
         4        3098        3099        3150        3149
         4        3099        3100        3151        3150
         4        3100        3101        3152        3151
         4        3101        3102        3153        3152
         4        3102        3103        3154        3153
         4        3103        3104        3155        3154
         4        3104        3105        3156        3155
         4        3105        3106        3157        3156
         4        3106        3107        3158        3157
         4        3107        3108        3159        3158
         4        3108        3109        3160        3159
         4        3109        3110        3161        3160
         4        3111        3112        3163        3162
         4        3112        3113        3164        3163
         4        3113        3114        3165        3164
         4        3114        3115        3166        3165
         4        3115        3116        3167        3166
         4        3116        3117        3168        3167
         4        3117        3118        3169        3168
         4        3118        3119        3170        3169
         4        3119        3120        3171        3170
         4        3120        3121        3172        3171
         4        3121        3122        3173        3172
         4        3122        3123        3174        3173
         4        3123        3124        3175        3174
         4        3124        3125        3176        3175
         4        3125        3126        3177        3176
         4        3126        3127        3178        3177
         4        3127        3128        3179        3178
         4        3128        3129        3180        3179
         4        3129        3130        3181        3180
         4        3130        3131        3182        3181
         4        3131        3132        3183        3182
         4        3132        3133        3184        3183
         4        3133        3134        3185        3184
         4        3134        3135        3186        3185
         4        3135        3136        3187        3186
         4        3136        3137        3188        3187
         4        3137        3138        3189        3188
         4        3138        3139        3190        3189
         4        3139        3140        3191        3190
         4        3140        3141        3192        3191
         4        3141        3142        3193        3192
         4        3142        3143        3194        3193
         4        3143        3144        3195        3194
         4        3144        3145        3196        3195
         4        3145        3146        3197        3196
         4        3146        3147        3198        3197
         4        3147        3148        3199        3198
         4        3148        3149        3200        3199
         4        3149        3150        3201        3200
         4        3150        3151        3202        3201
         4        3151        3152        3203        3202
         4        3152        3153        3204        3203
         4        3153        3154        3205        3204
         4        3154        3155        3206        3205
         4        3155        3156        3207        3206
         4        3156        3157        3208        3207
         4        3157        3158        3209        3208
         4        3158        3159        3210        3209
         4        3159        3160        3211        3210
         4        3160        3161        3212        3211
         4        3162        3163        3214        3213
         4        3163        3164        3215        3214
         4        3164        3165        3216        3215
         4        3165        3166        3217        3216
         4        3166        3167        3218        3217
         4        3167        3168        3219        3218
         4        3168        3169        3220        3219
         4        3169        3170        3221        3220
         4        3170        3171        3222        3221
         4        3171        3172        3223        3222
         4        3172        3173        3224        3223
         4        3173        3174        3225        3224
         4        3174        3175        3226        3225
         4        3175        3176        3227        3226
         4        3176        3177        3228        3227
         4        3177        3178        3229        3228
         4        3178        3179        3230        3229
         4        3179        3180        3231        3230
         4        3180        3181        3232        3231
         4        3181        3182        3233        3232
         4        3182        3183        3234        3233
         4        3183        3184        3235        3234
         4        3184        3185        3236        3235
         4        3185        3186        3237        3236
         4        3186        3187        3238        3237
         4        3187        3188        3239        3238
         4        3188        3189        3240        3239
         4        3189        3190        3241        3240
         4        3190        3191        3242        3241
         4        3191        3192        3243        3242
         4        3192        3193        3244        3243
         4        3193        3194        3245        3244
         4        3194        3195        3246        3245
         4        3195        3196        3247        3246
         4        3196        3197        3248        3247
         4        3197        3198        3249        3248
         4        3198        3199        3250        3249
         4        3199        3200        3251        3250
         4        3200        3201        3252        3251
         4        3201        3202        3253        3252
         4        3202        3203        3254        3253
         4        3203        3204        3255        3254
         4        3204        3205        3256        3255
         4        3205        3206        3257        3256
         4        3206        3207        3258        3257
         4        3207        3208        3259        3258
         4        3208        3209        3260        3259
         4        3209        3210        3261        3260
         4        3210        3211        3262        3261
         4        3211        3212        3263        3262
         4        3213        3214        3265        3264
         4        3214        3215        3266        3265
         4        3215        3216        3267        3266
         4        3216        3217        3268        3267
         4        3217        3218        3269        3268
         4        3218        3219        3270        3269
         4        3219        3220        3271        3270
         4        3220        3221        3272        3271
         4        3221        3222        3273        3272
         4        3222        3223        3274        3273
         4        3223        3224        3275        3274
         4        3224        3225        3276        3275
         4        3225        3226        3277        3276
         4        3226        3227        3278        3277
         4        3227        3228        3279        3278
         4        3228        3229        3280        3279
         4        3229        3230        3281        3280
         4        3230        3231        3282        3281
         4        3231        3232        3283        3282
         4        3232        3233        3284        3283
         4        3233        3234        3285        3284
         4        3234        3235        3286        3285
         4        3235        3236        3287        3286
         4        3236        3237        3288        3287
         4        3237        3238        3289        3288
         4        3238        3239        3290        3289
         4        3239        3240        3291        3290
         4        3240        3241        3292        3291
         4        3241        3242        3293        3292
         4        3242        3243        3294        3293
         4        3243        3244        3295        3294
         4        3244        3245        3296        3295
         4        3245        3246        3297        3296
         4        3246        3247        3298        3297
         4        3247        3248        3299        3298
         4        3248        3249        3300        3299
         4        3249        3250        3301        3300
         4        3250        3251        3302        3301
         4        3251        3252        3303        3302
         4        3252        3253        3304        3303
         4        3253        3254        3305        3304
         4        3254        3255        3306        3305
         4        3255        3256        3307        3306
         4        3256        3257        3308        3307
         4        3257        3258        3309        3308
         4        3258        3259        3310        3309
         4        3259        3260        3311        3310
         4        3260        3261        3312        3311
         4        3261        3262        3313        3312
         4        3262        3263        3314        3313
         4        3264        3265        3316        3315
         4        3265        3266        3317        3316
         4        3266        3267        3318        3317
         4        3267        3268        3319        3318
         4        3268        3269        3320        3319
         4        3269        3270        3321        3320
         4        3270        3271        3322        3321
         4        3271        3272        3323        3322
         4        3272        3273        3324        3323
         4        3273        3274        3325        3324
         4        3274        3275        3326        3325
         4        3275        3276        3327        3326
         4        3276        3277        3328        3327
         4        3277        3278        3329        3328
         4        3278        3279        3330        3329
         4        3279        3280        3331        3330
         4        3280        3281        3332        3331
         4        3281        3282        3333        3332
         4        3282        3283        3334        3333
         4        3283        3284        3335        3334
         4        3284        3285        3336        3335
         4        3285        3286        3337        3336
         4        3286        3287        3338        3337
         4        3287        3288        3339        3338
         4        3288        3289        3340        3339
         4        3289        3290        3341        3340
         4        3290        3291        3342        3341
         4        3291        3292        3343        3342
         4        3292        3293        3344        3343
         4        3293        3294        3345        3344
         4        3294        3295        3346        3345
         4        3295        3296        3347        3346
         4        3296        3297        3348        3347
         4        3297        3298        3349        3348
         4        3298        3299        3350        3349
         4        3299        3300        3351        3350
         4        3300        3301        3352        3351
         4        3301        3302        3353        3352
         4        3302        3303        3354        3353
         4        3303        3304        3355        3354
         4        3304        3305        3356        3355
         4        3305        3306        3357        3356
         4        3306        3307        3358        3357
         4        3307        3308        3359        3358
         4        3308        3309        3360        3359
         4        3309        3310        3361        3360
         4        3310        3311        3362        3361
         4        3311        3312        3363        3362
         4        3312        3313        3364        3363
         4        3313        3314        3365        3364
         4        3315        3316        3367        3366
         4        3316        3317        3368        3367
         4        3317        3318        3369        3368
         4        3318        3319        3370        3369
         4        3319        3320        3371        3370
         4        3320        3321        3372        3371
         4        3321        3322        3373        3372
         4        3322        3323        3374        3373
         4        3323        3324        3375        3374
         4        3324        3325        3376        3375
         4        3325        3326        3377        3376
         4        3326        3327        3378        3377
         4        3327        3328        3379        3378
         4        3328        3329        3380        3379
         4        3329        3330        3381        3380
         4        3330        3331        3382        3381
         4        3331        3332        3383        3382
         4        3332        3333        3384        3383
         4        3333        3334        3385        3384
         4        3334        3335        3386        3385
         4        3335        3336        3387        3386
         4        3336        3337        3388        3387
         4        3337        3338        3389        3388
         4        3338        3339        3390        3389
         4        3339        3340        3391        3390
         4        3340        3341        3392        3391
         4        3341        3342        3393        3392
         4        3342        3343        3394        3393
         4        3343        3344        3395        3394
         4        3344        3345        3396        3395
         4        3345        3346        3397        3396
         4        3346        3347        3398        3397
         4        3347        3348        3399        3398
         4        3348        3349        3400        3399
         4        3349        3350        3401        3400
         4        3350        3351        3402        3401
         4        3351        3352        3403        3402
         4        3352        3353        3404        3403
         4        3353        3354        3405        3404
         4        3354        3355        3406        3405
         4        3355        3356        3407        3406
         4        3356        3357        3408        3407
         4        3357        3358        3409        3408
         4        3358        3359        3410        3409
         4        3359        3360        3411        3410
         4        3360        3361        3412        3411
         4        3361        3362        3413        3412
         4        3362        3363        3414        3413
         4        3363        3364        3415        3414
         4        3364        3365        3416        3415
         4        3366        3367        3418        3417
         4        3367        3368        3419        3418
         4        3368        3369        3420        3419
         4        3369        3370        3421        3420
         4        3370        3371        3422        3421
         4        3371        3372        3423        3422
         4        3372        3373        3424        3423
         4        3373        3374        3425        3424
         4        3374        3375        3426        3425
         4        3375        3376        3427        3426
         4        3376        3377        3428        3427
         4        3377        3378        3429        3428
         4        3378        3379        3430        3429
         4        3379        3380        3431        3430
         4        3380        3381        3432        3431
         4        3381        3382        3433        3432
         4        3382        3383        3434        3433
         4        3383        3384        3435        3434
         4        3384        3385        3436        3435
         4        3385        3386        3437        3436
         4        3386        3387        3438        3437
         4        3387        3388        3439        3438
         4        3388        3389        3440        3439
         4        3389        3390        3441        3440
         4        3390        3391        3442        3441
         4        3391        3392        3443        3442
         4        3392        3393        3444        3443
         4        3393        3394        3445        3444
         4        3394        3395        3446        3445
         4        3395        3396        3447        3446
         4        3396        3397        3448        3447
         4        3397        3398        3449        3448
         4        3398        3399        3450        3449
         4        3399        3400        3451        3450
         4        3400        3401        3452        3451
         4        3401        3402        3453        3452
         4        3402        3403        3454        3453
         4        3403        3404        3455        3454
         4        3404        3405        3456        3455
         4        3405        3406        3457        3456
         4        3406        3407        3458        3457
         4        3407        3408        3459        3458
         4        3408        3409        3460        3459
         4        3409        3410        3461        3460
         4        3410        3411        3462        3461
         4        3411        3412        3463        3462
         4        3412        3413        3464        3463
         4        3413        3414        3465        3464
         4        3414        3415        3466        3465
         4        3415        3416        3467        3466
         4        3417        3418        3469        3468
         4        3418        3419        3470        3469
         4        3419        3420        3471        3470
         4        3420        3421        3472        3471
         4        3421        3422        3473        3472
         4        3422        3423        3474        3473
         4        3423        3424        3475        3474
         4        3424        3425        3476        3475
         4        3425        3426        3477        3476
         4        3426        3427        3478        3477
         4        3427        3428        3479        3478
         4        3428        3429        3480        3479
         4        3429        3430        3481        3480
         4        3430        3431        3482        3481
         4        3431        3432        3483        3482
         4        3432        3433        3484        3483
         4        3433        3434        3485        3484
         4        3434        3435        3486        3485
         4        3435        3436        3487        3486
         4        3436        3437        3488        3487
         4        3437        3438        3489        3488
         4        3438        3439        3490        3489
         4        3439        3440        3491        3490
         4        3440        3441        3492        3491
         4        3441        3442        3493        3492
         4        3442        3443        3494        3493
         4        3443        3444        3495        3494
         4        3444        3445        3496        3495
         4        3445        3446        3497        3496
         4        3446        3447        3498        3497
         4        3447        3448        3499        3498
         4        3448        3449        3500        3499
         4        3449        3450        3501        3500
         4        3450        3451        3502        3501
         4        3451        3452        3503        3502
         4        3452        3453        3504        3503
         4        3453        3454        3505        3504
         4        3454        3455        3506        3505
         4        3455        3456        3507        3506
         4        3456        3457        3508        3507
         4        3457        3458        3509        3508
         4        3458        3459        3510        3509
         4        3459        3460        3511        3510
         4        3460        3461        3512        3511
         4        3461        3462        3513        3512
         4        3462        3463        3514        3513
         4        3463        3464        3515        3514
         4        3464        3465        3516        3515
         4        3465        3466        3517        3516
         4        3466        3467        3518        3517
         4        3468        3469        3520        3519
         4        3469        3470        3521        3520
         4        3470        3471        3522        3521
         4        3471        3472        3523        3522
         4        3472        3473        3524        3523
         4        3473        3474        3525        3524
         4        3474        3475        3526        3525
         4        3475        3476        3527        3526
         4        3476        3477        3528        3527
         4        3477        3478        3529        3528
         4        3478        3479        3530        3529
         4        3479        3480        3531        3530
         4        3480        3481        3532        3531
         4        3481        3482        3533        3532
         4        3482        3483        3534        3533
         4        3483        3484        3535        3534
         4        3484        3485        3536        3535
         4        3485        3486        3537        3536
         4        3486        3487        3538        3537
         4        3487        3488        3539        3538
         4        3488        3489        3540        3539
         4        3489        3490        3541        3540
         4        3490        3491        3542        3541
         4        3491        3492        3543        3542
         4        3492        3493        3544        3543
         4        3493        3494        3545        3544
         4        3494        3495        3546        3545
         4        3495        3496        3547        3546
         4        3496        3497        3548        3547
         4        3497        3498        3549        3548
         4        3498        3499        3550        3549
         4        3499        3500        3551        3550
         4        3500        3501        3552        3551
         4        3501        3502        3553        3552
         4        3502        3503        3554        3553
         4        3503        3504        3555        3554
         4        3504        3505        3556        3555
         4        3505        3506        3557        3556
         4        3506        3507        3558        3557
         4        3507        3508        3559        3558
         4        3508        3509        3560        3559
         4        3509        3510        3561        3560
         4        3510        3511        3562        3561
         4        3511        3512        3563        3562
         4        3512        3513        3564        3563
         4        3513        3514        3565        3564
         4        3514        3515        3566        3565
         4        3515        3516        3567        3566
         4        3516        3517        3568        3567
         4        3517        3518        3569        3568
         4        3519        3520        3571        3570
         4        3520        3521        3572        3571
         4        3521        3522        3573        3572
         4        3522        3523        3574        3573
         4        3523        3524        3575        3574
         4        3524        3525        3576        3575
         4        3525        3526        3577        3576
         4        3526        3527        3578        3577
         4        3527        3528        3579        3578
         4        3528        3529        3580        3579
         4        3529        3530        3581        3580
         4        3530        3531        3582        3581
         4        3531        3532        3583        3582
         4        3532        3533        3584        3583
         4        3533        3534        3585        3584
         4        3534        3535        3586        3585
         4        3535        3536        3587        3586
         4        3536        3537        3588        3587
         4        3537        3538        3589        3588
         4        3538        3539        3590        3589
         4        3539        3540        3591        3590
         4        3540        3541        3592        3591
         4        3541        3542        3593        3592
         4        3542        3543        3594        3593
         4        3543        3544        3595        3594
         4        3544        3545        3596        3595
         4        3545        3546        3597        3596
         4        3546        3547        3598        3597
         4        3547        3548        3599        3598
         4        3548        3549        3600        3599
         4        3549        3550        3601        3600
         4        3550        3551        3602        3601
         4        3551        3552        3603        3602
         4        3552        3553        3604        3603
         4        3553        3554        3605        3604
         4        3554        3555        3606        3605
         4        3555        3556        3607        3606
         4        3556        3557        3608        3607
         4        3557        3558        3609        3608
         4        3558        3559        3610        3609
         4        3559        3560        3611        3610
         4        3560        3561        3612        3611
         4        3561        3562        3613        3612
         4        3562        3563        3614        3613
         4        3563        3564        3615        3614
         4        3564        3565        3616        3615
         4        3565        3566        3617        3616
         4        3566        3567        3618        3617
         4        3567        3568        3619        3618
         4        3568        3569        3620        3619
         4        3570        3571        3622        3621
         4        3571        3572        3623        3622
         4        3572        3573        3624        3623
         4        3573        3574        3625        3624
         4        3574        3575        3626        3625
         4        3575        3576        3627        3626
         4        3576        3577        3628        3627
         4        3577        3578        3629        3628
         4        3578        3579        3630        3629
         4        3579        3580        3631        3630
         4        3580        3581        3632        3631
         4        3581        3582        3633        3632
         4        3582        3583        3634        3633
         4        3583        3584        3635        3634
         4        3584        3585        3636        3635
         4        3585        3586        3637        3636
         4        3586        3587        3638        3637
         4        3587        3588        3639        3638
         4        3588        3589        3640        3639
         4        3589        3590        3641        3640
         4        3590        3591        3642        3641
         4        3591        3592        3643        3642
         4        3592        3593        3644        3643
         4        3593        3594        3645        3644
         4        3594        3595        3646        3645
         4        3595        3596        3647        3646
         4        3596        3597        3648        3647
         4        3597        3598        3649        3648
         4        3598        3599        3650        3649
         4        3599        3600        3651        3650
         4        3600        3601        3652        3651
         4        3601        3602        3653        3652
         4        3602        3603        3654        3653
         4        3603        3604        3655        3654
         4        3604        3605        3656        3655
         4        3605        3606        3657        3656
         4        3606        3607        3658        3657
         4        3607        3608        3659        3658
         4        3608        3609        3660        3659
         4        3609        3610        3661        3660
         4        3610        3611        3662        3661
         4        3611        3612        3663        3662
         4        3612        3613        3664        3663
         4        3613        3614        3665        3664
         4        3614        3615        3666        3665
         4        3615        3616        3667        3666
         4        3616        3617        3668        3667
         4        3617        3618        3669        3668
         4        3618        3619        3670        3669
         4        3619        3620        3671        3670
         4        3621        3622        3673        3672
         4        3622        3623        3674        3673
         4        3623        3624        3675        3674
         4        3624        3625        3676        3675
         4        3625        3626        3677        3676
         4        3626        3627        3678        3677
         4        3627        3628        3679        3678
         4        3628        3629        3680        3679
         4        3629        3630        3681        3680
         4        3630        3631        3682        3681
         4        3631        3632        3683        3682
         4        3632        3633        3684        3683
         4        3633        3634        3685        3684
         4        3634        3635        3686        3685
         4        3635        3636        3687        3686
         4        3636        3637        3688        3687
         4        3637        3638        3689        3688
         4        3638        3639        3690        3689
         4        3639        3640        3691        3690
         4        3640        3641        3692        3691
         4        3641        3642        3693        3692
         4        3642        3643        3694        3693
         4        3643        3644        3695        3694
         4        3644        3645        3696        3695
         4        3645        3646        3697        3696
         4        3646        3647        3698        3697
         4        3647        3648        3699        3698
         4        3648        3649        3700        3699
         4        3649        3650        3701        3700
         4        3650        3651        3702        3701
         4        3651        3652        3703        3702
         4        3652        3653        3704        3703
         4        3653        3654        3705        3704
         4        3654        3655        3706        3705
         4        3655        3656        3707        3706
         4        3656        3657        3708        3707
         4        3657        3658        3709        3708
         4        3658        3659        3710        3709
         4        3659        3660        3711        3710
         4        3660        3661        3712        3711
         4        3661        3662        3713        3712
         4        3662        3663        3714        3713
         4        3663        3664        3715        3714
         4        3664        3665        3716        3715
         4        3665        3666        3717        3716
         4        3666        3667        3718        3717
         4        3667        3668        3719        3718
         4        3668        3669        3720        3719
         4        3669        3670        3721        3720
         4        3670        3671        3722        3721
         4        3672        3673        3724        3723
         4        3673        3674        3725        3724
         4        3674        3675        3726        3725
         4        3675        3676        3727        3726
         4        3676        3677        3728        3727
         4        3677        3678        3729        3728
         4        3678        3679        3730        3729
         4        3679        3680        3731        3730
         4        3680        3681        3732        3731
         4        3681        3682        3733        3732
         4        3682        3683        3734        3733
         4        3683        3684        3735        3734
         4        3684        3685        3736        3735
         4        3685        3686        3737        3736
         4        3686        3687        3738        3737
         4        3687        3688        3739        3738
         4        3688        3689        3740        3739
         4        3689        3690        3741        3740
         4        3690        3691        3742        3741
         4        3691        3692        3743        3742
         4        3692        3693        3744        3743
         4        3693        3694        3745        3744
         4        3694        3695        3746        3745
         4        3695        3696        3747        3746
         4        3696        3697        3748        3747
         4        3697        3698        3749        3748
         4        3698        3699        3750        3749
         4        3699        3700        3751        3750
         4        3700        3701        3752        3751
         4        3701        3702        3753        3752
         4        3702        3703        3754        3753
         4        3703        3704        3755        3754
         4        3704        3705        3756        3755
         4        3705        3706        3757        3756
         4        3706        3707        3758        3757
         4        3707        3708        3759        3758
         4        3708        3709        3760        3759
         4        3709        3710        3761        3760
         4        3710        3711        3762        3761
         4        3711        3712        3763        3762
         4        3712        3713        3764        3763
         4        3713        3714        3765        3764
         4        3714        3715        3766        3765
         4        3715        3716        3767        3766
         4        3716        3717        3768        3767
         4        3717        3718        3769        3768
         4        3718        3719        3770        3769
         4        3719        3720        3771        3770
         4        3720        3721        3772        3771
         4        3721        3722        3773        3772
         4        3723        3724        3775        3774
         4        3724        3725        3776        3775
         4        3725        3726        3777        3776
         4        3726        3727        3778        3777
         4        3727        3728        3779        3778
         4        3728        3729        3780        3779
         4        3729        3730        3781        3780
         4        3730        3731        3782        3781
         4        3731        3732        3783        3782
         4        3732        3733        3784        3783
         4        3733        3734        3785        3784
         4        3734        3735        3786        3785
         4        3735        3736        3787        3786
         4        3736        3737        3788        3787
         4        3737        3738        3789        3788
         4        3738        3739        3790        3789
         4        3739        3740        3791        3790
         4        3740        3741        3792        3791
         4        3741        3742        3793        3792
         4        3742        3743        3794        3793
         4        3743        3744        3795        3794
         4        3744        3745        3796        3795
         4        3745        3746        3797        3796
         4        3746        3747        3798        3797
         4        3747        3748        3799        3798
         4        3748        3749        3800        3799
         4        3749        3750        3801        3800
         4        3750        3751        3802        3801
         4        3751        3752        3803        3802
         4        3752        3753        3804        3803
         4        3753        3754        3805        3804
         4        3754        3755        3806        3805
         4        3755        3756        3807        3806
         4        3756        3757        3808        3807
         4        3757        3758        3809        3808
         4        3758        3759        3810        3809
         4        3759        3760        3811        3810
         4        3760        3761        3812        3811
         4        3761        3762        3813        3812
         4        3762        3763        3814        3813
         4        3763        3764        3815        3814
         4        3764        3765        3816        3815
         4        3765        3766        3817        3816
         4        3766        3767        3818        3817
         4        3767        3768        3819        3818
         4        3768        3769        3820        3819
         4        3769        3770        3821        3820
         4        3770        3771        3822        3821
         4        3771        3772        3823        3822
         4        3772        3773        3824        3823
         4        3774        3775        3826        3825
         4        3775        3776        3827        3826
         4        3776        3777        3828        3827
         4        3777        3778        3829        3828
         4        3778        3779        3830        3829
         4        3779        3780        3831        3830
         4        3780        3781        3832        3831
         4        3781        3782        3833        3832
         4        3782        3783        3834        3833
         4        3783        3784        3835        3834
         4        3784        3785        3836        3835
         4        3785        3786        3837        3836
         4        3786        3787        3838        3837
         4        3787        3788        3839        3838
         4        3788        3789        3840        3839
         4        3789        3790        3841        3840
         4        3790        3791        3842        3841
         4        3791        3792        3843        3842
         4        3792        3793        3844        3843
         4        3793        3794        3845        3844
         4        3794        3795        3846        3845
         4        3795        3796        3847        3846
         4        3796        3797        3848        3847
         4        3797        3798        3849        3848
         4        3798        3799        3850        3849
         4        3799        3800        3851        3850
         4        3800        3801        3852        3851
         4        3801        3802        3853        3852
         4        3802        3803        3854        3853
         4        3803        3804        3855        3854
         4        3804        3805        3856        3855
         4        3805        3806        3857        3856
         4        3806        3807        3858        3857
         4        3807        3808        3859        3858
         4        3808        3809        3860        3859
         4        3809        3810        3861        3860
         4        3810        3811        3862        3861
         4        3811        3812        3863        3862
         4        3812        3813        3864        3863
         4        3813        3814        3865        3864
         4        3814        3815        3866        3865
         4        3815        3816        3867        3866
         4        3816        3817        3868        3867
         4        3817        3818        3869        3868
         4        3818        3819        3870        3869
         4        3819        3820        3871        3870
         4        3820        3821        3872        3871
         4        3821        3822        3873        3872
         4        3822        3823        3874        3873
         4        3823        3824        3875        3874
         4        3825        3826        3877        3876
         4        3826        3827        3878        3877
         4        3827        3828        3879        3878
         4        3828        3829        3880        3879
         4        3829        3830        3881        3880
         4        3830        3831        3882        3881
         4        3831        3832        3883        3882
         4        3832        3833        3884        3883
         4        3833        3834        3885        3884
         4        3834        3835        3886        3885
         4        3835        3836        3887        3886
         4        3836        3837        3888        3887
         4        3837        3838        3889        3888
         4        3838        3839        3890        3889
         4        3839        3840        3891        3890
         4        3840        3841        3892        3891
         4        3841        3842        3893        3892
         4        3842        3843        3894        3893
         4        3843        3844        3895        3894
         4        3844        3845        3896        3895
         4        3845        3846        3897        3896
         4        3846        3847        3898        3897
         4        3847        3848        3899        3898
         4        3848        3849        3900        3899
         4        3849        3850        3901        3900
         4        3850        3851        3902        3901
         4        3851        3852        3903        3902
         4        3852        3853        3904        3903
         4        3853        3854        3905        3904
         4        3854        3855        3906        3905
         4        3855        3856        3907        3906
         4        3856        3857        3908        3907
         4        3857        3858        3909        3908
         4        3858        3859        3910        3909
         4        3859        3860        3911        3910
         4        3860        3861        3912        3911
         4        3861        3862        3913        3912
         4        3862        3863        3914        3913
         4        3863        3864        3915        3914
         4        3864        3865        3916        3915
         4        3865        3866        3917        3916
         4        3866        3867        3918        3917
         4        3867        3868        3919        3918
         4        3868        3869        3920        3919
         4        3869        3870        3921        3920
         4        3870        3871        3922        3921
         4        3871        3872        3923        3922
         4        3872        3873        3924        3923
         4        3873        3874        3925        3924
         4        3874        3875        3926        3925
         4        3876        3877        3928        3927
         4        3877        3878        3929        3928
         4        3878        3879        3930        3929
         4        3879        3880        3931        3930
         4        3880        3881        3932        3931
         4        3881        3882        3933        3932
         4        3882        3883        3934        3933
         4        3883        3884        3935        3934
         4        3884        3885        3936        3935
         4        3885        3886        3937        3936
         4        3886        3887        3938        3937
         4        3887        3888        3939        3938
         4        3888        3889        3940        3939
         4        3889        3890        3941        3940
         4        3890        3891        3942        3941
         4        3891        3892        3943        3942
         4        3892        3893        3944        3943
         4        3893        3894        3945        3944
         4        3894        3895        3946        3945
         4        3895        3896        3947        3946
         4        3896        3897        3948        3947
         4        3897        3898        3949        3948
         4        3898        3899        3950        3949
         4        3899        3900        3951        3950
         4        3900        3901        3952        3951
         4        3901        3902        3953        3952
         4        3902        3903        3954        3953
         4        3903        3904        3955        3954
         4        3904        3905        3956        3955
         4        3905        3906        3957        3956
         4        3906        3907        3958        3957
         4        3907        3908        3959        3958
         4        3908        3909        3960        3959
         4        3909        3910        3961        3960
         4        3910        3911        3962        3961
         4        3911        3912        3963        3962
         4        3912        3913        3964        3963
         4        3913        3914        3965        3964
         4        3914        3915        3966        3965
         4        3915        3916        3967        3966
         4        3916        3917        3968        3967
         4        3917        3918        3969        3968
         4        3918        3919        3970        3969
         4        3919        3920        3971        3970
         4        3920        3921        3972        3971
         4        3921        3922        3973        3972
         4        3922        3923        3974        3973
         4        3923        3924        3975        3974
         4        3924        3925        3976        3975
         4        3925        3926        3977        3976
         4        3927        3928        3979        3978
         4        3928        3929        3980        3979
         4        3929        3930        3981        3980
         4        3930        3931        3982        3981
         4        3931        3932        3983        3982
         4        3932        3933        3984        3983
         4        3933        3934        3985        3984
         4        3934        3935        3986        3985
         4        3935        3936        3987        3986
         4        3936        3937        3988        3987
         4        3937        3938        3989        3988
         4        3938        3939        3990        3989
         4        3939        3940        3991        3990
         4        3940        3941        3992        3991
         4        3941        3942        3993        3992
         4        3942        3943        3994        3993
         4        3943        3944        3995        3994
         4        3944        3945        3996        3995
         4        3945        3946        3997        3996
         4        3946        3947        3998        3997
         4        3947        3948        3999        3998
         4        3948        3949        4000        3999
         4        3949        3950        4001        4000
         4        3950        3951        4002        4001
         4        3951        3952        4003        4002
         4        3952        3953        4004        4003
         4        3953        3954        4005        4004
         4        3954        3955        4006        4005
         4        3955        3956        4007        4006
         4        3956        3957        4008        4007
         4        3957        3958        4009        4008
         4        3958        3959        4010        4009
         4        3959        3960        4011        4010
         4        3960        3961        4012        4011
         4        3961        3962        4013        4012
         4        3962        3963        4014        4013
         4        3963        3964        4015        4014
         4        3964        3965        4016        4015
         4        3965        3966        4017        4016
         4        3966        3967        4018        4017
         4        3967        3968        4019        4018
         4        3968        3969        4020        4019
         4        3969        3970        4021        4020
         4        3970        3971        4022        4021
         4        3971        3972        4023        4022
         4        3972        3973        4024        4023
         4        3973        3974        4025        4024
         4        3974        3975        4026        4025
         4        3975        3976        4027        4026
         4        3976        3977        4028        4027
         4        3978        3979        4030        4029
         4        3979        3980        4031        4030
         4        3980        3981        4032        4031
         4        3981        3982        4033        4032
         4        3982        3983        4034        4033
         4        3983        3984        4035        4034
         4        3984        3985        4036        4035
         4        3985        3986        4037        4036
         4        3986        3987        4038        4037
         4        3987        3988        4039        4038
         4        3988        3989        4040        4039
         4        3989        3990        4041        4040
         4        3990        3991        4042        4041
         4        3991        3992        4043        4042
         4        3992        3993        4044        4043
         4        3993        3994        4045        4044
         4        3994        3995        4046        4045
         4        3995        3996        4047        4046
         4        3996        3997        4048        4047
         4        3997        3998        4049        4048
         4        3998        3999        4050        4049
         4        3999        4000        4051        4050
         4        4000        4001        4052        4051
         4        4001        4002        4053        4052
         4        4002        4003        4054        4053
         4        4003        4004        4055        4054
         4        4004        4005        4056        4055
         4        4005        4006        4057        4056
         4        4006        4007        4058        4057
         4        4007        4008        4059        4058
         4        4008        4009        4060        4059
         4        4009        4010        4061        4060
         4        4010        4011        4062        4061
         4        4011        4012        4063        4062
         4        4012        4013        4064        4063
         4        4013        4014        4065        4064
         4        4014        4015        4066        4065
         4        4015        4016        4067        4066
         4        4016        4017        4068        4067
         4        4017        4018        4069        4068
         4        4018        4019        4070        4069
         4        4019        4020        4071        4070
         4        4020        4021        4072        4071
         4        4021        4022        4073        4072
         4        4022        4023        4074        4073
         4        4023        4024        4075        4074
         4        4024        4025        4076        4075
         4        4025        4026        4077        4076
         4        4026        4027        4078        4077
         4        4027        4028        4079        4078
         4        4029        4030        4081        4080
         4        4030        4031        4082        4081
         4        4031        4032        4083        4082
         4        4032        4033        4084        4083
         4        4033        4034        4085        4084
         4        4034        4035        4086        4085
         4        4035        4036        4087        4086
         4        4036        4037        4088        4087
         4        4037        4038        4089        4088
         4        4038        4039        4090        4089
         4        4039        4040        4091        4090
         4        4040        4041        4092        4091
         4        4041        4042        4093        4092
         4        4042        4043        4094        4093
         4        4043        4044        4095        4094
         4        4044        4045        4096        4095
         4        4045        4046        4097        4096
         4        4046        4047        4098        4097
         4        4047        4048        4099        4098
         4        4048        4049        4100        4099
         4        4049        4050        4101        4100
         4        4050        4051        4102        4101
         4        4051        4052        4103        4102
         4        4052        4053        4104        4103
         4        4053        4054        4105        4104
         4        4054        4055        4106        4105
         4        4055        4056        4107        4106
         4        4056        4057        4108        4107
         4        4057        4058        4109        4108
         4        4058        4059        4110        4109
         4        4059        4060        4111        4110
         4        4060        4061        4112        4111
         4        4061        4062        4113        4112
         4        4062        4063        4114        4113
         4        4063        4064        4115        4114
         4        4064        4065        4116        4115
         4        4065        4066        4117        4116
         4        4066        4067        4118        4117
         4        4067        4068        4119        4118
         4        4068        4069        4120        4119
         4        4069        4070        4121        4120
         4        4070        4071        4122        4121
         4        4071        4072        4123        4122
         4        4072        4073        4124        4123
         4        4073        4074        4125        4124
         4        4074        4075        4126        4125
         4        4075        4076        4127        4126
         4        4076        4077        4128        4127
         4        4077        4078        4129        4128
         4        4078        4079        4130        4129
         4        4080        4081        4132        4131
         4        4081        4082        4133        4132
         4        4082        4083        4134        4133
         4        4083        4084        4135        4134
         4        4084        4085        4136        4135
         4        4085        4086        4137        4136
         4        4086        4087        4138        4137
         4        4087        4088        4139        4138
         4        4088        4089        4140        4139
         4        4089        4090        4141        4140
         4        4090        4091        4142        4141
         4        4091        4092        4143        4142
         4        4092        4093        4144        4143
         4        4093        4094        4145        4144
         4        4094        4095        4146        4145
         4        4095        4096        4147        4146
         4        4096        4097        4148        4147
         4        4097        4098        4149        4148
         4        4098        4099        4150        4149
         4        4099        4100        4151        4150
         4        4100        4101        4152        4151
         4        4101        4102        4153        4152
         4        4102        4103        4154        4153
         4        4103        4104        4155        4154
         4        4104        4105        4156        4155
         4        4105        4106        4157        4156
         4        4106        4107        4158        4157
         4        4107        4108        4159        4158
         4        4108        4109        4160        4159
         4        4109        4110        4161        4160
         4        4110        4111        4162        4161
         4        4111        4112        4163        4162
         4        4112        4113        4164        4163
         4        4113        4114        4165        4164
         4        4114        4115        4166        4165
         4        4115        4116        4167        4166
         4        4116        4117        4168        4167
         4        4117        4118        4169        4168
         4        4118        4119        4170        4169
         4        4119        4120        4171        4170
         4        4120        4121        4172        4171
         4        4121        4122        4173        4172
         4        4122        4123        4174        4173
         4        4123        4124        4175        4174
         4        4124        4125        4176        4175
         4        4125        4126        4177        4176
         4        4126        4127        4178        4177
         4        4127        4128        4179        4178
         4        4128        4129        4180        4179
         4        4129        4130        4181        4180
         4        4131        4132        4183        4182
         4        4132        4133        4184        4183
         4        4133        4134        4185        4184
         4        4134        4135        4186        4185
         4        4135        4136        4187        4186
         4        4136        4137        4188        4187
         4        4137        4138        4189        4188
         4        4138        4139        4190        4189
         4        4139        4140        4191        4190
         4        4140        4141        4192        4191
         4        4141        4142        4193        4192
         4        4142        4143        4194        4193
         4        4143        4144        4195        4194
         4        4144        4145        4196        4195
         4        4145        4146        4197        4196
         4        4146        4147        4198        4197
         4        4147        4148        4199        4198
         4        4148        4149        4200        4199
         4        4149        4150        4201        4200
         4        4150        4151        4202        4201
         4        4151        4152        4203        4202
         4        4152        4153        4204        4203
         4        4153        4154        4205        4204
         4        4154        4155        4206        4205
         4        4155        4156        4207        4206
         4        4156        4157        4208        4207
         4        4157        4158        4209        4208
         4        4158        4159        4210        4209
         4        4159        4160        4211        4210
         4        4160        4161        4212        4211
         4        4161        4162        4213        4212
         4        4162        4163        4214        4213
         4        4163        4164        4215        4214
         4        4164        4165        4216        4215
         4        4165        4166        4217        4216
         4        4166        4167        4218        4217
         4        4167        4168        4219        4218
         4        4168        4169        4220        4219
         4        4169        4170        4221        4220
         4        4170        4171        4222        4221
         4        4171        4172        4223        4222
         4        4172        4173        4224        4223
         4        4173        4174        4225        4224
         4        4174        4175        4226        4225
         4        4175        4176        4227        4226
         4        4176        4177        4228        4227
         4        4177        4178        4229        4228
         4        4178        4179        4230        4229
         4        4179        4180        4231        4230
         4        4180        4181        4232        4231
         4        4182        4183        4234        4233
         4        4183        4184        4235        4234
         4        4184        4185        4236        4235
         4        4185        4186        4237        4236
         4        4186        4187        4238        4237
         4        4187        4188        4239        4238
         4        4188        4189        4240        4239
         4        4189        4190        4241        4240
         4        4190        4191        4242        4241
         4        4191        4192        4243        4242
         4        4192        4193        4244        4243
         4        4193        4194        4245        4244
         4        4194        4195        4246        4245
         4        4195        4196        4247        4246
         4        4196        4197        4248        4247
         4        4197        4198        4249        4248
         4        4198        4199        4250        4249
         4        4199        4200        4251        4250
         4        4200        4201        4252        4251
         4        4201        4202        4253        4252
         4        4202        4203        4254        4253
         4        4203        4204        4255        4254
         4        4204        4205        4256        4255
         4        4205        4206        4257        4256
         4        4206        4207        4258        4257
         4        4207        4208        4259        4258
         4        4208        4209        4260        4259
         4        4209        4210        4261        4260
         4        4210        4211        4262        4261
         4        4211        4212        4263        4262
         4        4212        4213        4264        4263
         4        4213        4214        4265        4264
         4        4214        4215        4266        4265
         4        4215        4216        4267        4266
         4        4216        4217        4268        4267
         4        4217        4218        4269        4268
         4        4218        4219        4270        4269
         4        4219        4220        4271        4270
         4        4220        4221        4272        4271
         4        4221        4222        4273        4272
         4        4222        4223        4274        4273
         4        4223        4224        4275        4274
         4        4224        4225        4276        4275
         4        4225        4226        4277        4276
         4        4226        4227        4278        4277
         4        4227        4228        4279        4278
         4        4228        4229        4280        4279
         4        4229        4230        4281        4280
         4        4230        4231        4282        4281
         4        4231        4232        4283        4282
         4        4233        4234        4285        4284
         4        4234        4235        4286        4285
         4        4235        4236        4287        4286
         4        4236        4237        4288        4287
         4        4237        4238        4289        4288
         4        4238        4239        4290        4289
         4        4239        4240        4291        4290
         4        4240        4241        4292        4291
         4        4241        4242        4293        4292
         4        4242        4243        4294        4293
         4        4243        4244        4295        4294
         4        4244        4245        4296        4295
         4        4245        4246        4297        4296
         4        4246        4247        4298        4297
         4        4247        4248        4299        4298
         4        4248        4249        4300        4299
         4        4249        4250        4301        4300
         4        4250        4251        4302        4301
         4        4251        4252        4303        4302
         4        4252        4253        4304        4303
         4        4253        4254        4305        4304
         4        4254        4255        4306        4305
         4        4255        4256        4307        4306
         4        4256        4257        4308        4307
         4        4257        4258        4309        4308
         4        4258        4259        4310        4309
         4        4259        4260        4311        4310
         4        4260        4261        4312        4311
         4        4261        4262        4313        4312
         4        4262        4263        4314        4313
         4        4263        4264        4315        4314
         4        4264        4265        4316        4315
         4        4265        4266        4317        4316
         4        4266        4267        4318        4317
         4        4267        4268        4319        4318
         4        4268        4269        4320        4319
         4        4269        4270        4321        4320
         4        4270        4271        4322        4321
         4        4271        4272        4323        4322
         4        4272        4273        4324        4323
         4        4273        4274        4325        4324
         4        4274        4275        4326        4325
         4        4275        4276        4327        4326
         4        4276        4277        4328        4327
         4        4277        4278        4329        4328
         4        4278        4279        4330        4329
         4        4279        4280        4331        4330
         4        4280        4281        4332        4331
         4        4281        4282        4333        4332
         4        4282        4283        4334        4333
         4        4284        4285        4336        4335
         4        4285        4286        4337        4336
         4        4286        4287        4338        4337
         4        4287        4288        4339        4338
         4        4288        4289        4340        4339
         4        4289        4290        4341        4340
         4        4290        4291        4342        4341
         4        4291        4292        4343        4342
         4        4292        4293        4344        4343
         4        4293        4294        4345        4344
         4        4294        4295        4346        4345
         4        4295        4296        4347        4346
         4        4296        4297        4348        4347
         4        4297        4298        4349        4348
         4        4298        4299        4350        4349
         4        4299        4300        4351        4350
         4        4300        4301        4352        4351
         4        4301        4302        4353        4352
         4        4302        4303        4354        4353
         4        4303        4304        4355        4354
         4        4304        4305        4356        4355
         4        4305        4306        4357        4356
         4        4306        4307        4358        4357
         4        4307        4308        4359        4358
         4        4308        4309        4360        4359
         4        4309        4310        4361        4360
         4        4310        4311        4362        4361
         4        4311        4312        4363        4362
         4        4312        4313        4364        4363
         4        4313        4314        4365        4364
         4        4314        4315        4366        4365
         4        4315        4316        4367        4366
         4        4316        4317        4368        4367
         4        4317        4318        4369        4368
         4        4318        4319        4370        4369
         4        4319        4320        4371        4370
         4        4320        4321        4372        4371
         4        4321        4322        4373        4372
         4        4322        4323        4374        4373
         4        4323        4324        4375        4374
         4        4324        4325        4376        4375
         4        4325        4326        4377        4376
         4        4326        4327        4378        4377
         4        4327        4328        4379        4378
         4        4328        4329        4380        4379
         4        4329        4330        4381        4380
         4        4330        4331        4382        4381
         4        4331        4332        4383        4382
         4        4332        4333        4384        4383
         4        4333        4334        4385        4384
         4        4335        4336        4387        4386
         4        4336        4337        4388        4387
         4        4337        4338        4389        4388
         4        4338        4339        4390        4389
         4        4339        4340        4391        4390
         4        4340        4341        4392        4391
         4        4341        4342        4393        4392
         4        4342        4343        4394        4393
         4        4343        4344        4395        4394
         4        4344        4345        4396        4395
         4        4345        4346        4397        4396
         4        4346        4347        4398        4397
         4        4347        4348        4399        4398
         4        4348        4349        4400        4399
         4        4349        4350        4401        4400
         4        4350        4351        4402        4401
         4        4351        4352        4403        4402
         4        4352        4353        4404        4403
         4        4353        4354        4405        4404
         4        4354        4355        4406        4405
         4        4355        4356        4407        4406
         4        4356        4357        4408        4407
         4        4357        4358        4409        4408
         4        4358        4359        4410        4409
         4        4359        4360        4411        4410
         4        4360        4361        4412        4411
         4        4361        4362        4413        4412
         4        4362        4363        4414        4413
         4        4363        4364        4415        4414
         4        4364        4365        4416        4415
         4        4365        4366        4417        4416
         4        4366        4367        4418        4417
         4        4367        4368        4419        4418
         4        4368        4369        4420        4419
         4        4369        4370        4421        4420
         4        4370        4371        4422        4421
         4        4371        4372        4423        4422
         4        4372        4373        4424        4423
         4        4373        4374        4425        4424
         4        4374        4375        4426        4425
         4        4375        4376        4427        4426
         4        4376        4377        4428        4427
         4        4377        4378        4429        4428
         4        4378        4379        4430        4429
         4        4379        4380        4431        4430
         4        4380        4381        4432        4431
         4        4381        4382        4433        4432
         4        4382        4383        4434        4433
         4        4383        4384        4435        4434
         4        4384        4385        4436        4435
         4        4386        4387        4438        4437
         4        4387        4388        4439        4438
         4        4388        4389        4440        4439
         4        4389        4390        4441        4440
         4        4390        4391        4442        4441
         4        4391        4392        4443        4442
         4        4392        4393        4444        4443
         4        4393        4394        4445        4444
         4        4394        4395        4446        4445
         4        4395        4396        4447        4446
         4        4396        4397        4448        4447
         4        4397        4398        4449        4448
         4        4398        4399        4450        4449
         4        4399        4400        4451        4450
         4        4400        4401        4452        4451
         4        4401        4402        4453        4452
         4        4402        4403        4454        4453
         4        4403        4404        4455        4454
         4        4404        4405        4456        4455
         4        4405        4406        4457        4456
         4        4406        4407        4458        4457
         4        4407        4408        4459        4458
         4        4408        4409        4460        4459
         4        4409        4410        4461        4460
         4        4410        4411        4462        4461
         4        4411        4412        4463        4462
         4        4412        4413        4464        4463
         4        4413        4414        4465        4464
         4        4414        4415        4466        4465
         4        4415        4416        4467        4466
         4        4416        4417        4468        4467
         4        4417        4418        4469        4468
         4        4418        4419        4470        4469
         4        4419        4420        4471        4470
         4        4420        4421        4472        4471
         4        4421        4422        4473        4472
         4        4422        4423        4474        4473
         4        4423        4424        4475        4474
         4        4424        4425        4476        4475
         4        4425        4426        4477        4476
         4        4426        4427        4478        4477
         4        4427        4428        4479        4478
         4        4428        4429        4480        4479
         4        4429        4430        4481        4480
         4        4430        4431        4482        4481
         4        4431        4432        4483        4482
         4        4432        4433        4484        4483
         4        4433        4434        4485        4484
         4        4434        4435        4486        4485
         4        4435        4436        4487        4486
         4        4437        4438        4489        4488
         4        4438        4439        4490        4489
         4        4439        4440        4491        4490
         4        4440        4441        4492        4491
         4        4441        4442        4493        4492
         4        4442        4443        4494        4493
         4        4443        4444        4495        4494
         4        4444        4445        4496        4495
         4        4445        4446        4497        4496
         4        4446        4447        4498        4497
         4        4447        4448        4499        4498
         4        4448        4449        4500        4499
         4        4449        4450        4501        4500
         4        4450        4451        4502        4501
         4        4451        4452        4503        4502
         4        4452        4453        4504        4503
         4        4453        4454        4505        4504
         4        4454        4455        4506        4505
         4        4455        4456        4507        4506
         4        4456        4457        4508        4507
         4        4457        4458        4509        4508
         4        4458        4459        4510        4509
         4        4459        4460        4511        4510
         4        4460        4461        4512        4511
         4        4461        4462        4513        4512
         4        4462        4463        4514        4513
         4        4463        4464        4515        4514
         4        4464        4465        4516        4515
         4        4465        4466        4517        4516
         4        4466        4467        4518        4517
         4        4467        4468        4519        4518
         4        4468        4469        4520        4519
         4        4469        4470        4521        4520
         4        4470        4471        4522        4521
         4        4471        4472        4523        4522
         4        4472        4473        4524        4523
         4        4473        4474        4525        4524
         4        4474        4475        4526        4525
         4        4475        4476        4527        4526
         4        4476        4477        4528        4527
         4        4477        4478        4529        4528
         4        4478        4479        4530        4529
         4        4479        4480        4531        4530
         4        4480        4481        4532        4531
         4        4481        4482        4533        4532
         4        4482        4483        4534        4533
         4        4483        4484        4535        4534
         4        4484        4485        4536        4535
         4        4485        4486        4537        4536
         4        4486        4487        4538        4537
         4        4488        4489        4540        4539
         4        4489        4490        4541        4540
         4        4490        4491        4542        4541
         4        4491        4492        4543        4542
         4        4492        4493        4544        4543
         4        4493        4494        4545        4544
         4        4494        4495        4546        4545
         4        4495        4496        4547        4546
         4        4496        4497        4548        4547
         4        4497        4498        4549        4548
         4        4498        4499        4550        4549
         4        4499        4500        4551        4550
         4        4500        4501        4552        4551
         4        4501        4502        4553        4552
         4        4502        4503        4554        4553
         4        4503        4504        4555        4554
         4        4504        4505        4556        4555
         4        4505        4506        4557        4556
         4        4506        4507        4558        4557
         4        4507        4508        4559        4558
         4        4508        4509        4560        4559
         4        4509        4510        4561        4560
         4        4510        4511        4562        4561
         4        4511        4512        4563        4562
         4        4512        4513        4564        4563
         4        4513        4514        4565        4564
         4        4514        4515        4566        4565
         4        4515        4516        4567        4566
         4        4516        4517        4568        4567
         4        4517        4518        4569        4568
         4        4518        4519        4570        4569
         4        4519        4520        4571        4570
         4        4520        4521        4572        4571
         4        4521        4522        4573        4572
         4        4522        4523        4574        4573
         4        4523        4524        4575        4574
         4        4524        4525        4576        4575
         4        4525        4526        4577        4576
         4        4526        4527        4578        4577
         4        4527        4528        4579        4578
         4        4528        4529        4580        4579
         4        4529        4530        4581        4580
         4        4530        4531        4582        4581
         4        4531        4532        4583        4582
         4        4532        4533        4584        4583
         4        4533        4534        4585        4584
         4        4534        4535        4586        4585
         4        4535        4536        4587        4586
         4        4536        4537        4588        4587
         4        4537        4538        4589        4588
         4        4539        4540        4591        4590
         4        4540        4541        4592        4591
         4        4541        4542        4593        4592
         4        4542        4543        4594        4593
         4        4543        4544        4595        4594
         4        4544        4545        4596        4595
         4        4545        4546        4597        4596
         4        4546        4547        4598        4597
         4        4547        4548        4599        4598
         4        4548        4549        4600        4599
         4        4549        4550        4601        4600
         4        4550        4551        4602        4601
         4        4551        4552        4603        4602
         4        4552        4553        4604        4603
         4        4553        4554        4605        4604
         4        4554        4555        4606        4605
         4        4555        4556        4607        4606
         4        4556        4557        4608        4607
         4        4557        4558        4609        4608
         4        4558        4559        4610        4609
         4        4559        4560        4611        4610
         4        4560        4561        4612        4611
         4        4561        4562        4613        4612
         4        4562        4563        4614        4613
         4        4563        4564        4615        4614
         4        4564        4565        4616        4615
         4        4565        4566        4617        4616
         4        4566        4567        4618        4617
         4        4567        4568        4619        4618
         4        4568        4569        4620        4619
         4        4569        4570        4621        4620
         4        4570        4571        4622        4621
         4        4571        4572        4623        4622
         4        4572        4573        4624        4623
         4        4573        4574        4625        4624
         4        4574        4575        4626        4625
         4        4575        4576        4627        4626
         4        4576        4577        4628        4627
         4        4577        4578        4629        4628
         4        4578        4579        4630        4629
         4        4579        4580        4631        4630
         4        4580        4581        4632        4631
         4        4581        4582        4633        4632
         4        4582        4583        4634        4633
         4        4583        4584        4635        4634
         4        4584        4585        4636        4635
         4        4585        4586        4637        4636
         4        4586        4587        4638        4637
         4        4587        4588        4639        4638
         4        4588        4589        4640        4639
         4        4590        4591        4642        4641
         4        4591        4592        4643        4642
         4        4592        4593        4644        4643
         4        4593        4594        4645        4644
         4        4594        4595        4646        4645
         4        4595        4596        4647        4646
         4        4596        4597        4648        4647
         4        4597        4598        4649        4648
         4        4598        4599        4650        4649
         4        4599        4600        4651        4650
         4        4600        4601        4652        4651
         4        4601        4602        4653        4652
         4        4602        4603        4654        4653
         4        4603        4604        4655        4654
         4        4604        4605        4656        4655
         4        4605        4606        4657        4656
         4        4606        4607        4658        4657
         4        4607        4608        4659        4658
         4        4608        4609        4660        4659
         4        4609        4610        4661        4660
         4        4610        4611        4662        4661
         4        4611        4612        4663        4662
         4        4612        4613        4664        4663
         4        4613        4614        4665        4664
         4        4614        4615        4666        4665
         4        4615        4616        4667        4666
         4        4616        4617        4668        4667
         4        4617        4618        4669        4668
         4        4618        4619        4670        4669
         4        4619        4620        4671        4670
         4        4620        4621        4672        4671
         4        4621        4622        4673        4672
         4        4622        4623        4674        4673
         4        4623        4624        4675        4674
         4        4624        4625        4676        4675
         4        4625        4626        4677        4676
         4        4626        4627        4678        4677
         4        4627        4628        4679        4678
         4        4628        4629        4680        4679
         4        4629        4630        4681        4680
         4        4630        4631        4682        4681
         4        4631        4632        4683        4682
         4        4632        4633        4684        4683
         4        4633        4634        4685        4684
         4        4634        4635        4686        4685
         4        4635        4636        4687        4686
         4        4636        4637        4688        4687
         4        4637        4638        4689        4688
         4        4638        4639        4690        4689
         4        4639        4640        4691        4690
         4        4641        4642        4693        4692
         4        4642        4643        4694        4693
         4        4643        4644        4695        4694
         4        4644        4645        4696        4695
         4        4645        4646        4697        4696
         4        4646        4647        4698        4697
         4        4647        4648        4699        4698
         4        4648        4649        4700        4699
         4        4649        4650        4701        4700
         4        4650        4651        4702        4701
         4        4651        4652        4703        4702
         4        4652        4653        4704        4703
         4        4653        4654        4705        4704
         4        4654        4655        4706        4705
         4        4655        4656        4707        4706
         4        4656        4657        4708        4707
         4        4657        4658        4709        4708
         4        4658        4659        4710        4709
         4        4659        4660        4711        4710
         4        4660        4661        4712        4711
         4        4661        4662        4713        4712
         4        4662        4663        4714        4713
         4        4663        4664        4715        4714
         4        4664        4665        4716        4715
         4        4665        4666        4717        4716
         4        4666        4667        4718        4717
         4        4667        4668        4719        4718
         4        4668        4669        4720        4719
         4        4669        4670        4721        4720
         4        4670        4671        4722        4721
         4        4671        4672        4723        4722
         4        4672        4673        4724        4723
         4        4673        4674        4725        4724
         4        4674        4675        4726        4725
         4        4675        4676        4727        4726
         4        4676        4677        4728        4727
         4        4677        4678        4729        4728
         4        4678        4679        4730        4729
         4        4679        4680        4731        4730
         4        4680        4681        4732        4731
         4        4681        4682        4733        4732
         4        4682        4683        4734        4733
         4        4683        4684        4735        4734
         4        4684        4685        4736        4735
         4        4685        4686        4737        4736
         4        4686        4687        4738        4737
         4        4687        4688        4739        4738
         4        4688        4689        4740        4739
         4        4689        4690        4741        4740
         4        4690        4691        4742        4741
         4        4692        4693        4744        4743
         4        4693        4694        4745        4744
         4        4694        4695        4746        4745
         4        4695        4696        4747        4746
         4        4696        4697        4748        4747
         4        4697        4698        4749        4748
         4        4698        4699        4750        4749
         4        4699        4700        4751        4750
         4        4700        4701        4752        4751
         4        4701        4702        4753        4752
         4        4702        4703        4754        4753
         4        4703        4704        4755        4754
         4        4704        4705        4756        4755
         4        4705        4706        4757        4756
         4        4706        4707        4758        4757
         4        4707        4708        4759        4758
         4        4708        4709        4760        4759
         4        4709        4710        4761        4760
         4        4710        4711        4762        4761
         4        4711        4712        4763        4762
         4        4712        4713        4764        4763
         4        4713        4714        4765        4764
         4        4714        4715        4766        4765
         4        4715        4716        4767        4766
         4        4716        4717        4768        4767
         4        4717        4718        4769        4768
         4        4718        4719        4770        4769
         4        4719        4720        4771        4770
         4        4720        4721        4772        4771
         4        4721        4722        4773        4772
         4        4722        4723        4774        4773
         4        4723        4724        4775        4774
         4        4724        4725        4776        4775
         4        4725        4726        4777        4776
         4        4726        4727        4778        4777
         4        4727        4728        4779        4778
         4        4728        4729        4780        4779
         4        4729        4730        4781        4780
         4        4730        4731        4782        4781
         4        4731        4732        4783        4782
         4        4732        4733        4784        4783
         4        4733        4734        4785        4784
         4        4734        4735        4786        4785
         4        4735        4736        4787        4786
         4        4736        4737        4788        4787
         4        4737        4738        4789        4788
         4        4738        4739        4790        4789
         4        4739        4740        4791        4790
         4        4740        4741        4792        4791
         4        4741        4742        4793        4792
         4        4743        4744        4795        4794
         4        4744        4745        4796        4795
         4        4745        4746        4797        4796
         4        4746        4747        4798        4797
         4        4747        4748        4799        4798
         4        4748        4749        4800        4799
         4        4749        4750        4801        4800
         4        4750        4751        4802        4801
         4        4751        4752        4803        4802
         4        4752        4753        4804        4803
         4        4753        4754        4805        4804
         4        4754        4755        4806        4805
         4        4755        4756        4807        4806
         4        4756        4757        4808        4807
         4        4757        4758        4809        4808
         4        4758        4759        4810        4809
         4        4759        4760        4811        4810
         4        4760        4761        4812        4811
         4        4761        4762        4813        4812
         4        4762        4763        4814        4813
         4        4763        4764        4815        4814
         4        4764        4765        4816        4815
         4        4765        4766        4817        4816
         4        4766        4767        4818        4817
         4        4767        4768        4819        4818
         4        4768        4769        4820        4819
         4        4769        4770        4821        4820
         4        4770        4771        4822        4821
         4        4771        4772        4823        4822
         4        4772        4773        4824        4823
         4        4773        4774        4825        4824
         4        4774        4775        4826        4825
         4        4775        4776        4827        4826
         4        4776        4777        4828        4827
         4        4777        4778        4829        4828
         4        4778        4779        4830        4829
         4        4779        4780        4831        4830
         4        4780        4781        4832        4831
         4        4781        4782        4833        4832
         4        4782        4783        4834        4833
         4        4783        4784        4835        4834
         4        4784        4785        4836        4835
         4        4785        4786        4837        4836
         4        4786        4787        4838        4837
         4        4787        4788        4839        4838
         4        4788        4789        4840        4839
         4        4789        4790        4841        4840
         4        4790        4791        4842        4841
         4        4791        4792        4843        4842
         4        4792        4793        4844        4843
         4        4794        4795        4846        4845
         4        4795        4796        4847        4846
         4        4796        4797        4848        4847
         4        4797        4798        4849        4848
         4        4798        4799        4850        4849
         4        4799        4800        4851        4850
         4        4800        4801        4852        4851
         4        4801        4802        4853        4852
         4        4802        4803        4854        4853
         4        4803        4804        4855        4854
         4        4804        4805        4856        4855
         4        4805        4806        4857        4856
         4        4806        4807        4858        4857
         4        4807        4808        4859        4858
         4        4808        4809        4860        4859
         4        4809        4810        4861        4860
         4        4810        4811        4862        4861
         4        4811        4812        4863        4862
         4        4812        4813        4864        4863
         4        4813        4814        4865        4864
         4        4814        4815        4866        4865
         4        4815        4816        4867        4866
         4        4816        4817        4868        4867
         4        4817        4818        4869        4868
         4        4818        4819        4870        4869
         4        4819        4820        4871        4870
         4        4820        4821        4872        4871
         4        4821        4822        4873        4872
         4        4822        4823        4874        4873
         4        4823        4824        4875        4874
         4        4824        4825        4876        4875
         4        4825        4826        4877        4876
         4        4826        4827        4878        4877
         4        4827        4828        4879        4878
         4        4828        4829        4880        4879
         4        4829        4830        4881        4880
         4        4830        4831        4882        4881
         4        4831        4832        4883        4882
         4        4832        4833        4884        4883
         4        4833        4834        4885        4884
         4        4834        4835        4886        4885
         4        4835        4836        4887        4886
         4        4836        4837        4888        4887
         4        4837        4838        4889        4888
         4        4838        4839        4890        4889
         4        4839        4840        4891        4890
         4        4840        4841        4892        4891
         4        4841        4842        4893        4892
         4        4842        4843        4894        4893
         4        4843        4844        4895        4894
         4        4845        4846        4897        4896
         4        4846        4847        4898        4897
         4        4847        4848        4899        4898
         4        4848        4849        4900        4899
         4        4849        4850        4901        4900
         4        4850        4851        4902        4901
         4        4851        4852        4903        4902
         4        4852        4853        4904        4903
         4        4853        4854        4905        4904
         4        4854        4855        4906        4905
         4        4855        4856        4907        4906
         4        4856        4857        4908        4907
         4        4857        4858        4909        4908
         4        4858        4859        4910        4909
         4        4859        4860        4911        4910
         4        4860        4861        4912        4911
         4        4861        4862        4913        4912
         4        4862        4863        4914        4913
         4        4863        4864        4915        4914
         4        4864        4865        4916        4915
         4        4865        4866        4917        4916
         4        4866        4867        4918        4917
         4        4867        4868        4919        4918
         4        4868        4869        4920        4919
         4        4869        4870        4921        4920
         4        4870        4871        4922        4921
         4        4871        4872        4923        4922
         4        4872        4873        4924        4923
         4        4873        4874        4925        4924
         4        4874        4875        4926        4925
         4        4875        4876        4927        4926
         4        4876        4877        4928        4927
         4        4877        4878        4929        4928
         4        4878        4879        4930        4929
         4        4879        4880        4931        4930
         4        4880        4881        4932        4931
         4        4881        4882        4933        4932
         4        4882        4883        4934        4933
         4        4883        4884        4935        4934
         4        4884        4885        4936        4935
         4        4885        4886        4937        4936
         4        4886        4887        4938        4937
         4        4887        4888        4939        4938
         4        4888        4889        4940        4939
         4        4889        4890        4941        4940
         4        4890        4891        4942        4941
         4        4891        4892        4943        4942
         4        4892        4893        4944        4943
         4        4893        4894        4945        4944
         4        4894        4895        4946        4945
         4        4896        4897        4948        4947
         4        4897        4898        4949        4948
         4        4898        4899        4950        4949
         4        4899        4900        4951        4950
         4        4900        4901        4952        4951
         4        4901        4902        4953        4952
         4        4902        4903        4954        4953
         4        4903        4904        4955        4954
         4        4904        4905        4956        4955
         4        4905        4906        4957        4956
         4        4906        4907        4958        4957
         4        4907        4908        4959        4958
         4        4908        4909        4960        4959
         4        4909        4910        4961        4960
         4        4910        4911        4962        4961
         4        4911        4912        4963        4962
         4        4912        4913        4964        4963
         4        4913        4914        4965        4964
         4        4914        4915        4966        4965
         4        4915        4916        4967        4966
         4        4916        4917        4968        4967
         4        4917        4918        4969        4968
         4        4918        4919        4970        4969
         4        4919        4920        4971        4970
         4        4920        4921        4972        4971
         4        4921        4922        4973        4972
         4        4922        4923        4974        4973
         4        4923        4924        4975        4974
         4        4924        4925        4976        4975
         4        4925        4926        4977        4976
         4        4926        4927        4978        4977
         4        4927        4928        4979        4978
         4        4928        4929        4980        4979
         4        4929        4930        4981        4980
         4        4930        4931        4982        4981
         4        4931        4932        4983        4982
         4        4932        4933        4984        4983
         4        4933        4934        4985        4984
         4        4934        4935        4986        4985
         4        4935        4936        4987        4986
         4        4936        4937        4988        4987
         4        4937        4938        4989        4988
         4        4938        4939        4990        4989
         4        4939        4940        4991        4990
         4        4940        4941        4992        4991
         4        4941        4942        4993        4992
         4        4942        4943        4994        4993
         4        4943        4944        4995        4994
         4        4944        4945        4996        4995
         4        4945        4946        4997        4996
         4        4947        4948        4999        4998
         4        4948        4949        5000        4999
         4        4949        4950        5001        5000
         4        4950        4951        5002        5001
         4        4951        4952        5003        5002
         4        4952        4953        5004        5003
         4        4953        4954        5005        5004
         4        4954        4955        5006        5005
         4        4955        4956        5007        5006
         4        4956        4957        5008        5007
         4        4957        4958        5009        5008
         4        4958        4959        5010        5009
         4        4959        4960        5011        5010
         4        4960        4961        5012        5011
         4        4961        4962        5013        5012
         4        4962        4963        5014        5013
         4        4963        4964        5015        5014
         4        4964        4965        5016        5015
         4        4965        4966        5017        5016
         4        4966        4967        5018        5017
         4        4967        4968        5019        5018
         4        4968        4969        5020        5019
         4        4969        4970        5021        5020
         4        4970        4971        5022        5021
         4        4971        4972        5023        5022
         4        4972        4973        5024        5023
         4        4973        4974        5025        5024
         4        4974        4975        5026        5025
         4        4975        4976        5027        5026
         4        4976        4977        5028        5027
         4        4977        4978        5029        5028
         4        4978        4979        5030        5029
         4        4979        4980        5031        5030
         4        4980        4981        5032        5031
         4        4981        4982        5033        5032
         4        4982        4983        5034        5033
         4        4983        4984        5035        5034
         4        4984        4985        5036        5035
         4        4985        4986        5037        5036
         4        4986        4987        5038        5037
         4        4987        4988        5039        5038
         4        4988        4989        5040        5039
         4        4989        4990        5041        5040
         4        4990        4991        5042        5041
         4        4991        4992        5043        5042
         4        4992        4993        5044        5043
         4        4993        4994        5045        5044
         4        4994        4995        5046        5045
         4        4995        4996        5047        5046
         4        4996        4997        5048        5047
         4        4998        4999        5050        5049
         4        4999        5000        5051        5050
         4        5000        5001        5052        5051
         4        5001        5002        5053        5052
         4        5002        5003        5054        5053
         4        5003        5004        5055        5054
         4        5004        5005        5056        5055
         4        5005        5006        5057        5056
         4        5006        5007        5058        5057
         4        5007        5008        5059        5058
         4        5008        5009        5060        5059
         4        5009        5010        5061        5060
         4        5010        5011        5062        5061
         4        5011        5012        5063        5062
         4        5012        5013        5064        5063
         4        5013        5014        5065        5064
         4        5014        5015        5066        5065
         4        5015        5016        5067        5066
         4        5016        5017        5068        5067
         4        5017        5018        5069        5068
         4        5018        5019        5070        5069
         4        5019        5020        5071        5070
         4        5020        5021        5072        5071
         4        5021        5022        5073        5072
         4        5022        5023        5074        5073
         4        5023        5024        5075        5074
         4        5024        5025        5076        5075
         4        5025        5026        5077        5076
         4        5026        5027        5078        5077
         4        5027        5028        5079        5078
         4        5028        5029        5080        5079
         4        5029        5030        5081        5080
         4        5030        5031        5082        5081
         4        5031        5032        5083        5082
         4        5032        5033        5084        5083
         4        5033        5034        5085        5084
         4        5034        5035        5086        5085
         4        5035        5036        5087        5086
         4        5036        5037        5088        5087
         4        5037        5038        5089        5088
         4        5038        5039        5090        5089
         4        5039        5040        5091        5090
         4        5040        5041        5092        5091
         4        5041        5042        5093        5092
         4        5042        5043        5094        5093
         4        5043        5044        5095        5094
         4        5044        5045        5096        5095
         4        5045        5046        5097        5096
         4        5046        5047        5098        5097
         4        5047        5048        5099        5098
         4        5049        5050        5101        5100
         4        5050        5051        5102        5101
         4        5051        5052        5103        5102
         4        5052        5053        5104        5103
         4        5053        5054        5105        5104
         4        5054        5055        5106        5105
         4        5055        5056        5107        5106
         4        5056        5057        5108        5107
         4        5057        5058        5109        5108
         4        5058        5059        5110        5109
         4        5059        5060        5111        5110
         4        5060        5061        5112        5111
         4        5061        5062        5113        5112
         4        5062        5063        5114        5113
         4        5063        5064        5115        5114
         4        5064        5065        5116        5115
         4        5065        5066        5117        5116
         4        5066        5067        5118        5117
         4        5067        5068        5119        5118
         4        5068        5069        5120        5119
         4        5069        5070        5121        5120
         4        5070        5071        5122        5121
         4        5071        5072        5123        5122
         4        5072        5073        5124        5123
         4        5073        5074        5125        5124
         4        5074        5075        5126        5125
         4        5075        5076        5127        5126
         4        5076        5077        5128        5127
         4        5077        5078        5129        5128
         4        5078        5079        5130        5129
         4        5079        5080        5131        5130
         4        5080        5081        5132        5131
         4        5081        5082        5133        5132
         4        5082        5083        5134        5133
         4        5083        5084        5135        5134
         4        5084        5085        5136        5135
         4        5085        5086        5137        5136
         4        5086        5087        5138        5137
         4        5087        5088        5139        5138
         4        5088        5089        5140        5139
         4        5089        5090        5141        5140
         4        5090        5091        5142        5141
         4        5091        5092        5143        5142
         4        5092        5093        5144        5143
         4        5093        5094        5145        5144
         4        5094        5095        5146        5145
         4        5095        5096        5147        5146
         4        5096        5097        5148        5147
         4        5097        5098        5149        5148
         4        5098        5099        5150        5149
CELL_TYPES       5000
9
9
9
9
9
9
9
9
9
9
9
9
9
9
9
9
9
9
9
9
9
9
9
9
9
9
9
9
9
9
9
9
9
9
9
9
9
9
9
9
9
9
9
9
9
9
9
9
9
9
9
9
9
9
9
9
9
9
9
9
9
9
9
9
9
9
9
9
9
9
9
9
9
9
9
9
9
9
9
9
9
9
9
9
9
9
9
9
9
9
9
9
9
9
9
9
9
9
9
9
9
9
9
9
9
9
9
9
9
9
9
9
9
9
9
9
9
9
9
9
9
9
9
9
9
9
9
9
9
9
9
9
9
9
9
9
9
9
9
9
9
9
9
9
9
9
9
9
9
9
9
9
9
9
9
9
9
9
9
9
9
9
9
9
9
9
9
9
9
9
9
9
9
9
9
9
9
9
9
9
9
9
9
9
9
9
9
9
9
9
9
9
9
9
9
9
9
9
9
9
9
9
9
9
9
9
9
9
9
9
9
9
9
9
9
9
9
9
9
9
9
9
9
9
9
9
9
9
9
9
9
9
9
9
9
9
9
9
9
9
9
9
9
9
9
9
9
9
9
9
9
9
9
9
9
9
9
9
9
9
9
9
9
9
9
9
9
9
9
9
9
9
9
9
9
9
9
9
9
9
9
9
9
9
9
9
9
9
9
9
9
9
9
9
9
9
9
9
9
9
9
9
9
9
9
9
9
9
9
9
9
9
9
9
9
9
9
9
9
9
9
9
9
9
9
9
9
9
9
9
9
9
9
9
9
9
9
9
9
9
9
9
9
9
9
9
9
9
9
9
9
9
9
9
9
9
9
9
9
9
9
9
9
9
9
9
9
9
9
9
9
9
9
9
9
9
9
9
9
9
9
9
9
9
9
9
9
9
9
9
9
9
9
9
9
9
9
9
9
9
9
9
9
9
9
9
9
9
9
9
9
9
9
9
9
9
9
9
9
9
9
9
9
9
9
9
9
9
9
9
9
9
9
9
9
9
9
9
9
9
9
9
9
9
9
9
9
9
9
9
9
9
9
9
9
9
9
9
9
9
9
9
9
9
9
9
9
9
9
9
9
9
9
9
9
9
9
9
9
9
9
9
9
9
9
9
9
9
9
9
9
9
9
9
9
9
9
9
9
9
9
9
9
9
9
9
9
9
9
9
9
9
9
9
9
9
9
9
9
9
9
9
9
9
9
9
9
9
9
9
9
9
9
9
9
9
9
9
9
9
9
9
9
9
9
9
9
9
9
9
9
9
9
9
9
9
9
9
9
9
9
9
9
9
9
9
9
9
9
9
9
9
9
9
9
9
9
9
9
9
9
9
9
9
9
9
9
9
9
9
9
9
9
9
9
9
9
9
9
9
9
9
9
9
9
9
9
9
9
9
9
9
9
9
9
9
9
9
9
9
9
9
9
9
9
9
9
9
9
9
9
9
9
9
9
9
9
9
9
9
9
9
9
9
9
9
9
9
9
9
9
9
9
9
9
9
9
9
9
9
9
9
9
9
9
9
9
9
9
9
9
9
9
9
9
9
9
9
9
9
9
9
9
9
9
9
9
9
9
9
9
9
9
9
9
9
9
9
9
9
9
9
9
9
9
9
9
9
9
9
9
9
9
9
9
9
9
9
9
9
9
9
9
9
9
9
9
9
9
9
9
9
9
9
9
9
9
9
9
9
9
9
9
9
9
9
9
9
9
9
9
9
9
9
9
9
9
9
9
9
9
9
9
9
9
9
9
9
9
9
9
9
9
9
9
9
9
9
9
9
9
9
9
9
9
9
9
9
9
9
9
9
9
9
9
9
9
9
9
9
9
9
9
9
9
9
9
9
9
9
9
9
9
9
9
9
9
9
9
9
9
9
9
9
9
9
9
9
9
9
9
9
9
9
9
9
9
9
9
9
9
9
9
9
9
9
9
9
9
9
9
9
9
9
9
9
9
9
9
9
9
9
9
9
9
9
9
9
9
9
9
9
9
9
9
9
9
9
9
9
9
9
9
9
9
9
9
9
9
9
9
9
9
9
9
9
9
9
9
9
9
9
9
9
9
9
9
9
9
9
9
9
9
9
9
9
9
9
9
9
9
9
9
9
9
9
9
9
9
9
9
9
9
9
9
9
9
9
9
9
9
9
9
9
9
9
9
9
9
9
9
9
9
9
9
9
9
9
9
9
9
9
9
9
9
9
9
9
9
9
9
9
9
9
9
9
9
9
9
9
9
9
9
9
9
9
9
9
9
9
9
9
9
9
9
9
9
9
9
9
9
9
9
9
9
9
9
9
9
9
9
9
9
9
9
9
9
9
9
9
9
9
9
9
9
9
9
9
9
9
9
9
9
9
9
9
9
9
9
9
9
9
9
9
9
9
9
9
9
9
9
9
9
9
9
9
9
9
9
9
9
9
9
9
9
9
9
9
9
9
9
9
9
9
9
9
9
9
9
9
9
9
9
9
9
9
9
9
9
9
9
9
9
9
9
9
9
9
9
9
9
9
9
9
9
9
9
9
9
9
9
9
9
9
9
9
9
9
9
9
9
9
9
9
9
9
9
9
9
9
9
9
9
9
9
9
9
9
9
9
9
9
9
9
9
9
9
9
9
9
9
9
9
9
9
9
9
9
9
9
9
9
9
9
9
9
9
9
9
9
9
9
9
9
9
9
9
9
9
9
9
9
9
9
9
9
9
9
9
9
9
9
9
9
9
9
9
9
9
9
9
9
9
9
9
9
9
9
9
9
9
9
9
9
9
9
9
9
9
9
9
9
9
9
9
9
9
9
9
9
9
9
9
9
9
9
9
9
9
9
9
9
9
9
9
9
9
9
9
9
9
9
9
9
9
9
9
9
9
9
9
9
9
9
9
9
9
9
9
9
9
9
9
9
9
9
9
9
9
9
9
9
9
9
9
9
9
9
9
9
9
9
9
9
9
9
9
9
9
9
9
9
9
9
9
9
9
9
9
9
9
9
9
9
9
9
9
9
9
9
9
9
9
9
9
9
9
9
9
9
9
9
9
9
9
9
9
9
9
9
9
9
9
9
9
9
9
9
9
9
9
9
9
9
9
9
9
9
9
9
9
9
9
9
9
9
9
9
9
9
9
9
9
9
9
9
9
9
9
9
9
9
9
9
9
9
9
9
9
9
9
9
9
9
9
9
9
9
9
9
9
9
9
9
9
9
9
9
9
9
9
9
9
9
9
9
9
9
9
9
9
9
9
9
9
9
9
9
9
9
9
9
9
9
9
9
9
9
9
9
9
9
9
9
9
9
9
9
9
9
9
9
9
9
9
9
9
9
9
9
9
9
9
9
9
9
9
9
9
9
9
9
9
9
9
9
9
9
9
9
9
9
9
9
9
9
9
9
9
9
9
9
9
9
9
9
9
9
9
9
9
9
9
9
9
9
9
9
9
9
9
9
9
9
9
9
9
9
9
9
9
9
9
9
9
9
9
9
9
9
9
9
9
9
9
9
9
9
9
9
9
9
9
9
9
9
9
9
9
9
9
9
9
9
9
9
9
9
9
9
9
9
9
9
9
9
9
9
9
9
9
9
9
9
9
9
9
9
9
9
9
9
9
9
9
9
9
9
9
9
9
9
9
9
9
9
9
9
9
9
9
9
9
9
9
9
9
9
9
9
9
9
9
9
9
9
9
9
9
9
9
9
9
9
9
9
9
9
9
9
9
9
9
9
9
9
9
9
9
9
9
9
9
9
9
9
9
9
9
9
9
9
9
9
9
9
9
9
9
9
9
9
9
9
9
9
9
9
9
9
9
9
9
9
9
9
9
9
9
9
9
9
9
9
9
9
9
9
9
9
9
9
9
9
9
9
9
9
9
9
9
9
9
9
9
9
9
9
9
9
9
9
9
9
9
9
9
9
9
9
9
9
9
9
9
9
9
9
9
9
9
9
9
9
9
9
9
9
9
9
9
9
9
9
9
9
9
9
9
9
9
9
9
9
9
9
9
9
9
9
9
9
9
9
9
9
9
9
9
9
9
9
9
9
9
9
9
9
9
9
9
9
9
9
9
9
9
9
9
9
9
9
9
9
9
9
9
9
9
9
9
9
9
9
9
9
9
9
9
9
9
9
9
9
9
9
9
9
9
9
9
9
9
9
9
9
9
9
9
9
9
9
9
9
9
9
9
9
9
9
9
9
9
9
9
9
9
9
9
9
9
9
9
9
9
9
9
9
9
9
9
9
9
9
9
9
9
9
9
9
9
9
9
9
9
9
9
9
9
9
9
9
9
9
9
9
9
9
9
9
9
9
9
9
9
9
9
9
9
9
9
9
9
9
9
9
9
9
9
9
9
9
9
9
9
9
9
9
9
9
9
9
9
9
9
9
9
9
9
9
9
9
9
9
9
9
9
9
9
9
9
9
9
9
9
9
9
9
9
9
9
9
9
9
9
9
9
9
9
9
9
9
9
9
9
9
9
9
9
9
9
9
9
9
9
9
9
9
9
9
9
9
9
9
9
9
9
9
9
9
9
9
9
9
9
9
9
9
9
9
9
9
9
9
9
9
9
9
9
9
9
9
9
9
9
9
9
9
9
9
9
9
9
9
9
9
9
9
9
9
9
9
9
9
9
9
9
9
9
9
9
9
9
9
9
9
9
9
9
9
9
9
9
9
9
9
9
9
9
9
9
9
9
9
9
9
9
9
9
9
9
9
9
9
9
9
9
9
9
9
9
9
9
9
9
9
9
9
9
9
9
9
9
9
9
9
9
9
9
9
9
9
9
9
9
9
9
9
9
9
9
9
9
9
9
9
9
9
9
9
9
9
9
9
9
9
9
9
9
9
9
9
9
9
9
9
9
9
9
9
9
9
9
9
9
9
9
9
9
9
9
9
9
9
9
9
9
9
9
9
9
9
9
9
9
9
9
9
9
9
9
9
9
9
9
9
9
9
9
9
9
9
9
9
9
9
9
9
9
9
9
9
9
9
9
9
9
9
9
9
9
9
9
9
9
9
9
9
9
9
9
9
9
9
9
9
9
9
9
9
9
9
9
9
9
9
9
9
9
9
9
9
9
9
9
9
9
9
9
9
9
9
9
9
9
9
9
9
9
9
9
9
9
9
9
9
9
9
9
9
9
9
9
9
9
9
9
9
9
9
9
9
9
9
9
9
9
9
9
9
9
9
9
9
9
9
9
9
9
9
9
9
9
9
9
9
9
9
9
9
9
9
9
9
9
9
9
9
9
9
9
9
9
9
9
9
9
9
9
9
9
9
9
9
9
9
9
9
9
9
9
9
9
9
9
9
9
9
9
9
9
9
9
9
9
9
9
9
9
9
9
9
9
9
9
9
9
9
9
9
9
9
9
9
9
9
9
9
9
9
9
9
9
9
9
9
9
9
9
9
9
9
9
9
9
9
9
9
9
9
9
9
9
9
9
9
9
9
9
9
9
9
9
9
9
9
9
9
9
9
9
9
9
9
9
9
9
9
9
9
9
9
9
9
9
9
9
9
9
9
9
9
9
9
9
9
9
9
9
9
9
9
9
9
9
9
9
9
9
9
9
9
9
9
9
9
9
9
9
9
9
9
9
9
9
9
9
9
9
9
9
9
9
9
9
9
9
9
9
9
9
9
9
9
9
9
9
9
9
9
9
9
9
9
9
9
9
9
9
9
9
9
9
9
9
9
9
9
9
9
9
9
9
9
9
9
9
9
9
9
9
9
9
9
9
9
9
9
9
9
9
9
9
9
9
9
9
9
9
9
9
9
9
9
9
9
9
9
9
9
9
9
9
9
9
9
9
9
9
9
9
9
9
9
9
9
9
9
9
9
9
9
9
9
9
9
9
9
9
9
9
9
9
9
9
9
9
9
9
9
9
9
9
9
9
9
9
9
9
9
9
9
9
9
9
9
9
9
9
9
9
9
9
9
9
9
9
9
9
9
9
9
9
9
9
9
9
9
9
9
9
9
9
9
9
9
9
9
9
9
9
9
9
9
9
9
9
9
9
9
9
9
9
9
9
9
9
9
9
9
9
9
9
9
9
9
9
9
9
9
9
9
9
9
9
9
9
9
9
9
9
9
9
9
9
9
9
9
9
9
9
9
9
9
9
9
9
9
9
9
9
9
9
9
9
9
9
9
9
9
9
9
9
9
9
9
9
9
9
9
9
9
9
9
9
9
9
9
9
9
9
9
9
9
9
9
9
9
9
9
9
9
9
9
9
9
9
9
9
9
9
9
9
9
9
9
9
9
9
9
9
9
9
9
9
9
9
9
9
9
9
9
9
9
9
9
9
9
9
9
9
9
9
9
9
9
9
9
9
9
9
9
9
9
9
9
9
9
9
9
9
9
9
9
9
9
9
9
9
9
9
9
9
9
9
9
9
9
9
9
9
9
9
9
9
9
9
9
9
9
9
9
9
9
9
9
9
9
9
9
9
9
9
9
9
9
9
9
9
9
9
9
9
9
9
9
9
9
9
9
9
9
9
9
9
9
9
9
9
9
9
9
9
9
9
9
9
9
9
9
9
9
9
9
9
9
9
9
9
9
9
9
9
9
9
9
9
9
9
9
9
9
9
9
9
9
9
9
9
9
9
9
9
9
9
9
9
9
9
9
9
9
9
9
9
9
9
9
9
9
9
9
9
9
9
9
9
9
9
9
9
9
9
9
9
9
9
9
9
9
9
9
9
9
9
9
9
9
9
9
9
9
9
9
9
9
9
9
9
9
9
9
9
9
9
9
9
9
9
9
9
9
9
9
9
9
9
9
9
9
9
9
9
9
9
9
9
9
9
9
9
9
9
9
9
9
9
9
9
9
9
9
9
9
9
9
9
9
9
9
9
9
9
9
9
9
9
9
9
9
9
9
9
9
9
9
9
9
9
9
9
9
9
9
9
9
9
9
9
9
9
9
9
9
9
9
9
9
9
9
9
9
9
9
9
9
9
9
9
9
9
9
9
9
9
9
9
9
9
9
9
9
9
9
9
9
9
9
9
9
9
9
9
9
9
9
9
9
9
9
9
9
9
9
9
9
9
9
9
9
9
9
9
9
9
9
9
9
9
9
9
9
9
9
9
9
9
9
9
9
9
9
9
9
9
9
9
9
9
9
9
9
9
9
9
9
9
9
9
9
9
9
9
9
9
9
9
9
9
9
9
9
9
9
9
9
9
9
9
9
9
9
9
9
9
9
9
9
9
9
9
9
9
9
9
9
9
9
9
9
9
9
9
9
9
9
9
9
9
9
9
9
9
9
9
9
9
9
9
9
9
9
9
9
9
9
9
9
9
9
9
9
9
9
9
9
9
9
9
9
9
9
9
9
9
9
9
9
9
9
9
9
9
9
9
9
9
9
9
9
9
9
9
9
9
9
9
9
9
9
9
9
9
9
9
9
9
9
9
9
9
9
9
9
9
9
9
9
9
9
9
9
9
9
9
9
9
9
9
9
9
9
9
9
9
9
9
9
9
9
9
9
9
9
9
9
9
9
9
9
9
9
9
9
9
9
9
9
9
9
9
9
9
9
9
9
9
9
9
9
9
9
9
9
9
9
9
9
9
9
9
9
9
9
9
9
9
9
9
9
9
9
9
9
9
9
9
9
9
9
9
9
9
9
9
9
9
9
9
9
9
9
9
9
9
9
9
9
9
9
9
9
9
9
9
9
9
9
9
9
9
9
9
9
9
9
9
9
9
9
9
9
9
9
9
9
9
9
9
9
9
9
9
9
9
9
9
9
9
9
9
9
9
9
9
9
9
9
9
9
9
9
9
9
9
9
9
9
9
9
9
9
9
9
9
9
9
9
9
9
9
9
9
9
9
9
9
9
9
9
9
9
9
9
9
9
9
9
9
9
9
9
9
9
9
9
9
9
9
9
9
9
9
9
9
9
9
9
9
9
9
9
9
9
9
9
9
9
9
9
9
9
9
9
9
9
9
9
9
9
9
9
9
9
9
9
9
9
9
9
9
9
9
9
9
9
9
9
9
9
9
9
9
9
9
9
9
9
9
9
9
9
9
9
9
9
9
9
9
9
9
9
9
9
9
9
9
9
9
9
9
9
9
9
9
9
9
9
9
9
9
9
9
9
9
9
9
9
9
9
9
9
9
9
9
9
9
9
9
9
9
9
9
9
9
9
9
9
9
9
9
9
9
9
9
9
9
9
9
9
9
9
9
9
9
9
9
9
9
9
9
9
9
9
9
9
9
9
9
9
9
9
9
9
9
9
9
9
9
9
9
9
9
9
9
9
9
9
9
9
9
9
9
9
9
9
9
9
9
9
9
9
9
9
9
9
9
9
9
9
9
9
9
9
9
9
9
9
9
9
9
9
9
9
9
9
9
9
9
9
9
9
9
9
9
9
9
9
9
9
9
9
9
9
9
9
9
9
9
9
9
9
9
9
9
9
9
9
9
9
9
9
9
9
9
9
9
9
9
9
9
9
9
9
9
9
9
9
9
9
9
9
9
9
9
9
9
9
9
9
9
9
9
9
9
9
9
9
9
9
9
9
9
9
9
9
9
9
9
9
9
9
9
9
9
9
9
9
9
9
9
9
9
9
9
9
9
9
9
9
9
9
9
9
9
9
9
9
9
9
9
9
9
9
9
9
9
9
9
9
9
9
9
9
9
9
9
9
9
9
9
9
9
9
9
9
9
9
9
9
9
9
9
9
9
9
9
9
9
9
9
9
9
9
9
9
9
9
9
9
9
9
9
9
9
9
9
9
9
9
9
9
9
9
9
9
9
9
9
9
9
9
9
9
9
9
9
9
9
9
9
9
9
9
9
9
9
9
9
9
9
9
9
9
9
9
9
9
9
9
9
9
9
9
9
9
9
9
9
9
9
9
9
9
9
9
9
9
9
9
9
9
9
9
9
9
9
9
9
9
9
9
9
9
9
9
9
9
9
9
9
9
9
9
9
9
9
9
9
9
9
9
9
9
9
9
9
9
9
9
9
9
9
9
9
9
9
9
9
9
9
9
9
9
9
9
9
9
9
9
9
9
9
9
9
9
9
9
9
9
9
9
9
9
9
9
9
9
9
9
9
9
9
9
9
9
9
9
9
9
9
9
9
9
9
9
9
9
9
9
9
9
9
9
9
9
9
9
9
9
9
9
9
9
9
9
9
9
9
9
9
9
9
9
9
9
9
9
9
9
9
9
9
9
9
9
9
9
9
9
9
9
9
9
9
9
9
9
9
9
9
9
9
9
9
9
9
9
9
9
9
9
9
9
9
9
9
9
9
9
9
9
9
9
9
9
9
9
9
9
9
9
9
9
9
9
9
9
9
9
9
9
9
9
9
9
9
9
9
9
9
9
9
9
9
9
9
9
9
9
9
9
9
9
9
9
9
9
9
9
9
9
9
9
9
9
9
9
9
9
9
9
9
9
9
9
9
9
9
9
9
9
9
9
9
9
9
9
9
9
9
9
9
9
9
9
9
9
9
9
9
9
9
9
9
9
9
9
9
9
9
9
9
9
9
9
9
9
9
9
9
9
9
9
9
9
9
9
9
9
9
9
9
9
9
9
9
9
9
9
9
9
9
9
9
9
9
9
9
9
9
9
9
9
9
9
9
9
9
9
9
9
9
9
9
9
9
9
9
9
9
9
9
9
9
9
9
9
9
9
9
9
9
9
9
9
9
9
9
9
9
9
9
9
9
9
9
9
9
9
9
9
9
9
9
9
9
9
9
9
9
9
9
9
9
9
9
9
9
9
9
9
9
9
9
9
9
9
9
9
9
9
9
9
9
9
9
9
9
9
9
9
9
9
9
9
9
9
9
9
9
9
9
9
9
9
9
9
9
9
9
9
9
9
9
9
9
9
9
9
9
9
9
9
9
9
9
9
9
9
9
9
9
9
9
9
9
9
9
9
9
9
9
9
9
9
9
9
9
9
9
9
9
9
9
9
9
9
9
9
9
9
9
9
9
9
9
9
9
9
9
9
9
9
9
9
9
9
9
9
9
9
9
9
9
9
9
9
9
9
9
9
9
9
9
9
9
9
9
9
9
9
9
9
9
9
9
9
9
9
9
9
9
9
9
9
9
9
9
9
9
9
9
9
9
9
9
9
9
9
9
9
9
9
9
9
9
9
9
9
9
9
9
9
9
9
9
9
9
9
9
9
9
9
9
9
9
9
9
9
9
9
9
9
9
9
9
9
9
9
9
9
9
9
9
9
9
9
9
9
9
9
9
9
9
9
9
9
9
9
9
9
9
9
9
9
9
9
9
9
9
9
9
9
9
9
9
9
9
9
9
9
9
9
9
9
9
9
9
9
9
9
9
9
9
9
9
9
9
9
9
9
9
9
9
9
9
9
9
9
9
9
9
9
9
9
9
9
9
9
9
9
9
9
9
9
9
9
9
9
9
9
9
9
9
9
9
9
9
9
9
9
9
9
9
9
9
9
9
9
9
9
9
9
9
9
9
9
9
9
9
9
9
9
9
9
9
9
9
9
9
9
9
9
9
9
9
9
9
9
9
9
9
9
9
9
9
9
9
9
9
9
9
9
9
9
9
9
9
9
9
9
9
9
9
9
9
9
9
9
9
9
9
9
9
9
9
9
9
9
9
9
9
9
9
9
9
9
9
9
9
9
9
9
9
9
9
9
9
9
9
9
9
9
9
9
9
9
9
9
9
9
9
9
9
9
9
9
9
9
9
9
9
9
9
9
9
9
9
9
9
9
9
9
9
9
9
9
9
9
9
9
9
9
9
9
9
9
9
9
9
9
9
9
9
9
9
9
9
9
9
9
9
9
9
9
9
9
9
9
9
9
9
9
9
9
9
9
9
9
9
9
9
9
9
9
9
9
9
9
9
9
9
9
9
9
9
9
9
9
9
9
9
9
9
9
9
9
9
9
9
9
9
9
9
9
9
9
9
9
9
9
9
9
9
9
9
9
9
9
9
9
9
9
9
9
9
9
9
9
9
9
9
9
9
9
9
9
9
9
9
9
9
9
9
9
9
9
9
9
9
9
9
9
9
9
9
9
9
9
9
9
9
9
9
9
9
9
9
9
9
9
9
9
9
9
9
9
9
9
9
9
9
9
9
9
9
9
9
9
9
9
9
9
9
9
9
9
9
9
9
9
9
9
9
9
9
9
9
9
9
9
9
9
9
9
9
9
9
9
9
9
9
9
9
9
9
9
9
9
9
9
9
9
9
9
9
9
9
9
9
9
9
9
9
9
9
9
9
9
9
9
9
9
9
9
9
9
9
9
9
9
9
9
9
9
9
9
9
9
9
9
9
9
9
9
9
9
9
9
9
9
9
9
9
9
9
9
9
9
POINT_DATA      5151
SCALARS p double 
LOOKUP_TABLE default
   70000000.0000000     
   70000000.0000000     
   70000000.0000000     
   70000000.0000000     
   70000000.0000000     
   70000000.0000000     
   70000000.0000000     
   70000000.0000000     
   70000000.0000000     
   70000000.0000000     
   70000000.0000000     
   70000000.0000000     
   70000000.0000000     
   70000000.0000000     
   70000000.0000000     
   70000000.0000000     
   70000000.0000000     
   70000000.0000000     
   70000000.0000000     
   70000000.0000000     
   70000000.0000000     
   70000000.0000000     
   70000000.0000000     
   70000000.0000000     
   70000000.0000000     
   70000000.0000000     
   70000000.0000000     
   70000000.0000000     
   70000000.0000000     
   70000000.0000000     
   70000000.0000000     
   70000000.0000000     
   70000000.0000000     
   70000000.0000000     
   70000000.0000000     
   70000000.0000000     
   70000000.0000000     
   70000000.0000000     
   70000000.0000000     
   70000000.0000000     
   70000000.0000000     
   70000000.0000000     
   70000000.0000000     
   70000000.0000000     
   70000000.0000000     
   70000000.0000000     
   70000000.0000000     
   70000000.0000000     
   70000000.0000000     
   70000000.0000000     
   70000000.0000000     
   62610521.6176298     
   62610521.6176298     
   62610521.6176298     
   62610521.6176298     
   62610521.6176298     
   62610521.6176298     
   62610521.6176298     
   62610521.6176298     
   62610521.6176298     
   62610521.6176298     
   62610521.6176298     
   62610521.6176298     
   62610521.6176298     
   62610521.6176297     
   62610521.6176297     
   62610521.6176297     
   62610521.6176297     
   62610521.6176297     
   62610521.6176298     
   62610521.6176298     
   62610521.6176297     
   62610521.6176298     
   62610521.6176298     
   62610521.6176298     
   62610521.6176298     
   62610521.6176298     
   62610521.6176298     
   62610521.6176298     
   62610521.6176298     
   62610521.6176298     
   62610521.6176298     
   62610521.6176298     
   62610521.6176298     
   62610521.6176298     
   62610521.6176299     
   62610521.6176299     
   62610521.6176299     
   62610521.6176299     
   62610521.6176299     
   62610521.6176298     
   62610521.6176299     
   62610521.6176299     
   62610521.6176299     
   62610521.6176299     
   62610521.6176298     
   62610521.6176298     
   62610521.6176298     
   62610521.6176298     
   62610521.6176298     
   62610521.6176298     
   62610521.6176298     
   56785201.1303435     
   56785201.1303436     
   56785201.1303436     
   56785201.1303436     
   56785201.1303436     
   56785201.1303435     
   56785201.1303435     
   56785201.1303435     
   56785201.1303435     
   56785201.1303435     
   56785201.1303434     
   56785201.1303434     
   56785201.1303434     
   56785201.1303435     
   56785201.1303435     
   56785201.1303435     
   56785201.1303435     
   56785201.1303435     
   56785201.1303435     
   56785201.1303435     
   56785201.1303436     
   56785201.1303436     
   56785201.1303435     
   56785201.1303435     
   56785201.1303434     
   56785201.1303434     
   56785201.1303434     
   56785201.1303434     
   56785201.1303434     
   56785201.1303434     
   56785201.1303434     
   56785201.1303435     
   56785201.1303435     
   56785201.1303436     
   56785201.1303435     
   56785201.1303435     
   56785201.1303435     
   56785201.1303435     
   56785201.1303436     
   56785201.1303436     
   56785201.1303436     
   56785201.1303436     
   56785201.1303436     
   56785201.1303436     
   56785201.1303435     
   56785201.1303435     
   56785201.1303435     
   56785201.1303435     
   56785201.1303435     
   56785201.1303435     
   56785201.1303434     
   53119546.8832760     
   53119546.8832759     
   53119546.8832759     
   53119546.8832759     
   53119546.8832759     
   53119546.8832759     
   53119546.8832759     
   53119546.8832758     
   53119546.8832758     
   53119546.8832758     
   53119546.8832759     
   53119546.8832760     
   53119546.8832760     
   53119546.8832760     
   53119546.8832760     
   53119546.8832760     
   53119546.8832760     
   53119546.8832760     
   53119546.8832761     
   53119546.8832761     
   53119546.8832761     
   53119546.8832761     
   53119546.8832761     
   53119546.8832760     
   53119546.8832760     
   53119546.8832760     
   53119546.8832760     
   53119546.8832761     
   53119546.8832761     
   53119546.8832761     
   53119546.8832762     
   53119546.8832761     
   53119546.8832762     
   53119546.8832761     
   53119546.8832762     
   53119546.8832762     
   53119546.8832761     
   53119546.8832761     
   53119546.8832760     
   53119546.8832760     
   53119546.8832760     
   53119546.8832759     
   53119546.8832759     
   53119546.8832759     
   53119546.8832759     
   53119546.8832759     
   53119546.8832759     
   53119546.8832760     
   53119546.8832760     
   53119546.8832760     
   53119546.8832760     
   51238982.1884729     
   51238982.1884729     
   51238982.1884729     
   51238982.1884729     
   51238982.1884729     
   51238982.1884729     
   51238982.1884729     
   51238982.1884730     
   51238982.1884730     
   51238982.1884730     
   51238982.1884730     
   51238982.1884730     
   51238982.1884730     
   51238982.1884731     
   51238982.1884731     
   51238982.1884732     
   51238982.1884732     
   51238982.1884732     
   51238982.1884732     
   51238982.1884732     
   51238982.1884732     
   51238982.1884732     
   51238982.1884732     
   51238982.1884732     
   51238982.1884732     
   51238982.1884732     
   51238982.1884733     
   51238982.1884733     
   51238982.1884732     
   51238982.1884732     
   51238982.1884732     
   51238982.1884732     
   51238982.1884732     
   51238982.1884733     
   51238982.1884732     
   51238982.1884732     
   51238982.1884732     
   51238982.1884732     
   51238982.1884732     
   51238982.1884732     
   51238982.1884732     
   51238982.1884732     
   51238982.1884732     
   51238982.1884732     
   51238982.1884732     
   51238982.1884731     
   51238982.1884731     
   51238982.1884731     
   51238982.1884731     
   51238982.1884731     
   51238982.1884731     
   50432075.7007074     
   50432075.7007074     
   50432075.7007074     
   50432075.7007074     
   50432075.7007074     
   50432075.7007075     
   50432075.7007075     
   50432075.7007075     
   50432075.7007075     
   50432075.7007074     
   50432075.7007075     
   50432075.7007075     
   50432075.7007075     
   50432075.7007075     
   50432075.7007075     
   50432075.7007076     
   50432075.7007076     
   50432075.7007076     
   50432075.7007076     
   50432075.7007077     
   50432075.7007077     
   50432075.7007077     
   50432075.7007077     
   50432075.7007077     
   50432075.7007077     
   50432075.7007077     
   50432075.7007077     
   50432075.7007077     
   50432075.7007077     
   50432075.7007077     
   50432075.7007077     
   50432075.7007078     
   50432075.7007077     
   50432075.7007077     
   50432075.7007077     
   50432075.7007077     
   50432075.7007077     
   50432075.7007077     
   50432075.7007077     
   50432075.7007077     
   50432075.7007077     
   50432075.7007077     
   50432075.7007076     
   50432075.7007076     
   50432075.7007075     
   50432075.7007075     
   50432075.7007075     
   50432075.7007074     
   50432075.7007074     
   50432075.7007074     
   50432075.7007074     
   50134710.7138432     
   50134710.7138432     
   50134710.7138432     
   50134710.7138432     
   50134710.7138433     
   50134710.7138433     
   50134710.7138433     
   50134710.7138432     
   50134710.7138432     
   50134710.7138432     
   50134710.7138432     
   50134710.7138432     
   50134710.7138432     
   50134710.7138432     
   50134710.7138433     
   50134710.7138433     
   50134710.7138433     
   50134710.7138433     
   50134710.7138434     
   50134710.7138434     
   50134710.7138434     
   50134710.7138433     
   50134710.7138433     
   50134710.7138433     
   50134710.7138433     
   50134710.7138433     
   50134710.7138434     
   50134710.7138434     
   50134710.7138434     
   50134710.7138434     
   50134710.7138434     
   50134710.7138434     
   50134710.7138434     
   50134710.7138434     
   50134710.7138435     
   50134710.7138434     
   50134710.7138434     
   50134710.7138434     
   50134710.7138434     
   50134710.7138434     
   50134710.7138433     
   50134710.7138433     
   50134710.7138433     
   50134710.7138433     
   50134710.7138432     
   50134710.7138432     
   50134710.7138432     
   50134710.7138432     
   50134710.7138431     
   50134710.7138431     
   50134710.7138431     
   50038200.8840643     
   50038200.8840643     
   50038200.8840643     
   50038200.8840643     
   50038200.8840643     
   50038200.8840643     
   50038200.8840642     
   50038200.8840642     
   50038200.8840642     
   50038200.8840641     
   50038200.8840641     
   50038200.8840641     
   50038200.8840641     
   50038200.8840641     
   50038200.8840642     
   50038200.8840642     
   50038200.8840642     
   50038200.8840643     
   50038200.8840643     
   50038200.8840642     
   50038200.8840642     
   50038200.8840642     
   50038200.8840642     
   50038200.8840642     
   50038200.8840642     
   50038200.8840642     
   50038200.8840643     
   50038200.8840644     
   50038200.8840645     
   50038200.8840645     
   50038200.8840645     
   50038200.8840645     
   50038200.8840644     
   50038200.8840643     
   50038200.8840643     
   50038200.8840643     
   50038200.8840643     
   50038200.8840643     
   50038200.8840643     
   50038200.8840643     
   50038200.8840643     
   50038200.8840643     
   50038200.8840643     
   50038200.8840643     
   50038200.8840642     
   50038200.8840642     
   50038200.8840641     
   50038200.8840641     
   50038200.8840641     
   50038200.8840640     
   50038200.8840640     
   50010003.3077601     
   50010003.3077601     
   50010003.3077601     
   50010003.3077601     
   50010003.3077601     
   50010003.3077601     
   50010003.3077600     
   50010003.3077600     
   50010003.3077600     
   50010003.3077599     
   50010003.3077599     
   50010003.3077599     
   50010003.3077599     
   50010003.3077599     
   50010003.3077598     
   50010003.3077598     
   50010003.3077598     
   50010003.3077599     
   50010003.3077599     
   50010003.3077598     
   50010003.3077598     
   50010003.3077598     
   50010003.3077598     
   50010003.3077598     
   50010003.3077599     
   50010003.3077599     
   50010003.3077599     
   50010003.3077600     
   50010003.3077600     
   50010003.3077601     
   50010003.3077600     
   50010003.3077600     
   50010003.3077600     
   50010003.3077600     
   50010003.3077600     
   50010003.3077600     
   50010003.3077600     
   50010003.3077600     
   50010003.3077600     
   50010003.3077600     
   50010003.3077600     
   50010003.3077600     
   50010003.3077600     
   50010003.3077599     
   50010003.3077599     
   50010003.3077598     
   50010003.3077598     
   50010003.3077598     
   50010003.3077597     
   50010003.3077597     
   50010003.3077597     
   50002449.7190999     
   50002449.7190999     
   50002449.7190999     
   50002449.7190999     
   50002449.7191000     
   50002449.7190999     
   50002449.7190999     
   50002449.7190999     
   50002449.7190998     
   50002449.7190998     
   50002449.7190997     
   50002449.7190997     
   50002449.7190997     
   50002449.7190996     
   50002449.7190996     
   50002449.7190996     
   50002449.7190996     
   50002449.7190996     
   50002449.7190996     
   50002449.7190996     
   50002449.7190996     
   50002449.7190996     
   50002449.7190995     
   50002449.7190995     
   50002449.7190995     
   50002449.7190996     
   50002449.7190996     
   50002449.7190996     
   50002449.7190996     
   50002449.7190997     
   50002449.7190997     
   50002449.7190997     
   50002449.7190997     
   50002449.7190997     
   50002449.7190997     
   50002449.7190997     
   50002449.7190997     
   50002449.7190996     
   50002449.7190996     
   50002449.7190997     
   50002449.7190997     
   50002449.7190997     
   50002449.7190997     
   50002449.7190996     
   50002449.7190996     
   50002449.7190995     
   50002449.7190995     
   50002449.7190995     
   50002449.7190995     
   50002449.7190995     
   50002449.7190995     
   50000566.8897263     
   50000566.8897263     
   50000566.8897263     
   50000566.8897263     
   50000566.8897263     
   50000566.8897263     
   50000566.8897263     
   50000566.8897262     
   50000566.8897262     
   50000566.8897261     
   50000566.8897260     
   50000566.8897260     
   50000566.8897260     
   50000566.8897260     
   50000566.8897260     
   50000566.8897259     
   50000566.8897259     
   50000566.8897259     
   50000566.8897260     
   50000566.8897260     
   50000566.8897260     
   50000566.8897259     
   50000566.8897259     
   50000566.8897258     
   50000566.8897258     
   50000566.8897258     
   50000566.8897259     
   50000566.8897259     
   50000566.8897260     
   50000566.8897260     
   50000566.8897260     
   50000566.8897260     
   50000566.8897260     
   50000566.8897259     
   50000566.8897259     
   50000566.8897259     
   50000566.8897259     
   50000566.8897259     
   50000566.8897258     
   50000566.8897258     
   50000566.8897258     
   50000566.8897258     
   50000566.8897258     
   50000566.8897257     
   50000566.8897257     
   50000566.8897257     
   50000566.8897257     
   50000566.8897257     
   50000566.8897257     
   50000566.8897257     
   50000566.8897257     
   50000125.0122028     
   50000125.0122028     
   50000125.0122028     
   50000125.0122029     
   50000125.0122029     
   50000125.0122029     
   50000125.0122029     
   50000125.0122028     
   50000125.0122028     
   50000125.0122027     
   50000125.0122026     
   50000125.0122026     
   50000125.0122025     
   50000125.0122025     
   50000125.0122025     
   50000125.0122025     
   50000125.0122025     
   50000125.0122025     
   50000125.0122025     
   50000125.0122025     
   50000125.0122025     
   50000125.0122025     
   50000125.0122024     
   50000125.0122024     
   50000125.0122024     
   50000125.0122024     
   50000125.0122024     
   50000125.0122024     
   50000125.0122024     
   50000125.0122024     
   50000125.0122024     
   50000125.0122024     
   50000125.0122024     
   50000125.0122024     
   50000125.0122024     
   50000125.0122024     
   50000125.0122024     
   50000125.0122024     
   50000125.0122024     
   50000125.0122024     
   50000125.0122024     
   50000125.0122023     
   50000125.0122023     
   50000125.0122022     
   50000125.0122022     
   50000125.0122022     
   50000125.0122021     
   50000125.0122021     
   50000125.0122021     
   50000125.0122021     
   50000125.0122021     
   50000026.4516850     
   50000026.4516850     
   50000026.4516850     
   50000026.4516850     
   50000026.4516850     
   50000026.4516850     
   50000026.4516849     
   50000026.4516849     
   50000026.4516848     
   50000026.4516848     
   50000026.4516847     
   50000026.4516846     
   50000026.4516846     
   50000026.4516846     
   50000026.4516846     
   50000026.4516846     
   50000026.4516846     
   50000026.4516846     
   50000026.4516846     
   50000026.4516846     
   50000026.4516846     
   50000026.4516846     
   50000026.4516846     
   50000026.4516845     
   50000026.4516845     
   50000026.4516845     
   50000026.4516845     
   50000026.4516845     
   50000026.4516845     
   50000026.4516846     
   50000026.4516846     
   50000026.4516845     
   50000026.4516845     
   50000026.4516845     
   50000026.4516845     
   50000026.4516846     
   50000026.4516845     
   50000026.4516845     
   50000026.4516845     
   50000026.4516845     
   50000026.4516844     
   50000026.4516844     
   50000026.4516843     
   50000026.4516843     
   50000026.4516842     
   50000026.4516842     
   50000026.4516842     
   50000026.4516842     
   50000026.4516842     
   50000026.4516842     
   50000026.4516842     
   50000005.4004538     
   50000005.4004538     
   50000005.4004538     
   50000005.4004539     
   50000005.4004539     
   50000005.4004539     
   50000005.4004538     
   50000005.4004537     
   50000005.4004537     
   50000005.4004536     
   50000005.4004536     
   50000005.4004536     
   50000005.4004536     
   50000005.4004535     
   50000005.4004535     
   50000005.4004535     
   50000005.4004535     
   50000005.4004535     
   50000005.4004536     
   50000005.4004536     
   50000005.4004535     
   50000005.4004535     
   50000005.4004535     
   50000005.4004535     
   50000005.4004534     
   50000005.4004534     
   50000005.4004534     
   50000005.4004534     
   50000005.4004534     
   50000005.4004534     
   50000005.4004534     
   50000005.4004534     
   50000005.4004534     
   50000005.4004534     
   50000005.4004534     
   50000005.4004534     
   50000005.4004534     
   50000005.4004534     
   50000005.4004533     
   50000005.4004533     
   50000005.4004533     
   50000005.4004532     
   50000005.4004532     
   50000005.4004531     
   50000005.4004531     
   50000005.4004531     
   50000005.4004530     
   50000005.4004530     
   50000005.4004530     
   50000005.4004530     
   50000005.4004530     
   50000001.0687574     
   50000001.0687574     
   50000001.0687574     
   50000001.0687574     
   50000001.0687574     
   50000001.0687574     
   50000001.0687574     
   50000001.0687573     
   50000001.0687572     
   50000001.0687572     
   50000001.0687571     
   50000001.0687571     
   50000001.0687571     
   50000001.0687571     
   50000001.0687571     
   50000001.0687571     
   50000001.0687571     
   50000001.0687571     
   50000001.0687572     
   50000001.0687572     
   50000001.0687572     
   50000001.0687571     
   50000001.0687571     
   50000001.0687570     
   50000001.0687570     
   50000001.0687570     
   50000001.0687570     
   50000001.0687570     
   50000001.0687570     
   50000001.0687570     
   50000001.0687570     
   50000001.0687569     
   50000001.0687569     
   50000001.0687569     
   50000001.0687569     
   50000001.0687569     
   50000001.0687569     
   50000001.0687569     
   50000001.0687569     
   50000001.0687569     
   50000001.0687569     
   50000001.0687568     
   50000001.0687568     
   50000001.0687567     
   50000001.0687566     
   50000001.0687566     
   50000001.0687566     
   50000001.0687566     
   50000001.0687566     
   50000001.0687566     
   50000001.0687566     
   50000000.2058037     
   50000000.2058037     
   50000000.2058037     
   50000000.2058037     
   50000000.2058037     
   50000000.2058037     
   50000000.2058036     
   50000000.2058035     
   50000000.2058035     
   50000000.2058034     
   50000000.2058033     
   50000000.2058033     
   50000000.2058033     
   50000000.2058033     
   50000000.2058033     
   50000000.2058033     
   50000000.2058033     
   50000000.2058033     
   50000000.2058034     
   50000000.2058034     
   50000000.2058034     
   50000000.2058034     
   50000000.2058033     
   50000000.2058033     
   50000000.2058033     
   50000000.2058032     
   50000000.2058032     
   50000000.2058032     
   50000000.2058033     
   50000000.2058032     
   50000000.2058032     
   50000000.2058032     
   50000000.2058032     
   50000000.2058032     
   50000000.2058032     
   50000000.2058032     
   50000000.2058032     
   50000000.2058032     
   50000000.2058032     
   50000000.2058032     
   50000000.2058031     
   50000000.2058031     
   50000000.2058030     
   50000000.2058030     
   50000000.2058029     
   50000000.2058029     
   50000000.2058028     
   50000000.2058028     
   50000000.2058028     
   50000000.2058028     
   50000000.2058028     
   50000000.0386842     
   50000000.0386842     
   50000000.0386842     
   50000000.0386842     
   50000000.0386842     
   50000000.0386841     
   50000000.0386841     
   50000000.0386840     
   50000000.0386840     
   50000000.0386839     
   50000000.0386839     
   50000000.0386838     
   50000000.0386838     
   50000000.0386838     
   50000000.0386838     
   50000000.0386838     
   50000000.0386838     
   50000000.0386838     
   50000000.0386839     
   50000000.0386840     
   50000000.0386840     
   50000000.0386839     
   50000000.0386839     
   50000000.0386839     
   50000000.0386838     
   50000000.0386838     
   50000000.0386838     
   50000000.0386838     
   50000000.0386838     
   50000000.0386838     
   50000000.0386838     
   50000000.0386837     
   50000000.0386837     
   50000000.0386837     
   50000000.0386837     
   50000000.0386837     
   50000000.0386837     
   50000000.0386837     
   50000000.0386836     
   50000000.0386836     
   50000000.0386836     
   50000000.0386835     
   50000000.0386835     
   50000000.0386834     
   50000000.0386834     
   50000000.0386833     
   50000000.0386833     
   50000000.0386833     
   50000000.0386833     
   50000000.0386832     
   50000000.0386833     
   50000000.0071168     
   50000000.0071169     
   50000000.0071169     
   50000000.0071169     
   50000000.0071169     
   50000000.0071168     
   50000000.0071168     
   50000000.0071167     
   50000000.0071167     
   50000000.0071166     
   50000000.0071166     
   50000000.0071166     
   50000000.0071165     
   50000000.0071165     
   50000000.0071165     
   50000000.0071165     
   50000000.0071165     
   50000000.0071165     
   50000000.0071166     
   50000000.0071166     
   50000000.0071166     
   50000000.0071165     
   50000000.0071165     
   50000000.0071165     
   50000000.0071164     
   50000000.0071164     
   50000000.0071164     
   50000000.0071164     
   50000000.0071165     
   50000000.0071165     
   50000000.0071165     
   50000000.0071164     
   50000000.0071165     
   50000000.0071165     
   50000000.0071165     
   50000000.0071165     
   50000000.0071164     
   50000000.0071164     
   50000000.0071164     
   50000000.0071163     
   50000000.0071163     
   50000000.0071162     
   50000000.0071161     
   50000000.0071160     
   50000000.0071160     
   50000000.0071159     
   50000000.0071159     
   50000000.0071159     
   50000000.0071158     
   50000000.0071158     
   50000000.0071158     
   50000000.0012845     
   50000000.0012845     
   50000000.0012845     
   50000000.0012845     
   50000000.0012845     
   50000000.0012844     
   50000000.0012843     
   50000000.0012843     
   50000000.0012842     
   50000000.0012842     
   50000000.0012842     
   50000000.0012842     
   50000000.0012842     
   50000000.0012842     
   50000000.0012842     
   50000000.0012842     
   50000000.0012842     
   50000000.0012842     
   50000000.0012842     
   50000000.0012842     
   50000000.0012842     
   50000000.0012842     
   50000000.0012842     
   50000000.0012841     
   50000000.0012841     
   50000000.0012841     
   50000000.0012841     
   50000000.0012841     
   50000000.0012841     
   50000000.0012841     
   50000000.0012841     
   50000000.0012841     
   50000000.0012841     
   50000000.0012841     
   50000000.0012841     
   50000000.0012841     
   50000000.0012841     
   50000000.0012841     
   50000000.0012840     
   50000000.0012840     
   50000000.0012839     
   50000000.0012839     
   50000000.0012838     
   50000000.0012837     
   50000000.0012837     
   50000000.0012836     
   50000000.0012835     
   50000000.0012835     
   50000000.0012835     
   50000000.0012835     
   50000000.0012835     
   50000000.0002279     
   50000000.0002279     
   50000000.0002280     
   50000000.0002280     
   50000000.0002280     
   50000000.0002280     
   50000000.0002279     
   50000000.0002279     
   50000000.0002278     
   50000000.0002277     
   50000000.0002277     
   50000000.0002276     
   50000000.0002276     
   50000000.0002276     
   50000000.0002277     
   50000000.0002277     
   50000000.0002277     
   50000000.0002278     
   50000000.0002278     
   50000000.0002278     
   50000000.0002278     
   50000000.0002277     
   50000000.0002277     
   50000000.0002277     
   50000000.0002276     
   50000000.0002276     
   50000000.0002276     
   50000000.0002275     
   50000000.0002275     
   50000000.0002275     
   50000000.0002275     
   50000000.0002275     
   50000000.0002275     
   50000000.0002275     
   50000000.0002275     
   50000000.0002275     
   50000000.0002274     
   50000000.0002275     
   50000000.0002274     
   50000000.0002274     
   50000000.0002273     
   50000000.0002273     
   50000000.0002273     
   50000000.0002272     
   50000000.0002271     
   50000000.0002270     
   50000000.0002270     
   50000000.0002270     
   50000000.0002270     
   50000000.0002270     
   50000000.0002270     
   50000000.0000399     
   50000000.0000399     
   50000000.0000399     
   50000000.0000399     
   50000000.0000399     
   50000000.0000400     
   50000000.0000399     
   50000000.0000399     
   50000000.0000398     
   50000000.0000398     
   50000000.0000397     
   50000000.0000397     
   50000000.0000397     
   50000000.0000396     
   50000000.0000397     
   50000000.0000397     
   50000000.0000397     
   50000000.0000397     
   50000000.0000398     
   50000000.0000398     
   50000000.0000398     
   50000000.0000397     
   50000000.0000397     
   50000000.0000396     
   50000000.0000396     
   50000000.0000395     
   50000000.0000395     
   50000000.0000395     
   50000000.0000395     
   50000000.0000395     
   50000000.0000395     
   50000000.0000395     
   50000000.0000395     
   50000000.0000394     
   50000000.0000394     
   50000000.0000394     
   50000000.0000394     
   50000000.0000394     
   50000000.0000394     
   50000000.0000394     
   50000000.0000393     
   50000000.0000393     
   50000000.0000392     
   50000000.0000392     
   50000000.0000391     
   50000000.0000390     
   50000000.0000390     
   50000000.0000389     
   50000000.0000389     
   50000000.0000389     
   50000000.0000389     
   50000000.0000070     
   50000000.0000070     
   50000000.0000070     
   50000000.0000070     
   50000000.0000070     
   50000000.0000070     
   50000000.0000070     
   50000000.0000069     
   50000000.0000069     
   50000000.0000069     
   50000000.0000068     
   50000000.0000068     
   50000000.0000068     
   50000000.0000067     
   50000000.0000067     
   50000000.0000067     
   50000000.0000068     
   50000000.0000068     
   50000000.0000068     
   50000000.0000068     
   50000000.0000068     
   50000000.0000068     
   50000000.0000068     
   50000000.0000067     
   50000000.0000066     
   50000000.0000066     
   50000000.0000066     
   50000000.0000066     
   50000000.0000066     
   50000000.0000066     
   50000000.0000066     
   50000000.0000066     
   50000000.0000066     
   50000000.0000066     
   50000000.0000066     
   50000000.0000066     
   50000000.0000065     
   50000000.0000065     
   50000000.0000065     
   50000000.0000065     
   50000000.0000064     
   50000000.0000064     
   50000000.0000063     
   50000000.0000063     
   50000000.0000062     
   50000000.0000062     
   50000000.0000061     
   50000000.0000061     
   50000000.0000060     
   50000000.0000060     
   50000000.0000060     
   50000000.0000012     
   50000000.0000013     
   50000000.0000013     
   50000000.0000013     
   50000000.0000013     
   50000000.0000012     
   50000000.0000012     
   50000000.0000011     
   50000000.0000011     
   50000000.0000011     
   50000000.0000011     
   50000000.0000010     
   50000000.0000010     
   50000000.0000010     
   50000000.0000010     
   50000000.0000010     
   50000000.0000010     
   50000000.0000010     
   50000000.0000011     
   50000000.0000011     
   50000000.0000011     
   50000000.0000011     
   50000000.0000011     
   50000000.0000010     
   50000000.0000010     
   50000000.0000010     
   50000000.0000010     
   50000000.0000010     
   50000000.0000010     
   50000000.0000010     
   50000000.0000010     
   50000000.0000009     
   50000000.0000009     
   50000000.0000009     
   50000000.0000009     
   50000000.0000009     
   50000000.0000009     
   50000000.0000009     
   50000000.0000008     
   50000000.0000008     
   50000000.0000008     
   50000000.0000007     
   50000000.0000007     
   50000000.0000006     
   50000000.0000006     
   50000000.0000005     
   50000000.0000004     
   50000000.0000004     
   50000000.0000004     
   50000000.0000004     
   50000000.0000004     
   50000000.0000003     
   50000000.0000003     
   50000000.0000003     
   50000000.0000003     
   50000000.0000003     
   50000000.0000003     
   50000000.0000003     
   50000000.0000002     
   50000000.0000002     
   50000000.0000001     
   50000000.0000001     
   50000000.0000000     
   50000000.0000000     
   50000000.0000000     
   50000000.0000000     
   50000000.0000000     
   50000000.0000000     
   50000000.0000001     
   50000000.0000001     
   50000000.0000001     
   50000000.0000001     
   50000000.0000001     
   50000000.0000001     
   50000000.0000000     
   50000000.0000000     
   50000000.0000000     
   50000000.0000000     
   50000000.0000000     
   50000000.0000000     
   50000000.0000000     
   50000000.0000000     
   50000000.0000000     
   50000000.0000000     
   50000000.0000001     
   50000000.0000000     
   50000000.0000001     
   50000000.0000000     
   50000000.0000000     
   50000000.0000000     
   49999999.9999999     
   49999999.9999999     
   49999999.9999999     
   49999999.9999998     
   49999999.9999997     
   49999999.9999996     
   49999999.9999996     
   49999999.9999995     
   49999999.9999995     
   49999999.9999995     
   49999999.9999995     
   49999999.9999995     
   50000000.0000003     
   50000000.0000003     
   50000000.0000003     
   50000000.0000003     
   50000000.0000003     
   50000000.0000002     
   50000000.0000002     
   50000000.0000001     
   50000000.0000001     
   50000000.0000000     
   49999999.9999999     
   49999999.9999999     
   49999999.9999999     
   49999999.9999998     
   49999999.9999999     
   49999999.9999999     
   49999999.9999999     
   49999999.9999999     
   49999999.9999999     
   50000000.0000000     
   49999999.9999999     
   49999999.9999999     
   49999999.9999999     
   49999999.9999999     
   49999999.9999999     
   49999999.9999999     
   49999999.9999998     
   49999999.9999998     
   49999999.9999999     
   49999999.9999999     
   49999999.9999999     
   49999999.9999999     
   49999999.9999999     
   49999999.9999999     
   49999999.9999999     
   49999999.9999999     
   49999999.9999999     
   49999999.9999999     
   49999999.9999999     
   49999999.9999999     
   49999999.9999998     
   49999999.9999997     
   49999999.9999997     
   49999999.9999996     
   49999999.9999995     
   49999999.9999995     
   49999999.9999994     
   49999999.9999994     
   49999999.9999994     
   49999999.9999994     
   49999999.9999994     
   50000000.0000003     
   50000000.0000003     
   50000000.0000003     
   50000000.0000003     
   50000000.0000003     
   50000000.0000003     
   50000000.0000002     
   50000000.0000002     
   50000000.0000001     
   50000000.0000000     
   49999999.9999999     
   49999999.9999999     
   49999999.9999999     
   49999999.9999998     
   49999999.9999998     
   49999999.9999998     
   49999999.9999999     
   49999999.9999999     
   49999999.9999999     
   49999999.9999999     
   49999999.9999999     
   49999999.9999999     
   49999999.9999999     
   49999999.9999998     
   49999999.9999998     
   49999999.9999998     
   49999999.9999998     
   49999999.9999998     
   49999999.9999999     
   49999999.9999999     
   49999999.9999999     
   49999999.9999999     
   49999999.9999999     
   49999999.9999999     
   49999999.9999999     
   49999999.9999999     
   49999999.9999999     
   49999999.9999999     
   49999999.9999999     
   49999999.9999998     
   49999999.9999998     
   49999999.9999997     
   49999999.9999997     
   49999999.9999996     
   49999999.9999996     
   49999999.9999995     
   49999999.9999995     
   49999999.9999994     
   49999999.9999994     
   49999999.9999994     
   49999999.9999994     
   50000000.0000004     
   50000000.0000004     
   50000000.0000004     
   50000000.0000003     
   50000000.0000003     
   50000000.0000003     
   50000000.0000002     
   50000000.0000001     
   50000000.0000001     
   50000000.0000000     
   50000000.0000000     
   49999999.9999999     
   49999999.9999999     
   49999999.9999999     
   49999999.9999998     
   49999999.9999998     
   49999999.9999998     
   49999999.9999998     
   49999999.9999999     
   49999999.9999999     
   49999999.9999999     
   49999999.9999998     
   49999999.9999998     
   49999999.9999998     
   49999999.9999998     
   49999999.9999998     
   49999999.9999998     
   49999999.9999997     
   49999999.9999998     
   49999999.9999998     
   49999999.9999997     
   49999999.9999997     
   49999999.9999997     
   49999999.9999998     
   49999999.9999998     
   49999999.9999998     
   49999999.9999998     
   49999999.9999998     
   49999999.9999998     
   49999999.9999998     
   49999999.9999998     
   49999999.9999997     
   49999999.9999997     
   49999999.9999996     
   49999999.9999995     
   49999999.9999995     
   49999999.9999994     
   49999999.9999994     
   49999999.9999994     
   49999999.9999994     
   49999999.9999994     
   50000000.0000004     
   50000000.0000004     
   50000000.0000004     
   50000000.0000004     
   50000000.0000003     
   50000000.0000003     
   50000000.0000002     
   50000000.0000001     
   50000000.0000001     
   50000000.0000000     
   49999999.9999999     
   49999999.9999999     
   49999999.9999999     
   49999999.9999998     
   49999999.9999998     
   49999999.9999998     
   49999999.9999998     
   49999999.9999998     
   49999999.9999998     
   49999999.9999998     
   49999999.9999998     
   49999999.9999998     
   49999999.9999997     
   49999999.9999997     
   49999999.9999997     
   49999999.9999997     
   49999999.9999997     
   49999999.9999997     
   49999999.9999997     
   49999999.9999998     
   49999999.9999997     
   49999999.9999997     
   49999999.9999997     
   49999999.9999998     
   49999999.9999998     
   49999999.9999998     
   49999999.9999998     
   49999999.9999998     
   49999999.9999998     
   49999999.9999997     
   49999999.9999997     
   49999999.9999996     
   49999999.9999996     
   49999999.9999995     
   49999999.9999994     
   49999999.9999994     
   49999999.9999994     
   49999999.9999994     
   49999999.9999993     
   49999999.9999993     
   49999999.9999993     
   50000000.0000003     
   50000000.0000003     
   50000000.0000003     
   50000000.0000003     
   50000000.0000003     
   50000000.0000002     
   50000000.0000002     
   50000000.0000001     
   50000000.0000000     
   49999999.9999999     
   49999999.9999999     
   49999999.9999999     
   49999999.9999999     
   49999999.9999998     
   49999999.9999998     
   49999999.9999998     
   49999999.9999998     
   49999999.9999999     
   49999999.9999999     
   49999999.9999999     
   49999999.9999999     
   49999999.9999998     
   49999999.9999998     
   49999999.9999997     
   49999999.9999997     
   49999999.9999997     
   49999999.9999996     
   49999999.9999996     
   49999999.9999997     
   49999999.9999997     
   49999999.9999997     
   49999999.9999998     
   49999999.9999998     
   49999999.9999998     
   49999999.9999998     
   49999999.9999998     
   49999999.9999998     
   49999999.9999998     
   49999999.9999998     
   49999999.9999997     
   49999999.9999996     
   49999999.9999996     
   49999999.9999995     
   49999999.9999995     
   49999999.9999994     
   49999999.9999993     
   49999999.9999994     
   49999999.9999993     
   49999999.9999993     
   49999999.9999993     
   49999999.9999993     
   50000000.0000001     
   50000000.0000001     
   50000000.0000001     
   50000000.0000002     
   50000000.0000002     
   50000000.0000002     
   50000000.0000001     
   50000000.0000001     
   50000000.0000000     
   50000000.0000000     
   49999999.9999999     
   49999999.9999999     
   49999999.9999999     
   49999999.9999999     
   49999999.9999999     
   49999999.9999999     
   49999999.9999999     
   49999999.9999999     
   49999999.9999999     
   49999999.9999999     
   49999999.9999999     
   49999999.9999999     
   49999999.9999998     
   49999999.9999998     
   49999999.9999998     
   49999999.9999998     
   49999999.9999998     
   49999999.9999998     
   49999999.9999998     
   49999999.9999998     
   49999999.9999998     
   49999999.9999998     
   49999999.9999998     
   49999999.9999998     
   49999999.9999998     
   49999999.9999998     
   49999999.9999998     
   49999999.9999998     
   49999999.9999998     
   49999999.9999997     
   49999999.9999997     
   49999999.9999996     
   49999999.9999996     
   49999999.9999995     
   49999999.9999995     
   49999999.9999994     
   49999999.9999993     
   49999999.9999993     
   49999999.9999993     
   49999999.9999993     
   49999999.9999993     
   50000000.0000002     
   50000000.0000002     
   50000000.0000002     
   50000000.0000002     
   50000000.0000002     
   50000000.0000002     
   50000000.0000001     
   50000000.0000001     
   50000000.0000000     
   50000000.0000000     
   49999999.9999999     
   49999999.9999999     
   49999999.9999999     
   49999999.9999998     
   49999999.9999998     
   49999999.9999998     
   49999999.9999998     
   49999999.9999998     
   49999999.9999999     
   49999999.9999999     
   49999999.9999999     
   49999999.9999998     
   49999999.9999998     
   49999999.9999998     
   49999999.9999998     
   49999999.9999997     
   49999999.9999997     
   49999999.9999997     
   49999999.9999998     
   49999999.9999998     
   49999999.9999997     
   49999999.9999997     
   49999999.9999998     
   49999999.9999998     
   49999999.9999998     
   49999999.9999998     
   49999999.9999998     
   49999999.9999998     
   49999999.9999998     
   49999999.9999997     
   49999999.9999997     
   49999999.9999997     
   49999999.9999997     
   49999999.9999996     
   49999999.9999995     
   49999999.9999994     
   49999999.9999994     
   49999999.9999993     
   49999999.9999993     
   49999999.9999993     
   49999999.9999993     
   50000000.0000002     
   50000000.0000002     
   50000000.0000002     
   50000000.0000002     
   50000000.0000002     
   50000000.0000002     
   50000000.0000001     
   50000000.0000000     
   50000000.0000000     
   49999999.9999999     
   49999999.9999999     
   49999999.9999998     
   49999999.9999998     
   49999999.9999998     
   49999999.9999999     
   49999999.9999998     
   49999999.9999999     
   49999999.9999999     
   49999999.9999999     
   49999999.9999999     
   49999999.9999999     
   49999999.9999999     
   49999999.9999998     
   49999999.9999998     
   49999999.9999997     
   49999999.9999997     
   49999999.9999997     
   49999999.9999997     
   49999999.9999998     
   49999999.9999998     
   49999999.9999998     
   49999999.9999998     
   49999999.9999998     
   49999999.9999998     
   49999999.9999999     
   49999999.9999998     
   49999999.9999998     
   49999999.9999998     
   49999999.9999997     
   49999999.9999997     
   49999999.9999996     
   49999999.9999996     
   49999999.9999996     
   49999999.9999995     
   49999999.9999995     
   49999999.9999994     
   49999999.9999994     
   49999999.9999994     
   49999999.9999993     
   49999999.9999993     
   49999999.9999993     
   50000000.0000003     
   50000000.0000003     
   50000000.0000003     
   50000000.0000003     
   50000000.0000003     
   50000000.0000002     
   50000000.0000001     
   50000000.0000001     
   50000000.0000000     
   50000000.0000000     
   49999999.9999999     
   49999999.9999999     
   49999999.9999999     
   49999999.9999999     
   49999999.9999999     
   49999999.9999999     
   49999999.9999999     
   49999999.9999999     
   49999999.9999999     
   49999999.9999999     
   49999999.9999999     
   49999999.9999998     
   49999999.9999998     
   49999999.9999998     
   49999999.9999998     
   49999999.9999997     
   49999999.9999997     
   49999999.9999997     
   49999999.9999998     
   49999999.9999998     
   49999999.9999998     
   49999999.9999999     
   49999999.9999999     
   49999999.9999999     
   49999999.9999999     
   49999999.9999999     
   49999999.9999999     
   49999999.9999999     
   49999999.9999999     
   49999999.9999999     
   49999999.9999998     
   49999999.9999997     
   49999999.9999997     
   49999999.9999996     
   49999999.9999996     
   49999999.9999995     
   49999999.9999994     
   49999999.9999994     
   49999999.9999993     
   49999999.9999993     
   49999999.9999993     
   50000000.0000003     
   50000000.0000003     
   50000000.0000003     
   50000000.0000003     
   50000000.0000003     
   50000000.0000002     
   50000000.0000002     
   50000000.0000001     
   50000000.0000000     
   50000000.0000000     
   49999999.9999999     
   49999999.9999999     
   49999999.9999999     
   49999999.9999999     
   49999999.9999999     
   49999999.9999998     
   49999999.9999998     
   49999999.9999999     
   49999999.9999999     
   49999999.9999999     
   49999999.9999999     
   49999999.9999999     
   49999999.9999999     
   49999999.9999998     
   49999999.9999998     
   49999999.9999998     
   49999999.9999998     
   49999999.9999998     
   49999999.9999998     
   49999999.9999999     
   49999999.9999998     
   49999999.9999998     
   49999999.9999999     
   49999999.9999999     
   49999999.9999999     
   49999999.9999999     
   49999999.9999999     
   49999999.9999999     
   49999999.9999999     
   49999999.9999999     
   49999999.9999999     
   49999999.9999998     
   49999999.9999997     
   49999999.9999997     
   49999999.9999996     
   49999999.9999995     
   49999999.9999995     
   49999999.9999994     
   49999999.9999994     
   49999999.9999994     
   49999999.9999994     
   50000000.0000002     
   50000000.0000002     
   50000000.0000002     
   50000000.0000003     
   50000000.0000003     
   50000000.0000002     
   50000000.0000002     
   50000000.0000001     
   50000000.0000001     
   50000000.0000000     
   50000000.0000000     
   49999999.9999999     
   49999999.9999999     
   49999999.9999999     
   49999999.9999999     
   49999999.9999999     
   49999999.9999999     
   49999999.9999999     
   49999999.9999999     
   49999999.9999999     
   49999999.9999999     
   49999999.9999999     
   49999999.9999999     
   49999999.9999998     
   49999999.9999998     
   49999999.9999998     
   49999999.9999998     
   49999999.9999998     
   49999999.9999999     
   49999999.9999999     
   49999999.9999999     
   49999999.9999998     
   49999999.9999999     
   49999999.9999999     
   49999999.9999999     
   49999999.9999999     
   49999999.9999999     
   49999999.9999999     
   49999999.9999999     
   49999999.9999998     
   49999999.9999998     
   49999999.9999997     
   49999999.9999997     
   49999999.9999997     
   49999999.9999996     
   49999999.9999995     
   49999999.9999994     
   49999999.9999994     
   49999999.9999994     
   49999999.9999994     
   49999999.9999994     
   50000000.0000002     
   50000000.0000002     
   50000000.0000002     
   50000000.0000002     
   50000000.0000002     
   50000000.0000001     
   50000000.0000001     
   50000000.0000001     
   50000000.0000000     
   49999999.9999999     
   49999999.9999999     
   49999999.9999999     
   49999999.9999999     
   49999999.9999999     
   49999999.9999999     
   49999999.9999999     
   49999999.9999999     
   49999999.9999999     
   49999999.9999999     
   50000000.0000000     
   49999999.9999999     
   49999999.9999999     
   49999999.9999999     
   49999999.9999998     
   49999999.9999998     
   49999999.9999998     
   49999999.9999998     
   49999999.9999998     
   49999999.9999998     
   49999999.9999999     
   49999999.9999999     
   49999999.9999998     
   49999999.9999999     
   49999999.9999999     
   49999999.9999999     
   49999999.9999999     
   49999999.9999999     
   49999999.9999999     
   49999999.9999999     
   49999999.9999999     
   49999999.9999998     
   49999999.9999998     
   49999999.9999997     
   49999999.9999996     
   49999999.9999996     
   49999999.9999995     
   49999999.9999994     
   49999999.9999994     
   49999999.9999994     
   49999999.9999994     
   49999999.9999994     
   50000000.0000000     
   50000000.0000000     
   50000000.0000000     
   50000000.0000000     
   50000000.0000000     
   50000000.0000000     
   50000000.0000000     
   50000000.0000000     
   50000000.0000000     
   49999999.9999999     
   49999999.9999999     
   49999999.9999999     
   49999999.9999999     
   49999999.9999999     
   49999999.9999999     
   49999999.9999999     
   49999999.9999999     
   49999999.9999999     
   50000000.0000000     
   50000000.0000000     
   50000000.0000000     
   49999999.9999999     
   49999999.9999999     
   49999999.9999999     
   49999999.9999998     
   49999999.9999998     
   49999999.9999998     
   49999999.9999998     
   49999999.9999998     
   49999999.9999998     
   49999999.9999998     
   49999999.9999998     
   49999999.9999998     
   49999999.9999999     
   49999999.9999999     
   49999999.9999999     
   49999999.9999999     
   49999999.9999999     
   49999999.9999999     
   49999999.9999998     
   49999999.9999998     
   49999999.9999997     
   49999999.9999997     
   49999999.9999996     
   49999999.9999995     
   49999999.9999995     
   49999999.9999994     
   49999999.9999994     
   49999999.9999994     
   49999999.9999994     
   49999999.9999994     
   49999999.9999999     
   49999999.9999999     
   50000000.0000000     
   50000000.0000000     
   50000000.0000000     
   50000000.0000000     
   50000000.0000000     
   49999999.9999999     
   49999999.9999999     
   49999999.9999999     
   49999999.9999998     
   49999999.9999998     
   49999999.9999998     
   49999999.9999998     
   49999999.9999998     
   49999999.9999998     
   49999999.9999999     
   49999999.9999999     
   49999999.9999999     
   49999999.9999999     
   49999999.9999999     
   49999999.9999999     
   49999999.9999999     
   49999999.9999999     
   49999999.9999998     
   49999999.9999998     
   49999999.9999998     
   49999999.9999998     
   49999999.9999999     
   49999999.9999999     
   49999999.9999999     
   49999999.9999999     
   49999999.9999999     
   49999999.9999999     
   49999999.9999999     
   49999999.9999999     
   49999999.9999999     
   49999999.9999999     
   49999999.9999999     
   49999999.9999999     
   49999999.9999998     
   49999999.9999997     
   49999999.9999997     
   49999999.9999996     
   49999999.9999995     
   49999999.9999995     
   49999999.9999994     
   49999999.9999994     
   49999999.9999994     
   49999999.9999994     
   49999999.9999994     
   50000000.0000001     
   50000000.0000001     
   50000000.0000001     
   50000000.0000001     
   50000000.0000001     
   50000000.0000001     
   50000000.0000000     
   50000000.0000000     
   49999999.9999999     
   49999999.9999999     
   49999999.9999999     
   49999999.9999999     
   49999999.9999998     
   49999999.9999998     
   49999999.9999998     
   49999999.9999998     
   49999999.9999999     
   49999999.9999999     
   49999999.9999999     
   50000000.0000000     
   50000000.0000000     
   49999999.9999999     
   49999999.9999999     
   49999999.9999998     
   49999999.9999998     
   49999999.9999998     
   49999999.9999998     
   49999999.9999998     
   49999999.9999998     
   49999999.9999998     
   49999999.9999998     
   49999999.9999998     
   49999999.9999999     
   49999999.9999999     
   49999999.9999999     
   49999999.9999999     
   49999999.9999999     
   49999999.9999999     
   49999999.9999999     
   49999999.9999999     
   49999999.9999998     
   49999999.9999997     
   49999999.9999997     
   49999999.9999996     
   49999999.9999996     
   49999999.9999995     
   49999999.9999994     
   49999999.9999994     
   49999999.9999994     
   49999999.9999994     
   49999999.9999994     
   50000000.0000002     
   50000000.0000002     
   50000000.0000002     
   50000000.0000002     
   50000000.0000002     
   50000000.0000002     
   50000000.0000001     
   50000000.0000001     
   50000000.0000000     
   50000000.0000000     
   49999999.9999999     
   49999999.9999999     
   49999999.9999999     
   49999999.9999998     
   49999999.9999998     
   49999999.9999998     
   49999999.9999999     
   49999999.9999999     
   49999999.9999999     
   50000000.0000000     
   50000000.0000000     
   50000000.0000000     
   50000000.0000000     
   49999999.9999999     
   49999999.9999999     
   49999999.9999999     
   49999999.9999999     
   49999999.9999998     
   49999999.9999999     
   49999999.9999999     
   49999999.9999999     
   49999999.9999999     
   49999999.9999999     
   50000000.0000000     
   50000000.0000000     
   50000000.0000000     
   50000000.0000000     
   49999999.9999999     
   49999999.9999999     
   49999999.9999999     
   49999999.9999998     
   49999999.9999997     
   49999999.9999997     
   49999999.9999996     
   49999999.9999995     
   49999999.9999995     
   49999999.9999995     
   49999999.9999994     
   49999999.9999994     
   49999999.9999995     
   49999999.9999995     
   50000000.0000003     
   50000000.0000003     
   50000000.0000003     
   50000000.0000002     
   50000000.0000002     
   50000000.0000002     
   50000000.0000002     
   50000000.0000001     
   50000000.0000000     
   50000000.0000000     
   49999999.9999999     
   49999999.9999999     
   49999999.9999998     
   49999999.9999998     
   49999999.9999998     
   49999999.9999998     
   49999999.9999998     
   49999999.9999999     
   49999999.9999999     
   49999999.9999999     
   49999999.9999999     
   49999999.9999999     
   49999999.9999999     
   49999999.9999998     
   49999999.9999998     
   49999999.9999998     
   49999999.9999998     
   49999999.9999998     
   49999999.9999999     
   49999999.9999999     
   49999999.9999999     
   49999999.9999999     
   50000000.0000000     
   50000000.0000000     
   50000000.0000000     
   50000000.0000000     
   49999999.9999999     
   49999999.9999999     
   49999999.9999999     
   49999999.9999998     
   49999999.9999998     
   49999999.9999997     
   49999999.9999997     
   49999999.9999996     
   49999999.9999995     
   49999999.9999995     
   49999999.9999995     
   49999999.9999995     
   49999999.9999994     
   49999999.9999994     
   49999999.9999994     
   50000000.0000002     
   50000000.0000002     
   50000000.0000002     
   50000000.0000002     
   50000000.0000003     
   50000000.0000002     
   50000000.0000001     
   50000000.0000000     
   50000000.0000000     
   49999999.9999999     
   49999999.9999999     
   49999999.9999999     
   49999999.9999999     
   49999999.9999999     
   49999999.9999999     
   49999999.9999999     
   49999999.9999999     
   49999999.9999999     
   50000000.0000000     
   50000000.0000000     
   49999999.9999999     
   49999999.9999999     
   49999999.9999999     
   49999999.9999998     
   49999999.9999998     
   49999999.9999998     
   49999999.9999998     
   49999999.9999998     
   49999999.9999999     
   49999999.9999999     
   49999999.9999999     
   49999999.9999999     
   49999999.9999999     
   49999999.9999999     
   49999999.9999999     
   49999999.9999999     
   49999999.9999999     
   49999999.9999999     
   49999999.9999999     
   49999999.9999999     
   49999999.9999999     
   49999999.9999998     
   49999999.9999997     
   49999999.9999997     
   49999999.9999996     
   49999999.9999995     
   49999999.9999994     
   49999999.9999994     
   49999999.9999994     
   49999999.9999994     
   49999999.9999994     
   50000000.0000002     
   50000000.0000002     
   50000000.0000002     
   50000000.0000002     
   50000000.0000002     
   50000000.0000002     
   50000000.0000001     
   50000000.0000001     
   50000000.0000000     
   49999999.9999999     
   49999999.9999999     
   49999999.9999999     
   49999999.9999999     
   49999999.9999998     
   49999999.9999999     
   49999999.9999999     
   49999999.9999999     
   49999999.9999999     
   50000000.0000000     
   50000000.0000000     
   50000000.0000000     
   50000000.0000000     
   49999999.9999999     
   49999999.9999999     
   49999999.9999998     
   49999999.9999998     
   49999999.9999998     
   49999999.9999998     
   49999999.9999999     
   49999999.9999999     
   49999999.9999999     
   49999999.9999999     
   49999999.9999999     
   49999999.9999999     
   50000000.0000000     
   50000000.0000000     
   50000000.0000000     
   49999999.9999999     
   49999999.9999999     
   49999999.9999999     
   49999999.9999999     
   49999999.9999998     
   49999999.9999998     
   49999999.9999996     
   49999999.9999996     
   49999999.9999995     
   49999999.9999994     
   49999999.9999994     
   49999999.9999994     
   49999999.9999994     
   49999999.9999994     
   50000000.0000002     
   50000000.0000002     
   50000000.0000002     
   50000000.0000003     
   50000000.0000003     
   50000000.0000002     
   50000000.0000002     
   50000000.0000001     
   50000000.0000001     
   50000000.0000000     
   50000000.0000000     
   50000000.0000000     
   50000000.0000000     
   49999999.9999999     
   49999999.9999999     
   49999999.9999999     
   50000000.0000000     
   50000000.0000000     
   50000000.0000000     
   50000000.0000000     
   50000000.0000000     
   50000000.0000000     
   50000000.0000000     
   49999999.9999999     
   49999999.9999999     
   49999999.9999999     
   49999999.9999999     
   49999999.9999999     
   49999999.9999999     
   50000000.0000000     
   50000000.0000000     
   50000000.0000000     
   50000000.0000000     
   50000000.0000000     
   50000000.0000000     
   50000000.0000000     
   50000000.0000000     
   50000000.0000000     
   50000000.0000000     
   49999999.9999999     
   49999999.9999999     
   49999999.9999999     
   49999999.9999998     
   49999999.9999997     
   49999999.9999997     
   49999999.9999996     
   49999999.9999996     
   49999999.9999995     
   49999999.9999995     
   49999999.9999995     
   49999999.9999995     
   50000000.0000002     
   50000000.0000002     
   50000000.0000003     
   50000000.0000003     
   50000000.0000002     
   50000000.0000002     
   50000000.0000002     
   50000000.0000002     
   50000000.0000001     
   50000000.0000001     
   50000000.0000001     
   50000000.0000000     
   50000000.0000000     
   50000000.0000000     
   50000000.0000000     
   50000000.0000000     
   50000000.0000000     
   50000000.0000000     
   50000000.0000001     
   50000000.0000001     
   50000000.0000001     
   50000000.0000000     
   50000000.0000000     
   49999999.9999999     
   49999999.9999999     
   49999999.9999999     
   49999999.9999999     
   50000000.0000000     
   50000000.0000000     
   50000000.0000000     
   50000000.0000000     
   50000000.0000000     
   50000000.0000000     
   50000000.0000000     
   50000000.0000000     
   50000000.0000000     
   50000000.0000000     
   50000000.0000000     
   50000000.0000000     
   49999999.9999999     
   49999999.9999999     
   49999999.9999998     
   49999999.9999997     
   49999999.9999997     
   49999999.9999996     
   49999999.9999996     
   49999999.9999995     
   49999999.9999995     
   49999999.9999995     
   49999999.9999995     
   49999999.9999995     
   50000000.0000002     
   50000000.0000002     
   50000000.0000003     
   50000000.0000003     
   50000000.0000003     
   50000000.0000003     
   50000000.0000003     
   50000000.0000002     
   50000000.0000002     
   50000000.0000001     
   50000000.0000001     
   50000000.0000000     
   50000000.0000000     
   50000000.0000000     
   50000000.0000001     
   50000000.0000001     
   50000000.0000001     
   50000000.0000001     
   50000000.0000001     
   50000000.0000001     
   50000000.0000001     
   50000000.0000001     
   50000000.0000000     
   50000000.0000000     
   49999999.9999999     
   49999999.9999999     
   49999999.9999999     
   49999999.9999999     
   49999999.9999999     
   49999999.9999999     
   49999999.9999999     
   49999999.9999999     
   49999999.9999999     
   49999999.9999999     
   49999999.9999999     
   49999999.9999999     
   49999999.9999999     
   49999999.9999999     
   49999999.9999999     
   49999999.9999998     
   49999999.9999998     
   49999999.9999998     
   49999999.9999998     
   49999999.9999997     
   49999999.9999996     
   49999999.9999995     
   49999999.9999995     
   49999999.9999994     
   49999999.9999994     
   49999999.9999994     
   49999999.9999994     
   50000000.0000003     
   50000000.0000003     
   50000000.0000003     
   50000000.0000003     
   50000000.0000003     
   50000000.0000003     
   50000000.0000002     
   50000000.0000002     
   50000000.0000001     
   50000000.0000001     
   50000000.0000001     
   50000000.0000000     
   50000000.0000000     
   50000000.0000000     
   50000000.0000000     
   50000000.0000000     
   50000000.0000001     
   50000000.0000000     
   50000000.0000001     
   50000000.0000001     
   50000000.0000000     
   50000000.0000000     
   49999999.9999999     
   49999999.9999999     
   49999999.9999999     
   49999999.9999999     
   49999999.9999998     
   49999999.9999999     
   49999999.9999999     
   49999999.9999999     
   49999999.9999999     
   49999999.9999998     
   49999999.9999999     
   49999999.9999999     
   49999999.9999999     
   49999999.9999999     
   49999999.9999999     
   49999999.9999998     
   49999999.9999999     
   49999999.9999999     
   49999999.9999998     
   49999999.9999998     
   49999999.9999997     
   49999999.9999997     
   49999999.9999996     
   49999999.9999996     
   49999999.9999995     
   49999999.9999995     
   49999999.9999995     
   49999999.9999995     
   49999999.9999995     
   50000000.0000003     
   50000000.0000003     
   50000000.0000003     
   50000000.0000003     
   50000000.0000003     
   50000000.0000003     
   50000000.0000003     
   50000000.0000002     
   50000000.0000001     
   50000000.0000001     
   50000000.0000000     
   50000000.0000000     
   50000000.0000000     
   49999999.9999999     
   50000000.0000000     
   50000000.0000000     
   50000000.0000000     
   50000000.0000000     
   50000000.0000000     
   50000000.0000000     
   50000000.0000000     
   49999999.9999999     
   49999999.9999999     
   49999999.9999999     
   49999999.9999999     
   49999999.9999999     
   49999999.9999999     
   49999999.9999998     
   49999999.9999999     
   49999999.9999999     
   49999999.9999999     
   49999999.9999998     
   49999999.9999999     
   49999999.9999999     
   49999999.9999998     
   49999999.9999998     
   49999999.9999998     
   49999999.9999998     
   49999999.9999997     
   49999999.9999997     
   49999999.9999997     
   49999999.9999996     
   49999999.9999996     
   49999999.9999996     
   49999999.9999995     
   49999999.9999995     
   49999999.9999995     
   49999999.9999994     
   49999999.9999994     
   49999999.9999994     
   49999999.9999994     
   50000000.0000003     
   50000000.0000003     
   50000000.0000003     
   50000000.0000003     
   50000000.0000003     
   50000000.0000003     
   50000000.0000002     
   50000000.0000002     
   50000000.0000001     
   50000000.0000001     
   50000000.0000000     
   49999999.9999999     
   49999999.9999999     
   49999999.9999999     
   49999999.9999999     
   49999999.9999999     
   49999999.9999999     
   49999999.9999999     
   49999999.9999999     
   49999999.9999999     
   49999999.9999999     
   49999999.9999999     
   49999999.9999999     
   49999999.9999998     
   49999999.9999998     
   49999999.9999998     
   49999999.9999998     
   49999999.9999998     
   49999999.9999998     
   49999999.9999998     
   49999999.9999998     
   49999999.9999998     
   49999999.9999998     
   49999999.9999998     
   49999999.9999998     
   49999999.9999998     
   49999999.9999998     
   49999999.9999998     
   49999999.9999998     
   49999999.9999997     
   49999999.9999997     
   49999999.9999996     
   49999999.9999996     
   49999999.9999996     
   49999999.9999995     
   49999999.9999994     
   49999999.9999994     
   49999999.9999993     
   49999999.9999994     
   49999999.9999994     
   49999999.9999994     
   50000000.0000001     
   50000000.0000001     
   50000000.0000001     
   50000000.0000001     
   50000000.0000002     
   50000000.0000001     
   50000000.0000001     
   50000000.0000000     
   50000000.0000000     
   50000000.0000000     
   49999999.9999999     
   49999999.9999999     
   49999999.9999998     
   49999999.9999998     
   49999999.9999998     
   49999999.9999997     
   49999999.9999998     
   49999999.9999998     
   49999999.9999999     
   49999999.9999999     
   49999999.9999999     
   49999999.9999999     
   49999999.9999998     
   49999999.9999998     
   49999999.9999997     
   49999999.9999998     
   49999999.9999998     
   49999999.9999998     
   49999999.9999998     
   49999999.9999998     
   49999999.9999997     
   49999999.9999997     
   49999999.9999998     
   49999999.9999998     
   49999999.9999998     
   49999999.9999998     
   49999999.9999998     
   49999999.9999998     
   49999999.9999998     
   49999999.9999997     
   49999999.9999997     
   49999999.9999997     
   49999999.9999996     
   49999999.9999996     
   49999999.9999995     
   49999999.9999994     
   49999999.9999994     
   49999999.9999994     
   49999999.9999994     
   49999999.9999994     
   49999999.9999994     
   50000000.0000000     
   50000000.0000000     
   50000000.0000000     
   50000000.0000001     
   50000000.0000001     
   50000000.0000001     
   50000000.0000000     
   50000000.0000000     
   49999999.9999999     
   49999999.9999999     
   49999999.9999999     
   49999999.9999998     
   49999999.9999998     
   49999999.9999998     
   49999999.9999997     
   49999999.9999998     
   49999999.9999998     
   49999999.9999998     
   49999999.9999998     
   49999999.9999998     
   49999999.9999998     
   49999999.9999998     
   49999999.9999998     
   49999999.9999997     
   49999999.9999997     
   49999999.9999997     
   49999999.9999997     
   49999999.9999997     
   49999999.9999998     
   49999999.9999998     
   49999999.9999998     
   49999999.9999998     
   49999999.9999999     
   49999999.9999999     
   49999999.9999999     
   49999999.9999999     
   49999999.9999999     
   49999999.9999999     
   49999999.9999998     
   49999999.9999998     
   49999999.9999997     
   49999999.9999997     
   49999999.9999996     
   49999999.9999996     
   49999999.9999995     
   49999999.9999995     
   49999999.9999995     
   49999999.9999994     
   49999999.9999994     
   49999999.9999994     
   49999999.9999994     
   50000000.0000001     
   50000000.0000001     
   50000000.0000001     
   50000000.0000001     
   50000000.0000001     
   50000000.0000001     
   50000000.0000000     
   50000000.0000000     
   49999999.9999999     
   49999999.9999999     
   49999999.9999998     
   49999999.9999998     
   49999999.9999998     
   49999999.9999998     
   49999999.9999998     
   49999999.9999998     
   49999999.9999998     
   49999999.9999998     
   49999999.9999998     
   49999999.9999999     
   49999999.9999999     
   49999999.9999999     
   49999999.9999999     
   49999999.9999998     
   49999999.9999998     
   49999999.9999998     
   49999999.9999997     
   49999999.9999998     
   49999999.9999998     
   49999999.9999998     
   49999999.9999998     
   49999999.9999999     
   49999999.9999999     
   49999999.9999999     
   49999999.9999999     
   49999999.9999999     
   49999999.9999999     
   49999999.9999999     
   49999999.9999999     
   49999999.9999998     
   49999999.9999998     
   49999999.9999997     
   49999999.9999997     
   49999999.9999996     
   49999999.9999996     
   49999999.9999995     
   49999999.9999994     
   49999999.9999994     
   49999999.9999994     
   49999999.9999994     
   49999999.9999994     
   50000000.0000001     
   50000000.0000002     
   50000000.0000002     
   50000000.0000002     
   50000000.0000002     
   50000000.0000001     
   50000000.0000001     
   50000000.0000000     
   50000000.0000000     
   49999999.9999999     
   49999999.9999999     
   49999999.9999999     
   49999999.9999999     
   49999999.9999999     
   49999999.9999999     
   49999999.9999998     
   49999999.9999999     
   49999999.9999999     
   49999999.9999999     
   50000000.0000000     
   50000000.0000000     
   49999999.9999999     
   49999999.9999999     
   49999999.9999999     
   49999999.9999998     
   49999999.9999998     
   49999999.9999998     
   49999999.9999998     
   49999999.9999998     
   49999999.9999998     
   49999999.9999998     
   49999999.9999998     
   49999999.9999998     
   49999999.9999999     
   49999999.9999999     
   49999999.9999999     
   49999999.9999999     
   49999999.9999999     
   49999999.9999999     
   49999999.9999999     
   49999999.9999998     
   49999999.9999998     
   49999999.9999997     
   49999999.9999996     
   49999999.9999996     
   49999999.9999995     
   49999999.9999995     
   49999999.9999994     
   49999999.9999994     
   49999999.9999994     
   49999999.9999994     
   50000000.0000003     
   50000000.0000003     
   50000000.0000003     
   50000000.0000003     
   50000000.0000003     
   50000000.0000002     
   50000000.0000002     
   50000000.0000001     
   50000000.0000000     
   50000000.0000000     
   49999999.9999999     
   49999999.9999999     
   49999999.9999999     
   49999999.9999999     
   49999999.9999999     
   49999999.9999999     
   49999999.9999999     
   49999999.9999999     
   49999999.9999999     
   50000000.0000000     
   50000000.0000000     
   49999999.9999999     
   49999999.9999999     
   49999999.9999999     
   49999999.9999998     
   49999999.9999998     
   49999999.9999998     
   49999999.9999998     
   49999999.9999999     
   49999999.9999999     
   49999999.9999999     
   49999999.9999999     
   49999999.9999999     
   49999999.9999999     
   49999999.9999999     
   49999999.9999999     
   49999999.9999999     
   49999999.9999999     
   49999999.9999999     
   49999999.9999998     
   49999999.9999997     
   49999999.9999997     
   49999999.9999997     
   49999999.9999996     
   49999999.9999996     
   49999999.9999995     
   49999999.9999995     
   49999999.9999995     
   49999999.9999995     
   49999999.9999995     
   49999999.9999995     
   50000000.0000003     
   50000000.0000003     
   50000000.0000003     
   50000000.0000004     
   50000000.0000004     
   50000000.0000003     
   50000000.0000003     
   50000000.0000002     
   50000000.0000001     
   50000000.0000000     
   50000000.0000000     
   49999999.9999999     
   49999999.9999999     
   49999999.9999999     
   49999999.9999999     
   49999999.9999999     
   49999999.9999999     
   49999999.9999999     
   49999999.9999999     
   49999999.9999999     
   49999999.9999999     
   49999999.9999999     
   49999999.9999999     
   49999999.9999998     
   49999999.9999998     
   49999999.9999998     
   49999999.9999998     
   49999999.9999998     
   49999999.9999999     
   49999999.9999999     
   49999999.9999998     
   49999999.9999998     
   49999999.9999998     
   49999999.9999999     
   49999999.9999999     
   49999999.9999999     
   49999999.9999999     
   49999999.9999999     
   49999999.9999998     
   49999999.9999998     
   49999999.9999997     
   49999999.9999997     
   49999999.9999996     
   49999999.9999996     
   49999999.9999995     
   49999999.9999995     
   49999999.9999995     
   49999999.9999995     
   49999999.9999995     
   49999999.9999995     
   49999999.9999995     
   50000000.0000002     
   50000000.0000003     
   50000000.0000003     
   50000000.0000003     
   50000000.0000003     
   50000000.0000003     
   50000000.0000002     
   50000000.0000001     
   50000000.0000001     
   50000000.0000000     
   50000000.0000000     
   49999999.9999999     
   49999999.9999999     
   49999999.9999999     
   49999999.9999999     
   49999999.9999999     
   49999999.9999999     
   49999999.9999999     
   49999999.9999999     
   49999999.9999999     
   49999999.9999999     
   49999999.9999999     
   49999999.9999999     
   49999999.9999998     
   49999999.9999998     
   49999999.9999998     
   49999999.9999998     
   49999999.9999998     
   49999999.9999998     
   49999999.9999998     
   49999999.9999998     
   49999999.9999998     
   49999999.9999999     
   49999999.9999999     
   49999999.9999999     
   49999999.9999999     
   49999999.9999999     
   49999999.9999999     
   49999999.9999998     
   49999999.9999998     
   49999999.9999997     
   49999999.9999997     
   49999999.9999996     
   49999999.9999996     
   49999999.9999995     
   49999999.9999995     
   49999999.9999995     
   49999999.9999995     
   49999999.9999995     
   49999999.9999995     
   49999999.9999995     
   50000000.0000002     
   50000000.0000003     
   50000000.0000003     
   50000000.0000003     
   50000000.0000002     
   50000000.0000002     
   50000000.0000001     
   50000000.0000000     
   50000000.0000000     
   49999999.9999999     
   49999999.9999999     
   49999999.9999998     
   49999999.9999998     
   49999999.9999997     
   49999999.9999998     
   49999999.9999998     
   49999999.9999998     
   49999999.9999998     
   49999999.9999999     
   49999999.9999999     
   49999999.9999999     
   49999999.9999999     
   49999999.9999999     
   49999999.9999998     
   49999999.9999998     
   49999999.9999998     
   49999999.9999998     
   49999999.9999998     
   49999999.9999998     
   49999999.9999998     
   49999999.9999998     
   49999999.9999998     
   49999999.9999998     
   49999999.9999999     
   49999999.9999999     
   49999999.9999999     
   49999999.9999999     
   49999999.9999999     
   49999999.9999999     
   49999999.9999999     
   49999999.9999998     
   49999999.9999997     
   49999999.9999997     
   49999999.9999997     
   49999999.9999997     
   49999999.9999996     
   49999999.9999996     
   49999999.9999996     
   49999999.9999995     
   49999999.9999995     
   49999999.9999995     
   50000000.0000002     
   50000000.0000002     
   50000000.0000002     
   50000000.0000002     
   50000000.0000002     
   50000000.0000002     
   50000000.0000001     
   50000000.0000001     
   50000000.0000000     
   49999999.9999999     
   49999999.9999998     
   49999999.9999998     
   49999999.9999998     
   49999999.9999998     
   49999999.9999998     
   49999999.9999997     
   49999999.9999998     
   49999999.9999998     
   49999999.9999999     
   49999999.9999999     
   49999999.9999999     
   49999999.9999999     
   49999999.9999998     
   49999999.9999998     
   49999999.9999998     
   49999999.9999997     
   49999999.9999997     
   49999999.9999997     
   49999999.9999998     
   49999999.9999998     
   49999999.9999998     
   49999999.9999999     
   49999999.9999999     
   49999999.9999999     
   49999999.9999999     
   50000000.0000000     
   49999999.9999999     
   49999999.9999999     
   49999999.9999999     
   49999999.9999999     
   49999999.9999999     
   49999999.9999999     
   49999999.9999998     
   49999999.9999998     
   49999999.9999997     
   49999999.9999996     
   49999999.9999996     
   49999999.9999996     
   49999999.9999996     
   49999999.9999995     
   49999999.9999996     
   50000000.0000003     
   50000000.0000003     
   50000000.0000003     
   50000000.0000003     
   50000000.0000003     
   50000000.0000003     
   50000000.0000002     
   50000000.0000001     
   50000000.0000001     
   50000000.0000000     
   49999999.9999999     
   49999999.9999999     
   49999999.9999999     
   49999999.9999999     
   49999999.9999998     
   49999999.9999998     
   49999999.9999998     
   49999999.9999999     
   49999999.9999999     
   49999999.9999999     
   49999999.9999999     
   49999999.9999999     
   49999999.9999998     
   49999999.9999997     
   49999999.9999997     
   49999999.9999997     
   49999999.9999997     
   49999999.9999998     
   49999999.9999998     
   49999999.9999998     
   49999999.9999998     
   49999999.9999998     
   49999999.9999998     
   49999999.9999999     
   49999999.9999999     
   49999999.9999999     
   49999999.9999999     
   50000000.0000000     
   50000000.0000000     
   49999999.9999999     
   49999999.9999999     
   49999999.9999998     
   49999999.9999998     
   49999999.9999997     
   49999999.9999997     
   49999999.9999996     
   49999999.9999996     
   49999999.9999996     
   49999999.9999996     
   49999999.9999996     
   49999999.9999996     
   50000000.0000002     
   50000000.0000002     
   50000000.0000002     
   50000000.0000002     
   50000000.0000002     
   50000000.0000002     
   50000000.0000001     
   50000000.0000001     
   50000000.0000000     
   50000000.0000000     
   50000000.0000000     
   49999999.9999999     
   49999999.9999999     
   49999999.9999999     
   49999999.9999999     
   49999999.9999999     
   50000000.0000000     
   50000000.0000000     
   50000000.0000000     
   50000000.0000000     
   50000000.0000000     
   49999999.9999999     
   49999999.9999999     
   49999999.9999999     
   49999999.9999998     
   49999999.9999998     
   49999999.9999998     
   49999999.9999998     
   49999999.9999999     
   49999999.9999999     
   49999999.9999999     
   49999999.9999999     
   50000000.0000000     
   50000000.0000000     
   49999999.9999999     
   50000000.0000000     
   49999999.9999999     
   49999999.9999999     
   49999999.9999999     
   49999999.9999999     
   49999999.9999999     
   49999999.9999998     
   49999999.9999998     
   49999999.9999998     
   49999999.9999997     
   49999999.9999996     
   49999999.9999996     
   49999999.9999996     
   49999999.9999995     
   49999999.9999996     
   49999999.9999996     
   50000000.0000002     
   50000000.0000002     
   50000000.0000002     
   50000000.0000002     
   50000000.0000002     
   50000000.0000002     
   50000000.0000002     
   50000000.0000001     
   50000000.0000001     
   50000000.0000000     
   50000000.0000000     
   50000000.0000000     
   50000000.0000000     
   50000000.0000000     
   50000000.0000000     
   50000000.0000000     
   50000000.0000000     
   50000000.0000001     
   50000000.0000001     
   50000000.0000001     
   50000000.0000001     
   50000000.0000000     
   49999999.9999999     
   49999999.9999999     
   49999999.9999998     
   49999999.9999998     
   49999999.9999998     
   49999999.9999998     
   49999999.9999999     
   49999999.9999999     
   49999999.9999999     
   49999999.9999998     
   49999999.9999999     
   49999999.9999999     
   49999999.9999999     
   50000000.0000000     
   50000000.0000000     
   50000000.0000000     
   50000000.0000000     
   50000000.0000000     
   49999999.9999999     
   49999999.9999998     
   49999999.9999998     
   49999999.9999997     
   49999999.9999996     
   49999999.9999996     
   49999999.9999995     
   49999999.9999995     
   49999999.9999994     
   49999999.9999994     
   49999999.9999994     
   50000000.0000002     
   50000000.0000002     
   50000000.0000002     
   50000000.0000003     
   50000000.0000003     
   50000000.0000002     
   50000000.0000002     
   50000000.0000001     
   50000000.0000001     
   50000000.0000000     
   50000000.0000000     
   50000000.0000000     
   50000000.0000000     
   49999999.9999999     
   49999999.9999999     
   49999999.9999999     
   50000000.0000000     
   50000000.0000000     
   50000000.0000000     
   50000000.0000001     
   50000000.0000000     
   50000000.0000000     
   49999999.9999999     
   49999999.9999999     
   49999999.9999999     
   49999999.9999999     
   49999999.9999998     
   49999999.9999998     
   49999999.9999999     
   49999999.9999999     
   49999999.9999999     
   49999999.9999998     
   49999999.9999999     
   49999999.9999999     
   49999999.9999999     
   49999999.9999999     
   49999999.9999999     
   49999999.9999999     
   49999999.9999999     
   49999999.9999999     
   49999999.9999999     
   49999999.9999998     
   49999999.9999998     
   49999999.9999997     
   49999999.9999996     
   49999999.9999995     
   49999999.9999995     
   49999999.9999994     
   49999999.9999994     
   49999999.9999994     
   49999999.9999994     
   50000000.0000002     
   50000000.0000002     
   50000000.0000003     
   50000000.0000003     
   50000000.0000003     
   50000000.0000003     
   50000000.0000002     
   50000000.0000002     
   50000000.0000001     
   50000000.0000000     
   50000000.0000000     
   50000000.0000000     
   50000000.0000000     
   50000000.0000000     
   50000000.0000000     
   49999999.9999999     
   50000000.0000000     
   50000000.0000000     
   50000000.0000000     
   50000000.0000001     
   50000000.0000001     
   50000000.0000000     
   50000000.0000000     
   50000000.0000000     
   49999999.9999999     
   49999999.9999999     
   49999999.9999999     
   49999999.9999999     
   49999999.9999999     
   49999999.9999999     
   49999999.9999999     
   49999999.9999998     
   49999999.9999999     
   49999999.9999999     
   49999999.9999999     
   49999999.9999999     
   49999999.9999999     
   49999999.9999999     
   49999999.9999999     
   49999999.9999999     
   49999999.9999998     
   49999999.9999998     
   49999999.9999997     
   49999999.9999997     
   49999999.9999996     
   49999999.9999996     
   49999999.9999996     
   49999999.9999995     
   49999999.9999995     
   49999999.9999995     
   49999999.9999995     
   50000000.0000003     
   50000000.0000003     
   50000000.0000004     
   50000000.0000004     
   50000000.0000004     
   50000000.0000004     
   50000000.0000003     
   50000000.0000002     
   50000000.0000001     
   50000000.0000001     
   50000000.0000001     
   50000000.0000000     
   50000000.0000000     
   50000000.0000000     
   50000000.0000000     
   50000000.0000000     
   50000000.0000000     
   50000000.0000000     
   50000000.0000001     
   50000000.0000001     
   50000000.0000001     
   50000000.0000000     
   50000000.0000000     
   49999999.9999999     
   49999999.9999999     
   49999999.9999999     
   49999999.9999999     
   49999999.9999999     
   49999999.9999999     
   49999999.9999999     
   49999999.9999999     
   49999999.9999999     
   49999999.9999999     
   49999999.9999999     
   49999999.9999999     
   50000000.0000000     
   49999999.9999999     
   49999999.9999999     
   49999999.9999999     
   49999999.9999999     
   49999999.9999999     
   49999999.9999998     
   49999999.9999998     
   49999999.9999997     
   49999999.9999996     
   49999999.9999996     
   49999999.9999996     
   49999999.9999995     
   49999999.9999995     
   49999999.9999995     
   49999999.9999995     
   50000000.0000003     
   50000000.0000003     
   50000000.0000003     
   50000000.0000003     
   50000000.0000003     
   50000000.0000003     
   50000000.0000003     
   50000000.0000002     
   50000000.0000001     
   50000000.0000001     
   50000000.0000000     
   50000000.0000000     
   50000000.0000000     
   50000000.0000000     
   50000000.0000000     
   50000000.0000000     
   50000000.0000000     
   50000000.0000000     
   50000000.0000000     
   50000000.0000000     
   50000000.0000000     
   50000000.0000000     
   49999999.9999999     
   49999999.9999999     
   49999999.9999999     
   49999999.9999999     
   49999999.9999998     
   49999999.9999998     
   49999999.9999999     
   49999999.9999999     
   49999999.9999999     
   49999999.9999999     
   49999999.9999999     
   50000000.0000000     
   50000000.0000000     
   50000000.0000000     
   50000000.0000000     
   50000000.0000000     
   50000000.0000000     
   49999999.9999999     
   49999999.9999999     
   49999999.9999999     
   49999999.9999998     
   49999999.9999998     
   49999999.9999997     
   49999999.9999996     
   49999999.9999996     
   49999999.9999996     
   49999999.9999995     
   49999999.9999995     
   49999999.9999995     
   50000000.0000003     
   50000000.0000003     
   50000000.0000003     
   50000000.0000003     
   50000000.0000004     
   50000000.0000004     
   50000000.0000003     
   50000000.0000003     
   50000000.0000002     
   50000000.0000002     
   50000000.0000001     
   50000000.0000001     
   50000000.0000001     
   50000000.0000000     
   50000000.0000000     
   50000000.0000000     
   50000000.0000000     
   50000000.0000001     
   50000000.0000001     
   50000000.0000001     
   50000000.0000001     
   50000000.0000000     
   50000000.0000000     
   49999999.9999999     
   49999999.9999999     
   49999999.9999999     
   49999999.9999999     
   49999999.9999999     
   49999999.9999999     
   50000000.0000000     
   49999999.9999999     
   49999999.9999999     
   49999999.9999999     
   49999999.9999999     
   49999999.9999999     
   49999999.9999999     
   49999999.9999999     
   49999999.9999999     
   49999999.9999999     
   49999999.9999999     
   49999999.9999999     
   49999999.9999998     
   49999999.9999997     
   49999999.9999997     
   49999999.9999996     
   49999999.9999996     
   49999999.9999995     
   49999999.9999995     
   49999999.9999994     
   49999999.9999994     
   49999999.9999994     
   50000000.0000003     
   50000000.0000003     
   50000000.0000003     
   50000000.0000003     
   50000000.0000003     
   50000000.0000003     
   50000000.0000002     
   50000000.0000002     
   50000000.0000002     
   50000000.0000001     
   50000000.0000001     
   50000000.0000001     
   50000000.0000001     
   50000000.0000001     
   50000000.0000001     
   50000000.0000001     
   50000000.0000001     
   50000000.0000001     
   50000000.0000001     
   50000000.0000001     
   50000000.0000001     
   50000000.0000001     
   50000000.0000000     
   50000000.0000000     
   49999999.9999999     
   49999999.9999999     
   49999999.9999999     
   49999999.9999999     
   49999999.9999999     
   49999999.9999999     
   49999999.9999999     
   49999999.9999999     
   49999999.9999999     
   49999999.9999999     
   49999999.9999999     
   49999999.9999999     
   49999999.9999999     
   49999999.9999999     
   49999999.9999999     
   49999999.9999999     
   49999999.9999998     
   49999999.9999998     
   49999999.9999997     
   49999999.9999997     
   49999999.9999996     
   49999999.9999995     
   49999999.9999995     
   49999999.9999995     
   49999999.9999995     
   49999999.9999995     
   49999999.9999995     
   50000000.0000003     
   50000000.0000003     
   50000000.0000003     
   50000000.0000003     
   50000000.0000003     
   50000000.0000003     
   50000000.0000003     
   50000000.0000002     
   50000000.0000002     
   50000000.0000001     
   50000000.0000000     
   50000000.0000000     
   50000000.0000000     
   50000000.0000000     
   50000000.0000000     
   50000000.0000000     
   50000000.0000000     
   50000000.0000000     
   50000000.0000000     
   50000000.0000001     
   50000000.0000001     
   50000000.0000000     
   50000000.0000000     
   50000000.0000000     
   50000000.0000000     
   50000000.0000000     
   49999999.9999999     
   49999999.9999999     
   49999999.9999999     
   49999999.9999999     
   49999999.9999999     
   49999999.9999999     
   49999999.9999999     
   50000000.0000000     
   50000000.0000000     
   49999999.9999999     
   49999999.9999999     
   49999999.9999999     
   49999999.9999999     
   49999999.9999998     
   49999999.9999998     
   49999999.9999997     
   49999999.9999997     
   49999999.9999996     
   49999999.9999996     
   49999999.9999995     
   49999999.9999995     
   49999999.9999995     
   49999999.9999995     
   49999999.9999995     
   49999999.9999995     
   50000000.0000002     
   50000000.0000002     
   50000000.0000003     
   50000000.0000003     
   50000000.0000003     
   50000000.0000003     
   50000000.0000002     
   50000000.0000002     
   50000000.0000001     
   50000000.0000001     
   50000000.0000001     
   50000000.0000000     
   50000000.0000000     
   50000000.0000000     
   50000000.0000000     
   49999999.9999999     
   50000000.0000000     
   50000000.0000000     
   50000000.0000000     
   50000000.0000001     
   50000000.0000001     
   50000000.0000001     
   50000000.0000000     
   50000000.0000000     
   49999999.9999999     
   49999999.9999999     
   49999999.9999999     
   49999999.9999999     
   50000000.0000000     
   50000000.0000000     
   49999999.9999999     
   49999999.9999999     
   49999999.9999999     
   49999999.9999999     
   50000000.0000000     
   50000000.0000000     
   50000000.0000000     
   50000000.0000000     
   49999999.9999999     
   49999999.9999999     
   49999999.9999999     
   49999999.9999998     
   49999999.9999997     
   49999999.9999996     
   49999999.9999996     
   49999999.9999995     
   49999999.9999995     
   49999999.9999994     
   49999999.9999994     
   49999999.9999994     
   49999999.9999994     
   50000000.0000002     
   50000000.0000002     
   50000000.0000002     
   50000000.0000002     
   50000000.0000002     
   50000000.0000002     
   50000000.0000002     
   50000000.0000002     
   50000000.0000001     
   50000000.0000001     
   50000000.0000001     
   50000000.0000000     
   50000000.0000000     
   50000000.0000000     
   50000000.0000000     
   50000000.0000000     
   50000000.0000000     
   50000000.0000000     
   50000000.0000000     
   50000000.0000000     
   50000000.0000000     
   50000000.0000000     
   50000000.0000000     
   49999999.9999999     
   49999999.9999999     
   49999999.9999999     
   49999999.9999999     
   49999999.9999999     
   49999999.9999999     
   49999999.9999999     
   49999999.9999999     
   49999999.9999999     
   49999999.9999999     
   49999999.9999999     
   49999999.9999999     
   49999999.9999999     
   49999999.9999999     
   49999999.9999999     
   49999999.9999999     
   49999999.9999999     
   49999999.9999998     
   49999999.9999998     
   49999999.9999997     
   49999999.9999997     
   49999999.9999996     
   49999999.9999995     
   49999999.9999995     
   49999999.9999995     
   49999999.9999994     
   49999999.9999994     
   49999999.9999994     
   50000000.0000001     
   50000000.0000002     
   50000000.0000002     
   50000000.0000002     
   50000000.0000002     
   50000000.0000002     
   50000000.0000002     
   50000000.0000001     
   50000000.0000001     
   50000000.0000000     
   49999999.9999999     
   49999999.9999999     
   49999999.9999999     
   49999999.9999999     
   49999999.9999999     
   49999999.9999999     
   49999999.9999999     
   50000000.0000000     
   50000000.0000000     
   50000000.0000000     
   50000000.0000000     
   50000000.0000000     
   50000000.0000000     
   49999999.9999999     
   49999999.9999999     
   49999999.9999999     
   49999999.9999999     
   49999999.9999999     
   49999999.9999999     
   49999999.9999999     
   49999999.9999999     
   49999999.9999999     
   49999999.9999999     
   50000000.0000000     
   50000000.0000000     
   50000000.0000000     
   50000000.0000000     
   50000000.0000000     
   50000000.0000000     
   49999999.9999999     
   49999999.9999999     
   49999999.9999998     
   49999999.9999997     
   49999999.9999997     
   49999999.9999996     
   49999999.9999995     
   49999999.9999994     
   49999999.9999994     
   49999999.9999994     
   49999999.9999994     
   49999999.9999994     
   50000000.0000002     
   50000000.0000002     
   50000000.0000002     
   50000000.0000002     
   50000000.0000002     
   50000000.0000001     
   50000000.0000001     
   50000000.0000000     
   50000000.0000000     
   50000000.0000000     
   49999999.9999999     
   49999999.9999999     
   49999999.9999999     
   49999999.9999998     
   49999999.9999998     
   49999999.9999999     
   49999999.9999999     
   49999999.9999999     
   50000000.0000000     
   50000000.0000000     
   50000000.0000000     
   50000000.0000000     
   49999999.9999999     
   49999999.9999999     
   49999999.9999999     
   49999999.9999999     
   49999999.9999998     
   49999999.9999998     
   49999999.9999999     
   49999999.9999999     
   49999999.9999999     
   49999999.9999999     
   50000000.0000000     
   50000000.0000000     
   50000000.0000000     
   50000000.0000000     
   50000000.0000000     
   50000000.0000000     
   50000000.0000000     
   49999999.9999999     
   49999999.9999998     
   49999999.9999997     
   49999999.9999997     
   49999999.9999996     
   49999999.9999995     
   49999999.9999995     
   49999999.9999994     
   49999999.9999994     
   49999999.9999994     
   49999999.9999993     
   49999999.9999993     
   50000000.0000002     
   50000000.0000002     
   50000000.0000002     
   50000000.0000002     
   50000000.0000002     
   50000000.0000002     
   50000000.0000001     
   50000000.0000001     
   50000000.0000000     
   50000000.0000000     
   50000000.0000000     
   49999999.9999999     
   49999999.9999999     
   49999999.9999999     
   49999999.9999999     
   49999999.9999999     
   49999999.9999999     
   49999999.9999999     
   50000000.0000000     
   50000000.0000000     
   50000000.0000000     
   49999999.9999999     
   49999999.9999999     
   49999999.9999999     
   49999999.9999998     
   49999999.9999998     
   49999999.9999998     
   49999999.9999998     
   49999999.9999998     
   49999999.9999999     
   49999999.9999999     
   49999999.9999999     
   49999999.9999999     
   49999999.9999999     
   49999999.9999999     
   50000000.0000000     
   49999999.9999999     
   49999999.9999999     
   49999999.9999999     
   49999999.9999998     
   49999999.9999997     
   49999999.9999997     
   49999999.9999996     
   49999999.9999995     
   49999999.9999995     
   49999999.9999994     
   49999999.9999993     
   49999999.9999993     
   49999999.9999992     
   49999999.9999992     
   49999999.9999992     
   50000000.0000002     
   50000000.0000003     
   50000000.0000003     
   50000000.0000003     
   50000000.0000003     
   50000000.0000003     
   50000000.0000002     
   50000000.0000001     
   50000000.0000001     
   50000000.0000000     
   49999999.9999999     
   49999999.9999999     
   49999999.9999999     
   49999999.9999999     
   49999999.9999999     
   49999999.9999999     
   49999999.9999999     
   50000000.0000000     
   50000000.0000000     
   50000000.0000001     
   50000000.0000000     
   50000000.0000000     
   50000000.0000000     
   49999999.9999999     
   49999999.9999999     
   49999999.9999999     
   49999999.9999998     
   49999999.9999998     
   49999999.9999999     
   49999999.9999999     
   49999999.9999999     
   49999999.9999998     
   49999999.9999999     
   49999999.9999999     
   49999999.9999999     
   49999999.9999999     
   49999999.9999999     
   49999999.9999999     
   49999999.9999998     
   49999999.9999998     
   49999999.9999997     
   49999999.9999997     
   49999999.9999997     
   49999999.9999996     
   49999999.9999995     
   49999999.9999995     
   49999999.9999994     
   49999999.9999994     
   49999999.9999994     
   49999999.9999994     
   49999999.9999994     
   50000000.0000003     
   50000000.0000003     
   50000000.0000003     
   50000000.0000003     
   50000000.0000002     
   50000000.0000002     
   50000000.0000002     
   50000000.0000001     
   50000000.0000001     
   50000000.0000000     
   50000000.0000000     
   49999999.9999999     
   49999999.9999999     
   49999999.9999998     
   49999999.9999999     
   49999999.9999999     
   49999999.9999999     
   49999999.9999999     
   50000000.0000000     
   50000000.0000000     
   50000000.0000000     
   50000000.0000000     
   50000000.0000000     
   49999999.9999999     
   49999999.9999999     
   49999999.9999999     
   49999999.9999999     
   49999999.9999998     
   49999999.9999998     
   49999999.9999998     
   49999999.9999998     
   49999999.9999998     
   49999999.9999998     
   49999999.9999998     
   49999999.9999998     
   49999999.9999999     
   49999999.9999999     
   49999999.9999998     
   49999999.9999998     
   49999999.9999998     
   49999999.9999997     
   49999999.9999997     
   49999999.9999996     
   49999999.9999996     
   49999999.9999995     
   49999999.9999994     
   49999999.9999994     
   49999999.9999994     
   49999999.9999994     
   49999999.9999994     
   49999999.9999994     
   50000000.0000001     
   50000000.0000001     
   50000000.0000001     
   50000000.0000002     
   50000000.0000002     
   50000000.0000002     
   50000000.0000001     
   50000000.0000001     
   50000000.0000000     
   50000000.0000000     
   49999999.9999999     
   49999999.9999999     
   49999999.9999999     
   49999999.9999999     
   49999999.9999999     
   49999999.9999999     
   49999999.9999999     
   49999999.9999999     
   50000000.0000000     
   50000000.0000000     
   50000000.0000000     
   49999999.9999999     
   49999999.9999999     
   49999999.9999998     
   49999999.9999998     
   49999999.9999998     
   49999999.9999998     
   49999999.9999998     
   49999999.9999998     
   49999999.9999998     
   49999999.9999998     
   49999999.9999998     
   49999999.9999998     
   49999999.9999998     
   49999999.9999998     
   49999999.9999998     
   49999999.9999998     
   49999999.9999999     
   49999999.9999998     
   49999999.9999998     
   49999999.9999998     
   49999999.9999997     
   49999999.9999997     
   49999999.9999997     
   49999999.9999996     
   49999999.9999995     
   49999999.9999995     
   49999999.9999995     
   49999999.9999994     
   49999999.9999994     
   49999999.9999994     
   50000000.0000000     
   50000000.0000000     
   50000000.0000000     
   50000000.0000000     
   50000000.0000000     
   50000000.0000000     
   50000000.0000000     
   49999999.9999999     
   49999999.9999999     
   49999999.9999999     
   49999999.9999999     
   49999999.9999999     
   49999999.9999999     
   49999999.9999999     
   49999999.9999999     
   49999999.9999999     
   50000000.0000000     
   50000000.0000000     
   50000000.0000000     
   50000000.0000000     
   50000000.0000000     
   49999999.9999999     
   49999999.9999999     
   49999999.9999998     
   49999999.9999997     
   49999999.9999997     
   49999999.9999997     
   49999999.9999997     
   49999999.9999998     
   49999999.9999998     
   49999999.9999998     
   49999999.9999997     
   49999999.9999998     
   49999999.9999998     
   49999999.9999998     
   49999999.9999998     
   49999999.9999998     
   49999999.9999998     
   49999999.9999997     
   49999999.9999997     
   49999999.9999997     
   49999999.9999997     
   49999999.9999996     
   49999999.9999996     
   49999999.9999995     
   49999999.9999995     
   49999999.9999994     
   49999999.9999994     
   49999999.9999994     
   49999999.9999994     
   49999999.9999994     
   49999999.9999996     
   49999999.9999996     
   49999999.9999997     
   49999999.9999997     
   49999999.9999997     
   49999999.9999997     
   49999999.9999997     
   49999999.9999997     
   49999999.9999997     
   49999999.9999997     
   49999999.9999997     
   49999999.9999997     
   49999999.9999997     
   49999999.9999997     
   49999999.9999997     
   49999999.9999997     
   49999999.9999997     
   49999999.9999998     
   49999999.9999998     
   49999999.9999998     
   49999999.9999998     
   49999999.9999998     
   49999999.9999997     
   49999999.9999996     
   49999999.9999996     
   49999999.9999996     
   49999999.9999996     
   49999999.9999995     
   49999999.9999996     
   49999999.9999996     
   49999999.9999995     
   49999999.9999995     
   49999999.9999995     
   49999999.9999995     
   49999999.9999995     
   49999999.9999995     
   49999999.9999995     
   49999999.9999995     
   49999999.9999995     
   49999999.9999995     
   49999999.9999995     
   49999999.9999994     
   49999999.9999994     
   49999999.9999993     
   49999999.9999993     
   49999999.9999992     
   49999999.9999992     
   49999999.9999991     
   49999999.9999991     
   49999999.9999991     
   49999999.9999991     
   49999999.9999984     
   49999999.9999984     
   49999999.9999984     
   49999999.9999984     
   49999999.9999984     
   49999999.9999984     
   49999999.9999983     
   49999999.9999983     
   49999999.9999982     
   49999999.9999982     
   49999999.9999982     
   49999999.9999982     
   49999999.9999982     
   49999999.9999982     
   49999999.9999982     
   49999999.9999983     
   49999999.9999983     
   49999999.9999983     
   49999999.9999984     
   49999999.9999984     
   49999999.9999983     
   49999999.9999983     
   49999999.9999982     
   49999999.9999982     
   49999999.9999982     
   49999999.9999981     
   49999999.9999981     
   49999999.9999981     
   49999999.9999981     
   49999999.9999981     
   49999999.9999981     
   49999999.9999981     
   49999999.9999981     
   49999999.9999981     
   49999999.9999981     
   49999999.9999981     
   49999999.9999981     
   49999999.9999981     
   49999999.9999981     
   49999999.9999981     
   49999999.9999980     
   49999999.9999980     
   49999999.9999980     
   49999999.9999979     
   49999999.9999978     
   49999999.9999978     
   49999999.9999977     
   49999999.9999977     
   49999999.9999977     
   49999999.9999977     
   49999999.9999977     
   49999999.9999899     
   49999999.9999899     
   49999999.9999900     
   49999999.9999900     
   49999999.9999900     
   49999999.9999899     
   49999999.9999899     
   49999999.9999898     
   49999999.9999897     
   49999999.9999897     
   49999999.9999897     
   49999999.9999896     
   49999999.9999897     
   49999999.9999897     
   49999999.9999897     
   49999999.9999897     
   49999999.9999897     
   49999999.9999898     
   49999999.9999898     
   49999999.9999898     
   49999999.9999898     
   49999999.9999897     
   49999999.9999897     
   49999999.9999896     
   49999999.9999896     
   49999999.9999896     
   49999999.9999896     
   49999999.9999896     
   49999999.9999896     
   49999999.9999896     
   49999999.9999896     
   49999999.9999896     
   49999999.9999896     
   49999999.9999896     
   49999999.9999896     
   49999999.9999896     
   49999999.9999896     
   49999999.9999896     
   49999999.9999896     
   49999999.9999895     
   49999999.9999895     
   49999999.9999894     
   49999999.9999894     
   49999999.9999894     
   49999999.9999893     
   49999999.9999893     
   49999999.9999892     
   49999999.9999892     
   49999999.9999892     
   49999999.9999892     
   49999999.9999892     
   49999999.9999406     
   49999999.9999406     
   49999999.9999406     
   49999999.9999406     
   49999999.9999406     
   49999999.9999406     
   49999999.9999405     
   49999999.9999405     
   49999999.9999404     
   49999999.9999404     
   49999999.9999403     
   49999999.9999403     
   49999999.9999402     
   49999999.9999402     
   49999999.9999403     
   49999999.9999403     
   49999999.9999403     
   49999999.9999403     
   49999999.9999403     
   49999999.9999404     
   49999999.9999403     
   49999999.9999403     
   49999999.9999403     
   49999999.9999402     
   49999999.9999402     
   49999999.9999402     
   49999999.9999402     
   49999999.9999402     
   49999999.9999402     
   49999999.9999402     
   49999999.9999402     
   49999999.9999402     
   49999999.9999402     
   49999999.9999402     
   49999999.9999402     
   49999999.9999403     
   49999999.9999403     
   49999999.9999403     
   49999999.9999403     
   49999999.9999402     
   49999999.9999402     
   49999999.9999401     
   49999999.9999400     
   49999999.9999400     
   49999999.9999399     
   49999999.9999399     
   49999999.9999398     
   49999999.9999398     
   49999999.9999398     
   49999999.9999398     
   49999999.9999398     
   49999999.9996586     
   49999999.9996586     
   49999999.9996587     
   49999999.9996587     
   49999999.9996587     
   49999999.9996587     
   49999999.9996586     
   49999999.9996586     
   49999999.9996585     
   49999999.9996584     
   49999999.9996584     
   49999999.9996583     
   49999999.9996583     
   49999999.9996583     
   49999999.9996582     
   49999999.9996582     
   49999999.9996582     
   49999999.9996582     
   49999999.9996583     
   49999999.9996583     
   49999999.9996583     
   49999999.9996583     
   49999999.9996583     
   49999999.9996582     
   49999999.9996582     
   49999999.9996582     
   49999999.9996582     
   49999999.9996582     
   49999999.9996583     
   49999999.9996583     
   49999999.9996582     
   49999999.9996582     
   49999999.9996582     
   49999999.9996582     
   49999999.9996582     
   49999999.9996582     
   49999999.9996582     
   49999999.9996582     
   49999999.9996582     
   49999999.9996581     
   49999999.9996581     
   49999999.9996580     
   49999999.9996580     
   49999999.9996579     
   49999999.9996579     
   49999999.9996578     
   49999999.9996578     
   49999999.9996578     
   49999999.9996578     
   49999999.9996578     
   49999999.9996578     
   49999999.9980739     
   49999999.9980740     
   49999999.9980740     
   49999999.9980740     
   49999999.9980740     
   49999999.9980740     
   49999999.9980739     
   49999999.9980738     
   49999999.9980738     
   49999999.9980737     
   49999999.9980736     
   49999999.9980736     
   49999999.9980736     
   49999999.9980735     
   49999999.9980735     
   49999999.9980735     
   49999999.9980736     
   49999999.9980736     
   49999999.9980736     
   49999999.9980736     
   49999999.9980736     
   49999999.9980736     
   49999999.9980735     
   49999999.9980735     
   49999999.9980734     
   49999999.9980734     
   49999999.9980734     
   49999999.9980734     
   49999999.9980735     
   49999999.9980735     
   49999999.9980735     
   49999999.9980735     
   49999999.9980735     
   49999999.9980735     
   49999999.9980735     
   49999999.9980735     
   49999999.9980735     
   49999999.9980735     
   49999999.9980735     
   49999999.9980735     
   49999999.9980735     
   49999999.9980734     
   49999999.9980734     
   49999999.9980733     
   49999999.9980733     
   49999999.9980732     
   49999999.9980732     
   49999999.9980732     
   49999999.9980731     
   49999999.9980731     
   49999999.9980731     
   49999999.9893254     
   49999999.9893254     
   49999999.9893254     
   49999999.9893254     
   49999999.9893254     
   49999999.9893254     
   49999999.9893253     
   49999999.9893253     
   49999999.9893252     
   49999999.9893251     
   49999999.9893251     
   49999999.9893251     
   49999999.9893250     
   49999999.9893250     
   49999999.9893250     
   49999999.9893250     
   49999999.9893251     
   49999999.9893251     
   49999999.9893251     
   49999999.9893252     
   49999999.9893252     
   49999999.9893251     
   49999999.9893251     
   49999999.9893250     
   49999999.9893250     
   49999999.9893250     
   49999999.9893250     
   49999999.9893250     
   49999999.9893250     
   49999999.9893250     
   49999999.9893249     
   49999999.9893249     
   49999999.9893250     
   49999999.9893250     
   49999999.9893250     
   49999999.9893250     
   49999999.9893250     
   49999999.9893249     
   49999999.9893249     
   49999999.9893249     
   49999999.9893249     
   49999999.9893249     
   49999999.9893249     
   49999999.9893248     
   49999999.9893247     
   49999999.9893247     
   49999999.9893247     
   49999999.9893247     
   49999999.9893246     
   49999999.9893246     
   49999999.9893246     
   49999999.9419743     
   49999999.9419744     
   49999999.9419744     
   49999999.9419744     
   49999999.9419744     
   49999999.9419744     
   49999999.9419743     
   49999999.9419743     
   49999999.9419742     
   49999999.9419741     
   49999999.9419741     
   49999999.9419740     
   49999999.9419740     
   49999999.9419740     
   49999999.9419740     
   49999999.9419740     
   49999999.9419740     
   49999999.9419740     
   49999999.9419741     
   49999999.9419741     
   49999999.9419741     
   49999999.9419741     
   49999999.9419741     
   49999999.9419740     
   49999999.9419740     
   49999999.9419740     
   49999999.9419739     
   49999999.9419739     
   49999999.9419739     
   49999999.9419740     
   49999999.9419739     
   49999999.9419739     
   49999999.9419739     
   49999999.9419739     
   49999999.9419739     
   49999999.9419740     
   49999999.9419740     
   49999999.9419740     
   49999999.9419740     
   49999999.9419740     
   49999999.9419739     
   49999999.9419739     
   49999999.9419738     
   49999999.9419738     
   49999999.9419737     
   49999999.9419737     
   49999999.9419737     
   49999999.9419736     
   49999999.9419736     
   49999999.9419736     
   49999999.9419736     
   49999999.6912949     
   49999999.6912949     
   49999999.6912949     
   49999999.6912950     
   49999999.6912950     
   49999999.6912950     
   49999999.6912950     
   49999999.6912949     
   49999999.6912948     
   49999999.6912948     
   49999999.6912947     
   49999999.6912947     
   49999999.6912946     
   49999999.6912946     
   49999999.6912946     
   49999999.6912946     
   49999999.6912947     
   49999999.6912947     
   49999999.6912948     
   49999999.6912948     
   49999999.6912949     
   49999999.6912948     
   49999999.6912948     
   49999999.6912947     
   49999999.6912947     
   49999999.6912947     
   49999999.6912946     
   49999999.6912947     
   49999999.6912947     
   49999999.6912947     
   49999999.6912947     
   49999999.6912946     
   49999999.6912946     
   49999999.6912946     
   49999999.6912946     
   49999999.6912946     
   49999999.6912946     
   49999999.6912946     
   49999999.6912946     
   49999999.6912947     
   49999999.6912946     
   49999999.6912946     
   49999999.6912945     
   49999999.6912945     
   49999999.6912944     
   49999999.6912944     
   49999999.6912944     
   49999999.6912943     
   49999999.6912943     
   49999999.6912943     
   49999999.6912944     
   49999998.3968642     
   49999998.3968643     
   49999998.3968643     
   49999998.3968643     
   49999998.3968643     
   49999998.3968642     
   49999998.3968642     
   49999998.3968642     
   49999998.3968641     
   49999998.3968641     
   49999998.3968640     
   49999998.3968640     
   49999998.3968640     
   49999998.3968639     
   49999998.3968639     
   49999998.3968639     
   49999998.3968640     
   49999998.3968640     
   49999998.3968640     
   49999998.3968641     
   49999998.3968641     
   49999998.3968641     
   49999998.3968641     
   49999998.3968640     
   49999998.3968640     
   49999998.3968639     
   49999998.3968639     
   49999998.3968640     
   49999998.3968640     
   49999998.3968641     
   49999998.3968641     
   49999998.3968641     
   49999998.3968641     
   49999998.3968641     
   49999998.3968640     
   49999998.3968641     
   49999998.3968641     
   49999998.3968641     
   49999998.3968640     
   49999998.3968640     
   49999998.3968639     
   49999998.3968639     
   49999998.3968639     
   49999998.3968638     
   49999998.3968638     
   49999998.3968637     
   49999998.3968637     
   49999998.3968637     
   49999998.3968637     
   49999998.3968637     
   49999998.3968637     
   49999991.8993196     
   49999991.8993196     
   49999991.8993196     
   49999991.8993196     
   49999991.8993197     
   49999991.8993197     
   49999991.8993196     
   49999991.8993196     
   49999991.8993195     
   49999991.8993195     
   49999991.8993194     
   49999991.8993194     
   49999991.8993194     
   49999991.8993193     
   49999991.8993194     
   49999991.8993194     
   49999991.8993194     
   49999991.8993194     
   49999991.8993195     
   49999991.8993195     
   49999991.8993195     
   49999991.8993195     
   49999991.8993195     
   49999991.8993194     
   49999991.8993194     
   49999991.8993194     
   49999991.8993193     
   49999991.8993194     
   49999991.8993194     
   49999991.8993195     
   49999991.8993194     
   49999991.8993194     
   49999991.8993194     
   49999991.8993194     
   49999991.8993194     
   49999991.8993194     
   49999991.8993194     
   49999991.8993194     
   49999991.8993194     
   49999991.8993194     
   49999991.8993194     
   49999991.8993193     
   49999991.8993193     
   49999991.8993192     
   49999991.8993192     
   49999991.8993191     
   49999991.8993191     
   49999991.8993191     
   49999991.8993191     
   49999991.8993191     
   49999991.8993191     
   49999960.3224731     
   49999960.3224731     
   49999960.3224731     
   49999960.3224731     
   49999960.3224731     
   49999960.3224731     
   49999960.3224730     
   49999960.3224730     
   49999960.3224730     
   49999960.3224730     
   49999960.3224729     
   49999960.3224729     
   49999960.3224729     
   49999960.3224728     
   49999960.3224728     
   49999960.3224728     
   49999960.3224728     
   49999960.3224728     
   49999960.3224729     
   49999960.3224729     
   49999960.3224729     
   49999960.3224728     
   49999960.3224728     
   49999960.3224728     
   49999960.3224728     
   49999960.3224727     
   49999960.3224727     
   49999960.3224727     
   49999960.3224728     
   49999960.3224727     
   49999960.3224728     
   49999960.3224728     
   49999960.3224728     
   49999960.3224728     
   49999960.3224728     
   49999960.3224728     
   49999960.3224728     
   49999960.3224728     
   49999960.3224728     
   49999960.3224728     
   49999960.3224727     
   49999960.3224727     
   49999960.3224727     
   49999960.3224726     
   49999960.3224726     
   49999960.3224725     
   49999960.3224725     
   49999960.3224725     
   49999960.3224725     
   49999960.3224725     
   49999960.3224725     
   49999812.4816962     
   49999812.4816963     
   49999812.4816963     
   49999812.4816963     
   49999812.4816963     
   49999812.4816963     
   49999812.4816963     
   49999812.4816962     
   49999812.4816962     
   49999812.4816961     
   49999812.4816961     
   49999812.4816960     
   49999812.4816960     
   49999812.4816960     
   49999812.4816960     
   49999812.4816960     
   49999812.4816960     
   49999812.4816960     
   49999812.4816960     
   49999812.4816960     
   49999812.4816960     
   49999812.4816960     
   49999812.4816960     
   49999812.4816959     
   49999812.4816959     
   49999812.4816959     
   49999812.4816959     
   49999812.4816960     
   49999812.4816960     
   49999812.4816960     
   49999812.4816960     
   49999812.4816960     
   49999812.4816960     
   49999812.4816960     
   49999812.4816960     
   49999812.4816960     
   49999812.4816960     
   49999812.4816960     
   49999812.4816960     
   49999812.4816959     
   49999812.4816959     
   49999812.4816959     
   49999812.4816959     
   49999812.4816958     
   49999812.4816958     
   49999812.4816958     
   49999812.4816957     
   49999812.4816957     
   49999812.4816957     
   49999812.4816957     
   49999812.4816957     
   49999149.6654111     
   49999149.6654111     
   49999149.6654111     
   49999149.6654111     
   49999149.6654111     
   49999149.6654111     
   49999149.6654111     
   49999149.6654110     
   49999149.6654110     
   49999149.6654109     
   49999149.6654109     
   49999149.6654109     
   49999149.6654109     
   49999149.6654109     
   49999149.6654109     
   49999149.6654109     
   49999149.6654109     
   49999149.6654109     
   49999149.6654110     
   49999149.6654110     
   49999149.6654110     
   49999149.6654110     
   49999149.6654110     
   49999149.6654109     
   49999149.6654109     
   49999149.6654108     
   49999149.6654108     
   49999149.6654108     
   49999149.6654108     
   49999149.6654108     
   49999149.6654108     
   49999149.6654108     
   49999149.6654108     
   49999149.6654108     
   49999149.6654108     
   49999149.6654108     
   49999149.6654108     
   49999149.6654108     
   49999149.6654108     
   49999149.6654108     
   49999149.6654108     
   49999149.6654107     
   49999149.6654107     
   49999149.6654106     
   49999149.6654105     
   49999149.6654105     
   49999149.6654105     
   49999149.6654105     
   49999149.6654105     
   49999149.6654105     
   49999149.6654105     
   49996325.4213505     
   49996325.4213505     
   49996325.4213506     
   49996325.4213506     
   49996325.4213506     
   49996325.4213505     
   49996325.4213505     
   49996325.4213505     
   49996325.4213505     
   49996325.4213504     
   49996325.4213504     
   49996325.4213504     
   49996325.4213504     
   49996325.4213504     
   49996325.4213504     
   49996325.4213503     
   49996325.4213504     
   49996325.4213504     
   49996325.4213504     
   49996325.4213505     
   49996325.4213504     
   49996325.4213504     
   49996325.4213504     
   49996325.4213503     
   49996325.4213503     
   49996325.4213503     
   49996325.4213502     
   49996325.4213502     
   49996325.4213503     
   49996325.4213503     
   49996325.4213503     
   49996325.4213503     
   49996325.4213503     
   49996325.4213503     
   49996325.4213503     
   49996325.4213503     
   49996325.4213503     
   49996325.4213503     
   49996325.4213502     
   49996325.4213502     
   49996325.4213502     
   49996325.4213501     
   49996325.4213501     
   49996325.4213500     
   49996325.4213500     
   49996325.4213499     
   49996325.4213499     
   49996325.4213499     
   49996325.4213499     
   49996325.4213499     
   49996325.4213499     
   49984995.0383602     
   49984995.0383603     
   49984995.0383603     
   49984995.0383603     
   49984995.0383603     
   49984995.0383603     
   49984995.0383602     
   49984995.0383602     
   49984995.0383601     
   49984995.0383601     
   49984995.0383601     
   49984995.0383601     
   49984995.0383600     
   49984995.0383600     
   49984995.0383601     
   49984995.0383601     
   49984995.0383601     
   49984995.0383601     
   49984995.0383601     
   49984995.0383601     
   49984995.0383601     
   49984995.0383601     
   49984995.0383600     
   49984995.0383600     
   49984995.0383599     
   49984995.0383599     
   49984995.0383599     
   49984995.0383599     
   49984995.0383599     
   49984995.0383599     
   49984995.0383599     
   49984995.0383599     
   49984995.0383599     
   49984995.0383599     
   49984995.0383599     
   49984995.0383599     
   49984995.0383599     
   49984995.0383599     
   49984995.0383599     
   49984995.0383598     
   49984995.0383598     
   49984995.0383597     
   49984995.0383597     
   49984995.0383597     
   49984995.0383596     
   49984995.0383596     
   49984995.0383596     
   49984995.0383596     
   49984995.0383596     
   49984995.0383596     
   49984995.0383596     
   49942698.6739038     
   49942698.6739038     
   49942698.6739037     
   49942698.6739037     
   49942698.6739038     
   49942698.6739038     
   49942698.6739037     
   49942698.6739037     
   49942698.6739036     
   49942698.6739036     
   49942698.6739036     
   49942698.6739035     
   49942698.6739035     
   49942698.6739036     
   49942698.6739036     
   49942698.6739036     
   49942698.6739036     
   49942698.6739036     
   49942698.6739037     
   49942698.6739037     
   49942698.6739037     
   49942698.6739036     
   49942698.6739036     
   49942698.6739035     
   49942698.6739035     
   49942698.6739035     
   49942698.6739034     
   49942698.6739034     
   49942698.6739035     
   49942698.6739035     
   49942698.6739034     
   49942698.6739034     
   49942698.6739034     
   49942698.6739034     
   49942698.6739034     
   49942698.6739034     
   49942698.6739034     
   49942698.6739034     
   49942698.6739034     
   49942698.6739034     
   49942698.6739033     
   49942698.6739033     
   49942698.6739033     
   49942698.6739032     
   49942698.6739032     
   49942698.6739031     
   49942698.6739031     
   49942698.6739031     
   49942698.6739031     
   49942698.6739031     
   49942698.6739031     
   49797933.9292351     
   49797933.9292351     
   49797933.9292352     
   49797933.9292352     
   49797933.9292352     
   49797933.9292351     
   49797933.9292351     
   49797933.9292351     
   49797933.9292350     
   49797933.9292350     
   49797933.9292349     
   49797933.9292349     
   49797933.9292349     
   49797933.9292349     
   49797933.9292349     
   49797933.9292349     
   49797933.9292350     
   49797933.9292350     
   49797933.9292350     
   49797933.9292351     
   49797933.9292351     
   49797933.9292350     
   49797933.9292350     
   49797933.9292349     
   49797933.9292349     
   49797933.9292348     
   49797933.9292348     
   49797933.9292348     
   49797933.9292349     
   49797933.9292349     
   49797933.9292350     
   49797933.9292349     
   49797933.9292349     
   49797933.9292349     
   49797933.9292349     
   49797933.9292349     
   49797933.9292349     
   49797933.9292348     
   49797933.9292348     
   49797933.9292347     
   49797933.9292347     
   49797933.9292346     
   49797933.9292346     
   49797933.9292345     
   49797933.9292345     
   49797933.9292344     
   49797933.9292344     
   49797933.9292344     
   49797933.9292344     
   49797933.9292344     
   49797933.9292344     
   49351886.4489387     
   49351886.4489387     
   49351886.4489387     
   49351886.4489387     
   49351886.4489387     
   49351886.4489387     
   49351886.4489387     
   49351886.4489386     
   49351886.4489385     
   49351886.4489385     
   49351886.4489385     
   49351886.4489384     
   49351886.4489384     
   49351886.4489384     
   49351886.4489384     
   49351886.4489384     
   49351886.4489384     
   49351886.4489384     
   49351886.4489385     
   49351886.4489385     
   49351886.4489385     
   49351886.4489385     
   49351886.4489385     
   49351886.4489384     
   49351886.4489384     
   49351886.4489384     
   49351886.4489384     
   49351886.4489384     
   49351886.4489384     
   49351886.4489384     
   49351886.4489384     
   49351886.4489384     
   49351886.4489384     
   49351886.4489384     
   49351886.4489384     
   49351886.4489384     
   49351886.4489383     
   49351886.4489383     
   49351886.4489383     
   49351886.4489382     
   49351886.4489382     
   49351886.4489381     
   49351886.4489381     
   49351886.4489380     
   49351886.4489380     
   49351886.4489379     
   49351886.4489379     
   49351886.4489379     
   49351886.4489379     
   49351886.4489379     
   49351886.4489379     
   48141526.7172904     
   48141526.7172904     
   48141526.7172904     
   48141526.7172904     
   48141526.7172904     
   48141526.7172904     
   48141526.7172903     
   48141526.7172903     
   48141526.7172903     
   48141526.7172901     
   48141526.7172901     
   48141526.7172900     
   48141526.7172901     
   48141526.7172900     
   48141526.7172900     
   48141526.7172901     
   48141526.7172901     
   48141526.7172901     
   48141526.7172901     
   48141526.7172902     
   48141526.7172902     
   48141526.7172902     
   48141526.7172902     
   48141526.7172901     
   48141526.7172901     
   48141526.7172900     
   48141526.7172900     
   48141526.7172900     
   48141526.7172901     
   48141526.7172900     
   48141526.7172900     
   48141526.7172900     
   48141526.7172900     
   48141526.7172900     
   48141526.7172900     
   48141526.7172900     
   48141526.7172900     
   48141526.7172899     
   48141526.7172899     
   48141526.7172899     
   48141526.7172899     
   48141526.7172898     
   48141526.7172898     
   48141526.7172897     
   48141526.7172897     
   48141526.7172896     
   48141526.7172896     
   48141526.7172896     
   48141526.7172897     
   48141526.7172896     
   48141526.7172896     
   45320679.6750860     
   45320679.6750861     
   45320679.6750860     
   45320679.6750861     
   45320679.6750860     
   45320679.6750860     
   45320679.6750859     
   45320679.6750859     
   45320679.6750858     
   45320679.6750858     
   45320679.6750857     
   45320679.6750858     
   45320679.6750857     
   45320679.6750858     
   45320679.6750858     
   45320679.6750858     
   45320679.6750857     
   45320679.6750858     
   45320679.6750858     
   45320679.6750858     
   45320679.6750858     
   45320679.6750858     
   45320679.6750857     
   45320679.6750857     
   45320679.6750856     
   45320679.6750856     
   45320679.6750856     
   45320679.6750856     
   45320679.6750856     
   45320679.6750856     
   45320679.6750856     
   45320679.6750857     
   45320679.6750857     
   45320679.6750857     
   45320679.6750856     
   45320679.6750856     
   45320679.6750856     
   45320679.6750856     
   45320679.6750856     
   45320679.6750856     
   45320679.6750855     
   45320679.6750855     
   45320679.6750854     
   45320679.6750854     
   45320679.6750853     
   45320679.6750853     
   45320679.6750853     
   45320679.6750853     
   45320679.6750853     
   45320679.6750853     
   45320679.6750853     
   39822198.3044847     
   39822198.3044848     
   39822198.3044847     
   39822198.3044846     
   39822198.3044847     
   39822198.3044847     
   39822198.3044846     
   39822198.3044845     
   39822198.3044845     
   39822198.3044844     
   39822198.3044844     
   39822198.3044844     
   39822198.3044843     
   39822198.3044843     
   39822198.3044843     
   39822198.3044843     
   39822198.3044843     
   39822198.3044843     
   39822198.3044844     
   39822198.3044844     
   39822198.3044844     
   39822198.3044844     
   39822198.3044843     
   39822198.3044843     
   39822198.3044843     
   39822198.3044842     
   39822198.3044842     
   39822198.3044842     
   39822198.3044843     
   39822198.3044843     
   39822198.3044843     
   39822198.3044843     
   39822198.3044844     
   39822198.3044843     
   39822198.3044844     
   39822198.3044843     
   39822198.3044843     
   39822198.3044843     
   39822198.3044844     
   39822198.3044842     
   39822198.3044842     
   39822198.3044842     
   39822198.3044841     
   39822198.3044841     
   39822198.3044841     
   39822198.3044841     
   39822198.3044841     
   39822198.3044841     
   39822198.3044841     
   39822198.3044841     
   39822198.3044840     
   31084217.5735551     
   31084217.5735551     
   31084217.5735551     
   31084217.5735551     
   31084217.5735551     
   31084217.5735551     
   31084217.5735551     
   31084217.5735549     
   31084217.5735550     
   31084217.5735549     
   31084217.5735549     
   31084217.5735549     
   31084217.5735549     
   31084217.5735549     
   31084217.5735549     
   31084217.5735549     
   31084217.5735549     
   31084217.5735549     
   31084217.5735549     
   31084217.5735550     
   31084217.5735550     
   31084217.5735550     
   31084217.5735549     
   31084217.5735549     
   31084217.5735549     
   31084217.5735549     
   31084217.5735549     
   31084217.5735549     
   31084217.5735549     
   31084217.5735549     
   31084217.5735549     
   31084217.5735549     
   31084217.5735550     
   31084217.5735549     
   31084217.5735549     
   31084217.5735549     
   31084217.5735549     
   31084217.5735549     
   31084217.5735549     
   31084217.5735549     
   31084217.5735549     
   31084217.5735548     
   31084217.5735548     
   31084217.5735548     
   31084217.5735548     
   31084217.5735548     
   31084217.5735548     
   31084217.5735548     
   31084217.5735548     
   31084217.5735548     
   31084217.5735547     
   20000000.0000000     
   20000000.0000000     
   20000000.0000000     
   20000000.0000000     
   20000000.0000000     
   20000000.0000000     
   20000000.0000000     
   20000000.0000000     
   20000000.0000000     
   20000000.0000000     
   20000000.0000000     
   20000000.0000000     
   20000000.0000000     
   20000000.0000000     
   20000000.0000000     
   20000000.0000000     
   20000000.0000000     
   20000000.0000000     
   20000000.0000000     
   20000000.0000000     
   20000000.0000000     
   20000000.0000000     
   20000000.0000000     
   20000000.0000000     
   20000000.0000000     
   20000000.0000000     
   20000000.0000000     
   20000000.0000000     
   20000000.0000000     
   20000000.0000000     
   20000000.0000000     
   20000000.0000000     
   20000000.0000000     
   20000000.0000000     
   20000000.0000000     
   20000000.0000000     
   20000000.0000000     
   20000000.0000000     
   20000000.0000000     
   20000000.0000000     
   20000000.0000000     
   20000000.0000000     
   20000000.0000000     
   20000000.0000000     
   20000000.0000000     
   20000000.0000000     
   20000000.0000000     
   20000000.0000000     
   20000000.0000000     
   20000000.0000000     
   20000000.0000000     
VECTORS u double 
    0.00000E+00         0.33307E+01         0.00000E+00
    0.00000E+00         0.32063E+01         0.00000E+00
    0.00000E+00         0.30846E+01         0.00000E+00
    0.00000E+00         0.29675E+01         0.00000E+00
    0.00000E+00         0.28560E+01         0.00000E+00
    0.00000E+00         0.27509E+01         0.00000E+00
    0.00000E+00         0.26521E+01         0.00000E+00
    0.00000E+00         0.25585E+01         0.00000E+00
    0.00000E+00         0.24683E+01         0.00000E+00
    0.00000E+00         0.23815E+01         0.00000E+00
    0.00000E+00         0.22980E+01         0.00000E+00
    0.00000E+00         0.22175E+01         0.00000E+00
    0.00000E+00         0.21400E+01         0.00000E+00
    0.00000E+00         0.20651E+01         0.00000E+00
    0.00000E+00         0.19928E+01         0.00000E+00
    0.00000E+00         0.19229E+01         0.00000E+00
    0.00000E+00         0.18552E+01         0.00000E+00
    0.00000E+00         0.17896E+01         0.00000E+00
    0.00000E+00         0.17259E+01         0.00000E+00
    0.00000E+00         0.16641E+01         0.00000E+00
    0.00000E+00         0.16039E+01         0.00000E+00
    0.00000E+00         0.15453E+01         0.00000E+00
    0.00000E+00         0.14882E+01         0.00000E+00
    0.00000E+00         0.14324E+01         0.00000E+00
    0.00000E+00         0.13779E+01         0.00000E+00
    0.00000E+00         0.13246E+01         0.00000E+00
    0.00000E+00         0.12724E+01         0.00000E+00
    0.00000E+00         0.12211E+01         0.00000E+00
    0.00000E+00         0.11708E+01         0.00000E+00
    0.00000E+00         0.11213E+01         0.00000E+00
    0.00000E+00         0.10725E+01         0.00000E+00
    0.00000E+00         0.10243E+01         0.00000E+00
    0.00000E+00         0.97674E+00         0.00000E+00
    0.00000E+00         0.92962E+00         0.00000E+00
    0.00000E+00         0.88286E+00         0.00000E+00
    0.00000E+00         0.83635E+00         0.00000E+00
    0.00000E+00         0.78998E+00         0.00000E+00
    0.00000E+00         0.74363E+00         0.00000E+00
    0.00000E+00         0.69713E+00         0.00000E+00
    0.00000E+00         0.65032E+00         0.00000E+00
    0.00000E+00         0.60301E+00         0.00000E+00
    0.00000E+00         0.55494E+00         0.00000E+00
    0.00000E+00         0.50585E+00         0.00000E+00
    0.00000E+00         0.45537E+00         0.00000E+00
    0.00000E+00         0.40306E+00         0.00000E+00
    0.00000E+00         0.34836E+00         0.00000E+00
    0.00000E+00         0.29050E+00         0.00000E+00
    0.00000E+00         0.22849E+00         0.00000E+00
    0.00000E+00         0.16093E+00         0.00000E+00
    0.00000E+00         0.85785E-01         0.00000E+00
    0.00000E+00         0.00000E+00         0.00000E+00
    0.96236E+00         0.28782E+01         0.00000E+00
    0.85550E+00         0.28140E+01         0.00000E+00
    0.77125E+00         0.27456E+01         0.00000E+00
    0.70420E+00         0.26749E+01         0.00000E+00
    0.65089E+00         0.26030E+01         0.00000E+00
    0.60894E+00         0.25308E+01         0.00000E+00
    0.57667E+00         0.24581E+01         0.00000E+00
    0.55208E+00         0.23853E+01         0.00000E+00
    0.53319E+00         0.23131E+01         0.00000E+00
    0.51845E+00         0.22418E+01         0.00000E+00
    0.50682E+00         0.21716E+01         0.00000E+00
    0.49754E+00         0.21027E+01         0.00000E+00
    0.49007E+00         0.20352E+01         0.00000E+00
    0.48400E+00         0.19692E+01         0.00000E+00
    0.47901E+00         0.19047E+01         0.00000E+00
    0.47487E+00         0.18417E+01         0.00000E+00
    0.47139E+00         0.17801E+01         0.00000E+00
    0.46841E+00         0.17199E+01         0.00000E+00
    0.46582E+00         0.16611E+01         0.00000E+00
    0.46351E+00         0.16036E+01         0.00000E+00
    0.46140E+00         0.15473E+01         0.00000E+00
    0.45942E+00         0.14922E+01         0.00000E+00
    0.45750E+00         0.14383E+01         0.00000E+00
    0.45559E+00         0.13853E+01         0.00000E+00
    0.45364E+00         0.13334E+01         0.00000E+00
    0.45159E+00         0.12824E+01         0.00000E+00
    0.44941E+00         0.12322E+01         0.00000E+00
    0.44705E+00         0.11828E+01         0.00000E+00
    0.44446E+00         0.11341E+01         0.00000E+00
    0.44159E+00         0.10861E+01         0.00000E+00
    0.43839E+00         0.10386E+01         0.00000E+00
    0.43480E+00         0.99159E+00         0.00000E+00
    0.43075E+00         0.94499E+00         0.00000E+00
    0.42618E+00         0.89872E+00         0.00000E+00
    0.42099E+00         0.85267E+00         0.00000E+00
    0.41508E+00         0.80674E+00         0.00000E+00
    0.40833E+00         0.76084E+00         0.00000E+00
    0.40060E+00         0.71482E+00         0.00000E+00
    0.39171E+00         0.66857E+00         0.00000E+00
    0.38145E+00         0.62191E+00         0.00000E+00
    0.36957E+00         0.57468E+00         0.00000E+00
    0.35572E+00         0.52666E+00         0.00000E+00
    0.33950E+00         0.47762E+00         0.00000E+00
    0.32037E+00         0.42726E+00         0.00000E+00
    0.29766E+00         0.37524E+00         0.00000E+00
    0.27045E+00         0.32116E+00         0.00000E+00
    0.23751E+00         0.26453E+00         0.00000E+00
    0.19713E+00         0.20479E+00         0.00000E+00
    0.14687E+00         0.14126E+00         0.00000E+00
    0.83074E-01         0.73232E-01         0.00000E+00
    0.00000E+00         0.00000E+00         0.00000E+00
    0.13761E+01         0.22932E+01         0.00000E+00
    0.12681E+01         0.22533E+01         0.00000E+00
    0.11740E+01         0.22143E+01         0.00000E+00
    0.10936E+01         0.21749E+01         0.00000E+00
    0.10254E+01         0.21346E+01         0.00000E+00
    0.96789E+00         0.20931E+01         0.00000E+00
    0.91952E+00         0.20505E+01         0.00000E+00
    0.87903E+00         0.20068E+01         0.00000E+00
    0.84529E+00         0.19620E+01         0.00000E+00
    0.81720E+00         0.19162E+01         0.00000E+00
    0.79378E+00         0.18695E+01         0.00000E+00
    0.77421E+00         0.18223E+01         0.00000E+00
    0.75778E+00         0.17747E+01         0.00000E+00
    0.74391E+00         0.17269E+01         0.00000E+00
    0.73213E+00         0.16789E+01         0.00000E+00
    0.72205E+00         0.16310E+01         0.00000E+00
    0.71335E+00         0.15832E+01         0.00000E+00
    0.70574E+00         0.15356E+01         0.00000E+00
    0.69899E+00         0.14883E+01         0.00000E+00
    0.69293E+00         0.14412E+01         0.00000E+00
    0.68736E+00         0.13945E+01         0.00000E+00
    0.68216E+00         0.13481E+01         0.00000E+00
    0.67720E+00         0.13021E+01         0.00000E+00
    0.67235E+00         0.12565E+01         0.00000E+00
    0.66752E+00         0.12111E+01         0.00000E+00
    0.66260E+00         0.11662E+01         0.00000E+00
    0.65751E+00         0.11215E+01         0.00000E+00
    0.65215E+00         0.10771E+01         0.00000E+00
    0.64643E+00         0.10330E+01         0.00000E+00
    0.64026E+00         0.98904E+00         0.00000E+00
    0.63353E+00         0.94527E+00         0.00000E+00
    0.62614E+00         0.90162E+00         0.00000E+00
    0.61797E+00         0.85803E+00         0.00000E+00
    0.60889E+00         0.81444E+00         0.00000E+00
    0.59876E+00         0.77079E+00         0.00000E+00
    0.58740E+00         0.72700E+00         0.00000E+00
    0.57463E+00         0.68300E+00         0.00000E+00
    0.56022E+00         0.63870E+00         0.00000E+00
    0.54391E+00         0.59401E+00         0.00000E+00
    0.52538E+00         0.54883E+00         0.00000E+00
    0.50427E+00         0.50306E+00         0.00000E+00
    0.48014E+00         0.45659E+00         0.00000E+00
    0.45246E+00         0.40931E+00         0.00000E+00
    0.42061E+00         0.36112E+00         0.00000E+00
    0.38382E+00         0.31193E+00         0.00000E+00
    0.34120E+00         0.26168E+00         0.00000E+00
    0.29167E+00         0.21038E+00         0.00000E+00
    0.23401E+00         0.15812E+00         0.00000E+00
    0.16688E+00         0.10518E+00         0.00000E+00
    0.89057E-01         0.52133E-01         0.00000E+00
    0.00000E+00         0.00000E+00         0.00000E+00
    0.15260E+01         0.17438E+01         0.00000E+00
    0.14305E+01         0.17230E+01         0.00000E+00
    0.13449E+01         0.17022E+01         0.00000E+00
    0.12682E+01         0.16813E+01         0.00000E+00
    0.11999E+01         0.16600E+01         0.00000E+00
    0.11392E+01         0.16380E+01         0.00000E+00
    0.10857E+01         0.16150E+01         0.00000E+00
    0.10385E+01         0.15908E+01         0.00000E+00
    0.99709E+00         0.15656E+01         0.00000E+00
    0.96081E+00         0.15391E+01         0.00000E+00
    0.92906E+00         0.15114E+01         0.00000E+00
    0.90127E+00         0.14825E+01         0.00000E+00
    0.87693E+00         0.14526E+01         0.00000E+00
    0.85556E+00         0.14217E+01         0.00000E+00
    0.83673E+00         0.13898E+01         0.00000E+00
    0.82006E+00         0.13571E+01         0.00000E+00
    0.80522E+00         0.13237E+01         0.00000E+00
    0.79189E+00         0.12897E+01         0.00000E+00
    0.77982E+00         0.12551E+01         0.00000E+00
    0.76878E+00         0.12200E+01         0.00000E+00
    0.75854E+00         0.11844E+01         0.00000E+00
    0.74893E+00         0.11485E+01         0.00000E+00
    0.73977E+00         0.11122E+01         0.00000E+00
    0.73092E+00         0.10757E+01         0.00000E+00
    0.72221E+00         0.10389E+01         0.00000E+00
    0.71353E+00         0.10018E+01         0.00000E+00
    0.70473E+00         0.96449E+00         0.00000E+00
    0.69570E+00         0.92697E+00         0.00000E+00
    0.68631E+00         0.88922E+00         0.00000E+00
    0.67643E+00         0.85124E+00         0.00000E+00
    0.66594E+00         0.81304E+00         0.00000E+00
    0.65471E+00         0.77458E+00         0.00000E+00
    0.64258E+00         0.73586E+00         0.00000E+00
    0.62942E+00         0.69686E+00         0.00000E+00
    0.61505E+00         0.65756E+00         0.00000E+00
    0.59930E+00         0.61792E+00         0.00000E+00
    0.58197E+00         0.57793E+00         0.00000E+00
    0.56284E+00         0.53757E+00         0.00000E+00
    0.54165E+00         0.49681E+00         0.00000E+00
    0.51815E+00         0.45565E+00         0.00000E+00
    0.49202E+00         0.41409E+00         0.00000E+00
    0.46292E+00         0.37215E+00         0.00000E+00
    0.43048E+00         0.32985E+00         0.00000E+00
    0.39430E+00         0.28728E+00         0.00000E+00
    0.35394E+00         0.24456E+00         0.00000E+00
    0.30894E+00         0.20185E+00         0.00000E+00
    0.25886E+00         0.15940E+00         0.00000E+00
    0.20329E+00         0.11754E+00         0.00000E+00
    0.14186E+00         0.76696E-01         0.00000E+00
    0.74252E-01         0.37353E-01         0.00000E+00
    0.00000E+00         0.00000E+00         0.00000E+00
    0.15137E+01         0.12996E+01         0.00000E+00
    0.14384E+01         0.12873E+01         0.00000E+00
    0.13677E+01         0.12758E+01         0.00000E+00
    0.13020E+01         0.12645E+01         0.00000E+00
    0.12411E+01         0.12532E+01         0.00000E+00
    0.11851E+01         0.12415E+01         0.00000E+00
    0.11337E+01         0.12293E+01         0.00000E+00
    0.10868E+01         0.12163E+01         0.00000E+00
    0.10440E+01         0.12025E+01         0.00000E+00
    0.10050E+01         0.11878E+01         0.00000E+00
    0.96967E+00         0.11720E+01         0.00000E+00
    0.93760E+00         0.11551E+01         0.00000E+00
    0.90850E+00         0.11372E+01         0.00000E+00
    0.88206E+00         0.11181E+01         0.00000E+00
    0.85802E+00         0.10980E+01         0.00000E+00
    0.83608E+00         0.10769E+01         0.00000E+00
    0.81599E+00         0.10548E+01         0.00000E+00
    0.79751E+00         0.10318E+01         0.00000E+00
    0.78040E+00         0.10078E+01         0.00000E+00
    0.76445E+00         0.98296E+00         0.00000E+00
    0.74947E+00         0.95733E+00         0.00000E+00
    0.73527E+00         0.93094E+00         0.00000E+00
    0.72168E+00         0.90383E+00         0.00000E+00
    0.70853E+00         0.87604E+00         0.00000E+00
    0.69567E+00         0.84762E+00         0.00000E+00
    0.68297E+00         0.81859E+00         0.00000E+00
    0.67026E+00         0.78898E+00         0.00000E+00
    0.65744E+00         0.75883E+00         0.00000E+00
    0.64435E+00         0.72815E+00         0.00000E+00
    0.63087E+00         0.69698E+00         0.00000E+00
    0.61686E+00         0.66532E+00         0.00000E+00
    0.60221E+00         0.63320E+00         0.00000E+00
    0.58676E+00         0.60063E+00         0.00000E+00
    0.57038E+00         0.56763E+00         0.00000E+00
    0.55292E+00         0.53422E+00         0.00000E+00
    0.53424E+00         0.50043E+00         0.00000E+00
    0.51419E+00         0.46628E+00         0.00000E+00
    0.49259E+00         0.43179E+00         0.00000E+00
    0.46928E+00         0.39703E+00         0.00000E+00
    0.44408E+00         0.36203E+00         0.00000E+00
    0.41683E+00         0.32688E+00         0.00000E+00
    0.38733E+00         0.29165E+00         0.00000E+00
    0.35543E+00         0.25646E+00         0.00000E+00
    0.32095E+00         0.22146E+00         0.00000E+00
    0.28376E+00         0.18679E+00         0.00000E+00
    0.24372E+00         0.15268E+00         0.00000E+00
    0.20077E+00         0.11935E+00         0.00000E+00
    0.15486E+00         0.87089E-01         0.00000E+00
    0.10602E+00         0.56193E-01         0.00000E+00
    0.54312E-01         0.27020E-01         0.00000E+00
    0.00000E+00         0.00000E+00         0.00000E+00
    0.14238E+01         0.96249E+00         0.00000E+00
    0.13665E+01         0.95405E+00         0.00000E+00
    0.13112E+01         0.94623E+00         0.00000E+00
    0.12580E+01         0.93883E+00         0.00000E+00
    0.12072E+01         0.93165E+00         0.00000E+00
    0.11589E+01         0.92447E+00         0.00000E+00
    0.11134E+01         0.91712E+00         0.00000E+00
    0.10704E+01         0.90945E+00         0.00000E+00
    0.10302E+01         0.90130E+00         0.00000E+00
    0.99244E+00         0.89257E+00         0.00000E+00
    0.95719E+00         0.88316E+00         0.00000E+00
    0.92429E+00         0.87300E+00         0.00000E+00
    0.89360E+00         0.86202E+00         0.00000E+00
    0.86497E+00         0.85019E+00         0.00000E+00
    0.83825E+00         0.83748E+00         0.00000E+00
    0.81325E+00         0.82386E+00         0.00000E+00
    0.78984E+00         0.80934E+00         0.00000E+00
    0.76783E+00         0.79392E+00         0.00000E+00
    0.74707E+00         0.77761E+00         0.00000E+00
    0.72740E+00         0.76042E+00         0.00000E+00
    0.70866E+00         0.74238E+00         0.00000E+00
    0.69071E+00         0.72351E+00         0.00000E+00
    0.67341E+00         0.70384E+00         0.00000E+00
    0.65661E+00         0.68339E+00         0.00000E+00
    0.64018E+00         0.66219E+00         0.00000E+00
    0.62400E+00         0.64028E+00         0.00000E+00
    0.60793E+00         0.61769E+00         0.00000E+00
    0.59186E+00         0.59445E+00         0.00000E+00
    0.57568E+00         0.57058E+00         0.00000E+00
    0.55925E+00         0.54613E+00         0.00000E+00
    0.54248E+00         0.52113E+00         0.00000E+00
    0.52525E+00         0.49560E+00         0.00000E+00
    0.50745E+00         0.46959E+00         0.00000E+00
    0.48898E+00         0.44314E+00         0.00000E+00
    0.46972E+00         0.41630E+00         0.00000E+00
    0.44958E+00         0.38910E+00         0.00000E+00
    0.42846E+00         0.36161E+00         0.00000E+00
    0.40626E+00         0.33389E+00         0.00000E+00
    0.38289E+00         0.30600E+00         0.00000E+00
    0.35827E+00         0.27803E+00         0.00000E+00
    0.33233E+00         0.25006E+00         0.00000E+00
    0.30501E+00         0.22219E+00         0.00000E+00
    0.27628E+00         0.19456E+00         0.00000E+00
    0.24610E+00         0.16727E+00         0.00000E+00
    0.21449E+00         0.14048E+00         0.00000E+00
    0.18149E+00         0.11435E+00         0.00000E+00
    0.14718E+00         0.89049E-01         0.00000E+00
    0.11166E+00         0.64762E-01         0.00000E+00
    0.75130E-01         0.41688E-01         0.00000E+00
    0.37813E-01         0.20035E-01         0.00000E+00
    0.00000E+00         0.00000E+00         0.00000E+00
    0.13049E+01         0.71115E+00         0.00000E+00
    0.12617E+01         0.70419E+00         0.00000E+00
    0.12189E+01         0.69776E+00         0.00000E+00
    0.11768E+01         0.69174E+00         0.00000E+00
    0.11357E+01         0.68602E+00         0.00000E+00
    0.10957E+01         0.68047E+00         0.00000E+00
    0.10570E+01         0.67496E+00         0.00000E+00
    0.10196E+01         0.66939E+00         0.00000E+00
    0.98378E+00         0.66365E+00         0.00000E+00
    0.94940E+00         0.65763E+00         0.00000E+00
    0.91653E+00         0.65126E+00         0.00000E+00
    0.88515E+00         0.64444E+00         0.00000E+00
    0.85523E+00         0.63711E+00         0.00000E+00
    0.82671E+00         0.62922E+00         0.00000E+00
    0.79953E+00         0.62072E+00         0.00000E+00
    0.77360E+00         0.61157E+00         0.00000E+00
    0.74885E+00         0.60174E+00         0.00000E+00
    0.72519E+00         0.59121E+00         0.00000E+00
    0.70251E+00         0.57997E+00         0.00000E+00
    0.68071E+00         0.56802E+00         0.00000E+00
    0.65970E+00         0.55534E+00         0.00000E+00
    0.63938E+00         0.54196E+00         0.00000E+00
    0.61964E+00         0.52787E+00         0.00000E+00
    0.60038E+00         0.51309E+00         0.00000E+00
    0.58151E+00         0.49765E+00         0.00000E+00
    0.56292E+00         0.48155E+00         0.00000E+00
    0.54452E+00         0.46483E+00         0.00000E+00
    0.52622E+00         0.44751E+00         0.00000E+00
    0.50793E+00         0.42962E+00         0.00000E+00
    0.48956E+00         0.41119E+00         0.00000E+00
    0.47103E+00         0.39226E+00         0.00000E+00
    0.45225E+00         0.37287E+00         0.00000E+00
    0.43317E+00         0.35306E+00         0.00000E+00
    0.41369E+00         0.33288E+00         0.00000E+00
    0.39376E+00         0.31237E+00         0.00000E+00
    0.37331E+00         0.29159E+00         0.00000E+00
    0.35230E+00         0.27060E+00         0.00000E+00
    0.33068E+00         0.24945E+00         0.00000E+00
    0.30842E+00         0.22824E+00         0.00000E+00
    0.28548E+00         0.20701E+00         0.00000E+00
    0.26187E+00         0.18587E+00         0.00000E+00
    0.23758E+00         0.16489E+00         0.00000E+00
    0.21264E+00         0.14417E+00         0.00000E+00
    0.18709E+00         0.12380E+00         0.00000E+00
    0.16099E+00         0.10389E+00         0.00000E+00
    0.13444E+00         0.84544E-01         0.00000E+00
    0.10755E+00         0.65872E-01         0.00000E+00
    0.80464E-01         0.47979E-01         0.00000E+00
    0.53364E-01         0.30972E-01         0.00000E+00
    0.26460E-01         0.14948E-01         0.00000E+00
    0.00000E+00         0.00000E+00         0.00000E+00
    0.11800E+01         0.52291E+00         0.00000E+00
    0.11472E+01         0.51663E+00         0.00000E+00
    0.11142E+01         0.51077E+00         0.00000E+00
    0.10811E+01         0.50527E+00         0.00000E+00
    0.10482E+01         0.50005E+00         0.00000E+00
    0.10156E+01         0.49506E+00         0.00000E+00
    0.98344E+00         0.49021E+00         0.00000E+00
    0.95184E+00         0.48543E+00         0.00000E+00
    0.92091E+00         0.48065E+00         0.00000E+00
    0.89072E+00         0.47579E+00         0.00000E+00
    0.86131E+00         0.47078E+00         0.00000E+00
    0.83272E+00         0.46557E+00         0.00000E+00
    0.80497E+00         0.46009E+00         0.00000E+00
    0.77807E+00         0.45429E+00         0.00000E+00
    0.75199E+00         0.44812E+00         0.00000E+00
    0.72673E+00         0.44155E+00         0.00000E+00
    0.70224E+00         0.43454E+00         0.00000E+00
    0.67850E+00         0.42705E+00         0.00000E+00
    0.65545E+00         0.41908E+00         0.00000E+00
    0.63304E+00         0.41060E+00         0.00000E+00
    0.61122E+00         0.40161E+00         0.00000E+00
    0.58993E+00         0.39208E+00         0.00000E+00
    0.56911E+00         0.38204E+00         0.00000E+00
    0.54869E+00         0.37147E+00         0.00000E+00
    0.52862E+00         0.36038E+00         0.00000E+00
    0.50883E+00         0.34880E+00         0.00000E+00
    0.48926E+00         0.33672E+00         0.00000E+00
    0.46984E+00         0.32418E+00         0.00000E+00
    0.45053E+00         0.31120E+00         0.00000E+00
    0.43126E+00         0.29780E+00         0.00000E+00
    0.41197E+00         0.28401E+00         0.00000E+00
    0.39263E+00         0.26987E+00         0.00000E+00
    0.37319E+00         0.25541E+00         0.00000E+00
    0.35360E+00         0.24067E+00         0.00000E+00
    0.33383E+00         0.22570E+00         0.00000E+00
    0.31385E+00         0.21054E+00         0.00000E+00
    0.29365E+00         0.19525E+00         0.00000E+00
    0.27320E+00         0.17987E+00         0.00000E+00
    0.25250E+00         0.16447E+00         0.00000E+00
    0.23157E+00         0.14909E+00         0.00000E+00
    0.21041E+00         0.13382E+00         0.00000E+00
    0.18905E+00         0.11869E+00         0.00000E+00
    0.16755E+00         0.10379E+00         0.00000E+00
    0.14594E+00         0.89177E-01         0.00000E+00
    0.12431E+00         0.74914E-01         0.00000E+00
    0.10274E+00         0.61067E-01         0.00000E+00
    0.81332E-01         0.47696E-01         0.00000E+00
    0.60210E-01         0.34858E-01         0.00000E+00
    0.39509E-01         0.22602E-01         0.00000E+00
    0.19383E-01         0.10972E-01         0.00000E+00
    0.00000E+00         0.00000E+00         0.00000E+00
    0.10587E+01         0.38087E+00         0.00000E+00
    0.10338E+01         0.37507E+00         0.00000E+00
    0.10082E+01         0.36959E+00         0.00000E+00
    0.98229E+00         0.36440E+00         0.00000E+00
    0.95606E+00         0.35947E+00         0.00000E+00
    0.92969E+00         0.35476E+00         0.00000E+00
    0.90328E+00         0.35022E+00         0.00000E+00
    0.87694E+00         0.34581E+00         0.00000E+00
    0.85075E+00         0.34148E+00         0.00000E+00
    0.82481E+00         0.33718E+00         0.00000E+00
    0.79916E+00         0.33286E+00         0.00000E+00
    0.77387E+00         0.32849E+00         0.00000E+00
    0.74896E+00         0.32400E+00         0.00000E+00
    0.72447E+00         0.31938E+00         0.00000E+00
    0.70042E+00         0.31457E+00         0.00000E+00
    0.67682E+00         0.30955E+00         0.00000E+00
    0.65367E+00         0.30428E+00         0.00000E+00
    0.63096E+00         0.29874E+00         0.00000E+00
    0.60869E+00         0.29290E+00         0.00000E+00
    0.58683E+00         0.28675E+00         0.00000E+00
    0.56536E+00         0.28027E+00         0.00000E+00
    0.54426E+00         0.27345E+00         0.00000E+00
    0.52350E+00         0.26629E+00         0.00000E+00
    0.50305E+00         0.25878E+00         0.00000E+00
    0.48287E+00         0.25093E+00         0.00000E+00
    0.46294E+00         0.24274E+00         0.00000E+00
    0.44322E+00         0.23422E+00         0.00000E+00
    0.42367E+00         0.22538E+00         0.00000E+00
    0.40428E+00         0.21624E+00         0.00000E+00
    0.38499E+00         0.20681E+00         0.00000E+00
    0.36580E+00         0.19712E+00         0.00000E+00
    0.34666E+00         0.18720E+00         0.00000E+00
    0.32757E+00         0.17707E+00         0.00000E+00
    0.30851E+00         0.16675E+00         0.00000E+00
    0.28945E+00         0.15629E+00         0.00000E+00
    0.27039E+00         0.14572E+00         0.00000E+00
    0.25133E+00         0.13507E+00         0.00000E+00
    0.23227E+00         0.12439E+00         0.00000E+00
    0.21323E+00         0.11370E+00         0.00000E+00
    0.19421E+00         0.10307E+00         0.00000E+00
    0.17524E+00         0.92515E-01         0.00000E+00
    0.15637E+00         0.82091E-01         0.00000E+00
    0.13761E+00         0.71834E-01         0.00000E+00
    0.11904E+00         0.61786E-01         0.00000E+00
    0.10070E+00         0.51983E-01         0.00000E+00
    0.82665E-01         0.42462E-01         0.00000E+00
    0.65009E-01         0.33254E-01         0.00000E+00
    0.47818E-01         0.24385E-01         0.00000E+00
    0.31185E-01         0.15878E-01         0.00000E+00
    0.15210E-01         0.77470E-02         0.00000E+00
    0.00000E+00         0.00000E+00         0.00000E+00
    0.94499E+00         0.27349E+00         0.00000E+00
    0.92600E+00         0.26813E+00         0.00000E+00
    0.90629E+00         0.26303E+00         0.00000E+00
    0.88597E+00         0.25817E+00         0.00000E+00
    0.86515E+00         0.25353E+00         0.00000E+00
    0.84392E+00         0.24908E+00         0.00000E+00
    0.82239E+00         0.24481E+00         0.00000E+00
    0.80063E+00         0.24069E+00         0.00000E+00
    0.77872E+00         0.23668E+00         0.00000E+00
    0.75674E+00         0.23277E+00         0.00000E+00
    0.73474E+00         0.22890E+00         0.00000E+00
    0.71278E+00         0.22507E+00         0.00000E+00
    0.69090E+00         0.22123E+00         0.00000E+00
    0.66915E+00         0.21736E+00         0.00000E+00
    0.64755E+00         0.21344E+00         0.00000E+00
    0.62614E+00         0.20943E+00         0.00000E+00
    0.60493E+00         0.20531E+00         0.00000E+00
    0.58393E+00         0.20107E+00         0.00000E+00
    0.56315E+00         0.19669E+00         0.00000E+00
    0.54260E+00         0.19214E+00         0.00000E+00
    0.52228E+00         0.18742E+00         0.00000E+00
    0.50218E+00         0.18251E+00         0.00000E+00
    0.48230E+00         0.17742E+00         0.00000E+00
    0.46263E+00         0.17213E+00         0.00000E+00
    0.44316E+00         0.16664E+00         0.00000E+00
    0.42389E+00         0.16095E+00         0.00000E+00
    0.40478E+00         0.15508E+00         0.00000E+00
    0.38585E+00         0.14902E+00         0.00000E+00
    0.36707E+00         0.14278E+00         0.00000E+00
    0.34843E+00         0.13638E+00         0.00000E+00
    0.32993E+00         0.12983E+00         0.00000E+00
    0.31155E+00         0.12314E+00         0.00000E+00
    0.29329E+00         0.11634E+00         0.00000E+00
    0.27515E+00         0.10944E+00         0.00000E+00
    0.25712E+00         0.10247E+00         0.00000E+00
    0.23922E+00         0.95442E-01         0.00000E+00
    0.22144E+00         0.88390E-01         0.00000E+00
    0.20380E+00         0.81336E-01         0.00000E+00
    0.18631E+00         0.74306E-01         0.00000E+00
    0.16899E+00         0.67324E-01         0.00000E+00
    0.15187E+00         0.60416E-01         0.00000E+00
    0.13497E+00         0.53608E-01         0.00000E+00
    0.11833E+00         0.46923E-01         0.00000E+00
    0.10199E+00         0.40383E-01         0.00000E+00
    0.85979E-01         0.34009E-01         0.00000E+00
    0.70360E-01         0.27819E-01         0.00000E+00
    0.55179E-01         0.21826E-01         0.00000E+00
    0.40492E-01         0.16044E-01         0.00000E+00
    0.26358E-01         0.10477E-01         0.00000E+00
    0.12840E-01         0.51305E-02         0.00000E+00
    0.00000E+00         0.00000E+00         0.00000E+00
    0.84034E+00         0.19270E+00         0.00000E+00
    0.82599E+00         0.18781E+00         0.00000E+00
    0.81086E+00         0.18311E+00         0.00000E+00
    0.79502E+00         0.17862E+00         0.00000E+00
    0.77856E+00         0.17431E+00         0.00000E+00
    0.76157E+00         0.17018E+00         0.00000E+00
    0.74411E+00         0.16621E+00         0.00000E+00
    0.72626E+00         0.16239E+00         0.00000E+00
    0.70808E+00         0.15870E+00         0.00000E+00
    0.68964E+00         0.15512E+00         0.00000E+00
    0.67099E+00         0.15164E+00         0.00000E+00
    0.65217E+00         0.14824E+00         0.00000E+00
    0.63325E+00         0.14489E+00         0.00000E+00
    0.61425E+00         0.14158E+00         0.00000E+00
    0.59522E+00         0.13830E+00         0.00000E+00
    0.57618E+00         0.13502E+00         0.00000E+00
    0.55717E+00         0.13174E+00         0.00000E+00
    0.53821E+00         0.12842E+00         0.00000E+00
    0.51931E+00         0.12507E+00         0.00000E+00
    0.50050E+00         0.12166E+00         0.00000E+00
    0.48179E+00         0.11820E+00         0.00000E+00
    0.46318E+00         0.11466E+00         0.00000E+00
    0.44469E+00         0.11105E+00         0.00000E+00
    0.42632E+00         0.10736E+00         0.00000E+00
    0.40808E+00         0.10358E+00         0.00000E+00
    0.38997E+00         0.99724E-01         0.00000E+00
    0.37199E+00         0.95780E-01         0.00000E+00
    0.35414E+00         0.91754E-01         0.00000E+00
    0.33643E+00         0.87652E-01         0.00000E+00
    0.31886E+00         0.83480E-01         0.00000E+00
    0.30143E+00         0.79245E-01         0.00000E+00
    0.28415E+00         0.74957E-01         0.00000E+00
    0.26701E+00         0.70626E-01         0.00000E+00
    0.25002E+00         0.66265E-01         0.00000E+00
    0.23320E+00         0.61885E-01         0.00000E+00
    0.21654E+00         0.57501E-01         0.00000E+00
    0.20007E+00         0.53126E-01         0.00000E+00
    0.18379E+00         0.48776E-01         0.00000E+00
    0.16772E+00         0.44464E-01         0.00000E+00
    0.15187E+00         0.40205E-01         0.00000E+00
    0.13627E+00         0.36013E-01         0.00000E+00
    0.12095E+00         0.31902E-01         0.00000E+00
    0.10592E+00         0.27884E-01         0.00000E+00
    0.91208E-01         0.23970E-01         0.00000E+00
    0.76853E-01         0.20169E-01         0.00000E+00
    0.62882E-01         0.16489E-01         0.00000E+00
    0.49328E-01         0.12936E-01         0.00000E+00
    0.36228E-01         0.95118E-02         0.00000E+00
    0.23615E-01         0.62169E-02         0.00000E+00
    0.11527E-01         0.30484E-02         0.00000E+00
    0.00000E+00         0.00000E+00         0.00000E+00
    0.74534E+00         0.13257E+00         0.00000E+00
    0.73462E+00         0.12814E+00         0.00000E+00
    0.72310E+00         0.12388E+00         0.00000E+00
    0.71085E+00         0.11977E+00         0.00000E+00
    0.69792E+00         0.11583E+00         0.00000E+00
    0.68439E+00         0.11204E+00         0.00000E+00
    0.67032E+00         0.10840E+00         0.00000E+00
    0.65577E+00         0.10490E+00         0.00000E+00
    0.64079E+00         0.10153E+00         0.00000E+00
    0.62543E+00         0.98294E-01         0.00000E+00
    0.60975E+00         0.95168E-01         0.00000E+00
    0.59379E+00         0.92146E-01         0.00000E+00
    0.57760E+00         0.89217E-01         0.00000E+00
    0.56121E+00         0.86370E-01         0.00000E+00
    0.54467E+00         0.83594E-01         0.00000E+00
    0.52800E+00         0.80878E-01         0.00000E+00
    0.51123E+00         0.78212E-01         0.00000E+00
    0.49440E+00         0.75587E-01         0.00000E+00
    0.47752E+00         0.72992E-01         0.00000E+00
    0.46062E+00         0.70420E-01         0.00000E+00
    0.44372E+00         0.67864E-01         0.00000E+00
    0.42684E+00         0.65316E-01         0.00000E+00
    0.41000E+00         0.62772E-01         0.00000E+00
    0.39320E+00         0.60228E-01         0.00000E+00
    0.37646E+00         0.57680E-01         0.00000E+00
    0.35980E+00         0.55126E-01         0.00000E+00
    0.34322E+00         0.52566E-01         0.00000E+00
    0.32673E+00         0.49999E-01         0.00000E+00
    0.31035E+00         0.47429E-01         0.00000E+00
    0.29408E+00         0.44856E-01         0.00000E+00
    0.27793E+00         0.42285E-01         0.00000E+00
    0.26191E+00         0.39720E-01         0.00000E+00
    0.24604E+00         0.37165E-01         0.00000E+00
    0.23031E+00         0.34628E-01         0.00000E+00
    0.21475E+00         0.32114E-01         0.00000E+00
    0.19936E+00         0.29630E-01         0.00000E+00
    0.18416E+00         0.27184E-01         0.00000E+00
    0.16915E+00         0.24782E-01         0.00000E+00
    0.15436E+00         0.22431E-01         0.00000E+00
    0.13980E+00         0.20139E-01         0.00000E+00
    0.12548E+00         0.17912E-01         0.00000E+00
    0.11143E+00         0.15757E-01         0.00000E+00
    0.97660E-01         0.13677E-01         0.00000E+00
    0.84189E-01         0.11678E-01         0.00000E+00
    0.71038E-01         0.97615E-02         0.00000E+00
    0.58228E-01         0.79306E-02         0.00000E+00
    0.45779E-01         0.61851E-02         0.00000E+00
    0.33711E-01         0.45234E-02         0.00000E+00
    0.22045E-01         0.29424E-02         0.00000E+00
    0.10802E-01         0.14370E-02         0.00000E+00
    0.00000E+00         0.00000E+00         0.00000E+00
    0.66003E+00         0.88467E-01         0.00000E+00
    0.65214E+00         0.84502E-01         0.00000E+00
    0.64346E+00         0.80666E-01         0.00000E+00
    0.63405E+00         0.76961E-01         0.00000E+00
    0.62397E+00         0.73391E-01         0.00000E+00
    0.61326E+00         0.69956E-01         0.00000E+00
    0.60199E+00         0.66655E-01         0.00000E+00
    0.59019E+00         0.63486E-01         0.00000E+00
    0.57792E+00         0.60446E-01         0.00000E+00
    0.56521E+00         0.57532E-01         0.00000E+00
    0.55213E+00         0.54739E-01         0.00000E+00
    0.53870E+00         0.52063E-01         0.00000E+00
    0.52496E+00         0.49496E-01         0.00000E+00
    0.51095E+00         0.47035E-01         0.00000E+00
    0.49671E+00         0.44672E-01         0.00000E+00
    0.48227E+00         0.42401E-01         0.00000E+00
    0.46765E+00         0.40217E-01         0.00000E+00
    0.45289E+00         0.38112E-01         0.00000E+00
    0.43801E+00         0.36083E-01         0.00000E+00
    0.42304E+00         0.34122E-01         0.00000E+00
    0.40800E+00         0.32225E-01         0.00000E+00
    0.39291E+00         0.30388E-01         0.00000E+00
    0.37779E+00         0.28606E-01         0.00000E+00
    0.36265E+00         0.26876E-01         0.00000E+00
    0.34753E+00         0.25196E-01         0.00000E+00
    0.33242E+00         0.23562E-01         0.00000E+00
    0.31735E+00         0.21974E-01         0.00000E+00
    0.30233E+00         0.20430E-01         0.00000E+00
    0.28737E+00         0.18930E-01         0.00000E+00
    0.27250E+00         0.17475E-01         0.00000E+00
    0.25771E+00         0.16065E-01         0.00000E+00
    0.24302E+00         0.14701E-01         0.00000E+00
    0.22845E+00         0.13385E-01         0.00000E+00
    0.21401E+00         0.12119E-01         0.00000E+00
    0.19970E+00         0.10906E-01         0.00000E+00
    0.18555E+00         0.97473E-02         0.00000E+00
    0.17156E+00         0.86461E-02         0.00000E+00
    0.15774E+00         0.76049E-02         0.00000E+00
    0.14412E+00         0.66261E-02         0.00000E+00
    0.13069E+00         0.57119E-02         0.00000E+00
    0.11748E+00         0.48642E-02         0.00000E+00
    0.10450E+00         0.40843E-02         0.00000E+00
    0.91759E-01         0.33732E-02         0.00000E+00
    0.79272E-01         0.27310E-02         0.00000E+00
    0.67051E-01         0.21573E-02         0.00000E+00
    0.55110E-01         0.16505E-02         0.00000E+00
    0.43461E-01         0.12082E-02         0.00000E+00
    0.32115E-01         0.82717E-03         0.00000E+00
    0.21083E-01         0.50276E-03         0.00000E+00
    0.10375E-01         0.22933E-03         0.00000E+00
    0.00000E+00         0.00000E+00         0.00000E+00
    0.58406E+00         0.56723E-01         0.00000E+00
    0.57835E+00         0.53199E-01         0.00000E+00
    0.57190E+00         0.49776E-01         0.00000E+00
    0.56474E+00         0.46460E-01         0.00000E+00
    0.55693E+00         0.43258E-01         0.00000E+00
    0.54851E+00         0.40171E-01         0.00000E+00
    0.53952E+00         0.37203E-01         0.00000E+00
    0.53000E+00         0.34355E-01         0.00000E+00
    0.52000E+00         0.31629E-01         0.00000E+00
    0.50955E+00         0.29023E-01         0.00000E+00
    0.49868E+00         0.26538E-01         0.00000E+00
    0.48744E+00         0.24171E-01         0.00000E+00
    0.47586E+00         0.21921E-01         0.00000E+00
    0.46397E+00         0.19785E-01         0.00000E+00
    0.45180E+00         0.17761E-01         0.00000E+00
    0.43939E+00         0.15846E-01         0.00000E+00
    0.42675E+00         0.14036E-01         0.00000E+00
    0.41393E+00         0.12328E-01         0.00000E+00
    0.40093E+00         0.10719E-01         0.00000E+00
    0.38780E+00         0.92052E-02         0.00000E+00
    0.37454E+00         0.77841E-02         0.00000E+00
    0.36119E+00         0.64523E-02         0.00000E+00
    0.34775E+00         0.52070E-02         0.00000E+00
    0.33426E+00         0.40456E-02         0.00000E+00
    0.32073E+00         0.29657E-02         0.00000E+00
    0.30718E+00         0.19651E-02         0.00000E+00
    0.29362E+00         0.10421E-02         0.00000E+00
    0.28007E+00         0.19502E-03         0.00000E+00
    0.26654E+00        -0.57731E-03         0.00000E+00
    0.25306E+00        -0.12759E-02         0.00000E+00
    0.23963E+00        -0.19017E-02         0.00000E+00
    0.22626E+00        -0.24550E-02         0.00000E+00
    0.21297E+00        -0.29364E-02         0.00000E+00
    0.19978E+00        -0.33460E-02         0.00000E+00
    0.18669E+00        -0.36841E-02         0.00000E+00
    0.17371E+00        -0.39507E-02         0.00000E+00
    0.16087E+00        -0.41460E-02         0.00000E+00
    0.14816E+00        -0.42701E-02         0.00000E+00
    0.13560E+00        -0.43234E-02         0.00000E+00
    0.12320E+00        -0.43064E-02         0.00000E+00
    0.11098E+00        -0.42199E-02         0.00000E+00
    0.98931E-01        -0.40649E-02         0.00000E+00
    0.87074E-01        -0.38430E-02         0.00000E+00
    0.75417E-01        -0.35561E-02         0.00000E+00
    0.63967E-01        -0.32065E-02         0.00000E+00
    0.52733E-01        -0.27972E-02         0.00000E+00
    0.41721E-01        -0.23317E-02         0.00000E+00
    0.30937E-01        -0.18141E-02         0.00000E+00
    0.20386E-01        -0.12493E-02         0.00000E+00
    0.10073E-01        -0.64251E-03         0.00000E+00
    0.00000E+00         0.00000E+00         0.00000E+00
    0.51687E+00         0.34381E-01         0.00000E+00
    0.51282E+00         0.31267E-01         0.00000E+00
    0.50808E+00         0.28232E-01         0.00000E+00
    0.50269E+00         0.25284E-01         0.00000E+00
    0.49668E+00         0.22429E-01         0.00000E+00
    0.49009E+00         0.19674E-01         0.00000E+00
    0.48296E+00         0.17022E-01         0.00000E+00
    0.47531E+00         0.14477E-01         0.00000E+00
    0.46719E+00         0.12043E-01         0.00000E+00
    0.45862E+00         0.97216E-02         0.00000E+00
    0.44963E+00         0.75142E-02         0.00000E+00
    0.44027E+00         0.54219E-02         0.00000E+00
    0.43055E+00         0.34452E-02         0.00000E+00
    0.42050E+00         0.15839E-02         0.00000E+00
    0.41016E+00        -0.16248E-03         0.00000E+00
    0.39955E+00        -0.17947E-02         0.00000E+00
    0.38869E+00        -0.33140E-02         0.00000E+00
    0.37761E+00        -0.47216E-02         0.00000E+00
    0.36634E+00        -0.60192E-02         0.00000E+00
    0.35489E+00        -0.72084E-02         0.00000E+00
    0.34329E+00        -0.82911E-02         0.00000E+00
    0.33155E+00        -0.92690E-02         0.00000E+00
    0.31970E+00        -0.10144E-01         0.00000E+00
    0.30776E+00        -0.10918E-01         0.00000E+00
    0.29575E+00        -0.11594E-01         0.00000E+00
    0.28367E+00        -0.12172E-01         0.00000E+00
    0.27156E+00        -0.12654E-01         0.00000E+00
    0.25941E+00        -0.13043E-01         0.00000E+00
    0.24726E+00        -0.13339E-01         0.00000E+00
    0.23511E+00        -0.13545E-01         0.00000E+00
    0.22297E+00        -0.13662E-01         0.00000E+00
    0.21087E+00        -0.13692E-01         0.00000E+00
    0.19881E+00        -0.13635E-01         0.00000E+00
    0.18680E+00        -0.13493E-01         0.00000E+00
    0.17486E+00        -0.13268E-01         0.00000E+00
    0.16300E+00        -0.12961E-01         0.00000E+00
    0.15122E+00        -0.12574E-01         0.00000E+00
    0.13955E+00        -0.12109E-01         0.00000E+00
    0.12797E+00        -0.11566E-01         0.00000E+00
    0.11652E+00        -0.10949E-01         0.00000E+00
    0.10519E+00        -0.10258E-01         0.00000E+00
    0.93986E-01        -0.94976E-02         0.00000E+00
    0.82925E-01        -0.86688E-02         0.00000E+00
    0.72008E-01        -0.77749E-02         0.00000E+00
    0.61242E-01        -0.68191E-02         0.00000E+00
    0.50630E-01        -0.58048E-02         0.00000E+00
    0.40178E-01        -0.47357E-02         0.00000E+00
    0.29887E-01        -0.36161E-02         0.00000E+00
    0.19761E-01        -0.24503E-02         0.00000E+00
    0.97984E-02        -0.12432E-02         0.00000E+00
    0.00000E+00         0.00000E+00         0.00000E+00
    0.45774E+00         0.19083E-01         0.00000E+00
    0.45493E+00         0.16343E-01         0.00000E+00
    0.45149E+00         0.13664E-01         0.00000E+00
    0.44746E+00         0.11055E-01         0.00000E+00
    0.44287E+00         0.85222E-02         0.00000E+00
    0.43773E+00         0.60731E-02         0.00000E+00
    0.43209E+00         0.37133E-02         0.00000E+00
    0.42596E+00         0.14478E-02         0.00000E+00
    0.41938E+00        -0.71919E-03         0.00000E+00
    0.41237E+00        -0.27839E-02         0.00000E+00
    0.40496E+00        -0.47435E-02         0.00000E+00
    0.39718E+00        -0.65953E-02         0.00000E+00
    0.38904E+00        -0.83376E-02         0.00000E+00
    0.38058E+00        -0.99689E-02         0.00000E+00
    0.37182E+00        -0.11488E-01         0.00000E+00
    0.36278E+00        -0.12895E-01         0.00000E+00
    0.35349E+00        -0.14189E-01         0.00000E+00
    0.34396E+00        -0.15370E-01         0.00000E+00
    0.33421E+00        -0.16439E-01         0.00000E+00
    0.32428E+00        -0.17395E-01         0.00000E+00
    0.31417E+00        -0.18241E-01         0.00000E+00
    0.30390E+00        -0.18977E-01         0.00000E+00
    0.29350E+00        -0.19603E-01         0.00000E+00
    0.28298E+00        -0.20122E-01         0.00000E+00
    0.27236E+00        -0.20534E-01         0.00000E+00
    0.26165E+00        -0.20841E-01         0.00000E+00
    0.25087E+00        -0.21045E-01         0.00000E+00
    0.24004E+00        -0.21146E-01         0.00000E+00
    0.22916E+00        -0.21148E-01         0.00000E+00
    0.21826E+00        -0.21050E-01         0.00000E+00
    0.20733E+00        -0.20856E-01         0.00000E+00
    0.19641E+00        -0.20566E-01         0.00000E+00
    0.18549E+00        -0.20183E-01         0.00000E+00
    0.17460E+00        -0.19709E-01         0.00000E+00
    0.16373E+00        -0.19145E-01         0.00000E+00
    0.15291E+00        -0.18494E-01         0.00000E+00
    0.14213E+00        -0.17758E-01         0.00000E+00
    0.13141E+00        -0.16939E-01         0.00000E+00
    0.12075E+00        -0.16039E-01         0.00000E+00
    0.11017E+00        -0.15060E-01         0.00000E+00
    0.99671E-01        -0.14007E-01         0.00000E+00
    0.89256E-01        -0.12880E-01         0.00000E+00
    0.78932E-01        -0.11684E-01         0.00000E+00
    0.68704E-01        -0.10420E-01         0.00000E+00
    0.58575E-01        -0.90936E-02         0.00000E+00
    0.48549E-01        -0.77066E-02         0.00000E+00
    0.38628E-01        -0.62630E-02         0.00000E+00
    0.28813E-01        -0.47666E-02         0.00000E+00
    0.19104E-01        -0.32212E-02         0.00000E+00
    0.95003E-02        -0.16310E-02         0.00000E+00
    0.00000E+00         0.00000E+00         0.00000E+00
    0.40587E+00         0.89661E-02         0.00000E+00
    0.40398E+00         0.65619E-02         0.00000E+00
    0.40152E+00         0.42043E-02         0.00000E+00
    0.39853E+00         0.19016E-02         0.00000E+00
    0.39503E+00        -0.33835E-03         0.00000E+00
    0.39104E+00        -0.25087E-02         0.00000E+00
    0.38658E+00        -0.46031E-02         0.00000E+00
    0.38167E+00        -0.66159E-02         0.00000E+00
    0.37635E+00        -0.85423E-02         0.00000E+00
    0.37062E+00        -0.10378E-01         0.00000E+00
    0.36451E+00        -0.12119E-01         0.00000E+00
    0.35805E+00        -0.13761E-01         0.00000E+00
    0.35124E+00        -0.15303E-01         0.00000E+00
    0.34413E+00        -0.16742E-01         0.00000E+00
    0.33671E+00        -0.18075E-01         0.00000E+00
    0.32903E+00        -0.19302E-01         0.00000E+00
    0.32108E+00        -0.20421E-01         0.00000E+00
    0.31290E+00        -0.21431E-01         0.00000E+00
    0.30450E+00        -0.22333E-01         0.00000E+00
    0.29589E+00        -0.23124E-01         0.00000E+00
    0.28711E+00        -0.23807E-01         0.00000E+00
    0.27815E+00        -0.24380E-01         0.00000E+00
    0.26904E+00        -0.24845E-01         0.00000E+00
    0.25980E+00        -0.25201E-01         0.00000E+00
    0.25044E+00        -0.25451E-01         0.00000E+00
    0.24097E+00        -0.25594E-01         0.00000E+00
    0.23140E+00        -0.25633E-01         0.00000E+00
    0.22176E+00        -0.25567E-01         0.00000E+00
    0.21205E+00        -0.25400E-01         0.00000E+00
    0.20229E+00        -0.25132E-01         0.00000E+00
    0.19248E+00        -0.24764E-01         0.00000E+00
    0.18264E+00        -0.24299E-01         0.00000E+00
    0.17278E+00        -0.23739E-01         0.00000E+00
    0.16291E+00        -0.23085E-01         0.00000E+00
    0.15304E+00        -0.22340E-01         0.00000E+00
    0.14317E+00        -0.21505E-01         0.00000E+00
    0.13332E+00        -0.20583E-01         0.00000E+00
    0.12350E+00        -0.19576E-01         0.00000E+00
    0.11370E+00        -0.18487E-01         0.00000E+00
    0.10393E+00        -0.17318E-01         0.00000E+00
    0.94212E-01        -0.16071E-01         0.00000E+00
    0.84536E-01        -0.14750E-01         0.00000E+00
    0.74912E-01        -0.13358E-01         0.00000E+00
    0.65341E-01        -0.11896E-01         0.00000E+00
    0.55828E-01        -0.10369E-01         0.00000E+00
    0.46373E-01        -0.87792E-02         0.00000E+00
    0.36979E-01        -0.71297E-02         0.00000E+00
    0.27645E-01        -0.54238E-02         0.00000E+00
    0.18372E-01        -0.36647E-02         0.00000E+00
    0.91576E-02        -0.18557E-02         0.00000E+00
    0.00000E+00         0.00000E+00         0.00000E+00
    0.36046E+00         0.25820E-02         0.00000E+00
    0.35923E+00         0.47547E-03         0.00000E+00
    0.35750E+00        -0.15961E-02         0.00000E+00
    0.35530E+00        -0.36245E-02         0.00000E+00
    0.35263E+00        -0.56022E-02         0.00000E+00
    0.34953E+00        -0.75224E-02         0.00000E+00
    0.34600E+00        -0.93788E-02         0.00000E+00
    0.34207E+00        -0.11166E-01         0.00000E+00
    0.33775E+00        -0.12877E-01         0.00000E+00
    0.33306E+00        -0.14510E-01         0.00000E+00
    0.32802E+00        -0.16058E-01         0.00000E+00
    0.32265E+00        -0.17520E-01         0.00000E+00
    0.31696E+00        -0.18890E-01         0.00000E+00
    0.31097E+00        -0.20167E-01         0.00000E+00
    0.30470E+00        -0.21347E-01         0.00000E+00
    0.29816E+00        -0.22430E-01         0.00000E+00
    0.29137E+00        -0.23412E-01         0.00000E+00
    0.28435E+00        -0.24293E-01         0.00000E+00
    0.27711E+00        -0.25071E-01         0.00000E+00
    0.26966E+00        -0.25747E-01         0.00000E+00
    0.26203E+00        -0.26318E-01         0.00000E+00
    0.25423E+00        -0.26786E-01         0.00000E+00
    0.24626E+00        -0.27149E-01         0.00000E+00
    0.23815E+00        -0.27408E-01         0.00000E+00
    0.22990E+00        -0.27564E-01         0.00000E+00
    0.22154E+00        -0.27617E-01         0.00000E+00
    0.21306E+00        -0.27568E-01         0.00000E+00
    0.20449E+00        -0.27418E-01         0.00000E+00
    0.19584E+00        -0.27167E-01         0.00000E+00
    0.18711E+00        -0.26818E-01         0.00000E+00
    0.17831E+00        -0.26371E-01         0.00000E+00
    0.16946E+00        -0.25829E-01         0.00000E+00
    0.16057E+00        -0.25192E-01         0.00000E+00
    0.15164E+00        -0.24462E-01         0.00000E+00
    0.14268E+00        -0.23642E-01         0.00000E+00
    0.13370E+00        -0.22732E-01         0.00000E+00
    0.12471E+00        -0.21736E-01         0.00000E+00
    0.11571E+00        -0.20656E-01         0.00000E+00
    0.10671E+00        -0.19493E-01         0.00000E+00
    0.97711E-01        -0.18250E-01         0.00000E+00
    0.88725E-01        -0.16929E-01         0.00000E+00
    0.79753E-01        -0.15533E-01         0.00000E+00
    0.70798E-01        -0.14064E-01         0.00000E+00
    0.61864E-01        -0.12525E-01         0.00000E+00
    0.52952E-01        -0.10918E-01         0.00000E+00
    0.44065E-01        -0.92461E-02         0.00000E+00
    0.35203E-01        -0.75116E-02         0.00000E+00
    0.26366E-01        -0.57172E-02         0.00000E+00
    0.17554E-01        -0.38655E-02         0.00000E+00
    0.87663E-02        -0.19589E-02         0.00000E+00
    0.00000E+00         0.00000E+00         0.00000E+00
    0.32074E+00        -0.11769E-02         0.00000E+00
    0.31997E+00        -0.30222E-02         0.00000E+00
    0.31877E+00        -0.48414E-02         0.00000E+00
    0.31715E+00        -0.66271E-02         0.00000E+00
    0.31512E+00        -0.83722E-02         0.00000E+00
    0.31270E+00        -0.10070E-01         0.00000E+00
    0.30990E+00        -0.11715E-01         0.00000E+00
    0.30674E+00        -0.13301E-01         0.00000E+00
    0.30323E+00        -0.14823E-01         0.00000E+00
    0.29938E+00        -0.16276E-01         0.00000E+00
    0.29521E+00        -0.17656E-01         0.00000E+00
    0.29073E+00        -0.18960E-01         0.00000E+00
    0.28596E+00        -0.20183E-01         0.00000E+00
    0.28091E+00        -0.21322E-01         0.00000E+00
    0.27559E+00        -0.22376E-01         0.00000E+00
    0.27002E+00        -0.23341E-01         0.00000E+00
    0.26421E+00        -0.24215E-01         0.00000E+00
    0.25818E+00        -0.24996E-01         0.00000E+00
    0.25194E+00        -0.25684E-01         0.00000E+00
    0.24549E+00        -0.26277E-01         0.00000E+00
    0.23886E+00        -0.26773E-01         0.00000E+00
    0.23205E+00        -0.27173E-01         0.00000E+00
    0.22508E+00        -0.27476E-01         0.00000E+00
    0.21796E+00        -0.27681E-01         0.00000E+00
    0.21070E+00        -0.27789E-01         0.00000E+00
    0.20331E+00        -0.27801E-01         0.00000E+00
    0.19580E+00        -0.27715E-01         0.00000E+00
    0.18819E+00        -0.27533E-01         0.00000E+00
    0.18047E+00        -0.27256E-01         0.00000E+00
    0.17267E+00        -0.26885E-01         0.00000E+00
    0.16479E+00        -0.26420E-01         0.00000E+00
    0.15683E+00        -0.25863E-01         0.00000E+00
    0.14882E+00        -0.25215E-01         0.00000E+00
    0.14074E+00        -0.24477E-01         0.00000E+00
    0.13262E+00        -0.23652E-01         0.00000E+00
    0.12445E+00        -0.22740E-01         0.00000E+00
    0.11625E+00        -0.21744E-01         0.00000E+00
    0.10802E+00        -0.20664E-01         0.00000E+00
    0.99770E-01        -0.19504E-01         0.00000E+00
    0.91496E-01        -0.18265E-01         0.00000E+00
    0.83206E-01        -0.16949E-01         0.00000E+00
    0.74905E-01        -0.15557E-01         0.00000E+00
    0.66595E-01        -0.14093E-01         0.00000E+00
    0.58279E-01        -0.12558E-01         0.00000E+00
    0.49959E-01        -0.10954E-01         0.00000E+00
    0.41636E-01        -0.92834E-02         0.00000E+00
    0.33312E-01        -0.75482E-02         0.00000E+00
    0.24987E-01        -0.57502E-02         0.00000E+00
    0.16661E-01        -0.38917E-02         0.00000E+00
    0.83323E-02        -0.19743E-02         0.00000E+00
    0.00000E+00         0.00000E+00         0.00000E+00
    0.28598E+00        -0.31428E-02         0.00000E+00
    0.28553E+00        -0.47602E-02         0.00000E+00
    0.28471E+00        -0.63586E-02         0.00000E+00
    0.28351E+00        -0.79311E-02         0.00000E+00
    0.28196E+00        -0.94712E-02         0.00000E+00
    0.28007E+00        -0.10973E-01         0.00000E+00
    0.27783E+00        -0.12431E-01         0.00000E+00
    0.27528E+00        -0.13839E-01         0.00000E+00
    0.27240E+00        -0.15194E-01         0.00000E+00
    0.26923E+00        -0.16489E-01         0.00000E+00
    0.26576E+00        -0.17722E-01         0.00000E+00
    0.26201E+00        -0.18888E-01         0.00000E+00
    0.25799E+00        -0.19984E-01         0.00000E+00
    0.25372E+00        -0.21006E-01         0.00000E+00
    0.24920E+00        -0.21952E-01         0.00000E+00
    0.24444E+00        -0.22820E-01         0.00000E+00
    0.23946E+00        -0.23606E-01         0.00000E+00
    0.23426E+00        -0.24310E-01         0.00000E+00
    0.22886E+00        -0.24929E-01         0.00000E+00
    0.22327E+00        -0.25462E-01         0.00000E+00
    0.21750E+00        -0.25907E-01         0.00000E+00
    0.21156E+00        -0.26265E-01         0.00000E+00
    0.20545E+00        -0.26533E-01         0.00000E+00
    0.19919E+00        -0.26712E-01         0.00000E+00
    0.19279E+00        -0.26802E-01         0.00000E+00
    0.18626E+00        -0.26801E-01         0.00000E+00
    0.17961E+00        -0.26711E-01         0.00000E+00
    0.17284E+00        -0.26532E-01         0.00000E+00
    0.16596E+00        -0.26263E-01         0.00000E+00
    0.15899E+00        -0.25905E-01         0.00000E+00
    0.15192E+00        -0.25460E-01         0.00000E+00
    0.14477E+00        -0.24928E-01         0.00000E+00
    0.13754E+00        -0.24309E-01         0.00000E+00
    0.13025E+00        -0.23606E-01         0.00000E+00
    0.12289E+00        -0.22819E-01         0.00000E+00
    0.11547E+00        -0.21949E-01         0.00000E+00
    0.10800E+00        -0.20998E-01         0.00000E+00
    0.10048E+00        -0.19967E-01         0.00000E+00
    0.92923E-01        -0.18857E-01         0.00000E+00
    0.85326E-01        -0.17671E-01         0.00000E+00
    0.77694E-01        -0.16409E-01         0.00000E+00
    0.70031E-01        -0.15074E-01         0.00000E+00
    0.62340E-01        -0.13667E-01         0.00000E+00
    0.54623E-01        -0.12189E-01         0.00000E+00
    0.46883E-01        -0.10642E-01         0.00000E+00
    0.39121E-01        -0.90277E-02         0.00000E+00
    0.31338E-01        -0.73479E-02         0.00000E+00
    0.23534E-01        -0.56037E-02         0.00000E+00
    0.15710E-01        -0.37968E-02         0.00000E+00
    0.78658E-02        -0.19285E-02         0.00000E+00
    0.00000E+00         0.00000E+00         0.00000E+00
    0.25553E+00        -0.39285E-02         0.00000E+00
    0.25529E+00        -0.53482E-02         0.00000E+00
    0.25473E+00        -0.67542E-02         0.00000E+00
    0.25385E+00        -0.81403E-02         0.00000E+00
    0.25265E+00        -0.95008E-02         0.00000E+00
    0.25115E+00        -0.10830E-01         0.00000E+00
    0.24935E+00        -0.12123E-01         0.00000E+00
    0.24726E+00        -0.13376E-01         0.00000E+00
    0.24490E+00        -0.14582E-01         0.00000E+00
    0.24226E+00        -0.15739E-01         0.00000E+00
    0.23936E+00        -0.16842E-01         0.00000E+00
    0.23620E+00        -0.17888E-01         0.00000E+00
    0.23280E+00        -0.18873E-01         0.00000E+00
    0.22917E+00        -0.19794E-01         0.00000E+00
    0.22530E+00        -0.20648E-01         0.00000E+00
    0.22122E+00        -0.21434E-01         0.00000E+00
    0.21693E+00        -0.22148E-01         0.00000E+00
    0.21245E+00        -0.22788E-01         0.00000E+00
    0.20776E+00        -0.23353E-01         0.00000E+00
    0.20290E+00        -0.23841E-01         0.00000E+00
    0.19786E+00        -0.24251E-01         0.00000E+00
    0.19266E+00        -0.24582E-01         0.00000E+00
    0.18730E+00        -0.24832E-01         0.00000E+00
    0.18180E+00        -0.25002E-01         0.00000E+00
    0.17615E+00        -0.25089E-01         0.00000E+00
    0.17037E+00        -0.25095E-01         0.00000E+00
    0.16446E+00        -0.25019E-01         0.00000E+00
    0.15843E+00        -0.24860E-01         0.00000E+00
    0.15230E+00        -0.24619E-01         0.00000E+00
    0.14606E+00        -0.24296E-01         0.00000E+00
    0.13972E+00        -0.23892E-01         0.00000E+00
    0.13329E+00        -0.23406E-01         0.00000E+00
    0.12678E+00        -0.22840E-01         0.00000E+00
    0.12019E+00        -0.22195E-01         0.00000E+00
    0.11352E+00        -0.21470E-01         0.00000E+00
    0.10679E+00        -0.20668E-01         0.00000E+00
    0.99989E-01        -0.19788E-01         0.00000E+00
    0.93131E-01        -0.18832E-01         0.00000E+00
    0.86219E-01        -0.17801E-01         0.00000E+00
    0.79255E-01        -0.16697E-01         0.00000E+00
    0.72243E-01        -0.15519E-01         0.00000E+00
    0.65186E-01        -0.14270E-01         0.00000E+00
    0.58088E-01        -0.12951E-01         0.00000E+00
    0.50950E-01        -0.11562E-01         0.00000E+00
    0.43774E-01        -0.10106E-01         0.00000E+00
    0.36563E-01        -0.85825E-02         0.00000E+00
    0.29317E-01        -0.69934E-02         0.00000E+00
    0.22037E-01        -0.53396E-02         0.00000E+00
    0.14724E-01        -0.36222E-02         0.00000E+00
    0.73787E-02        -0.18420E-02         0.00000E+00
    0.00000E+00         0.00000E+00         0.00000E+00
    0.22880E+00        -0.39758E-02         0.00000E+00
    0.22870E+00        -0.52244E-02         0.00000E+00
    0.22831E+00        -0.64633E-02         0.00000E+00
    0.22765E+00        -0.76869E-02         0.00000E+00
    0.22672E+00        -0.88904E-02         0.00000E+00
    0.22551E+00        -0.10069E-01         0.00000E+00
    0.22405E+00        -0.11217E-01         0.00000E+00
    0.22233E+00        -0.12332E-01         0.00000E+00
    0.22036E+00        -0.13409E-01         0.00000E+00
    0.21815E+00        -0.14443E-01         0.00000E+00
    0.21570E+00        -0.15432E-01         0.00000E+00
    0.21303E+00        -0.16372E-01         0.00000E+00
    0.21013E+00        -0.17260E-01         0.00000E+00
    0.20703E+00        -0.18092E-01         0.00000E+00
    0.20371E+00        -0.18867E-01         0.00000E+00
    0.20019E+00        -0.19582E-01         0.00000E+00
    0.19648E+00        -0.20234E-01         0.00000E+00
    0.19259E+00        -0.20821E-01         0.00000E+00
    0.18851E+00        -0.21342E-01         0.00000E+00
    0.18427E+00        -0.21795E-01         0.00000E+00
    0.17986E+00        -0.22179E-01         0.00000E+00
    0.17529E+00        -0.22492E-01         0.00000E+00
    0.17058E+00        -0.22733E-01         0.00000E+00
    0.16572E+00        -0.22901E-01         0.00000E+00
    0.16072E+00        -0.22996E-01         0.00000E+00
    0.15559E+00        -0.23017E-01         0.00000E+00
    0.15034E+00        -0.22963E-01         0.00000E+00
    0.14497E+00        -0.22834E-01         0.00000E+00
    0.13949E+00        -0.22631E-01         0.00000E+00
    0.13390E+00        -0.22352E-01         0.00000E+00
    0.12822E+00        -0.21999E-01         0.00000E+00
    0.12243E+00        -0.21571E-01         0.00000E+00
    0.11656E+00        -0.21068E-01         0.00000E+00
    0.11061E+00        -0.20491E-01         0.00000E+00
    0.10457E+00        -0.19841E-01         0.00000E+00
    0.98460E-01        -0.19118E-01         0.00000E+00
    0.92277E-01        -0.18322E-01         0.00000E+00
    0.86028E-01        -0.17455E-01         0.00000E+00
    0.79715E-01        -0.16516E-01         0.00000E+00
    0.73342E-01        -0.15508E-01         0.00000E+00
    0.66913E-01        -0.14429E-01         0.00000E+00
    0.60429E-01        -0.13283E-01         0.00000E+00
    0.53895E-01        -0.12068E-01         0.00000E+00
    0.47311E-01        -0.10786E-01         0.00000E+00
    0.40681E-01        -0.94381E-02         0.00000E+00
    0.34006E-01        -0.80247E-02         0.00000E+00
    0.27288E-01        -0.65465E-02         0.00000E+00
    0.20527E-01        -0.50043E-02         0.00000E+00
    0.13725E-01        -0.33988E-02         0.00000E+00
    0.68827E-02        -0.17305E-02         0.00000E+00
    0.00000E+00         0.00000E+00         0.00000E+00
    0.20528E+00        -0.35953E-02         0.00000E+00
    0.20526E+00        -0.46961E-02         0.00000E+00
    0.20500E+00        -0.57900E-02         0.00000E+00
    0.20449E+00        -0.68723E-02         0.00000E+00
    0.20375E+00        -0.79386E-02         0.00000E+00
    0.20277E+00        -0.89846E-02         0.00000E+00
    0.20156E+00        -0.10006E-01         0.00000E+00
    0.20012E+00        -0.11000E-01         0.00000E+00
    0.19847E+00        -0.11962E-01         0.00000E+00
    0.19660E+00        -0.12888E-01         0.00000E+00
    0.19452E+00        -0.13776E-01         0.00000E+00
    0.19223E+00        -0.14623E-01         0.00000E+00
    0.18975E+00        -0.15424E-01         0.00000E+00
    0.18707E+00        -0.16179E-01         0.00000E+00
    0.18421E+00        -0.16883E-01         0.00000E+00
    0.18116E+00        -0.17536E-01         0.00000E+00
    0.17794E+00        -0.18134E-01         0.00000E+00
    0.17454E+00        -0.18675E-01         0.00000E+00
    0.17098E+00        -0.19159E-01         0.00000E+00
    0.16726E+00        -0.19582E-01         0.00000E+00
    0.16339E+00        -0.19945E-01         0.00000E+00
    0.15937E+00        -0.20244E-01         0.00000E+00
    0.15520E+00        -0.20480E-01         0.00000E+00
    0.15090E+00        -0.20651E-01         0.00000E+00
    0.14647E+00        -0.20757E-01         0.00000E+00
    0.14191E+00        -0.20796E-01         0.00000E+00
    0.13723E+00        -0.20768E-01         0.00000E+00
    0.13244E+00        -0.20672E-01         0.00000E+00
    0.12754E+00        -0.20509E-01         0.00000E+00
    0.12253E+00        -0.20277E-01         0.00000E+00
    0.11742E+00        -0.19978E-01         0.00000E+00
    0.11222E+00        -0.19609E-01         0.00000E+00
    0.10692E+00        -0.19173E-01         0.00000E+00
    0.10154E+00        -0.18668E-01         0.00000E+00
    0.96077E-01        -0.18095E-01         0.00000E+00
    0.90533E-01        -0.17454E-01         0.00000E+00
    0.84914E-01        -0.16746E-01         0.00000E+00
    0.79224E-01        -0.15971E-01         0.00000E+00
    0.73466E-01        -0.15129E-01         0.00000E+00
    0.67643E-01        -0.14221E-01         0.00000E+00
    0.61757E-01        -0.13248E-01         0.00000E+00
    0.55813E-01        -0.12209E-01         0.00000E+00
    0.49812E-01        -0.11105E-01         0.00000E+00
    0.43757E-01        -0.99368E-02         0.00000E+00
    0.37649E-01        -0.87050E-02         0.00000E+00
    0.31491E-01        -0.74099E-02         0.00000E+00
    0.25285E-01        -0.60521E-02         0.00000E+00
    0.19032E-01        -0.46318E-02         0.00000E+00
    0.12732E-01        -0.31495E-02         0.00000E+00
    0.63880E-02        -0.16055E-02         0.00000E+00
    0.00000E+00         0.00000E+00         0.00000E+00
    0.18454E+00        -0.29992E-02         0.00000E+00
    0.18457E+00        -0.39721E-02         0.00000E+00
    0.18438E+00        -0.49401E-02         0.00000E+00
    0.18398E+00        -0.58993E-02         0.00000E+00
    0.18337E+00        -0.68459E-02         0.00000E+00
    0.18256E+00        -0.77762E-02         0.00000E+00
    0.18154E+00        -0.86865E-02         0.00000E+00
    0.18033E+00        -0.95737E-02         0.00000E+00
    0.17893E+00        -0.10434E-01         0.00000E+00
    0.17733E+00        -0.11265E-01         0.00000E+00
    0.17554E+00        -0.12064E-01         0.00000E+00
    0.17358E+00        -0.12827E-01         0.00000E+00
    0.17143E+00        -0.13552E-01         0.00000E+00
    0.16911E+00        -0.14236E-01         0.00000E+00
    0.16662E+00        -0.14878E-01         0.00000E+00
    0.16396E+00        -0.15474E-01         0.00000E+00
    0.16114E+00        -0.16024E-01         0.00000E+00
    0.15817E+00        -0.16525E-01         0.00000E+00
    0.15504E+00        -0.16974E-01         0.00000E+00
    0.15177E+00        -0.17372E-01         0.00000E+00
    0.14835E+00        -0.17716E-01         0.00000E+00
    0.14480E+00        -0.18004E-01         0.00000E+00
    0.14111E+00        -0.18236E-01         0.00000E+00
    0.13729E+00        -0.18411E-01         0.00000E+00
    0.13335E+00        -0.18527E-01         0.00000E+00
    0.12929E+00        -0.18584E-01         0.00000E+00
    0.12512E+00        -0.18581E-01         0.00000E+00
    0.12083E+00        -0.18518E-01         0.00000E+00
    0.11644E+00        -0.18393E-01         0.00000E+00
    0.11194E+00        -0.18207E-01         0.00000E+00
    0.10735E+00        -0.17958E-01         0.00000E+00
    0.10266E+00        -0.17648E-01         0.00000E+00
    0.97882E-01        -0.17275E-01         0.00000E+00
    0.93017E-01        -0.16840E-01         0.00000E+00
    0.88069E-01        -0.16342E-01         0.00000E+00
    0.83042E-01        -0.15782E-01         0.00000E+00
    0.77938E-01        -0.15159E-01         0.00000E+00
    0.72761E-01        -0.14474E-01         0.00000E+00
    0.67514E-01        -0.13727E-01         0.00000E+00
    0.62200E-01        -0.12919E-01         0.00000E+00
    0.56822E-01        -0.12048E-01         0.00000E+00
    0.51382E-01        -0.11116E-01         0.00000E+00
    0.45883E-01        -0.10122E-01         0.00000E+00
    0.40327E-01        -0.90682E-02         0.00000E+00
    0.34716E-01        -0.79532E-02         0.00000E+00
    0.29052E-01        -0.67777E-02         0.00000E+00
    0.23337E-01        -0.55420E-02         0.00000E+00
    0.17573E-01        -0.42462E-02         0.00000E+00
    0.11762E-01        -0.28906E-02         0.00000E+00
    0.59033E-02        -0.14751E-02         0.00000E+00
    0.00000E+00         0.00000E+00         0.00000E+00
    0.16620E+00        -0.23267E-02         0.00000E+00
    0.16624E+00        -0.31887E-02         0.00000E+00
    0.16610E+00        -0.40474E-02         0.00000E+00
    0.16577E+00        -0.48994E-02         0.00000E+00
    0.16527E+00        -0.57413E-02         0.00000E+00
    0.16458E+00        -0.65700E-02         0.00000E+00
    0.16372E+00        -0.73824E-02         0.00000E+00
    0.16268E+00        -0.81755E-02         0.00000E+00
    0.16147E+00        -0.89465E-02         0.00000E+00
    0.16009E+00        -0.96926E-02         0.00000E+00
    0.15854E+00        -0.10411E-01         0.00000E+00
    0.15683E+00        -0.11100E-01         0.00000E+00
    0.15496E+00        -0.11756E-01         0.00000E+00
    0.15294E+00        -0.12378E-01         0.00000E+00
    0.15076E+00        -0.12963E-01         0.00000E+00
    0.14843E+00        -0.13509E-01         0.00000E+00
    0.14595E+00        -0.14014E-01         0.00000E+00
    0.14333E+00        -0.14477E-01         0.00000E+00
    0.14057E+00        -0.14896E-01         0.00000E+00
    0.13768E+00        -0.15269E-01         0.00000E+00
    0.13465E+00        -0.15595E-01         0.00000E+00
    0.13150E+00        -0.15873E-01         0.00000E+00
    0.12822E+00        -0.16101E-01         0.00000E+00
    0.12483E+00        -0.16278E-01         0.00000E+00
    0.12131E+00        -0.16403E-01         0.00000E+00
    0.11769E+00        -0.16476E-01         0.00000E+00
    0.11395E+00        -0.16495E-01         0.00000E+00
    0.11011E+00        -0.16460E-01         0.00000E+00
    0.10617E+00        -0.16370E-01         0.00000E+00
    0.10213E+00        -0.16225E-01         0.00000E+00
    0.97991E-01        -0.16024E-01         0.00000E+00
    0.93765E-01        -0.15766E-01         0.00000E+00
    0.89450E-01        -0.15452E-01         0.00000E+00
    0.85051E-01        -0.15081E-01         0.00000E+00
    0.80571E-01        -0.14653E-01         0.00000E+00
    0.76012E-01        -0.14168E-01         0.00000E+00
    0.71377E-01        -0.13625E-01         0.00000E+00
    0.66670E-01        -0.13025E-01         0.00000E+00
    0.61894E-01        -0.12367E-01         0.00000E+00
    0.57050E-01        -0.11652E-01         0.00000E+00
    0.52142E-01        -0.10879E-01         0.00000E+00
    0.47171E-01        -0.10049E-01         0.00000E+00
    0.42141E-01        -0.91614E-02         0.00000E+00
    0.37054E-01        -0.82164E-02         0.00000E+00
    0.31911E-01        -0.72142E-02         0.00000E+00
    0.26715E-01        -0.61547E-02         0.00000E+00
    0.21468E-01        -0.50381E-02         0.00000E+00
    0.16171E-01        -0.38643E-02         0.00000E+00
    0.10826E-01        -0.26334E-02         0.00000E+00
    0.54354E-02        -0.13453E-02         0.00000E+00
    0.00000E+00         0.00000E+00         0.00000E+00
    0.14993E+00        -0.16648E-02         0.00000E+00
    0.14998E+00        -0.24306E-02         0.00000E+00
    0.14986E+00        -0.31940E-02         0.00000E+00
    0.14959E+00        -0.39523E-02         0.00000E+00
    0.14915E+00        -0.47025E-02         0.00000E+00
    0.14856E+00        -0.54419E-02         0.00000E+00
    0.14782E+00        -0.61679E-02         0.00000E+00
    0.14691E+00        -0.68779E-02         0.00000E+00
    0.14586E+00        -0.75694E-02         0.00000E+00
    0.14466E+00        -0.82400E-02         0.00000E+00
    0.14330E+00        -0.88874E-02         0.00000E+00
    0.14181E+00        -0.95093E-02         0.00000E+00
    0.14017E+00        -0.10104E-01         0.00000E+00
    0.13838E+00        -0.10668E-01         0.00000E+00
    0.13646E+00        -0.11202E-01         0.00000E+00
    0.13441E+00        -0.11701E-01         0.00000E+00
    0.13222E+00        -0.12166E-01         0.00000E+00
    0.12990E+00        -0.12594E-01         0.00000E+00
    0.12746E+00        -0.12983E-01         0.00000E+00
    0.12489E+00        -0.13333E-01         0.00000E+00
    0.12220E+00        -0.13642E-01         0.00000E+00
    0.11939E+00        -0.13908E-01         0.00000E+00
    0.11647E+00        -0.14130E-01         0.00000E+00
    0.11344E+00        -0.14308E-01         0.00000E+00
    0.11029E+00        -0.14439E-01         0.00000E+00
    0.10705E+00        -0.14525E-01         0.00000E+00
    0.10370E+00        -0.14562E-01         0.00000E+00
    0.10025E+00        -0.14551E-01         0.00000E+00
    0.96706E-01        -0.14492E-01         0.00000E+00
    0.93068E-01        -0.14382E-01         0.00000E+00
    0.89341E-01        -0.14222E-01         0.00000E+00
    0.85527E-01        -0.14011E-01         0.00000E+00
    0.81628E-01        -0.13750E-01         0.00000E+00
    0.77648E-01        -0.13436E-01         0.00000E+00
    0.73590E-01        -0.13071E-01         0.00000E+00
    0.69456E-01        -0.12653E-01         0.00000E+00
    0.65249E-01        -0.12182E-01         0.00000E+00
    0.60971E-01        -0.11659E-01         0.00000E+00
    0.56625E-01        -0.11083E-01         0.00000E+00
    0.52214E-01        -0.10454E-01         0.00000E+00
    0.47739E-01        -0.97720E-02         0.00000E+00
    0.43204E-01        -0.90363E-02         0.00000E+00
    0.38610E-01        -0.82472E-02         0.00000E+00
    0.33960E-01        -0.74045E-02         0.00000E+00
    0.29256E-01        -0.65083E-02         0.00000E+00
    0.24499E-01        -0.55583E-02         0.00000E+00
    0.19692E-01        -0.45546E-02         0.00000E+00
    0.14837E-01        -0.34970E-02         0.00000E+00
    0.99356E-02        -0.23855E-02         0.00000E+00
    0.49893E-02        -0.12198E-02         0.00000E+00
    0.00000E+00         0.00000E+00         0.00000E+00
    0.13547E+00        -0.10636E-02         0.00000E+00
    0.13551E+00        -0.17454E-02         0.00000E+00
    0.13541E+00        -0.24256E-02         0.00000E+00
    0.13517E+00        -0.31017E-02         0.00000E+00
    0.13479E+00        -0.37714E-02         0.00000E+00
    0.13427E+00        -0.44322E-02         0.00000E+00
    0.13362E+00        -0.50818E-02         0.00000E+00
    0.13282E+00        -0.57181E-02         0.00000E+00
    0.13190E+00        -0.63389E-02         0.00000E+00
    0.13084E+00        -0.69420E-02         0.00000E+00
    0.12964E+00        -0.75255E-02         0.00000E+00
    0.12832E+00        -0.80873E-02         0.00000E+00
    0.12687E+00        -0.86256E-02         0.00000E+00
    0.12529E+00        -0.91385E-02         0.00000E+00
    0.12359E+00        -0.96243E-02         0.00000E+00
    0.12177E+00        -0.10081E-01         0.00000E+00
    0.11982E+00        -0.10508E-01         0.00000E+00
    0.11776E+00        -0.10903E-01         0.00000E+00
    0.11558E+00        -0.11264E-01         0.00000E+00
    0.11329E+00        -0.11591E-01         0.00000E+00
    0.11089E+00        -0.11882E-01         0.00000E+00
    0.10838E+00        -0.12136E-01         0.00000E+00
    0.10577E+00        -0.12351E-01         0.00000E+00
    0.10305E+00        -0.12527E-01         0.00000E+00
    0.10024E+00        -0.12662E-01         0.00000E+00
    0.97324E-01        -0.12756E-01         0.00000E+00
    0.94314E-01        -0.12808E-01         0.00000E+00
    0.91213E-01        -0.12816E-01         0.00000E+00
    0.88021E-01        -0.12781E-01         0.00000E+00
    0.84742E-01        -0.12702E-01         0.00000E+00
    0.81378E-01        -0.12577E-01         0.00000E+00
    0.77932E-01        -0.12407E-01         0.00000E+00
    0.74407E-01        -0.12190E-01         0.00000E+00
    0.70804E-01        -0.11927E-01         0.00000E+00
    0.67127E-01        -0.11616E-01         0.00000E+00
    0.63378E-01        -0.11258E-01         0.00000E+00
    0.59558E-01        -0.10852E-01         0.00000E+00
    0.55671E-01        -0.10398E-01         0.00000E+00
    0.51719E-01        -0.98954E-02         0.00000E+00
    0.47705E-01        -0.93440E-02         0.00000E+00
    0.43629E-01        -0.87435E-02         0.00000E+00
    0.39495E-01        -0.80938E-02         0.00000E+00
    0.35305E-01        -0.73947E-02         0.00000E+00
    0.31061E-01        -0.66459E-02         0.00000E+00
    0.26764E-01        -0.58474E-02         0.00000E+00
    0.22417E-01        -0.49988E-02         0.00000E+00
    0.18023E-01        -0.41001E-02         0.00000E+00
    0.13582E-01        -0.31510E-02         0.00000E+00
    0.90962E-02        -0.21514E-02         0.00000E+00
    0.45684E-02        -0.11012E-02         0.00000E+00
    0.00000E+00         0.00000E+00         0.00000E+00
    0.12258E+00        -0.54798E-03         0.00000E+00
    0.12261E+00        -0.11563E-02         0.00000E+00
    0.12252E+00        -0.17634E-02         0.00000E+00
    0.12230E+00        -0.23673E-02         0.00000E+00
    0.12196E+00        -0.29659E-02         0.00000E+00
    0.12150E+00        -0.35572E-02         0.00000E+00
    0.12092E+00        -0.41392E-02         0.00000E+00
    0.12022E+00        -0.47099E-02         0.00000E+00
    0.11939E+00        -0.52676E-02         0.00000E+00
    0.11845E+00        -0.58103E-02         0.00000E+00
    0.11739E+00        -0.63362E-02         0.00000E+00
    0.11621E+00        -0.68437E-02         0.00000E+00
    0.11492E+00        -0.73311E-02         0.00000E+00
    0.11352E+00        -0.77967E-02         0.00000E+00
    0.11200E+00        -0.82390E-02         0.00000E+00
    0.11037E+00        -0.86564E-02         0.00000E+00
    0.10864E+00        -0.90476E-02         0.00000E+00
    0.10679E+00        -0.94111E-02         0.00000E+00
    0.10485E+00        -0.97456E-02         0.00000E+00
    0.10280E+00        -0.10050E-01         0.00000E+00
    0.10065E+00        -0.10323E-01         0.00000E+00
    0.98400E-01        -0.10563E-01         0.00000E+00
    0.96055E-01        -0.10769E-01         0.00000E+00
    0.93615E-01        -0.10941E-01         0.00000E+00
    0.91083E-01        -0.11077E-01         0.00000E+00
    0.88461E-01        -0.11177E-01         0.00000E+00
    0.85751E-01        -0.11238E-01         0.00000E+00
    0.82956E-01        -0.11262E-01         0.00000E+00
    0.80077E-01        -0.11247E-01         0.00000E+00
    0.77116E-01        -0.11192E-01         0.00000E+00
    0.74077E-01        -0.11096E-01         0.00000E+00
    0.70961E-01        -0.10960E-01         0.00000E+00
    0.67770E-01        -0.10781E-01         0.00000E+00
    0.64506E-01        -0.10561E-01         0.00000E+00
    0.61173E-01        -0.10298E-01         0.00000E+00
    0.57771E-01        -0.99920E-02         0.00000E+00
    0.54304E-01        -0.96424E-02         0.00000E+00
    0.50772E-01        -0.92489E-02         0.00000E+00
    0.47179E-01        -0.88112E-02         0.00000E+00
    0.43527E-01        -0.83288E-02         0.00000E+00
    0.39817E-01        -0.78015E-02         0.00000E+00
    0.36052E-01        -0.72290E-02         0.00000E+00
    0.32233E-01        -0.66110E-02         0.00000E+00
    0.28363E-01        -0.59473E-02         0.00000E+00
    0.24444E-01        -0.52375E-02         0.00000E+00
    0.20477E-01        -0.44815E-02         0.00000E+00
    0.16465E-01        -0.36791E-02         0.00000E+00
    0.12409E-01        -0.28299E-02         0.00000E+00
    0.83121E-02        -0.19338E-02         0.00000E+00
    0.41750E-02        -0.99060E-03         0.00000E+00
    0.00000E+00         0.00000E+00         0.00000E+00
    0.11107E+00        -0.12637E-03         0.00000E+00
    0.11109E+00        -0.66998E-03         0.00000E+00
    0.11100E+00        -0.12127E-02         0.00000E+00
    0.11080E+00        -0.17528E-02         0.00000E+00
    0.11050E+00        -0.22885E-02         0.00000E+00
    0.11008E+00        -0.28181E-02         0.00000E+00
    0.10956E+00        -0.33399E-02         0.00000E+00
    0.10893E+00        -0.38522E-02         0.00000E+00
    0.10819E+00        -0.43533E-02         0.00000E+00
    0.10734E+00        -0.48417E-02         0.00000E+00
    0.10640E+00        -0.53158E-02         0.00000E+00
    0.10534E+00        -0.57742E-02         0.00000E+00
    0.10419E+00        -0.62152E-02         0.00000E+00
    0.10293E+00        -0.66374E-02         0.00000E+00
    0.10157E+00        -0.70395E-02         0.00000E+00
    0.10011E+00        -0.74202E-02         0.00000E+00
    0.98553E-01        -0.77780E-02         0.00000E+00
    0.96901E-01        -0.81118E-02         0.00000E+00
    0.95153E-01        -0.84204E-02         0.00000E+00
    0.93313E-01        -0.87025E-02         0.00000E+00
    0.91380E-01        -0.89571E-02         0.00000E+00
    0.89358E-01        -0.91830E-02         0.00000E+00
    0.87247E-01        -0.93794E-02         0.00000E+00
    0.85050E-01        -0.95451E-02         0.00000E+00
    0.82769E-01        -0.96794E-02         0.00000E+00
    0.80404E-01        -0.97812E-02         0.00000E+00
    0.77959E-01        -0.98498E-02         0.00000E+00
    0.75434E-01        -0.98844E-02         0.00000E+00
    0.72833E-01        -0.98841E-02         0.00000E+00
    0.70156E-01        -0.98484E-02         0.00000E+00
    0.67406E-01        -0.97765E-02         0.00000E+00
    0.64585E-01        -0.96679E-02         0.00000E+00
    0.61694E-01        -0.95218E-02         0.00000E+00
    0.58735E-01        -0.93378E-02         0.00000E+00
    0.55712E-01        -0.91154E-02         0.00000E+00
    0.52624E-01        -0.88540E-02         0.00000E+00
    0.49475E-01        -0.85531E-02         0.00000E+00
    0.46267E-01        -0.82125E-02         0.00000E+00
    0.43000E-01        -0.78315E-02         0.00000E+00
    0.39678E-01        -0.74100E-02         0.00000E+00
    0.36302E-01        -0.69474E-02         0.00000E+00
    0.32874E-01        -0.64435E-02         0.00000E+00
    0.29396E-01        -0.58980E-02         0.00000E+00
    0.25870E-01        -0.53105E-02         0.00000E+00
    0.22298E-01        -0.46807E-02         0.00000E+00
    0.18682E-01        -0.40084E-02         0.00000E+00
    0.15023E-01        -0.32933E-02         0.00000E+00
    0.11323E-01        -0.25352E-02         0.00000E+00
    0.75849E-02        -0.17337E-02         0.00000E+00
    0.38099E-02        -0.88876E-03         0.00000E+00
    0.00000E+00         0.00000E+00         0.00000E+00
    0.10078E+00         0.20324E-03         0.00000E+00
    0.10079E+00        -0.28316E-03         0.00000E+00
    0.10070E+00        -0.76888E-03         0.00000E+00
    0.10052E+00        -0.12524E-02         0.00000E+00
    0.10024E+00        -0.17322E-02         0.00000E+00
    0.99859E-01        -0.22069E-02         0.00000E+00
    0.99384E-01        -0.26749E-02         0.00000E+00
    0.98813E-01        -0.31348E-02         0.00000E+00
    0.98147E-01        -0.35853E-02         0.00000E+00
    0.97386E-01        -0.40248E-02         0.00000E+00
    0.96531E-01        -0.44520E-02         0.00000E+00
    0.95582E-01        -0.48656E-02         0.00000E+00
    0.94541E-01        -0.52644E-02         0.00000E+00
    0.93409E-01        -0.56469E-02         0.00000E+00
    0.92186E-01        -0.60119E-02         0.00000E+00
    0.90873E-01        -0.63584E-02         0.00000E+00
    0.89472E-01        -0.66850E-02         0.00000E+00
    0.87983E-01        -0.69906E-02         0.00000E+00
    0.86409E-01        -0.72742E-02         0.00000E+00
    0.84750E-01        -0.75347E-02         0.00000E+00
    0.83007E-01        -0.77710E-02         0.00000E+00
    0.81183E-01        -0.79822E-02         0.00000E+00
    0.79278E-01        -0.81674E-02         0.00000E+00
    0.77295E-01        -0.83255E-02         0.00000E+00
    0.75234E-01        -0.84559E-02         0.00000E+00
    0.73097E-01        -0.85575E-02         0.00000E+00
    0.70886E-01        -0.86297E-02         0.00000E+00
    0.68602E-01        -0.86716E-02         0.00000E+00
    0.66247E-01        -0.86825E-02         0.00000E+00
    0.63823E-01        -0.86618E-02         0.00000E+00
    0.61331E-01        -0.86088E-02         0.00000E+00
    0.58774E-01        -0.85228E-02         0.00000E+00
    0.56152E-01        -0.84033E-02         0.00000E+00
    0.53468E-01        -0.82497E-02         0.00000E+00
    0.50723E-01        -0.80615E-02         0.00000E+00
    0.47919E-01        -0.78381E-02         0.00000E+00
    0.45058E-01        -0.75791E-02         0.00000E+00
    0.42142E-01        -0.72841E-02         0.00000E+00
    0.39172E-01        -0.69526E-02         0.00000E+00
    0.36150E-01        -0.65842E-02         0.00000E+00
    0.33078E-01        -0.61785E-02         0.00000E+00
    0.29957E-01        -0.57352E-02         0.00000E+00
    0.26791E-01        -0.52539E-02         0.00000E+00
    0.23579E-01        -0.47343E-02         0.00000E+00
    0.20325E-01        -0.41761E-02         0.00000E+00
    0.17030E-01        -0.35789E-02         0.00000E+00
    0.13695E-01        -0.29426E-02         0.00000E+00
    0.10323E-01        -0.22668E-02         0.00000E+00
    0.69151E-02        -0.15512E-02         0.00000E+00
    0.34736E-02        -0.79573E-03         0.00000E+00
    0.00000E+00         0.00000E+00         0.00000E+00
    0.91574E-01         0.44877E-03         0.00000E+00
    0.91573E-01         0.13213E-04         0.00000E+00
    0.91485E-01        -0.42178E-03         0.00000E+00
    0.91310E-01        -0.85491E-03         0.00000E+00
    0.91049E-01        -0.12849E-02         0.00000E+00
    0.90702E-01        -0.17105E-02         0.00000E+00
    0.90269E-01        -0.21303E-02         0.00000E+00
    0.89749E-01        -0.25432E-02         0.00000E+00
    0.89145E-01        -0.29480E-02         0.00000E+00
    0.88455E-01        -0.33433E-02         0.00000E+00
    0.87681E-01        -0.37281E-02         0.00000E+00
    0.86823E-01        -0.41011E-02         0.00000E+00
    0.85881E-01        -0.44611E-02         0.00000E+00
    0.84857E-01        -0.48071E-02         0.00000E+00
    0.83752E-01        -0.51380E-02         0.00000E+00
    0.82565E-01        -0.54526E-02         0.00000E+00
    0.81299E-01        -0.57499E-02         0.00000E+00
    0.79954E-01        -0.60289E-02         0.00000E+00
    0.78530E-01        -0.62886E-02         0.00000E+00
    0.77030E-01        -0.65281E-02         0.00000E+00
    0.75455E-01        -0.67464E-02         0.00000E+00
    0.73805E-01        -0.69425E-02         0.00000E+00
    0.72081E-01        -0.71157E-02         0.00000E+00
    0.70286E-01        -0.72651E-02         0.00000E+00
    0.68420E-01        -0.73899E-02         0.00000E+00
    0.66484E-01        -0.74893E-02         0.00000E+00
    0.64481E-01        -0.75625E-02         0.00000E+00
    0.62411E-01        -0.76088E-02         0.00000E+00
    0.60276E-01        -0.76276E-02         0.00000E+00
    0.58078E-01        -0.76182E-02         0.00000E+00
    0.55817E-01        -0.75799E-02         0.00000E+00
    0.53495E-01        -0.75121E-02         0.00000E+00
    0.51115E-01        -0.74143E-02         0.00000E+00
    0.48677E-01        -0.72859E-02         0.00000E+00
    0.46183E-01        -0.71264E-02         0.00000E+00
    0.43635E-01        -0.69353E-02         0.00000E+00
    0.41033E-01        -0.67121E-02         0.00000E+00
    0.38381E-01        -0.64563E-02         0.00000E+00
    0.35679E-01        -0.61676E-02         0.00000E+00
    0.32929E-01        -0.58454E-02         0.00000E+00
    0.30133E-01        -0.54895E-02         0.00000E+00
    0.27293E-01        -0.50995E-02         0.00000E+00
    0.24409E-01        -0.46749E-02         0.00000E+00
    0.21484E-01        -0.42156E-02         0.00000E+00
    0.18520E-01        -0.37210E-02         0.00000E+00
    0.15518E-01        -0.31911E-02         0.00000E+00
    0.12480E-01        -0.26254E-02         0.00000E+00
    0.94069E-02        -0.20237E-02         0.00000E+00
    0.63016E-02        -0.13857E-02         0.00000E+00
    0.31654E-02        -0.71122E-03         0.00000E+00
    0.00000E+00         0.00000E+00         0.00000E+00
    0.83326E-01         0.62108E-03         0.00000E+00
    0.83316E-01         0.23093E-03         0.00000E+00
    0.83228E-01        -0.15872E-03         0.00000E+00
    0.83062E-01        -0.54677E-03         0.00000E+00
    0.82819E-01        -0.93209E-03         0.00000E+00
    0.82499E-01        -0.13136E-02         0.00000E+00
    0.82101E-01        -0.16902E-02         0.00000E+00
    0.81627E-01        -0.20607E-02         0.00000E+00
    0.81075E-01        -0.24242E-02         0.00000E+00
    0.80447E-01        -0.27796E-02         0.00000E+00
    0.79743E-01        -0.31258E-02         0.00000E+00
    0.78964E-01        -0.34617E-02         0.00000E+00
    0.78109E-01        -0.37864E-02         0.00000E+00
    0.77180E-01        -0.40988E-02         0.00000E+00
    0.76177E-01        -0.43981E-02         0.00000E+00
    0.75101E-01        -0.46831E-02         0.00000E+00
    0.73952E-01        -0.49530E-02         0.00000E+00
    0.72733E-01        -0.52070E-02         0.00000E+00
    0.71442E-01        -0.54439E-02         0.00000E+00
    0.70082E-01        -0.56631E-02         0.00000E+00
    0.68653E-01        -0.58637E-02         0.00000E+00
    0.67156E-01        -0.60447E-02         0.00000E+00
    0.65593E-01        -0.62056E-02         0.00000E+00
    0.63964E-01        -0.63454E-02         0.00000E+00
    0.62271E-01        -0.64634E-02         0.00000E+00
    0.60514E-01        -0.65589E-02         0.00000E+00
    0.58696E-01        -0.66312E-02         0.00000E+00
    0.56816E-01        -0.66796E-02         0.00000E+00
    0.54877E-01        -0.67035E-02         0.00000E+00
    0.52880E-01        -0.67023E-02         0.00000E+00
    0.50825E-01        -0.66753E-02         0.00000E+00
    0.48715E-01        -0.66220E-02         0.00000E+00
    0.46551E-01        -0.65418E-02         0.00000E+00
    0.44334E-01        -0.64342E-02         0.00000E+00
    0.42066E-01        -0.62987E-02         0.00000E+00
    0.39747E-01        -0.61348E-02         0.00000E+00
    0.37380E-01        -0.59420E-02         0.00000E+00
    0.34966E-01        -0.57200E-02         0.00000E+00
    0.32506E-01        -0.54682E-02         0.00000E+00
    0.30003E-01        -0.51863E-02         0.00000E+00
    0.27456E-01        -0.48738E-02         0.00000E+00
    0.24869E-01        -0.45306E-02         0.00000E+00
    0.22242E-01        -0.41560E-02         0.00000E+00
    0.19578E-01        -0.37500E-02         0.00000E+00
    0.16877E-01        -0.33121E-02         0.00000E+00
    0.14141E-01        -0.28420E-02         0.00000E+00
    0.11373E-01        -0.23395E-02         0.00000E+00
    0.85724E-02        -0.18042E-02         0.00000E+00
    0.57425E-02        -0.12361E-02         0.00000E+00
    0.28845E-02        -0.63475E-03         0.00000E+00
    0.00000E+00         0.00000E+00         0.00000E+00
    0.75939E-01         0.73202E-03         0.00000E+00
    0.75921E-01         0.38261E-03         0.00000E+00
    0.75833E-01         0.33671E-04         0.00000E+00
    0.75676E-01        -0.31385E-03         0.00000E+00
    0.75449E-01        -0.65900E-03         0.00000E+00
    0.75152E-01        -0.10008E-02         0.00000E+00
    0.74786E-01        -0.13384E-02         0.00000E+00
    0.74351E-01        -0.16707E-02         0.00000E+00
    0.73846E-01        -0.19968E-02         0.00000E+00
    0.73272E-01        -0.23158E-02         0.00000E+00
    0.72629E-01        -0.26269E-02         0.00000E+00
    0.71918E-01        -0.29290E-02         0.00000E+00
    0.71139E-01        -0.32213E-02         0.00000E+00
    0.70293E-01        -0.35029E-02         0.00000E+00
    0.69381E-01        -0.37729E-02         0.00000E+00
    0.68402E-01        -0.40305E-02         0.00000E+00
    0.67357E-01        -0.42749E-02         0.00000E+00
    0.66248E-01        -0.45052E-02         0.00000E+00
    0.65074E-01        -0.47206E-02         0.00000E+00
    0.63837E-01        -0.49204E-02         0.00000E+00
    0.62538E-01        -0.51037E-02         0.00000E+00
    0.61177E-01        -0.52699E-02         0.00000E+00
    0.59756E-01        -0.54182E-02         0.00000E+00
    0.58274E-01        -0.55479E-02         0.00000E+00
    0.56734E-01        -0.56583E-02         0.00000E+00
    0.55137E-01        -0.57488E-02         0.00000E+00
    0.53482E-01        -0.58187E-02         0.00000E+00
    0.51772E-01        -0.58674E-02         0.00000E+00
    0.50008E-01        -0.58943E-02         0.00000E+00
    0.48190E-01        -0.58988E-02         0.00000E+00
    0.46320E-01        -0.58803E-02         0.00000E+00
    0.44399E-01        -0.58383E-02         0.00000E+00
    0.42429E-01        -0.57724E-02         0.00000E+00
    0.40410E-01        -0.56819E-02         0.00000E+00
    0.38344E-01        -0.55664E-02         0.00000E+00
    0.36232E-01        -0.54255E-02         0.00000E+00
    0.34075E-01        -0.52587E-02         0.00000E+00
    0.31876E-01        -0.50655E-02         0.00000E+00
    0.29634E-01        -0.48457E-02         0.00000E+00
    0.27353E-01        -0.45987E-02         0.00000E+00
    0.25032E-01        -0.43243E-02         0.00000E+00
    0.22673E-01        -0.40220E-02         0.00000E+00
    0.20279E-01        -0.36916E-02         0.00000E+00
    0.17849E-01        -0.33327E-02         0.00000E+00
    0.15387E-01        -0.29450E-02         0.00000E+00
    0.12893E-01        -0.25283E-02         0.00000E+00
    0.10368E-01        -0.20822E-02         0.00000E+00
    0.78155E-02        -0.16066E-02         0.00000E+00
    0.52353E-02        -0.11012E-02         0.00000E+00
    0.26296E-02        -0.56570E-03         0.00000E+00
    0.00000E+00         0.00000E+00         0.00000E+00
    0.69324E-01         0.79315E-03         0.00000E+00
    0.69301E-01         0.48049E-03         0.00000E+00
    0.69214E-01         0.16826E-03         0.00000E+00
    0.69065E-01        -0.14270E-03         0.00000E+00
    0.68853E-01        -0.45156E-03         0.00000E+00
    0.68577E-01        -0.75750E-03         0.00000E+00
    0.68239E-01        -0.10597E-02         0.00000E+00
    0.67838E-01        -0.13573E-02         0.00000E+00
    0.67374E-01        -0.16495E-02         0.00000E+00
    0.66848E-01        -0.19355E-02         0.00000E+00
    0.66260E-01        -0.22145E-02         0.00000E+00
    0.65609E-01        -0.24857E-02         0.00000E+00
    0.64898E-01        -0.27483E-02         0.00000E+00
    0.64125E-01        -0.30015E-02         0.00000E+00
    0.63291E-01        -0.32446E-02         0.00000E+00
    0.62398E-01        -0.34767E-02         0.00000E+00
    0.61445E-01        -0.36973E-02         0.00000E+00
    0.60433E-01        -0.39054E-02         0.00000E+00
    0.59363E-01        -0.41005E-02         0.00000E+00
    0.58236E-01        -0.42817E-02         0.00000E+00
    0.57051E-01        -0.44485E-02         0.00000E+00
    0.55811E-01        -0.46002E-02         0.00000E+00
    0.54515E-01        -0.47360E-02         0.00000E+00
    0.53164E-01        -0.48554E-02         0.00000E+00
    0.51761E-01        -0.49577E-02         0.00000E+00
    0.50304E-01        -0.50424E-02         0.00000E+00
    0.48796E-01        -0.51088E-02         0.00000E+00
    0.47237E-01        -0.51564E-02         0.00000E+00
    0.45628E-01        -0.51846E-02         0.00000E+00
    0.43970E-01        -0.51929E-02         0.00000E+00
    0.42265E-01        -0.51807E-02         0.00000E+00
    0.40514E-01        -0.51476E-02         0.00000E+00
    0.38716E-01        -0.50931E-02         0.00000E+00
    0.36875E-01        -0.50167E-02         0.00000E+00
    0.34990E-01        -0.49180E-02         0.00000E+00
    0.33064E-01        -0.47965E-02         0.00000E+00
    0.31096E-01        -0.46518E-02         0.00000E+00
    0.29089E-01        -0.44835E-02         0.00000E+00
    0.27044E-01        -0.42913E-02         0.00000E+00
    0.24962E-01        -0.40748E-02         0.00000E+00
    0.22844E-01        -0.38336E-02         0.00000E+00
    0.20692E-01        -0.35673E-02         0.00000E+00
    0.18506E-01        -0.32758E-02         0.00000E+00
    0.16289E-01        -0.29587E-02         0.00000E+00
    0.14042E-01        -0.26157E-02         0.00000E+00
    0.11766E-01        -0.22465E-02         0.00000E+00
    0.94617E-02        -0.18509E-02         0.00000E+00
    0.71318E-02        -0.14287E-02         0.00000E+00
    0.47772E-02        -0.97957E-03         0.00000E+00
    0.23995E-02        -0.50341E-03         0.00000E+00
    0.00000E+00         0.00000E+00         0.00000E+00
    0.63409E-01         0.81507E-03         0.00000E+00
    0.63381E-01         0.53570E-03         0.00000E+00
    0.63297E-01         0.25674E-03         0.00000E+00
    0.63155E-01        -0.21084E-04         0.00000E+00
    0.62956E-01        -0.29705E-03         0.00000E+00
    0.62700E-01        -0.57042E-03         0.00000E+00
    0.62387E-01        -0.84050E-03         0.00000E+00
    0.62017E-01        -0.11066E-02         0.00000E+00
    0.61590E-01        -0.13679E-02         0.00000E+00
    0.61106E-01        -0.16237E-02         0.00000E+00
    0.60565E-01        -0.18735E-02         0.00000E+00
    0.59969E-01        -0.21163E-02         0.00000E+00
    0.59316E-01        -0.23516E-02         0.00000E+00
    0.58608E-01        -0.25787E-02         0.00000E+00
    0.57845E-01        -0.27969E-02         0.00000E+00
    0.57028E-01        -0.30054E-02         0.00000E+00
    0.56156E-01        -0.32038E-02         0.00000E+00
    0.55231E-01        -0.33912E-02         0.00000E+00
    0.54252E-01        -0.35671E-02         0.00000E+00
    0.53221E-01        -0.37309E-02         0.00000E+00
    0.52138E-01        -0.38818E-02         0.00000E+00
    0.51005E-01        -0.40194E-02         0.00000E+00
    0.49820E-01        -0.41431E-02         0.00000E+00
    0.48586E-01        -0.42522E-02         0.00000E+00
    0.47304E-01        -0.43462E-02         0.00000E+00
    0.45973E-01        -0.44246E-02         0.00000E+00
    0.44594E-01        -0.44867E-02         0.00000E+00
    0.43170E-01        -0.45322E-02         0.00000E+00
    0.41700E-01        -0.45605E-02         0.00000E+00
    0.40185E-01        -0.45711E-02         0.00000E+00
    0.38627E-01        -0.45635E-02         0.00000E+00
    0.37026E-01        -0.45373E-02         0.00000E+00
    0.35384E-01        -0.44920E-02         0.00000E+00
    0.33701E-01        -0.44272E-02         0.00000E+00
    0.31979E-01        -0.43425E-02         0.00000E+00
    0.30218E-01        -0.42375E-02         0.00000E+00
    0.28420E-01        -0.41117E-02         0.00000E+00
    0.26586E-01        -0.39649E-02         0.00000E+00
    0.24716E-01        -0.37967E-02         0.00000E+00
    0.22813E-01        -0.36068E-02         0.00000E+00
    0.20877E-01        -0.33947E-02         0.00000E+00
    0.18910E-01        -0.31603E-02         0.00000E+00
    0.16913E-01        -0.29032E-02         0.00000E+00
    0.14886E-01        -0.26231E-02         0.00000E+00
    0.12832E-01        -0.23199E-02         0.00000E+00
    0.10752E-01        -0.19931E-02         0.00000E+00
    0.86461E-02        -0.16427E-02         0.00000E+00
    0.65168E-02        -0.12684E-02         0.00000E+00
    0.43651E-02        -0.86992E-03         0.00000E+00
    0.21924E-02        -0.44719E-03         0.00000E+00
    0.00000E+00         0.00000E+00         0.00000E+00
    0.58128E-01         0.80707E-03         0.00000E+00
    0.58098E-01         0.55797E-03         0.00000E+00
    0.58016E-01         0.30928E-03         0.00000E+00
    0.57882E-01         0.61610E-04         0.00000E+00
    0.57695E-01        -0.18440E-03         0.00000E+00
    0.57457E-01        -0.42812E-03         0.00000E+00
    0.57166E-01        -0.66892E-03         0.00000E+00
    0.56824E-01        -0.90618E-03         0.00000E+00
    0.56429E-01        -0.11393E-02         0.00000E+00
    0.55983E-01        -0.13676E-02         0.00000E+00
    0.55485E-01        -0.15905E-02         0.00000E+00
    0.54936E-01        -0.18073E-02         0.00000E+00
    0.54337E-01        -0.20175E-02         0.00000E+00
    0.53686E-01        -0.22205E-02         0.00000E+00
    0.52986E-01        -0.24157E-02         0.00000E+00
    0.52235E-01        -0.26024E-02         0.00000E+00
    0.51435E-01        -0.27801E-02         0.00000E+00
    0.50586E-01        -0.29482E-02         0.00000E+00
    0.49689E-01        -0.31061E-02         0.00000E+00
    0.48744E-01        -0.32533E-02         0.00000E+00
    0.47752E-01        -0.33893E-02         0.00000E+00
    0.46712E-01        -0.35135E-02         0.00000E+00
    0.45627E-01        -0.36253E-02         0.00000E+00
    0.44497E-01        -0.37243E-02         0.00000E+00
    0.43321E-01        -0.38099E-02         0.00000E+00
    0.42102E-01        -0.38818E-02         0.00000E+00
    0.40839E-01        -0.39392E-02         0.00000E+00
    0.39534E-01        -0.39819E-02         0.00000E+00
    0.38188E-01        -0.40094E-02         0.00000E+00
    0.36801E-01        -0.40212E-02         0.00000E+00
    0.35373E-01        -0.40168E-02         0.00000E+00
    0.33907E-01        -0.39959E-02         0.00000E+00
    0.32403E-01        -0.39581E-02         0.00000E+00
    0.30862E-01        -0.39029E-02         0.00000E+00
    0.29284E-01        -0.38300E-02         0.00000E+00
    0.27671E-01        -0.37390E-02         0.00000E+00
    0.26024E-01        -0.36296E-02         0.00000E+00
    0.24344E-01        -0.35015E-02         0.00000E+00
    0.22632E-01        -0.33542E-02         0.00000E+00
    0.20889E-01        -0.31876E-02         0.00000E+00
    0.19116E-01        -0.30013E-02         0.00000E+00
    0.17315E-01        -0.27950E-02         0.00000E+00
    0.15485E-01        -0.25684E-02         0.00000E+00
    0.13630E-01        -0.23214E-02         0.00000E+00
    0.11749E-01        -0.20536E-02         0.00000E+00
    0.98435E-02        -0.17649E-02         0.00000E+00
    0.79155E-02        -0.14550E-02         0.00000E+00
    0.59659E-02        -0.11237E-02         0.00000E+00
    0.39960E-02        -0.77090E-03         0.00000E+00
    0.20069E-02        -0.39638E-03         0.00000E+00
    0.00000E+00         0.00000E+00         0.00000E+00
    0.53426E-01         0.77694E-03         0.00000E+00
    0.53394E-01         0.55551E-03         0.00000E+00
    0.53315E-01         0.33447E-03         0.00000E+00
    0.53188E-01         0.11436E-03         0.00000E+00
    0.53013E-01        -0.10427E-03         0.00000E+00
    0.52791E-01        -0.32087E-03         0.00000E+00
    0.52521E-01        -0.53489E-03         0.00000E+00
    0.52203E-01        -0.74579E-03         0.00000E+00
    0.51838E-01        -0.95301E-03         0.00000E+00
    0.51425E-01        -0.11560E-02         0.00000E+00
    0.50966E-01        -0.13543E-02         0.00000E+00
    0.50459E-01        -0.15472E-02         0.00000E+00
    0.49906E-01        -0.17343E-02         0.00000E+00
    0.49307E-01        -0.19151E-02         0.00000E+00
    0.48662E-01        -0.20889E-02         0.00000E+00
    0.47971E-01        -0.22554E-02         0.00000E+00
    0.47235E-01        -0.24139E-02         0.00000E+00
    0.46454E-01        -0.25639E-02         0.00000E+00
    0.45628E-01        -0.27050E-02         0.00000E+00
    0.44759E-01        -0.28367E-02         0.00000E+00
    0.43847E-01        -0.29585E-02         0.00000E+00
    0.42892E-01        -0.30699E-02         0.00000E+00
    0.41894E-01        -0.31704E-02         0.00000E+00
    0.40855E-01        -0.32596E-02         0.00000E+00
    0.39775E-01        -0.33370E-02         0.00000E+00
    0.38655E-01        -0.34022E-02         0.00000E+00
    0.37495E-01        -0.34547E-02         0.00000E+00
    0.36296E-01        -0.34942E-02         0.00000E+00
    0.35059E-01        -0.35202E-02         0.00000E+00
    0.33785E-01        -0.35323E-02         0.00000E+00
    0.32474E-01        -0.35302E-02         0.00000E+00
    0.31128E-01        -0.35134E-02         0.00000E+00
    0.29746E-01        -0.34816E-02         0.00000E+00
    0.28331E-01        -0.34345E-02         0.00000E+00
    0.26882E-01        -0.33716E-02         0.00000E+00
    0.25401E-01        -0.32927E-02         0.00000E+00
    0.23889E-01        -0.31975E-02         0.00000E+00
    0.22346E-01        -0.30856E-02         0.00000E+00
    0.20774E-01        -0.29568E-02         0.00000E+00
    0.19174E-01        -0.28108E-02         0.00000E+00
    0.17546E-01        -0.26472E-02         0.00000E+00
    0.15892E-01        -0.24659E-02         0.00000E+00
    0.14212E-01        -0.22667E-02         0.00000E+00
    0.12509E-01        -0.20492E-02         0.00000E+00
    0.10782E-01        -0.18132E-02         0.00000E+00
    0.90335E-02        -0.15586E-02         0.00000E+00
    0.72639E-02        -0.12852E-02         0.00000E+00
    0.54746E-02        -0.99282E-03         0.00000E+00
    0.36668E-02        -0.68124E-03         0.00000E+00
    0.18415E-02        -0.35035E-03         0.00000E+00
    0.00000E+00         0.00000E+00         0.00000E+00
    0.49254E-01         0.73107E-03         0.00000E+00
    0.49221E-01         0.53504E-03         0.00000E+00
    0.49145E-01         0.33938E-03         0.00000E+00
    0.49025E-01         0.14456E-03         0.00000E+00
    0.48861E-01        -0.48935E-04         0.00000E+00
    0.48653E-01        -0.24064E-03         0.00000E+00
    0.48402E-01        -0.43006E-03         0.00000E+00
    0.48107E-01        -0.61673E-03         0.00000E+00
    0.47768E-01        -0.80017E-03         0.00000E+00
    0.47385E-01        -0.97991E-03         0.00000E+00
    0.46960E-01        -0.11555E-02         0.00000E+00
    0.46491E-01        -0.13264E-02         0.00000E+00
    0.45979E-01        -0.14921E-02         0.00000E+00
    0.45425E-01        -0.16523E-02         0.00000E+00
    0.44829E-01        -0.18064E-02         0.00000E+00
    0.44191E-01        -0.19541E-02         0.00000E+00
    0.43511E-01        -0.20947E-02         0.00000E+00
    0.42790E-01        -0.22280E-02         0.00000E+00
    0.42029E-01        -0.23534E-02         0.00000E+00
    0.41227E-01        -0.24705E-02         0.00000E+00
    0.40385E-01        -0.25789E-02         0.00000E+00
    0.39504E-01        -0.26781E-02         0.00000E+00
    0.38584E-01        -0.27679E-02         0.00000E+00
    0.37626E-01        -0.28476E-02         0.00000E+00
    0.36631E-01        -0.29170E-02         0.00000E+00
    0.35598E-01        -0.29756E-02         0.00000E+00
    0.34529E-01        -0.30231E-02         0.00000E+00
    0.33424E-01        -0.30591E-02         0.00000E+00
    0.32284E-01        -0.30833E-02         0.00000E+00
    0.31110E-01        -0.30952E-02         0.00000E+00
    0.29902E-01        -0.30945E-02         0.00000E+00
    0.28662E-01        -0.30809E-02         0.00000E+00
    0.27389E-01        -0.30541E-02         0.00000E+00
    0.26085E-01        -0.30137E-02         0.00000E+00
    0.24750E-01        -0.29595E-02         0.00000E+00
    0.23386E-01        -0.28911E-02         0.00000E+00
    0.21993E-01        -0.28083E-02         0.00000E+00
    0.20573E-01        -0.27107E-02         0.00000E+00
    0.19125E-01        -0.25982E-02         0.00000E+00
    0.17651E-01        -0.24705E-02         0.00000E+00
    0.16152E-01        -0.23273E-02         0.00000E+00
    0.14629E-01        -0.21684E-02         0.00000E+00
    0.13083E-01        -0.19936E-02         0.00000E+00
    0.11514E-01        -0.18026E-02         0.00000E+00
    0.99244E-02        -0.15954E-02         0.00000E+00
    0.83145E-02        -0.13716E-02         0.00000E+00
    0.66856E-02        -0.11312E-02         0.00000E+00
    0.50386E-02        -0.87399E-03         0.00000E+00
    0.33746E-02        -0.59979E-03         0.00000E+00
    0.16947E-02        -0.30850E-03         0.00000E+00
    0.00000E+00         0.00000E+00         0.00000E+00
    0.45569E-01         0.67452E-03         0.00000E+00
    0.45537E-01         0.50191E-03         0.00000E+00
    0.45464E-01         0.32965E-03         0.00000E+00
    0.45351E-01         0.15815E-03         0.00000E+00
    0.45197E-01        -0.12179E-04         0.00000E+00
    0.45002E-01        -0.18092E-03         0.00000E+00
    0.44767E-01        -0.34766E-03         0.00000E+00
    0.44492E-01        -0.51198E-03         0.00000E+00
    0.44176E-01        -0.67347E-03         0.00000E+00
    0.43821E-01        -0.83171E-03         0.00000E+00
    0.43425E-01        -0.98628E-03         0.00000E+00
    0.42990E-01        -0.11368E-02         0.00000E+00
    0.42515E-01        -0.12828E-02         0.00000E+00
    0.42001E-01        -0.14239E-02         0.00000E+00
    0.41448E-01        -0.15597E-02         0.00000E+00
    0.40856E-01        -0.16899E-02         0.00000E+00
    0.40226E-01        -0.18139E-02         0.00000E+00
    0.39558E-01        -0.19315E-02         0.00000E+00
    0.38853E-01        -0.20422E-02         0.00000E+00
    0.38110E-01        -0.21456E-02         0.00000E+00
    0.37331E-01        -0.22415E-02         0.00000E+00
    0.36515E-01        -0.23293E-02         0.00000E+00
    0.35664E-01        -0.24087E-02         0.00000E+00
    0.34777E-01        -0.24795E-02         0.00000E+00
    0.33856E-01        -0.25412E-02         0.00000E+00
    0.32901E-01        -0.25934E-02         0.00000E+00
    0.31912E-01        -0.26359E-02         0.00000E+00
    0.30890E-01        -0.26683E-02         0.00000E+00
    0.29835E-01        -0.26903E-02         0.00000E+00
    0.28749E-01        -0.27016E-02         0.00000E+00
    0.27633E-01        -0.27018E-02         0.00000E+00
    0.26485E-01        -0.26908E-02         0.00000E+00
    0.25308E-01        -0.26681E-02         0.00000E+00
    0.24103E-01        -0.26335E-02         0.00000E+00
    0.22869E-01        -0.25867E-02         0.00000E+00
    0.21608E-01        -0.25275E-02         0.00000E+00
    0.20320E-01        -0.24557E-02         0.00000E+00
    0.19007E-01        -0.23709E-02         0.00000E+00
    0.17669E-01        -0.22729E-02         0.00000E+00
    0.16307E-01        -0.21616E-02         0.00000E+00
    0.14922E-01        -0.20366E-02         0.00000E+00
    0.13514E-01        -0.18979E-02         0.00000E+00
    0.12085E-01        -0.17452E-02         0.00000E+00
    0.10636E-01        -0.15783E-02         0.00000E+00
    0.91673E-02        -0.13970E-02         0.00000E+00
    0.76800E-02        -0.12012E-02         0.00000E+00
    0.61752E-02        -0.99083E-03         0.00000E+00
    0.46537E-02        -0.76562E-03         0.00000E+00
    0.31167E-02        -0.52549E-03         0.00000E+00
    0.15651E-02        -0.27031E-03         0.00000E+00
    0.00000E+00         0.00000E+00         0.00000E+00
    0.42336E-01         0.61119E-03         0.00000E+00
    0.42304E-01         0.46029E-03         0.00000E+00
    0.42234E-01         0.30971E-03         0.00000E+00
    0.42127E-01         0.15980E-03         0.00000E+00
    0.41982E-01         0.10930E-04         0.00000E+00
    0.41799E-01        -0.13655E-03         0.00000E+00
    0.41579E-01        -0.28227E-03         0.00000E+00
    0.41322E-01        -0.42588E-03         0.00000E+00
    0.41027E-01        -0.56702E-03         0.00000E+00
    0.40695E-01        -0.70532E-03         0.00000E+00
    0.40326E-01        -0.84043E-03         0.00000E+00
    0.39920E-01        -0.97200E-03         0.00000E+00
    0.39478E-01        -0.10997E-02         0.00000E+00
    0.38999E-01        -0.12231E-02         0.00000E+00
    0.38484E-01        -0.13419E-02         0.00000E+00
    0.37933E-01        -0.14557E-02         0.00000E+00
    0.37347E-01        -0.15643E-02         0.00000E+00
    0.36725E-01        -0.16672E-02         0.00000E+00
    0.36069E-01        -0.17641E-02         0.00000E+00
    0.35378E-01        -0.18547E-02         0.00000E+00
    0.34654E-01        -0.19387E-02         0.00000E+00
    0.33896E-01        -0.20158E-02         0.00000E+00
    0.33104E-01        -0.20855E-02         0.00000E+00
    0.32280E-01        -0.21477E-02         0.00000E+00
    0.31424E-01        -0.22020E-02         0.00000E+00
    0.30536E-01        -0.22481E-02         0.00000E+00
    0.29617E-01        -0.22856E-02         0.00000E+00
    0.28668E-01        -0.23144E-02         0.00000E+00
    0.27689E-01        -0.23342E-02         0.00000E+00
    0.26680E-01        -0.23446E-02         0.00000E+00
    0.25643E-01        -0.23454E-02         0.00000E+00
    0.24577E-01        -0.23363E-02         0.00000E+00
    0.23485E-01        -0.23171E-02         0.00000E+00
    0.22365E-01        -0.22875E-02         0.00000E+00
    0.21220E-01        -0.22473E-02         0.00000E+00
    0.20049E-01        -0.21963E-02         0.00000E+00
    0.18854E-01        -0.21342E-02         0.00000E+00
    0.17635E-01        -0.20608E-02         0.00000E+00
    0.16393E-01        -0.19760E-02         0.00000E+00
    0.15129E-01        -0.18794E-02         0.00000E+00
    0.13843E-01        -0.17710E-02         0.00000E+00
    0.12537E-01        -0.16506E-02         0.00000E+00
    0.11211E-01        -0.15180E-02         0.00000E+00
    0.98664E-02        -0.13730E-02         0.00000E+00
    0.85037E-02        -0.12154E-02         0.00000E+00
    0.71238E-02        -0.10452E-02         0.00000E+00
    0.57278E-02        -0.86221E-03         0.00000E+00
    0.43164E-02        -0.66630E-03         0.00000E+00
    0.28907E-02        -0.45735E-03         0.00000E+00
    0.14516E-02        -0.23529E-03         0.00000E+00
    0.00000E+00         0.00000E+00         0.00000E+00
    0.39521E-01         0.54398E-03         0.00000E+00
    0.39489E-01         0.41330E-03         0.00000E+00
    0.39423E-01         0.28291E-03         0.00000E+00
    0.39321E-01         0.15311E-03         0.00000E+00
    0.39185E-01         0.24220E-04         0.00000E+00
    0.39013E-01        -0.10346E-03         0.00000E+00
    0.38806E-01        -0.22962E-03         0.00000E+00
    0.38564E-01        -0.35394E-03         0.00000E+00
    0.38288E-01        -0.47613E-03         0.00000E+00
    0.37976E-01        -0.59586E-03         0.00000E+00
    0.37631E-01        -0.71283E-03         0.00000E+00
    0.37251E-01        -0.82675E-03         0.00000E+00
    0.36836E-01        -0.93729E-03         0.00000E+00
    0.36388E-01        -0.10442E-02         0.00000E+00
    0.35906E-01        -0.11470E-02         0.00000E+00
    0.35391E-01        -0.12457E-02         0.00000E+00
    0.34843E-01        -0.13397E-02         0.00000E+00
    0.34262E-01        -0.14289E-02         0.00000E+00
    0.33649E-01        -0.15129E-02         0.00000E+00
    0.33003E-01        -0.15915E-02         0.00000E+00
    0.32326E-01        -0.16644E-02         0.00000E+00
    0.31618E-01        -0.17313E-02         0.00000E+00
    0.30879E-01        -0.17919E-02         0.00000E+00
    0.30109E-01        -0.18459E-02         0.00000E+00
    0.29310E-01        -0.18931E-02         0.00000E+00
    0.28481E-01        -0.19333E-02         0.00000E+00
    0.27623E-01        -0.19661E-02         0.00000E+00
    0.26737E-01        -0.19913E-02         0.00000E+00
    0.25823E-01        -0.20088E-02         0.00000E+00
    0.24881E-01        -0.20181E-02         0.00000E+00
    0.23913E-01        -0.20192E-02         0.00000E+00
    0.22919E-01        -0.20117E-02         0.00000E+00
    0.21899E-01        -0.19955E-02         0.00000E+00
    0.20855E-01        -0.19703E-02         0.00000E+00
    0.19786E-01        -0.19360E-02         0.00000E+00
    0.18694E-01        -0.18923E-02         0.00000E+00
    0.17579E-01        -0.18390E-02         0.00000E+00
    0.16442E-01        -0.17760E-02         0.00000E+00
    0.15284E-01        -0.17031E-02         0.00000E+00
    0.14105E-01        -0.16201E-02         0.00000E+00
    0.12906E-01        -0.15268E-02         0.00000E+00
    0.11688E-01        -0.14231E-02         0.00000E+00
    0.10451E-01        -0.13089E-02         0.00000E+00
    0.91974E-02        -0.11839E-02         0.00000E+00
    0.79269E-02        -0.10482E-02         0.00000E+00
    0.66404E-02        -0.90144E-03         0.00000E+00
    0.53390E-02        -0.74367E-03         0.00000E+00
    0.40233E-02        -0.57473E-03         0.00000E+00
    0.26944E-02        -0.39452E-03         0.00000E+00
    0.13530E-02        -0.20298E-03         0.00000E+00
    0.00000E+00         0.00000E+00         0.00000E+00
    0.37097E-01         0.47499E-03         0.00000E+00
    0.37067E-01         0.36325E-03         0.00000E+00
    0.37003E-01         0.25176E-03         0.00000E+00
    0.36907E-01         0.14080E-03         0.00000E+00
    0.36777E-01         0.30609E-04         0.00000E+00
    0.36615E-01        -0.78536E-04         0.00000E+00
    0.36420E-01        -0.18637E-03         0.00000E+00
    0.36192E-01        -0.29264E-03         0.00000E+00
    0.35931E-01        -0.39708E-03         0.00000E+00
    0.35638E-01        -0.49943E-03         0.00000E+00
    0.35312E-01        -0.59942E-03         0.00000E+00
    0.34954E-01        -0.69679E-03         0.00000E+00
    0.34564E-01        -0.79129E-03         0.00000E+00
    0.34143E-01        -0.88265E-03         0.00000E+00
    0.33690E-01        -0.97063E-03         0.00000E+00
    0.33205E-01        -0.10550E-02         0.00000E+00
    0.32690E-01        -0.11354E-02         0.00000E+00
    0.32144E-01        -0.12117E-02         0.00000E+00
    0.31567E-01        -0.12836E-02         0.00000E+00
    0.30961E-01        -0.13508E-02         0.00000E+00
    0.30325E-01        -0.14132E-02         0.00000E+00
    0.29659E-01        -0.14705E-02         0.00000E+00
    0.28965E-01        -0.15224E-02         0.00000E+00
    0.28242E-01        -0.15687E-02         0.00000E+00
    0.27492E-01        -0.16092E-02         0.00000E+00
    0.26713E-01        -0.16437E-02         0.00000E+00
    0.25908E-01        -0.16719E-02         0.00000E+00
    0.25076E-01        -0.16937E-02         0.00000E+00
    0.24218E-01        -0.17088E-02         0.00000E+00
    0.23334E-01        -0.17170E-02         0.00000E+00
    0.22426E-01        -0.17182E-02         0.00000E+00
    0.21493E-01        -0.17120E-02         0.00000E+00
    0.20536E-01        -0.16984E-02         0.00000E+00
    0.19556E-01        -0.16772E-02         0.00000E+00
    0.18554E-01        -0.16482E-02         0.00000E+00
    0.17529E-01        -0.16111E-02         0.00000E+00
    0.16483E-01        -0.15659E-02         0.00000E+00
    0.15417E-01        -0.15124E-02         0.00000E+00
    0.14330E-01        -0.14504E-02         0.00000E+00
    0.13224E-01        -0.13798E-02         0.00000E+00
    0.12100E-01        -0.13005E-02         0.00000E+00
    0.10957E-01        -0.12123E-02         0.00000E+00
    0.97981E-02        -0.11150E-02         0.00000E+00
    0.86224E-02        -0.10087E-02         0.00000E+00
    0.74311E-02        -0.89304E-03         0.00000E+00
    0.62250E-02        -0.76808E-03         0.00000E+00
    0.50048E-02        -0.63368E-03         0.00000E+00
    0.37714E-02        -0.48975E-03         0.00000E+00
    0.25256E-02        -0.33621E-03         0.00000E+00
    0.12682E-02        -0.17298E-03         0.00000E+00
    0.00000E+00         0.00000E+00         0.00000E+00
    0.35041E-01         0.40561E-03         0.00000E+00
    0.35012E-01         0.31172E-03         0.00000E+00
    0.34951E-01         0.21806E-03         0.00000E+00
    0.34859E-01         0.12483E-03         0.00000E+00
    0.34736E-01         0.32270E-04         0.00000E+00
    0.34582E-01        -0.59413E-04         0.00000E+00
    0.34396E-01        -0.15000E-03         0.00000E+00
    0.34180E-01        -0.23926E-03         0.00000E+00
    0.33933E-01        -0.32698E-03         0.00000E+00
    0.33655E-01        -0.41295E-03         0.00000E+00
    0.33347E-01        -0.49693E-03         0.00000E+00
    0.33008E-01        -0.57872E-03         0.00000E+00
    0.32639E-01        -0.65810E-03         0.00000E+00
    0.32240E-01        -0.73485E-03         0.00000E+00
    0.31811E-01        -0.80876E-03         0.00000E+00
    0.31353E-01        -0.87961E-03         0.00000E+00
    0.30865E-01        -0.94719E-03         0.00000E+00
    0.30349E-01        -0.10113E-02         0.00000E+00
    0.29804E-01        -0.10717E-02         0.00000E+00
    0.29230E-01        -0.11283E-02         0.00000E+00
    0.28629E-01        -0.11807E-02         0.00000E+00
    0.28000E-01        -0.12289E-02         0.00000E+00
    0.27344E-01        -0.12725E-02         0.00000E+00
    0.26661E-01        -0.13115E-02         0.00000E+00
    0.25951E-01        -0.13457E-02         0.00000E+00
    0.25216E-01        -0.13747E-02         0.00000E+00
    0.24455E-01        -0.13985E-02         0.00000E+00
    0.23669E-01        -0.14170E-02         0.00000E+00
    0.22859E-01        -0.14298E-02         0.00000E+00
    0.22024E-01        -0.14368E-02         0.00000E+00
    0.21166E-01        -0.14379E-02         0.00000E+00
    0.20285E-01        -0.14329E-02         0.00000E+00
    0.19382E-01        -0.14217E-02         0.00000E+00
    0.18456E-01        -0.14041E-02         0.00000E+00
    0.17509E-01        -0.13799E-02         0.00000E+00
    0.16542E-01        -0.13489E-02         0.00000E+00
    0.15555E-01        -0.13112E-02         0.00000E+00
    0.14548E-01        -0.12665E-02         0.00000E+00
    0.13522E-01        -0.12147E-02         0.00000E+00
    0.12478E-01        -0.11556E-02         0.00000E+00
    0.11417E-01        -0.10892E-02         0.00000E+00
    0.10339E-01        -0.10154E-02         0.00000E+00
    0.92450E-02        -0.93398E-03         0.00000E+00
    0.81354E-02        -0.84492E-03         0.00000E+00
    0.70113E-02        -0.74811E-03         0.00000E+00
    0.58731E-02        -0.64346E-03         0.00000E+00
    0.47218E-02        -0.53089E-03         0.00000E+00
    0.35581E-02        -0.41032E-03         0.00000E+00
    0.23827E-02        -0.28169E-03         0.00000E+00
    0.11964E-02        -0.14493E-03         0.00000E+00
    0.00000E+00         0.00000E+00         0.00000E+00
    0.33333E-01         0.33673E-03         0.00000E+00
    0.33305E-01         0.25979E-03         0.00000E+00
    0.33246E-01         0.18303E-03         0.00000E+00
    0.33158E-01         0.10664E-03         0.00000E+00
    0.33041E-01         0.30793E-04         0.00000E+00
    0.32893E-01        -0.44329E-04         0.00000E+00
    0.32716E-01        -0.11855E-03         0.00000E+00
    0.32510E-01        -0.19168E-03         0.00000E+00
    0.32274E-01        -0.26356E-03         0.00000E+00
    0.32009E-01        -0.33399E-03         0.00000E+00
    0.31715E-01        -0.40280E-03         0.00000E+00
    0.31392E-01        -0.46981E-03         0.00000E+00
    0.31040E-01        -0.53485E-03         0.00000E+00
    0.30660E-01        -0.59773E-03         0.00000E+00
    0.30252E-01        -0.65829E-03         0.00000E+00
    0.29815E-01        -0.71635E-03         0.00000E+00
    0.29351E-01        -0.77174E-03         0.00000E+00
    0.28859E-01        -0.82428E-03         0.00000E+00
    0.28340E-01        -0.87381E-03         0.00000E+00
    0.27794E-01        -0.92016E-03         0.00000E+00
    0.27221E-01        -0.96317E-03         0.00000E+00
    0.26623E-01        -0.10027E-02         0.00000E+00
    0.25998E-01        -0.10385E-02         0.00000E+00
    0.25348E-01        -0.10705E-02         0.00000E+00
    0.24673E-01        -0.10985E-02         0.00000E+00
    0.23973E-01        -0.11224E-02         0.00000E+00
    0.23249E-01        -0.11420E-02         0.00000E+00
    0.22502E-01        -0.11571E-02         0.00000E+00
    0.21731E-01        -0.11677E-02         0.00000E+00
    0.20937E-01        -0.11736E-02         0.00000E+00
    0.20121E-01        -0.11746E-02         0.00000E+00
    0.19283E-01        -0.11706E-02         0.00000E+00
    0.18423E-01        -0.11615E-02         0.00000E+00
    0.17543E-01        -0.11472E-02         0.00000E+00
    0.16643E-01        -0.11275E-02         0.00000E+00
    0.15723E-01        -0.11023E-02         0.00000E+00
    0.14784E-01        -0.10715E-02         0.00000E+00
    0.13827E-01        -0.10351E-02         0.00000E+00
    0.12852E-01        -0.99276E-03         0.00000E+00
    0.11860E-01        -0.94454E-03         0.00000E+00
    0.10851E-01        -0.89032E-03         0.00000E+00
    0.98261E-02        -0.83000E-03         0.00000E+00
    0.87861E-02        -0.76349E-03         0.00000E+00
    0.77315E-02        -0.69072E-03         0.00000E+00
    0.66630E-02        -0.61159E-03         0.00000E+00
    0.55813E-02        -0.52606E-03         0.00000E+00
    0.44871E-02        -0.43404E-03         0.00000E+00
    0.33812E-02        -0.33547E-03         0.00000E+00
    0.22642E-02        -0.23031E-03         0.00000E+00
    0.11369E-02        -0.11850E-03         0.00000E+00
    0.00000E+00         0.00000E+00         0.00000E+00
    0.31957E-01         0.26881E-03         0.00000E+00
    0.31929E-01         0.20807E-03         0.00000E+00
    0.31873E-01         0.14747E-03         0.00000E+00
    0.31788E-01         0.87172E-04         0.00000E+00
    0.31674E-01         0.27302E-04         0.00000E+00
    0.31533E-01        -0.31994E-04         0.00000E+00
    0.31362E-01        -0.90575E-04         0.00000E+00
    0.31164E-01        -0.14830E-03         0.00000E+00
    0.30937E-01        -0.20503E-03         0.00000E+00
    0.30683E-01        -0.26062E-03         0.00000E+00
    0.30400E-01        -0.31494E-03         0.00000E+00
    0.30090E-01        -0.36783E-03         0.00000E+00
    0.29752E-01        -0.41917E-03         0.00000E+00
    0.29387E-01        -0.46881E-03         0.00000E+00
    0.28995E-01        -0.51662E-03         0.00000E+00
    0.28576E-01        -0.56245E-03         0.00000E+00
    0.28131E-01        -0.60619E-03         0.00000E+00
    0.27659E-01        -0.64767E-03         0.00000E+00
    0.27161E-01        -0.68679E-03         0.00000E+00
    0.26637E-01        -0.72340E-03         0.00000E+00
    0.26088E-01        -0.75737E-03         0.00000E+00
    0.25514E-01        -0.78858E-03         0.00000E+00
    0.24914E-01        -0.81689E-03         0.00000E+00
    0.24291E-01        -0.84219E-03         0.00000E+00
    0.23644E-01        -0.86435E-03         0.00000E+00
    0.22973E-01        -0.88325E-03         0.00000E+00
    0.22278E-01        -0.89877E-03         0.00000E+00
    0.21561E-01        -0.91080E-03         0.00000E+00
    0.20822E-01        -0.91922E-03         0.00000E+00
    0.20061E-01        -0.92392E-03         0.00000E+00
    0.19279E-01        -0.92479E-03         0.00000E+00
    0.18475E-01        -0.92173E-03         0.00000E+00
    0.17652E-01        -0.91464E-03         0.00000E+00
    0.16808E-01        -0.90341E-03         0.00000E+00
    0.15945E-01        -0.88795E-03         0.00000E+00
    0.15064E-01        -0.86817E-03         0.00000E+00
    0.14164E-01        -0.84398E-03         0.00000E+00
    0.13247E-01        -0.81528E-03         0.00000E+00
    0.12312E-01        -0.78200E-03         0.00000E+00
    0.11362E-01        -0.74406E-03         0.00000E+00
    0.10395E-01        -0.70137E-03         0.00000E+00
    0.94130E-02        -0.65388E-03         0.00000E+00
    0.84166E-02        -0.60151E-03         0.00000E+00
    0.74062E-02        -0.54419E-03         0.00000E+00
    0.63826E-02        -0.48187E-03         0.00000E+00
    0.53463E-02        -0.41449E-03         0.00000E+00
    0.42982E-02        -0.34200E-03         0.00000E+00
    0.32387E-02        -0.26434E-03         0.00000E+00
    0.21688E-02        -0.18148E-03         0.00000E+00
    0.10890E-02        -0.93381E-04         0.00000E+00
    0.00000E+00         0.00000E+00         0.00000E+00
    0.30898E-01         0.20198E-03         0.00000E+00
    0.30871E-01         0.15686E-03         0.00000E+00
    0.30816E-01         0.11184E-03         0.00000E+00
    0.30734E-01         0.67045E-04         0.00000E+00
    0.30624E-01         0.22570E-04         0.00000E+00
    0.30487E-01        -0.21479E-04         0.00000E+00
    0.30322E-01        -0.64997E-04         0.00000E+00
    0.30129E-01        -0.10788E-03         0.00000E+00
    0.29910E-01        -0.15002E-03         0.00000E+00
    0.29663E-01        -0.19132E-03         0.00000E+00
    0.29390E-01        -0.23167E-03         0.00000E+00
    0.29090E-01        -0.27098E-03         0.00000E+00
    0.28763E-01        -0.30912E-03         0.00000E+00
    0.28409E-01        -0.34601E-03         0.00000E+00
    0.28030E-01        -0.38154E-03         0.00000E+00
    0.27624E-01        -0.41560E-03         0.00000E+00
    0.27193E-01        -0.44811E-03         0.00000E+00
    0.26736E-01        -0.47895E-03         0.00000E+00
    0.26255E-01        -0.50803E-03         0.00000E+00
    0.25748E-01        -0.53526E-03         0.00000E+00
    0.25217E-01        -0.56052E-03         0.00000E+00
    0.24661E-01        -0.58374E-03         0.00000E+00
    0.24082E-01        -0.60481E-03         0.00000E+00
    0.23479E-01        -0.62365E-03         0.00000E+00
    0.22852E-01        -0.64016E-03         0.00000E+00
    0.22203E-01        -0.65425E-03         0.00000E+00
    0.21532E-01        -0.66583E-03         0.00000E+00
    0.20839E-01        -0.67482E-03         0.00000E+00
    0.20124E-01        -0.68113E-03         0.00000E+00
    0.19388E-01        -0.68468E-03         0.00000E+00
    0.18632E-01        -0.68540E-03         0.00000E+00
    0.17855E-01        -0.68319E-03         0.00000E+00
    0.17059E-01        -0.67799E-03         0.00000E+00
    0.16243E-01        -0.66972E-03         0.00000E+00
    0.15409E-01        -0.65831E-03         0.00000E+00
    0.14557E-01        -0.64369E-03         0.00000E+00
    0.13687E-01        -0.62579E-03         0.00000E+00
    0.12801E-01        -0.60455E-03         0.00000E+00
    0.11898E-01        -0.57991E-03         0.00000E+00
    0.10979E-01        -0.55181E-03         0.00000E+00
    0.10044E-01        -0.52018E-03         0.00000E+00
    0.90956E-02        -0.48498E-03         0.00000E+00
    0.81326E-02        -0.44616E-03         0.00000E+00
    0.71563E-02        -0.40366E-03         0.00000E+00
    0.61671E-02        -0.35745E-03         0.00000E+00
    0.51658E-02        -0.30748E-03         0.00000E+00
    0.41529E-02        -0.25371E-03         0.00000E+00
    0.31293E-02        -0.19611E-03         0.00000E+00
    0.20955E-02        -0.13465E-03         0.00000E+00
    0.10521E-02        -0.69283E-04         0.00000E+00
    0.00000E+00         0.00000E+00         0.00000E+00
    0.30148E-01         0.13615E-03         0.00000E+00
    0.30121E-01         0.10620E-03         0.00000E+00
    0.30067E-01         0.76336E-04         0.00000E+00
    0.29987E-01         0.46612E-04         0.00000E+00
    0.29879E-01         0.17100E-04         0.00000E+00
    0.29745E-01        -0.12130E-04         0.00000E+00
    0.29584E-01        -0.41009E-04         0.00000E+00
    0.29396E-01        -0.69469E-04         0.00000E+00
    0.29181E-01        -0.97441E-04         0.00000E+00
    0.28941E-01        -0.12486E-03         0.00000E+00
    0.28673E-01        -0.15164E-03         0.00000E+00
    0.28380E-01        -0.17774E-03         0.00000E+00
    0.28061E-01        -0.20307E-03         0.00000E+00
    0.27716E-01        -0.22757E-03         0.00000E+00
    0.27345E-01        -0.25117E-03         0.00000E+00
    0.26949E-01        -0.27380E-03         0.00000E+00
    0.26528E-01        -0.29540E-03         0.00000E+00
    0.26082E-01        -0.31590E-03         0.00000E+00
    0.25612E-01        -0.33524E-03         0.00000E+00
    0.25117E-01        -0.35335E-03         0.00000E+00
    0.24599E-01        -0.37016E-03         0.00000E+00
    0.24056E-01        -0.38562E-03         0.00000E+00
    0.23491E-01        -0.39965E-03         0.00000E+00
    0.22902E-01        -0.41221E-03         0.00000E+00
    0.22291E-01        -0.42322E-03         0.00000E+00
    0.21658E-01        -0.43263E-03         0.00000E+00
    0.21003E-01        -0.44038E-03         0.00000E+00
    0.20326E-01        -0.44641E-03         0.00000E+00
    0.19629E-01        -0.45066E-03         0.00000E+00
    0.18911E-01        -0.45309E-03         0.00000E+00
    0.18173E-01        -0.45363E-03         0.00000E+00
    0.17415E-01        -0.45224E-03         0.00000E+00
    0.16638E-01        -0.44886E-03         0.00000E+00
    0.15843E-01        -0.44345E-03         0.00000E+00
    0.15029E-01        -0.43595E-03         0.00000E+00
    0.14198E-01        -0.42632E-03         0.00000E+00
    0.13349E-01        -0.41451E-03         0.00000E+00
    0.12484E-01        -0.40049E-03         0.00000E+00
    0.11603E-01        -0.38420E-03         0.00000E+00
    0.10707E-01        -0.36562E-03         0.00000E+00
    0.97959E-02        -0.34470E-03         0.00000E+00
    0.88704E-02        -0.32140E-03         0.00000E+00
    0.79312E-02        -0.29570E-03         0.00000E+00
    0.69789E-02        -0.26756E-03         0.00000E+00
    0.60142E-02        -0.23695E-03         0.00000E+00
    0.50377E-02        -0.20384E-03         0.00000E+00
    0.40499E-02        -0.16821E-03         0.00000E+00
    0.30516E-02        -0.13003E-03         0.00000E+00
    0.20434E-02        -0.89281E-04         0.00000E+00
    0.10260E-02        -0.45943E-04         0.00000E+00
    0.00000E+00         0.00000E+00         0.00000E+00
    0.29698E-01         0.71022E-04         0.00000E+00
    0.29671E-01         0.55978E-04         0.00000E+00
    0.29618E-01         0.40971E-04         0.00000E+00
    0.29539E-01         0.26033E-04         0.00000E+00
    0.29433E-01         0.11201E-04         0.00000E+00
    0.29300E-01        -0.34939E-05         0.00000E+00
    0.29141E-01        -0.18016E-04         0.00000E+00
    0.28956E-01        -0.32331E-04         0.00000E+00
    0.28745E-01        -0.46405E-04         0.00000E+00
    0.28507E-01        -0.60203E-04         0.00000E+00
    0.28244E-01        -0.73691E-04         0.00000E+00
    0.27955E-01        -0.86835E-04         0.00000E+00
    0.27640E-01        -0.99601E-04         0.00000E+00
    0.27300E-01        -0.11195E-03         0.00000E+00
    0.26935E-01        -0.12386E-03         0.00000E+00
    0.26544E-01        -0.13529E-03         0.00000E+00
    0.26129E-01        -0.14620E-03         0.00000E+00
    0.25690E-01        -0.15657E-03         0.00000E+00
    0.25226E-01        -0.16635E-03         0.00000E+00
    0.24739E-01        -0.17552E-03         0.00000E+00
    0.24228E-01        -0.18405E-03         0.00000E+00
    0.23694E-01        -0.19189E-03         0.00000E+00
    0.23136E-01        -0.19903E-03         0.00000E+00
    0.22557E-01        -0.20543E-03         0.00000E+00
    0.21954E-01        -0.21105E-03         0.00000E+00
    0.21330E-01        -0.21587E-03         0.00000E+00
    0.20685E-01        -0.21986E-03         0.00000E+00
    0.20019E-01        -0.22299E-03         0.00000E+00
    0.19331E-01        -0.22522E-03         0.00000E+00
    0.18624E-01        -0.22654E-03         0.00000E+00
    0.17897E-01        -0.22691E-03         0.00000E+00
    0.17151E-01        -0.22631E-03         0.00000E+00
    0.16385E-01        -0.22470E-03         0.00000E+00
    0.15602E-01        -0.22208E-03         0.00000E+00
    0.14800E-01        -0.21840E-03         0.00000E+00
    0.13982E-01        -0.21365E-03         0.00000E+00
    0.13146E-01        -0.20780E-03         0.00000E+00
    0.12294E-01        -0.20083E-03         0.00000E+00
    0.11427E-01        -0.19272E-03         0.00000E+00
    0.10544E-01        -0.18346E-03         0.00000E+00
    0.96464E-02        -0.17301E-03         0.00000E+00
    0.87350E-02        -0.16136E-03         0.00000E+00
    0.78101E-02        -0.14849E-03         0.00000E+00
    0.68723E-02        -0.13440E-03         0.00000E+00
    0.59223E-02        -0.11905E-03         0.00000E+00
    0.49606E-02        -0.10244E-03         0.00000E+00
    0.39880E-02        -0.84551E-04         0.00000E+00
    0.30049E-02        -0.65374E-04         0.00000E+00
    0.20122E-02        -0.44897E-04         0.00000E+00
    0.10103E-02        -0.23108E-04         0.00000E+00
    0.00000E+00         0.00000E+00         0.00000E+00
    0.29544E-01         0.61966E-05         0.00000E+00
    0.29518E-01         0.59115E-05         0.00000E+00
    0.29465E-01         0.56236E-05         0.00000E+00
    0.29386E-01         0.53323E-05         0.00000E+00
    0.29281E-01         0.50373E-05         0.00000E+00
    0.29149E-01         0.47381E-05         0.00000E+00
    0.28990E-01         0.44345E-05         0.00000E+00
    0.28806E-01         0.41265E-05         0.00000E+00
    0.28596E-01         0.38140E-05         0.00000E+00
    0.28359E-01         0.34973E-05         0.00000E+00
    0.28097E-01         0.31766E-05         0.00000E+00
    0.27809E-01         0.28522E-05         0.00000E+00
    0.27496E-01         0.25248E-05         0.00000E+00
    0.27157E-01         0.21948E-05         0.00000E+00
    0.26794E-01         0.18631E-05         0.00000E+00
    0.26406E-01         0.15305E-05         0.00000E+00
    0.25993E-01         0.11977E-05         0.00000E+00
    0.25555E-01         0.86597E-06         0.00000E+00
    0.25094E-01         0.53624E-06         0.00000E+00
    0.24609E-01         0.20971E-06         0.00000E+00
    0.24101E-01        -0.11235E-06         0.00000E+00
    0.23569E-01        -0.42865E-06         0.00000E+00
    0.23014E-01        -0.73780E-06         0.00000E+00
    0.22437E-01        -0.10384E-05         0.00000E+00
    0.21838E-01        -0.13289E-05         0.00000E+00
    0.21218E-01        -0.16077E-05         0.00000E+00
    0.20575E-01        -0.18734E-05         0.00000E+00
    0.19912E-01        -0.21242E-05         0.00000E+00
    0.19229E-01        -0.23586E-05         0.00000E+00
    0.18525E-01        -0.25748E-05         0.00000E+00
    0.17802E-01        -0.27712E-05         0.00000E+00
    0.17059E-01        -0.29460E-05         0.00000E+00
    0.16298E-01        -0.30975E-05         0.00000E+00
    0.15519E-01        -0.32240E-05         0.00000E+00
    0.14721E-01        -0.33238E-05         0.00000E+00
    0.13907E-01        -0.33952E-05         0.00000E+00
    0.13076E-01        -0.34365E-05         0.00000E+00
    0.12228E-01        -0.34461E-05         0.00000E+00
    0.11365E-01        -0.34222E-05         0.00000E+00
    0.10487E-01        -0.33633E-05         0.00000E+00
    0.95945E-02        -0.32678E-05         0.00000E+00
    0.86879E-02        -0.31342E-05         0.00000E+00
    0.77679E-02        -0.29611E-05         0.00000E+00
    0.68352E-02        -0.27470E-05         0.00000E+00
    0.58903E-02        -0.24907E-05         0.00000E+00
    0.49338E-02        -0.21908E-05         0.00000E+00
    0.39664E-02        -0.18462E-05         0.00000E+00
    0.29887E-02        -0.14557E-05         0.00000E+00
    0.20012E-02        -0.10185E-05         0.00000E+00
    0.10048E-02        -0.53348E-06         0.00000E+00
    0.00000E+00         0.00000E+00         0.00000E+00
    0.29686E-01        -0.58829E-04         0.00000E+00
    0.29660E-01        -0.44352E-04         0.00000E+00
    0.29607E-01        -0.29917E-04         0.00000E+00
    0.29527E-01        -0.15561E-04         0.00000E+00
    0.29421E-01        -0.13165E-05         0.00000E+00
    0.29289E-01         0.12780E-04         0.00000E+00
    0.29129E-01         0.26695E-04         0.00000E+00
    0.28944E-01         0.40394E-04         0.00000E+00
    0.28733E-01         0.53843E-04         0.00000E+00
    0.28495E-01         0.67006E-04         0.00000E+00
    0.28231E-01         0.79852E-04         0.00000E+00
    0.27942E-01         0.92346E-04         0.00000E+00
    0.27627E-01         0.10445E-03         0.00000E+00
    0.27287E-01         0.11615E-03         0.00000E+00
    0.26922E-01         0.12739E-03         0.00000E+00
    0.26532E-01         0.13815E-03         0.00000E+00
    0.26117E-01         0.14839E-03         0.00000E+00
    0.25677E-01         0.15809E-03         0.00000E+00
    0.25214E-01         0.16721E-03         0.00000E+00
    0.24726E-01         0.17573E-03         0.00000E+00
    0.24215E-01         0.18361E-03         0.00000E+00
    0.23681E-01         0.19082E-03         0.00000E+00
    0.23124E-01         0.19733E-03         0.00000E+00
    0.22544E-01         0.20313E-03         0.00000E+00
    0.21942E-01         0.20817E-03         0.00000E+00
    0.21318E-01         0.21243E-03         0.00000E+00
    0.20673E-01         0.21589E-03         0.00000E+00
    0.20007E-01         0.21851E-03         0.00000E+00
    0.19320E-01         0.22028E-03         0.00000E+00
    0.18613E-01         0.22117E-03         0.00000E+00
    0.17886E-01         0.22114E-03         0.00000E+00
    0.17140E-01         0.22019E-03         0.00000E+00
    0.16375E-01         0.21829E-03         0.00000E+00
    0.15592E-01         0.21541E-03         0.00000E+00
    0.14791E-01         0.21154E-03         0.00000E+00
    0.13972E-01         0.20665E-03         0.00000E+00
    0.13137E-01         0.20073E-03         0.00000E+00
    0.12286E-01         0.19375E-03         0.00000E+00
    0.11419E-01         0.18570E-03         0.00000E+00
    0.10536E-01         0.17656E-03         0.00000E+00
    0.96395E-02         0.16631E-03         0.00000E+00
    0.87286E-02         0.15494E-03         0.00000E+00
    0.78043E-02         0.14243E-03         0.00000E+00
    0.68672E-02         0.12877E-03         0.00000E+00
    0.59179E-02         0.11395E-03         0.00000E+00
    0.49569E-02         0.97959E-04         0.00000E+00
    0.39849E-02         0.80778E-04         0.00000E+00
    0.30026E-02         0.62400E-04         0.00000E+00
    0.20106E-02         0.42816E-04         0.00000E+00
    0.10095E-02         0.22019E-04         0.00000E+00
    0.00000E+00         0.00000E+00         0.00000E+00
    0.30125E-01        -0.12461E-03         0.00000E+00
    0.30098E-01        -0.95222E-04         0.00000E+00
    0.30044E-01        -0.65919E-04         0.00000E+00
    0.29964E-01        -0.36770E-04         0.00000E+00
    0.29856E-01        -0.78428E-05         0.00000E+00
    0.29721E-01         0.20792E-04         0.00000E+00
    0.29560E-01         0.49066E-04         0.00000E+00
    0.29372E-01         0.76910E-04         0.00000E+00
    0.29157E-01         0.10425E-03         0.00000E+00
    0.28916E-01         0.13103E-03         0.00000E+00
    0.28648E-01         0.15717E-03         0.00000E+00
    0.28355E-01         0.18261E-03         0.00000E+00
    0.28035E-01         0.20728E-03         0.00000E+00
    0.27690E-01         0.23111E-03         0.00000E+00
    0.27319E-01         0.25404E-03         0.00000E+00
    0.26923E-01         0.27600E-03         0.00000E+00
    0.26502E-01         0.29692E-03         0.00000E+00
    0.26056E-01         0.31675E-03         0.00000E+00
    0.25586E-01         0.33542E-03         0.00000E+00
    0.25091E-01         0.35286E-03         0.00000E+00
    0.24573E-01         0.36902E-03         0.00000E+00
    0.24031E-01         0.38384E-03         0.00000E+00
    0.23465E-01         0.39725E-03         0.00000E+00
    0.22877E-01         0.40920E-03         0.00000E+00
    0.22266E-01         0.41962E-03         0.00000E+00
    0.21633E-01         0.42847E-03         0.00000E+00
    0.20978E-01         0.43569E-03         0.00000E+00
    0.20302E-01         0.44122E-03         0.00000E+00
    0.19605E-01         0.44501E-03         0.00000E+00
    0.18887E-01         0.44701E-03         0.00000E+00
    0.18150E-01         0.44717E-03         0.00000E+00
    0.17393E-01         0.44543E-03         0.00000E+00
    0.16617E-01         0.44176E-03         0.00000E+00
    0.15822E-01         0.43611E-03         0.00000E+00
    0.15009E-01         0.42843E-03         0.00000E+00
    0.14179E-01         0.41868E-03         0.00000E+00
    0.13331E-01         0.40682E-03         0.00000E+00
    0.12467E-01         0.39281E-03         0.00000E+00
    0.11587E-01         0.37660E-03         0.00000E+00
    0.10692E-01         0.35818E-03         0.00000E+00
    0.97819E-02         0.33749E-03         0.00000E+00
    0.88575E-02         0.31451E-03         0.00000E+00
    0.79196E-02         0.28920E-03         0.00000E+00
    0.69686E-02         0.26154E-03         0.00000E+00
    0.60052E-02         0.23150E-03         0.00000E+00
    0.50301E-02         0.19906E-03         0.00000E+00
    0.40438E-02         0.16418E-03         0.00000E+00
    0.30470E-02         0.12686E-03         0.00000E+00
    0.20403E-02         0.87066E-04         0.00000E+00
    0.10244E-02         0.44785E-04         0.00000E+00
    0.00000E+00         0.00000E+00         0.00000E+00
    0.30865E-01        -0.19172E-03         0.00000E+00
    0.30837E-01        -0.14713E-03         0.00000E+00
    0.30782E-01        -0.10267E-03         0.00000E+00
    0.30699E-01        -0.58440E-04         0.00000E+00
    0.30589E-01        -0.14543E-04         0.00000E+00
    0.30451E-01         0.28915E-04         0.00000E+00
    0.30286E-01         0.71829E-04         0.00000E+00
    0.30093E-01         0.11409E-03         0.00000E+00
    0.29873E-01         0.15561E-03         0.00000E+00
    0.29626E-01         0.19627E-03         0.00000E+00
    0.29352E-01         0.23596E-03         0.00000E+00
    0.29052E-01         0.27460E-03         0.00000E+00
    0.28724E-01         0.31208E-03         0.00000E+00
    0.28371E-01         0.34829E-03         0.00000E+00
    0.27991E-01         0.38313E-03         0.00000E+00
    0.27585E-01         0.41651E-03         0.00000E+00
    0.27154E-01         0.44833E-03         0.00000E+00
    0.26697E-01         0.47849E-03         0.00000E+00
    0.26215E-01         0.50689E-03         0.00000E+00
    0.25708E-01         0.53344E-03         0.00000E+00
    0.25177E-01         0.55805E-03         0.00000E+00
    0.24622E-01         0.58062E-03         0.00000E+00
    0.24042E-01         0.60106E-03         0.00000E+00
    0.23440E-01         0.61929E-03         0.00000E+00
    0.22814E-01         0.63521E-03         0.00000E+00
    0.22165E-01         0.64874E-03         0.00000E+00
    0.21494E-01         0.65979E-03         0.00000E+00
    0.20802E-01         0.66829E-03         0.00000E+00
    0.20088E-01         0.67415E-03         0.00000E+00
    0.19353E-01         0.67728E-03         0.00000E+00
    0.18597E-01         0.67763E-03         0.00000E+00
    0.17821E-01         0.67510E-03         0.00000E+00
    0.17026E-01         0.66964E-03         0.00000E+00
    0.16212E-01         0.66116E-03         0.00000E+00
    0.15379E-01         0.64960E-03         0.00000E+00
    0.14528E-01         0.63489E-03         0.00000E+00
    0.13660E-01         0.61698E-03         0.00000E+00
    0.12774E-01         0.59579E-03         0.00000E+00
    0.11873E-01         0.57128E-03         0.00000E+00
    0.10956E-01         0.54338E-03         0.00000E+00
    0.10023E-01         0.51205E-03         0.00000E+00
    0.90759E-02         0.47723E-03         0.00000E+00
    0.81149E-02         0.43887E-03         0.00000E+00
    0.71405E-02         0.39694E-03         0.00000E+00
    0.61533E-02         0.35138E-03         0.00000E+00
    0.51541E-02         0.30216E-03         0.00000E+00
    0.41435E-02         0.24924E-03         0.00000E+00
    0.31221E-02         0.19260E-03         0.00000E+00
    0.20906E-02         0.13219E-03         0.00000E+00
    0.10497E-02         0.68003E-04         0.00000E+00
    0.00000E+00         0.00000E+00         0.00000E+00
    0.31913E-01        -0.26073E-03         0.00000E+00
    0.31884E-01        -0.20051E-03         0.00000E+00
    0.31827E-01        -0.14045E-03         0.00000E+00
    0.31742E-01        -0.80705E-04         0.00000E+00
    0.31628E-01        -0.21404E-04         0.00000E+00
    0.31485E-01         0.37307E-04         0.00000E+00
    0.31315E-01         0.95287E-04         0.00000E+00
    0.31115E-01         0.15239E-03         0.00000E+00
    0.30888E-01         0.20849E-03         0.00000E+00
    0.30633E-01         0.26343E-03         0.00000E+00
    0.30350E-01         0.31709E-03         0.00000E+00
    0.30039E-01         0.36931E-03         0.00000E+00
    0.29701E-01         0.41996E-03         0.00000E+00
    0.29335E-01         0.46892E-03         0.00000E+00
    0.28943E-01         0.51603E-03         0.00000E+00
    0.28523E-01         0.56117E-03         0.00000E+00
    0.28078E-01         0.60420E-03         0.00000E+00
    0.27605E-01         0.64500E-03         0.00000E+00
    0.27107E-01         0.68342E-03         0.00000E+00
    0.26583E-01         0.71935E-03         0.00000E+00
    0.26034E-01         0.75266E-03         0.00000E+00
    0.25460E-01         0.78322E-03         0.00000E+00
    0.24861E-01         0.81090E-03         0.00000E+00
    0.24238E-01         0.83559E-03         0.00000E+00
    0.23591E-01         0.85717E-03         0.00000E+00
    0.22921E-01         0.87553E-03         0.00000E+00
    0.22227E-01         0.89053E-03         0.00000E+00
    0.21511E-01         0.90209E-03         0.00000E+00
    0.20773E-01         0.91007E-03         0.00000E+00
    0.20012E-01         0.91439E-03         0.00000E+00
    0.19231E-01         0.91493E-03         0.00000E+00
    0.18429E-01         0.91159E-03         0.00000E+00
    0.17607E-01         0.90427E-03         0.00000E+00
    0.16765E-01         0.89289E-03         0.00000E+00
    0.15904E-01         0.87734E-03         0.00000E+00
    0.15024E-01         0.85753E-03         0.00000E+00
    0.14126E-01         0.83339E-03         0.00000E+00
    0.13211E-01         0.80482E-03         0.00000E+00
    0.12278E-01         0.77176E-03         0.00000E+00
    0.11330E-01         0.73411E-03         0.00000E+00
    0.10365E-01         0.69182E-03         0.00000E+00
    0.93860E-02         0.64481E-03         0.00000E+00
    0.83922E-02         0.59301E-03         0.00000E+00
    0.73845E-02         0.53637E-03         0.00000E+00
    0.63637E-02         0.47484E-03         0.00000E+00
    0.53304E-02         0.40834E-03         0.00000E+00
    0.42852E-02         0.33685E-03         0.00000E+00
    0.32289E-02         0.26031E-03         0.00000E+00
    0.21621E-02         0.17867E-03         0.00000E+00
    0.10856E-02         0.91916E-04         0.00000E+00
    0.00000E+00         0.00000E+00         0.00000E+00
    0.33279E-01        -0.33220E-03         0.00000E+00
    0.33250E-01        -0.25575E-03         0.00000E+00
    0.33191E-01        -0.17950E-03         0.00000E+00
    0.33102E-01        -0.10365E-03         0.00000E+00
    0.32983E-01        -0.28360E-04         0.00000E+00
    0.32834E-01         0.46183E-04         0.00000E+00
    0.32656E-01         0.11980E-03         0.00000E+00
    0.32449E-01         0.19232E-03         0.00000E+00
    0.32212E-01         0.26355E-03         0.00000E+00
    0.31946E-01         0.33333E-03         0.00000E+00
    0.31651E-01         0.40147E-03         0.00000E+00
    0.31327E-01         0.46780E-03         0.00000E+00
    0.30975E-01         0.53214E-03         0.00000E+00
    0.30594E-01         0.59433E-03         0.00000E+00
    0.30185E-01         0.65418E-03         0.00000E+00
    0.29748E-01         0.71154E-03         0.00000E+00
    0.29283E-01         0.76622E-03         0.00000E+00
    0.28791E-01         0.81806E-03         0.00000E+00
    0.28271E-01         0.86690E-03         0.00000E+00
    0.27725E-01         0.91257E-03         0.00000E+00
    0.27153E-01         0.95492E-03         0.00000E+00
    0.26554E-01         0.99377E-03         0.00000E+00
    0.25930E-01         0.10290E-02         0.00000E+00
    0.25280E-01         0.10604E-02         0.00000E+00
    0.24606E-01         0.10879E-02         0.00000E+00
    0.23907E-01         0.11112E-02         0.00000E+00
    0.23183E-01         0.11303E-02         0.00000E+00
    0.22437E-01         0.11451E-02         0.00000E+00
    0.21667E-01         0.11553E-02         0.00000E+00
    0.20874E-01         0.11608E-02         0.00000E+00
    0.20059E-01         0.11616E-02         0.00000E+00
    0.19223E-01         0.11574E-02         0.00000E+00
    0.18365E-01         0.11481E-02         0.00000E+00
    0.17487E-01         0.11337E-02         0.00000E+00
    0.16589E-01         0.11140E-02         0.00000E+00
    0.15672E-01         0.10889E-02         0.00000E+00
    0.14735E-01         0.10583E-02         0.00000E+00
    0.13780E-01         0.10221E-02         0.00000E+00
    0.12808E-01         0.98014E-03         0.00000E+00
    0.11819E-01         0.93237E-03         0.00000E+00
    0.10813E-01         0.87868E-03         0.00000E+00
    0.97911E-02         0.81900E-03         0.00000E+00
    0.87544E-02         0.75324E-03         0.00000E+00
    0.77033E-02         0.68133E-03         0.00000E+00
    0.66385E-02         0.60318E-03         0.00000E+00
    0.55605E-02         0.51873E-03         0.00000E+00
    0.44703E-02         0.42792E-03         0.00000E+00
    0.33684E-02         0.33069E-03         0.00000E+00
    0.22555E-02         0.22699E-03         0.00000E+00
    0.11325E-02         0.11678E-03         0.00000E+00
    0.00000E+00         0.00000E+00         0.00000E+00
    0.34978E-01        -0.40658E-03         0.00000E+00
    0.34947E-01        -0.31315E-03         0.00000E+00
    0.34885E-01        -0.21997E-03         0.00000E+00
    0.34792E-01        -0.12727E-03         0.00000E+00
    0.34667E-01        -0.35253E-04         0.00000E+00
    0.34511E-01         0.55857E-04         0.00000E+00
    0.34324E-01         0.14584E-03         0.00000E+00
    0.34107E-01         0.23448E-03         0.00000E+00
    0.33858E-01         0.32156E-03         0.00000E+00
    0.33579E-01         0.40686E-03         0.00000E+00
    0.33269E-01         0.49017E-03         0.00000E+00
    0.32929E-01         0.57127E-03         0.00000E+00
    0.32559E-01         0.64995E-03         0.00000E+00
    0.32159E-01         0.72599E-03         0.00000E+00
    0.31729E-01         0.79918E-03         0.00000E+00
    0.31270E-01         0.86933E-03         0.00000E+00
    0.30782E-01         0.93621E-03         0.00000E+00
    0.30265E-01         0.99962E-03         0.00000E+00
    0.29719E-01         0.10594E-02         0.00000E+00
    0.29146E-01         0.11152E-02         0.00000E+00
    0.28544E-01         0.11671E-02         0.00000E+00
    0.27915E-01         0.12146E-02         0.00000E+00
    0.27259E-01         0.12577E-02         0.00000E+00
    0.26577E-01         0.12962E-02         0.00000E+00
    0.25868E-01         0.13298E-02         0.00000E+00
    0.25133E-01         0.13584E-02         0.00000E+00
    0.24373E-01         0.13818E-02         0.00000E+00
    0.23588E-01         0.13999E-02         0.00000E+00
    0.22779E-01         0.14124E-02         0.00000E+00
    0.21946E-01         0.14192E-02         0.00000E+00
    0.21090E-01         0.14202E-02         0.00000E+00
    0.20211E-01         0.14151E-02         0.00000E+00
    0.19309E-01         0.14039E-02         0.00000E+00
    0.18386E-01         0.13863E-02         0.00000E+00
    0.17442E-01         0.13623E-02         0.00000E+00
    0.16478E-01         0.13316E-02         0.00000E+00
    0.15493E-01         0.12942E-02         0.00000E+00
    0.14489E-01         0.12499E-02         0.00000E+00
    0.13467E-01         0.11987E-02         0.00000E+00
    0.12427E-01         0.11403E-02         0.00000E+00
    0.11369E-01         0.10746E-02         0.00000E+00
    0.10295E-01         0.10017E-02         0.00000E+00
    0.92054E-02         0.92128E-03         0.00000E+00
    0.81002E-02         0.83334E-03         0.00000E+00
    0.69805E-02         0.73777E-03         0.00000E+00
    0.58471E-02         0.63450E-03         0.00000E+00
    0.47007E-02         0.52343E-03         0.00000E+00
    0.35420E-02         0.40451E-03         0.00000E+00
    0.23718E-02         0.27767E-03         0.00000E+00
    0.11909E-02         0.14285E-03         0.00000E+00
    0.00000E+00         0.00000E+00         0.00000E+00
    0.37025E-01        -0.48422E-03         0.00000E+00
    0.36993E-01        -0.37291E-03         0.00000E+00
    0.36927E-01        -0.26189E-03         0.00000E+00
    0.36829E-01        -0.15142E-03         0.00000E+00
    0.36697E-01        -0.41775E-04         0.00000E+00
    0.36533E-01         0.66798E-04         0.00000E+00
    0.36335E-01         0.17404E-03         0.00000E+00
    0.36105E-01         0.27968E-03         0.00000E+00
    0.35842E-01         0.38346E-03         0.00000E+00
    0.35547E-01         0.48514E-03         0.00000E+00
    0.35220E-01         0.58444E-03         0.00000E+00
    0.34860E-01         0.68112E-03         0.00000E+00
    0.34469E-01         0.77491E-03         0.00000E+00
    0.34046E-01         0.86557E-03         0.00000E+00
    0.33591E-01         0.95284E-03         0.00000E+00
    0.33106E-01         0.10365E-02         0.00000E+00
    0.32590E-01         0.11162E-02         0.00000E+00
    0.32043E-01         0.11918E-02         0.00000E+00
    0.31466E-01         0.12631E-02         0.00000E+00
    0.30859E-01         0.13297E-02         0.00000E+00
    0.30222E-01         0.13915E-02         0.00000E+00
    0.29557E-01         0.14483E-02         0.00000E+00
    0.28863E-01         0.14997E-02         0.00000E+00
    0.28140E-01         0.15456E-02         0.00000E+00
    0.27390E-01         0.15857E-02         0.00000E+00
    0.26613E-01         0.16198E-02         0.00000E+00
    0.25809E-01         0.16478E-02         0.00000E+00
    0.24978E-01         0.16694E-02         0.00000E+00
    0.24122E-01         0.16843E-02         0.00000E+00
    0.23240E-01         0.16925E-02         0.00000E+00
    0.22333E-01         0.16937E-02         0.00000E+00
    0.21403E-01         0.16877E-02         0.00000E+00
    0.20449E-01         0.16743E-02         0.00000E+00
    0.19471E-01         0.16534E-02         0.00000E+00
    0.18472E-01         0.16247E-02         0.00000E+00
    0.17450E-01         0.15882E-02         0.00000E+00
    0.16408E-01         0.15436E-02         0.00000E+00
    0.15345E-01         0.14909E-02         0.00000E+00
    0.14263E-01         0.14297E-02         0.00000E+00
    0.13161E-01         0.13601E-02         0.00000E+00
    0.12042E-01         0.12818E-02         0.00000E+00
    0.10904E-01         0.11948E-02         0.00000E+00
    0.97498E-02         0.10990E-02         0.00000E+00
    0.85793E-02         0.99407E-03         0.00000E+00
    0.73935E-02         0.88009E-03         0.00000E+00
    0.61931E-02         0.75690E-03         0.00000E+00
    0.49789E-02         0.62443E-03         0.00000E+00
    0.37517E-02         0.48257E-03         0.00000E+00
    0.25122E-02         0.33126E-03         0.00000E+00
    0.12614E-02         0.17042E-03         0.00000E+00
    0.00000E+00         0.00000E+00         0.00000E+00
    0.39441E-01        -0.56530E-03         0.00000E+00
    0.39407E-01        -0.43502E-03         0.00000E+00
    0.39337E-01        -0.30507E-03         0.00000E+00
    0.39233E-01        -0.17577E-03         0.00000E+00
    0.39093E-01        -0.47410E-04         0.00000E+00
    0.38918E-01         0.79695E-04         0.00000E+00
    0.38709E-01         0.20524E-03         0.00000E+00
    0.38464E-01         0.32893E-03         0.00000E+00
    0.38185E-01         0.45045E-03         0.00000E+00
    0.37871E-01         0.56950E-03         0.00000E+00
    0.37523E-01         0.68579E-03         0.00000E+00
    0.37140E-01         0.79900E-03         0.00000E+00
    0.36724E-01         0.90884E-03         0.00000E+00
    0.36274E-01         0.10150E-02         0.00000E+00
    0.35791E-01         0.11172E-02         0.00000E+00
    0.35274E-01         0.12152E-02         0.00000E+00
    0.34724E-01         0.13086E-02         0.00000E+00
    0.34142E-01         0.13972E-02         0.00000E+00
    0.33528E-01         0.14807E-02         0.00000E+00
    0.32882E-01         0.15587E-02         0.00000E+00
    0.32205E-01         0.16312E-02         0.00000E+00
    0.31496E-01         0.16976E-02         0.00000E+00
    0.30757E-01         0.17578E-02         0.00000E+00
    0.29988E-01         0.18116E-02         0.00000E+00
    0.29189E-01         0.18586E-02         0.00000E+00
    0.28361E-01         0.18986E-02         0.00000E+00
    0.27505E-01         0.19314E-02         0.00000E+00
    0.26620E-01         0.19567E-02         0.00000E+00
    0.25708E-01         0.19743E-02         0.00000E+00
    0.24768E-01         0.19838E-02         0.00000E+00
    0.23803E-01         0.19852E-02         0.00000E+00
    0.22811E-01         0.19782E-02         0.00000E+00
    0.21795E-01         0.19625E-02         0.00000E+00
    0.20753E-01         0.19380E-02         0.00000E+00
    0.19688E-01         0.19045E-02         0.00000E+00
    0.18600E-01         0.18617E-02         0.00000E+00
    0.17489E-01         0.18094E-02         0.00000E+00
    0.16357E-01         0.17476E-02         0.00000E+00
    0.15203E-01         0.16759E-02         0.00000E+00
    0.14029E-01         0.15943E-02         0.00000E+00
    0.12836E-01         0.15026E-02         0.00000E+00
    0.11624E-01         0.14006E-02         0.00000E+00
    0.10393E-01         0.12882E-02         0.00000E+00
    0.91457E-02         0.11653E-02         0.00000E+00
    0.78818E-02         0.10317E-02         0.00000E+00
    0.66022E-02         0.88731E-03         0.00000E+00
    0.53078E-02         0.73202E-03         0.00000E+00
    0.39996E-02         0.56573E-03         0.00000E+00
    0.26783E-02         0.38835E-03         0.00000E+00
    0.13448E-02         0.19980E-03         0.00000E+00
    0.00000E+00         0.00000E+00         0.00000E+00
    0.42249E-01        -0.64974E-03         0.00000E+00
    0.42213E-01        -0.49922E-03         0.00000E+00
    0.42139E-01        -0.34908E-03         0.00000E+00
    0.42028E-01        -0.19967E-03         0.00000E+00
    0.41879E-01        -0.51343E-04         0.00000E+00
    0.41692E-01         0.95543E-04         0.00000E+00
    0.41468E-01         0.24064E-03         0.00000E+00
    0.41207E-01         0.38359E-03         0.00000E+00
    0.40909E-01         0.52405E-03         0.00000E+00
    0.40573E-01         0.66166E-03         0.00000E+00
    0.40201E-01         0.79608E-03         0.00000E+00
    0.39792E-01         0.92695E-03         0.00000E+00
    0.39347E-01         0.10539E-02         0.00000E+00
    0.38866E-01         0.11767E-02         0.00000E+00
    0.38348E-01         0.12949E-02         0.00000E+00
    0.37796E-01         0.14081E-02         0.00000E+00
    0.37208E-01         0.15161E-02         0.00000E+00
    0.36585E-01         0.16186E-02         0.00000E+00
    0.35927E-01         0.17151E-02         0.00000E+00
    0.35236E-01         0.18053E-02         0.00000E+00
    0.34511E-01         0.18891E-02         0.00000E+00
    0.33752E-01         0.19659E-02         0.00000E+00
    0.32961E-01         0.20356E-02         0.00000E+00
    0.32137E-01         0.20977E-02         0.00000E+00
    0.31282E-01         0.21521E-02         0.00000E+00
    0.30395E-01         0.21983E-02         0.00000E+00
    0.29478E-01         0.22362E-02         0.00000E+00
    0.28531E-01         0.22654E-02         0.00000E+00
    0.27553E-01         0.22857E-02         0.00000E+00
    0.26547E-01         0.22968E-02         0.00000E+00
    0.25513E-01         0.22983E-02         0.00000E+00
    0.24451E-01         0.22902E-02         0.00000E+00
    0.23361E-01         0.22720E-02         0.00000E+00
    0.22246E-01         0.22436E-02         0.00000E+00
    0.21105E-01         0.22047E-02         0.00000E+00
    0.19939E-01         0.21552E-02         0.00000E+00
    0.18748E-01         0.20947E-02         0.00000E+00
    0.17535E-01         0.20231E-02         0.00000E+00
    0.16298E-01         0.19401E-02         0.00000E+00
    0.15040E-01         0.18457E-02         0.00000E+00
    0.13761E-01         0.17395E-02         0.00000E+00
    0.12462E-01         0.16215E-02         0.00000E+00
    0.11143E-01         0.14913E-02         0.00000E+00
    0.98053E-02         0.13490E-02         0.00000E+00
    0.84503E-02         0.11944E-02         0.00000E+00
    0.70786E-02         0.10272E-02         0.00000E+00
    0.56909E-02         0.84744E-03         0.00000E+00
    0.42883E-02         0.65493E-03         0.00000E+00
    0.28717E-02         0.44959E-03         0.00000E+00
    0.14419E-02         0.23130E-03         0.00000E+00
    0.00000E+00         0.00000E+00         0.00000E+00
    0.45476E-01        -0.73712E-03         0.00000E+00
    0.45438E-01        -0.56489E-03         0.00000E+00
    0.45359E-01        -0.39309E-03         0.00000E+00
    0.45240E-01        -0.22211E-03         0.00000E+00
    0.45081E-01        -0.52363E-04         0.00000E+00
    0.44881E-01         0.11575E-03         0.00000E+00
    0.44641E-01         0.28182E-03         0.00000E+00
    0.44361E-01         0.44545E-03         0.00000E+00
    0.44041E-01         0.60624E-03         0.00000E+00
    0.43681E-01         0.76377E-03         0.00000E+00
    0.43281E-01         0.91765E-03         0.00000E+00
    0.42842E-01         0.10675E-02         0.00000E+00
    0.42364E-01         0.12129E-02         0.00000E+00
    0.41847E-01         0.13534E-02         0.00000E+00
    0.41291E-01         0.14887E-02         0.00000E+00
    0.40697E-01         0.16184E-02         0.00000E+00
    0.40065E-01         0.17420E-02         0.00000E+00
    0.39395E-01         0.18593E-02         0.00000E+00
    0.38688E-01         0.19698E-02         0.00000E+00
    0.37944E-01         0.20732E-02         0.00000E+00
    0.37164E-01         0.21690E-02         0.00000E+00
    0.36349E-01         0.22570E-02         0.00000E+00
    0.35497E-01         0.23367E-02         0.00000E+00
    0.34611E-01         0.24078E-02         0.00000E+00
    0.33691E-01         0.24700E-02         0.00000E+00
    0.32737E-01         0.25230E-02         0.00000E+00
    0.31750E-01         0.25663E-02         0.00000E+00
    0.30730E-01         0.25997E-02         0.00000E+00
    0.29678E-01         0.26228E-02         0.00000E+00
    0.28595E-01         0.26353E-02         0.00000E+00
    0.27482E-01         0.26370E-02         0.00000E+00
    0.26338E-01         0.26276E-02         0.00000E+00
    0.25165E-01         0.26066E-02         0.00000E+00
    0.23964E-01         0.25740E-02         0.00000E+00
    0.22736E-01         0.25293E-02         0.00000E+00
    0.21480E-01         0.24724E-02         0.00000E+00
    0.20198E-01         0.24030E-02         0.00000E+00
    0.18891E-01         0.23208E-02         0.00000E+00
    0.17559E-01         0.22256E-02         0.00000E+00
    0.16204E-01         0.21172E-02         0.00000E+00
    0.14826E-01         0.19954E-02         0.00000E+00
    0.13426E-01         0.18599E-02         0.00000E+00
    0.12006E-01         0.17107E-02         0.00000E+00
    0.10565E-01         0.15474E-02         0.00000E+00
    0.91053E-02         0.13700E-02         0.00000E+00
    0.76273E-02         0.11783E-02         0.00000E+00
    0.61322E-02         0.97204E-03         0.00000E+00
    0.46209E-02         0.75122E-03         0.00000E+00
    0.30945E-02         0.51568E-03         0.00000E+00
    0.15538E-02         0.26531E-03         0.00000E+00
    0.00000E+00         0.00000E+00         0.00000E+00
    0.49153E-01        -0.82655E-03         0.00000E+00
    0.49113E-01        -0.63094E-03         0.00000E+00
    0.49030E-01        -0.43580E-03         0.00000E+00
    0.48903E-01        -0.24157E-03         0.00000E+00
    0.48732E-01        -0.48730E-04         0.00000E+00
    0.48517E-01         0.14227E-03         0.00000E+00
    0.48259E-01         0.33096E-03         0.00000E+00
    0.47957E-01         0.51688E-03         0.00000E+00
    0.47613E-01         0.69958E-03         0.00000E+00
    0.47225E-01         0.87859E-03         0.00000E+00
    0.46794E-01         0.10535E-02         0.00000E+00
    0.46321E-01         0.12237E-02         0.00000E+00
    0.45805E-01         0.13889E-02         0.00000E+00
    0.45247E-01         0.15486E-02         0.00000E+00
    0.44647E-01         0.17024E-02         0.00000E+00
    0.44006E-01         0.18498E-02         0.00000E+00
    0.43324E-01         0.19903E-02         0.00000E+00
    0.42601E-01         0.21235E-02         0.00000E+00
    0.41838E-01         0.22491E-02         0.00000E+00
    0.41035E-01         0.23665E-02         0.00000E+00
    0.40193E-01         0.24753E-02         0.00000E+00
    0.39311E-01         0.25752E-02         0.00000E+00
    0.38392E-01         0.26658E-02         0.00000E+00
    0.37435E-01         0.27465E-02         0.00000E+00
    0.36440E-01         0.28171E-02         0.00000E+00
    0.35409E-01         0.28771E-02         0.00000E+00
    0.34343E-01         0.29262E-02         0.00000E+00
    0.33240E-01         0.29640E-02         0.00000E+00
    0.32104E-01         0.29901E-02         0.00000E+00
    0.30933E-01         0.30042E-02         0.00000E+00
    0.29729E-01         0.30059E-02         0.00000E+00
    0.28493E-01         0.29949E-02         0.00000E+00
    0.27225E-01         0.29709E-02         0.00000E+00
    0.25926E-01         0.29335E-02         0.00000E+00
    0.24597E-01         0.28824E-02         0.00000E+00
    0.23239E-01         0.28174E-02         0.00000E+00
    0.21853E-01         0.27382E-02         0.00000E+00
    0.20440E-01         0.26444E-02         0.00000E+00
    0.18999E-01         0.25359E-02         0.00000E+00
    0.17533E-01         0.24123E-02         0.00000E+00
    0.16043E-01         0.22734E-02         0.00000E+00
    0.14529E-01         0.21190E-02         0.00000E+00
    0.12992E-01         0.19489E-02         0.00000E+00
    0.11433E-01         0.17629E-02         0.00000E+00
    0.98533E-02         0.15607E-02         0.00000E+00
    0.82542E-02         0.13422E-02         0.00000E+00
    0.66363E-02         0.11073E-02         0.00000E+00
    0.50009E-02         0.85576E-03         0.00000E+00
    0.33490E-02         0.58743E-03         0.00000E+00
    0.16817E-02         0.30222E-03         0.00000E+00
    0.00000E+00         0.00000E+00         0.00000E+00
    0.53317E-01        -0.91654E-03         0.00000E+00
    0.53276E-01        -0.69564E-03         0.00000E+00
    0.53187E-01        -0.47523E-03         0.00000E+00
    0.53050E-01        -0.25585E-03         0.00000E+00
    0.52867E-01        -0.38014E-04         0.00000E+00
    0.52636E-01         0.17775E-03         0.00000E+00
    0.52357E-01         0.39093E-03         0.00000E+00
    0.52032E-01         0.60098E-03         0.00000E+00
    0.51660E-01         0.80740E-03         0.00000E+00
    0.51241E-01         0.10097E-02         0.00000E+00
    0.50775E-01         0.12072E-02         0.00000E+00
    0.50263E-01         0.13996E-02         0.00000E+00
    0.49705E-01         0.15863E-02         0.00000E+00
    0.49101E-01         0.17667E-02         0.00000E+00
    0.48452E-01         0.19404E-02         0.00000E+00
    0.47758E-01         0.21069E-02         0.00000E+00
    0.47019E-01         0.22656E-02         0.00000E+00
    0.46236E-01         0.24161E-02         0.00000E+00
    0.45409E-01         0.25579E-02         0.00000E+00
    0.44539E-01         0.26904E-02         0.00000E+00
    0.43626E-01         0.28133E-02         0.00000E+00
    0.42671E-01         0.29261E-02         0.00000E+00
    0.41674E-01         0.30282E-02         0.00000E+00
    0.40636E-01         0.31192E-02         0.00000E+00
    0.39558E-01         0.31988E-02         0.00000E+00
    0.38440E-01         0.32664E-02         0.00000E+00
    0.37283E-01         0.33216E-02         0.00000E+00
    0.36088E-01         0.33640E-02         0.00000E+00
    0.34854E-01         0.33931E-02         0.00000E+00
    0.33584E-01         0.34087E-02         0.00000E+00
    0.32278E-01         0.34103E-02         0.00000E+00
    0.30937E-01         0.33974E-02         0.00000E+00
    0.29561E-01         0.33698E-02         0.00000E+00
    0.28152E-01         0.33271E-02         0.00000E+00
    0.26710E-01         0.32689E-02         0.00000E+00
    0.25236E-01         0.31950E-02         0.00000E+00
    0.23731E-01         0.31049E-02         0.00000E+00
    0.22196E-01         0.29983E-02         0.00000E+00
    0.20633E-01         0.28751E-02         0.00000E+00
    0.19042E-01         0.27348E-02         0.00000E+00
    0.17423E-01         0.25772E-02         0.00000E+00
    0.15779E-01         0.24021E-02         0.00000E+00
    0.14110E-01         0.22091E-02         0.00000E+00
    0.12418E-01         0.19981E-02         0.00000E+00
    0.10702E-01         0.17689E-02         0.00000E+00
    0.89656E-02         0.15213E-02         0.00000E+00
    0.72085E-02         0.12549E-02         0.00000E+00
    0.54322E-02         0.96981E-03         0.00000E+00
    0.36379E-02         0.66571E-03         0.00000E+00
    0.18268E-02         0.34248E-03         0.00000E+00
    0.00000E+00         0.00000E+00         0.00000E+00
    0.58009E-01        -0.10048E-02         0.00000E+00
    0.57966E-01        -0.75643E-03         0.00000E+00
    0.57871E-01        -0.50860E-03         0.00000E+00
    0.57725E-01        -0.26189E-03         0.00000E+00
    0.57527E-01        -0.16908E-04         0.00000E+00
    0.57278E-01         0.22577E-03         0.00000E+00
    0.56978E-01         0.46554E-03         0.00000E+00
    0.56626E-01         0.70181E-03         0.00000E+00
    0.56223E-01         0.93399E-03         0.00000E+00
    0.55769E-01         0.11615E-02         0.00000E+00
    0.55264E-01         0.13837E-02         0.00000E+00
    0.54709E-01         0.16001E-02         0.00000E+00
    0.54103E-01         0.18100E-02         0.00000E+00
    0.53448E-01         0.20129E-02         0.00000E+00
    0.52743E-01         0.22083E-02         0.00000E+00
    0.51990E-01         0.23954E-02         0.00000E+00
    0.51187E-01         0.25739E-02         0.00000E+00
    0.50336E-01         0.27430E-02         0.00000E+00
    0.49438E-01         0.29023E-02         0.00000E+00
    0.48492E-01         0.30512E-02         0.00000E+00
    0.47500E-01         0.31892E-02         0.00000E+00
    0.46461E-01         0.33158E-02         0.00000E+00
    0.45378E-01         0.34303E-02         0.00000E+00
    0.44249E-01         0.35324E-02         0.00000E+00
    0.43076E-01         0.36215E-02         0.00000E+00
    0.41860E-01         0.36971E-02         0.00000E+00
    0.40601E-01         0.37587E-02         0.00000E+00
    0.39300E-01         0.38059E-02         0.00000E+00
    0.37959E-01         0.38382E-02         0.00000E+00
    0.36577E-01         0.38551E-02         0.00000E+00
    0.35155E-01         0.38563E-02         0.00000E+00
    0.33695E-01         0.38412E-02         0.00000E+00
    0.32198E-01         0.38094E-02         0.00000E+00
    0.30664E-01         0.37606E-02         0.00000E+00
    0.29094E-01         0.36944E-02         0.00000E+00
    0.27489E-01         0.36104E-02         0.00000E+00
    0.25851E-01         0.35082E-02         0.00000E+00
    0.24180E-01         0.33875E-02         0.00000E+00
    0.22477E-01         0.32479E-02         0.00000E+00
    0.20744E-01         0.30891E-02         0.00000E+00
    0.18982E-01         0.29108E-02         0.00000E+00
    0.17191E-01         0.27128E-02         0.00000E+00
    0.15373E-01         0.24947E-02         0.00000E+00
    0.13529E-01         0.22563E-02         0.00000E+00
    0.11661E-01         0.19973E-02         0.00000E+00
    0.97689E-02         0.17176E-02         0.00000E+00
    0.78546E-02         0.14168E-02         0.00000E+00
    0.59193E-02         0.10948E-02         0.00000E+00
    0.39642E-02         0.75149E-03         0.00000E+00
    0.19907E-02         0.38659E-03         0.00000E+00
    0.00000E+00         0.00000E+00         0.00000E+00
    0.63273E-01        -0.10881E-02         0.00000E+00
    0.63229E-01        -0.80978E-03         0.00000E+00
    0.63129E-01        -0.53206E-03         0.00000E+00
    0.62973E-01        -0.25557E-03         0.00000E+00
    0.62760E-01         0.19002E-04         0.00000E+00
    0.62491E-01         0.29100E-03         0.00000E+00
    0.62166E-01         0.55976E-03         0.00000E+00
    0.61784E-01         0.82459E-03         0.00000E+00
    0.61347E-01         0.10848E-02         0.00000E+00
    0.60855E-01         0.13398E-02         0.00000E+00
    0.60306E-01         0.15889E-02         0.00000E+00
    0.59703E-01         0.18314E-02         0.00000E+00
    0.59045E-01         0.20666E-02         0.00000E+00
    0.58332E-01         0.22940E-02         0.00000E+00
    0.57565E-01         0.25128E-02         0.00000E+00
    0.56744E-01         0.27224E-02         0.00000E+00
    0.55871E-01         0.29222E-02         0.00000E+00
    0.54944E-01         0.31115E-02         0.00000E+00
    0.53965E-01         0.32898E-02         0.00000E+00
    0.52935E-01         0.34564E-02         0.00000E+00
    0.51853E-01         0.36106E-02         0.00000E+00
    0.50721E-01         0.37520E-02         0.00000E+00
    0.49540E-01         0.38799E-02         0.00000E+00
    0.48309E-01         0.39938E-02         0.00000E+00
    0.47030E-01         0.40930E-02         0.00000E+00
    0.45704E-01         0.41770E-02         0.00000E+00
    0.44331E-01         0.42454E-02         0.00000E+00
    0.42912E-01         0.42974E-02         0.00000E+00
    0.41448E-01         0.43328E-02         0.00000E+00
    0.39940E-01         0.43508E-02         0.00000E+00
    0.38389E-01         0.43511E-02         0.00000E+00
    0.36796E-01         0.43332E-02         0.00000E+00
    0.35161E-01         0.42965E-02         0.00000E+00
    0.33487E-01         0.42407E-02         0.00000E+00
    0.31773E-01         0.41653E-02         0.00000E+00
    0.30022E-01         0.40699E-02         0.00000E+00
    0.28233E-01         0.39541E-02         0.00000E+00
    0.26409E-01         0.38174E-02         0.00000E+00
    0.24550E-01         0.36596E-02         0.00000E+00
    0.22658E-01         0.34803E-02         0.00000E+00
    0.20734E-01         0.32790E-02         0.00000E+00
    0.18778E-01         0.30556E-02         0.00000E+00
    0.16793E-01         0.28096E-02         0.00000E+00
    0.14779E-01         0.25408E-02         0.00000E+00
    0.12739E-01         0.22490E-02         0.00000E+00
    0.10672E-01         0.19338E-02         0.00000E+00
    0.85811E-02         0.15950E-02         0.00000E+00
    0.64670E-02         0.12325E-02         0.00000E+00
    0.43312E-02         0.84588E-03         0.00000E+00
    0.21750E-02         0.43512E-03         0.00000E+00
    0.00000E+00         0.00000E+00         0.00000E+00
    0.69163E-01        -0.11618E-02         0.00000E+00
    0.69119E-01        -0.85085E-03         0.00000E+00
    0.69013E-01        -0.54047E-03         0.00000E+00
    0.68846E-01        -0.23143E-03         0.00000E+00
    0.68617E-01         0.75489E-04         0.00000E+00
    0.68326E-01         0.37954E-03         0.00000E+00
    0.67974E-01         0.67997E-03         0.00000E+00
    0.67561E-01         0.97602E-03         0.00000E+00
    0.67086E-01         0.12669E-02         0.00000E+00
    0.66550E-01         0.15519E-02         0.00000E+00
    0.65954E-01         0.18303E-02         0.00000E+00
    0.65297E-01         0.21013E-02         0.00000E+00
    0.64579E-01         0.23641E-02         0.00000E+00
    0.63802E-01         0.26180E-02         0.00000E+00
    0.62966E-01         0.28624E-02         0.00000E+00
    0.62071E-01         0.30964E-02         0.00000E+00
    0.61117E-01         0.33193E-02         0.00000E+00
    0.60106E-01         0.35305E-02         0.00000E+00
    0.59037E-01         0.37293E-02         0.00000E+00
    0.57912E-01         0.39149E-02         0.00000E+00
    0.56730E-01         0.40867E-02         0.00000E+00
    0.55494E-01         0.42439E-02         0.00000E+00
    0.54202E-01         0.43861E-02         0.00000E+00
    0.52858E-01         0.45124E-02         0.00000E+00
    0.51460E-01         0.46223E-02         0.00000E+00
    0.50010E-01         0.47152E-02         0.00000E+00
    0.48509E-01         0.47905E-02         0.00000E+00
    0.46958E-01         0.48474E-02         0.00000E+00
    0.45357E-01         0.48856E-02         0.00000E+00
    0.43708E-01         0.49044E-02         0.00000E+00
    0.42012E-01         0.49033E-02         0.00000E+00
    0.40269E-01         0.48817E-02         0.00000E+00
    0.38482E-01         0.48391E-02         0.00000E+00
    0.36650E-01         0.47751E-02         0.00000E+00
    0.34776E-01         0.46891E-02         0.00000E+00
    0.32859E-01         0.45807E-02         0.00000E+00
    0.30903E-01         0.44494E-02         0.00000E+00
    0.28907E-01         0.42948E-02         0.00000E+00
    0.26873E-01         0.41164E-02         0.00000E+00
    0.24803E-01         0.39140E-02         0.00000E+00
    0.22697E-01         0.36870E-02         0.00000E+00
    0.20557E-01         0.34352E-02         0.00000E+00
    0.18384E-01         0.31582E-02         0.00000E+00
    0.16180E-01         0.28557E-02         0.00000E+00
    0.13946E-01         0.25273E-02         0.00000E+00
    0.11684E-01         0.21729E-02         0.00000E+00
    0.93953E-02         0.17920E-02         0.00000E+00
    0.70809E-02         0.13845E-02         0.00000E+00
    0.47425E-02         0.95012E-03         0.00000E+00
    0.23816E-02         0.48869E-03         0.00000E+00
    0.00000E+00         0.00000E+00         0.00000E+00
    0.75738E-01        -0.12201E-02         0.00000E+00
    0.75694E-01        -0.87333E-03         0.00000E+00
    0.75583E-01        -0.52713E-03         0.00000E+00
    0.75405E-01        -0.18242E-03         0.00000E+00
    0.75158E-01         0.15997E-03         0.00000E+00
    0.74844E-01         0.49916E-03         0.00000E+00
    0.74463E-01         0.83430E-03         0.00000E+00
    0.74014E-01         0.11645E-02         0.00000E+00
    0.73497E-01         0.14890E-02         0.00000E+00
    0.72914E-01         0.18068E-02         0.00000E+00
    0.72264E-01         0.21172E-02         0.00000E+00
    0.71547E-01         0.24193E-02         0.00000E+00
    0.70764E-01         0.27122E-02         0.00000E+00
    0.69916E-01         0.29951E-02         0.00000E+00
    0.69002E-01         0.32673E-02         0.00000E+00
    0.68023E-01         0.35278E-02         0.00000E+00
    0.66980E-01         0.37759E-02         0.00000E+00
    0.65874E-01         0.40107E-02         0.00000E+00
    0.64705E-01         0.42316E-02         0.00000E+00
    0.63473E-01         0.44377E-02         0.00000E+00
    0.62180E-01         0.46283E-02         0.00000E+00
    0.60827E-01         0.48026E-02         0.00000E+00
    0.59413E-01         0.49598E-02         0.00000E+00
    0.57941E-01         0.50994E-02         0.00000E+00
    0.56410E-01         0.52205E-02         0.00000E+00
    0.54822E-01         0.53225E-02         0.00000E+00
    0.53178E-01         0.54047E-02         0.00000E+00
    0.51478E-01         0.54664E-02         0.00000E+00
    0.49725E-01         0.55071E-02         0.00000E+00
    0.47918E-01         0.55260E-02         0.00000E+00
    0.46059E-01         0.55226E-02         0.00000E+00
    0.44150E-01         0.54963E-02         0.00000E+00
    0.42191E-01         0.54466E-02         0.00000E+00
    0.40184E-01         0.53728E-02         0.00000E+00
    0.38130E-01         0.52744E-02         0.00000E+00
    0.36030E-01         0.51510E-02         0.00000E+00
    0.33885E-01         0.50020E-02         0.00000E+00
    0.31697E-01         0.48269E-02         0.00000E+00
    0.29468E-01         0.46254E-02         0.00000E+00
    0.27198E-01         0.43969E-02         0.00000E+00
    0.24889E-01         0.41410E-02         0.00000E+00
    0.22543E-01         0.38574E-02         0.00000E+00
    0.20161E-01         0.35456E-02         0.00000E+00
    0.17745E-01         0.32054E-02         0.00000E+00
    0.15296E-01         0.28363E-02         0.00000E+00
    0.12815E-01         0.24380E-02         0.00000E+00
    0.10305E-01         0.20103E-02         0.00000E+00
    0.77667E-02         0.15529E-02         0.00000E+00
    0.52020E-02         0.10656E-02         0.00000E+00
    0.26125E-02         0.54799E-03         0.00000E+00
    0.00000E+00         0.00000E+00         0.00000E+00
    0.83063E-01        -0.12553E-02         0.00000E+00
    0.83022E-01        -0.86910E-03         0.00000E+00
    0.82906E-01        -0.48354E-03         0.00000E+00
    0.82716E-01        -0.99587E-04         0.00000E+00
    0.82451E-01         0.28178E-03         0.00000E+00
    0.82112E-01         0.65958E-03         0.00000E+00
    0.81698E-01         0.10329E-02         0.00000E+00
    0.81210E-01         0.14006E-02         0.00000E+00
    0.80648E-01         0.17619E-02         0.00000E+00
    0.80012E-01         0.21157E-02         0.00000E+00
    0.79302E-01         0.24612E-02         0.00000E+00
    0.78519E-01         0.27973E-02         0.00000E+00
    0.77663E-01         0.31231E-02         0.00000E+00
    0.76734E-01         0.34376E-02         0.00000E+00
    0.75734E-01         0.37400E-02         0.00000E+00
    0.74663E-01         0.40293E-02         0.00000E+00
    0.73520E-01         0.43047E-02         0.00000E+00
    0.72308E-01         0.45651E-02         0.00000E+00
    0.71027E-01         0.48099E-02         0.00000E+00
    0.69677E-01         0.50380E-02         0.00000E+00
    0.68259E-01         0.52486E-02         0.00000E+00
    0.66774E-01         0.54410E-02         0.00000E+00
    0.65224E-01         0.56143E-02         0.00000E+00
    0.63608E-01         0.57676E-02         0.00000E+00
    0.61929E-01         0.59003E-02         0.00000E+00
    0.60187E-01         0.60116E-02         0.00000E+00
    0.58383E-01         0.61006E-02         0.00000E+00
    0.56518E-01         0.61667E-02         0.00000E+00
    0.54593E-01         0.62093E-02         0.00000E+00
    0.52611E-01         0.62275E-02         0.00000E+00
    0.50571E-01         0.62207E-02         0.00000E+00
    0.48475E-01         0.61883E-02         0.00000E+00
    0.46325E-01         0.61297E-02         0.00000E+00
    0.44122E-01         0.60443E-02         0.00000E+00
    0.41867E-01         0.59314E-02         0.00000E+00
    0.39562E-01         0.57905E-02         0.00000E+00
    0.37208E-01         0.56210E-02         0.00000E+00
    0.34806E-01         0.54225E-02         0.00000E+00
    0.32359E-01         0.51945E-02         0.00000E+00
    0.29867E-01         0.49364E-02         0.00000E+00
    0.27333E-01         0.46478E-02         0.00000E+00
    0.24757E-01         0.43283E-02         0.00000E+00
    0.22142E-01         0.39774E-02         0.00000E+00
    0.19488E-01         0.35948E-02         0.00000E+00
    0.16799E-01         0.31801E-02         0.00000E+00
    0.14075E-01         0.27330E-02         0.00000E+00
    0.11318E-01         0.22531E-02         0.00000E+00
    0.85309E-02         0.17401E-02         0.00000E+00
    0.57140E-02         0.11937E-02         0.00000E+00
    0.28698E-02         0.61380E-03         0.00000E+00
    0.00000E+00         0.00000E+00         0.00000E+00
    0.91216E-01        -0.12577E-02         0.00000E+00
    0.91178E-01        -0.82807E-03         0.00000E+00
    0.91059E-01        -0.39908E-03         0.00000E+00
    0.90857E-01         0.28134E-04         0.00000E+00
    0.90572E-01         0.45247E-03         0.00000E+00
    0.90205E-01         0.87283E-03         0.00000E+00
    0.89756E-01         0.12881E-02         0.00000E+00
    0.89225E-01         0.16972E-02         0.00000E+00
    0.88612E-01         0.20989E-02         0.00000E+00
    0.87917E-01         0.24923E-02         0.00000E+00
    0.87141E-01         0.28762E-02         0.00000E+00
    0.86284E-01         0.32495E-02         0.00000E+00
    0.85347E-01         0.36113E-02         0.00000E+00
    0.84330E-01         0.39603E-02         0.00000E+00
    0.83233E-01         0.42957E-02         0.00000E+00
    0.82057E-01         0.46163E-02         0.00000E+00
    0.80804E-01         0.49211E-02         0.00000E+00
    0.79473E-01         0.52092E-02         0.00000E+00
    0.78066E-01         0.54796E-02         0.00000E+00
    0.76584E-01         0.57313E-02         0.00000E+00
    0.75027E-01         0.59633E-02         0.00000E+00
    0.73396E-01         0.61748E-02         0.00000E+00
    0.71692E-01         0.63648E-02         0.00000E+00
    0.69917E-01         0.65325E-02         0.00000E+00
    0.68072E-01         0.66770E-02         0.00000E+00
    0.66157E-01         0.67974E-02         0.00000E+00
    0.64175E-01         0.68929E-02         0.00000E+00
    0.62125E-01         0.69628E-02         0.00000E+00
    0.60010E-01         0.70063E-02         0.00000E+00
    0.57831E-01         0.70225E-02         0.00000E+00
    0.55589E-01         0.70109E-02         0.00000E+00
    0.53286E-01         0.69706E-02         0.00000E+00
    0.50923E-01         0.69010E-02         0.00000E+00
    0.48502E-01         0.68014E-02         0.00000E+00
    0.46023E-01         0.66713E-02         0.00000E+00
    0.43489E-01         0.65099E-02         0.00000E+00
    0.40902E-01         0.63167E-02         0.00000E+00
    0.38262E-01         0.60912E-02         0.00000E+00
    0.35572E-01         0.58328E-02         0.00000E+00
    0.32834E-01         0.55409E-02         0.00000E+00
    0.30048E-01         0.52151E-02         0.00000E+00
    0.27217E-01         0.48549E-02         0.00000E+00
    0.24342E-01         0.44599E-02         0.00000E+00
    0.21426E-01         0.40297E-02         0.00000E+00
    0.18470E-01         0.35638E-02         0.00000E+00
    0.15475E-01         0.30618E-02         0.00000E+00
    0.12445E-01         0.25235E-02         0.00000E+00
    0.93801E-02         0.19484E-02         0.00000E+00
    0.62831E-02         0.13363E-02         0.00000E+00
    0.31557E-02         0.68696E-03         0.00000E+00
    0.00000E+00         0.00000E+00         0.00000E+00
    0.10028E+00        -0.12156E-02         0.00000E+00
    0.10025E+00        -0.73791E-03         0.00000E+00
    0.10013E+00        -0.26089E-03         0.00000E+00
    0.99913E-01         0.21417E-03         0.00000E+00
    0.99608E-01         0.68602E-03         0.00000E+00
    0.99211E-01         0.11534E-02         0.00000E+00
    0.98724E-01         0.16150E-02         0.00000E+00
    0.98145E-01         0.20696E-02         0.00000E+00
    0.97475E-01         0.25160E-02         0.00000E+00
    0.96715E-01         0.29528E-02         0.00000E+00
    0.95865E-01         0.33790E-02         0.00000E+00
    0.94926E-01         0.37932E-02         0.00000E+00
    0.93897E-01         0.41942E-02         0.00000E+00
    0.92780E-01         0.45809E-02         0.00000E+00
    0.91576E-01         0.49521E-02         0.00000E+00
    0.90284E-01         0.53067E-02         0.00000E+00
    0.88906E-01         0.56434E-02         0.00000E+00
    0.87443E-01         0.59613E-02         0.00000E+00
    0.85895E-01         0.62592E-02         0.00000E+00
    0.84264E-01         0.65359E-02         0.00000E+00
    0.82551E-01         0.67906E-02         0.00000E+00
    0.80756E-01         0.70222E-02         0.00000E+00
    0.78882E-01         0.72296E-02         0.00000E+00
    0.76929E-01         0.74119E-02         0.00000E+00
    0.74898E-01         0.75681E-02         0.00000E+00
    0.72791E-01         0.76974E-02         0.00000E+00
    0.70608E-01         0.77987E-02         0.00000E+00
    0.68353E-01         0.78714E-02         0.00000E+00
    0.66025E-01         0.79144E-02         0.00000E+00
    0.63627E-01         0.79270E-02         0.00000E+00
    0.61160E-01         0.79084E-02         0.00000E+00
    0.58626E-01         0.78579E-02         0.00000E+00
    0.56025E-01         0.77747E-02         0.00000E+00
    0.53361E-01         0.76580E-02         0.00000E+00
    0.50634E-01         0.75072E-02         0.00000E+00
    0.47846E-01         0.73217E-02         0.00000E+00
    0.45000E-01         0.71008E-02         0.00000E+00
    0.42096E-01         0.68439E-02         0.00000E+00
    0.39136E-01         0.65505E-02         0.00000E+00
    0.36123E-01         0.62199E-02         0.00000E+00
    0.33059E-01         0.58517E-02         0.00000E+00
    0.29944E-01         0.54453E-02         0.00000E+00
    0.26782E-01         0.50003E-02         0.00000E+00
    0.23573E-01         0.45162E-02         0.00000E+00
    0.20321E-01         0.39925E-02         0.00000E+00
    0.17027E-01         0.34290E-02         0.00000E+00
    0.13693E-01         0.28252E-02         0.00000E+00
    0.10321E-01         0.21807E-02         0.00000E+00
    0.69138E-02         0.14952E-02         0.00000E+00
    0.34727E-02         0.76837E-03         0.00000E+00
    0.00000E+00         0.00000E+00         0.00000E+00
    0.11036E+00        -0.11151E-02         0.00000E+00
    0.11034E+00        -0.58410E-03         0.00000E+00
    0.11021E+00        -0.53779E-04         0.00000E+00
    0.10998E+00         0.47437E-03         0.00000E+00
    0.10966E+00         0.99890E-03         0.00000E+00
    0.10923E+00         0.15183E-02         0.00000E+00
    0.10870E+00         0.20313E-02         0.00000E+00
    0.10807E+00         0.25362E-02         0.00000E+00
    0.10733E+00         0.30318E-02         0.00000E+00
    0.10650E+00         0.35166E-02         0.00000E+00
    0.10557E+00         0.39891E-02         0.00000E+00
    0.10454E+00         0.44482E-02         0.00000E+00
    0.10340E+00         0.48922E-02         0.00000E+00
    0.10218E+00         0.53201E-02         0.00000E+00
    0.10085E+00         0.57303E-02         0.00000E+00
    0.99427E-01         0.61216E-02         0.00000E+00
    0.97909E-01         0.64928E-02         0.00000E+00
    0.96297E-01         0.68426E-02         0.00000E+00
    0.94592E-01         0.71699E-02         0.00000E+00
    0.92795E-01         0.74733E-02         0.00000E+00
    0.90906E-01         0.77517E-02         0.00000E+00
    0.88928E-01         0.80041E-02         0.00000E+00
    0.86862E-01         0.82293E-02         0.00000E+00
    0.84709E-01         0.84263E-02         0.00000E+00
    0.82471E-01         0.85940E-02         0.00000E+00
    0.80148E-01         0.87313E-02         0.00000E+00
    0.77744E-01         0.88374E-02         0.00000E+00
    0.75258E-01         0.89113E-02         0.00000E+00
    0.72693E-01         0.89521E-02         0.00000E+00
    0.70051E-01         0.89588E-02         0.00000E+00
    0.67333E-01         0.89307E-02         0.00000E+00
    0.64541E-01         0.88669E-02         0.00000E+00
    0.61677E-01         0.87667E-02         0.00000E+00
    0.58742E-01         0.86292E-02         0.00000E+00
    0.55739E-01         0.84538E-02         0.00000E+00
    0.52669E-01         0.82397E-02         0.00000E+00
    0.49534E-01         0.79862E-02         0.00000E+00
    0.46337E-01         0.76929E-02         0.00000E+00
    0.43079E-01         0.73589E-02         0.00000E+00
    0.39762E-01         0.69838E-02         0.00000E+00
    0.36388E-01         0.65669E-02         0.00000E+00
    0.32960E-01         0.61078E-02         0.00000E+00
    0.29479E-01         0.56060E-02         0.00000E+00
    0.25948E-01         0.50609E-02         0.00000E+00
    0.22368E-01         0.44722E-02         0.00000E+00
    0.18743E-01         0.38393E-02         0.00000E+00
    0.15073E-01         0.31619E-02         0.00000E+00
    0.11362E-01         0.24397E-02         0.00000E+00
    0.76110E-02         0.16721E-02         0.00000E+00
    0.38229E-02         0.85901E-03         0.00000E+00
    0.00000E+00         0.00000E+00         0.00000E+00
    0.12156E+00        -0.94055E-03         0.00000E+00
    0.12155E+00        -0.35007E-03         0.00000E+00
    0.12142E+00         0.23963E-03         0.00000E+00
    0.12119E+00         0.82688E-03         0.00000E+00
    0.12083E+00         0.14100E-02         0.00000E+00
    0.12037E+00         0.19873E-02         0.00000E+00
    0.11979E+00         0.25571E-02         0.00000E+00
    0.11910E+00         0.31179E-02         0.00000E+00
    0.11829E+00         0.36679E-02         0.00000E+00
    0.11738E+00         0.42055E-02         0.00000E+00
    0.11635E+00         0.47293E-02         0.00000E+00
    0.11522E+00         0.52375E-02         0.00000E+00
    0.11397E+00         0.57287E-02         0.00000E+00
    0.11261E+00         0.62014E-02         0.00000E+00
    0.11115E+00         0.66540E-02         0.00000E+00
    0.10958E+00         0.70852E-02         0.00000E+00
    0.10791E+00         0.74935E-02         0.00000E+00
    0.10613E+00         0.78775E-02         0.00000E+00
    0.10424E+00         0.82359E-02         0.00000E+00
    0.10226E+00         0.85674E-02         0.00000E+00
    0.10017E+00         0.88707E-02         0.00000E+00
    0.97990E-01         0.91445E-02         0.00000E+00
    0.95709E-01         0.93876E-02         0.00000E+00
    0.93332E-01         0.95989E-02         0.00000E+00
    0.90861E-01         0.97773E-02         0.00000E+00
    0.88298E-01         0.99216E-02         0.00000E+00
    0.85644E-01         0.10031E-01         0.00000E+00
    0.82901E-01         0.10104E-01         0.00000E+00
    0.80072E-01         0.10140E-01         0.00000E+00
    0.77157E-01         0.10138E-01         0.00000E+00
    0.74159E-01         0.10097E-01         0.00000E+00
    0.71080E-01         0.10016E-01         0.00000E+00
    0.67923E-01         0.98947E-02         0.00000E+00
    0.64688E-01         0.97319E-02         0.00000E+00
    0.61377E-01         0.95268E-02         0.00000E+00
    0.57995E-01         0.92787E-02         0.00000E+00
    0.54541E-01         0.89871E-02         0.00000E+00
    0.51018E-01         0.86511E-02         0.00000E+00
    0.47429E-01         0.82701E-02         0.00000E+00
    0.43776E-01         0.78437E-02         0.00000E+00
    0.40061E-01         0.73710E-02         0.00000E+00
    0.36286E-01         0.68518E-02         0.00000E+00
    0.32454E-01         0.62853E-02         0.00000E+00
    0.28566E-01         0.56711E-02         0.00000E+00
    0.24625E-01         0.50088E-02         0.00000E+00
    0.20634E-01         0.42978E-02         0.00000E+00
    0.16594E-01         0.35378E-02         0.00000E+00
    0.12508E-01         0.27284E-02         0.00000E+00
    0.83791E-02         0.18692E-02         0.00000E+00
    0.42089E-02         0.95985E-03         0.00000E+00
    0.00000E+00         0.00000E+00         0.00000E+00
    0.13402E+00        -0.67469E-03         0.00000E+00
    0.13402E+00        -0.17725E-04         0.00000E+00
    0.13390E+00         0.63837E-03         0.00000E+00
    0.13364E+00         0.12916E-02         0.00000E+00
    0.13326E+00         0.19401E-02         0.00000E+00
    0.13276E+00         0.25819E-02         0.00000E+00
    0.13212E+00         0.32151E-02         0.00000E+00
    0.13137E+00         0.38378E-02         0.00000E+00
    0.13048E+00         0.44481E-02         0.00000E+00
    0.12947E+00         0.50442E-02         0.00000E+00
    0.12834E+00         0.56243E-02         0.00000E+00
    0.12709E+00         0.61867E-02         0.00000E+00
    0.12571E+00         0.67295E-02         0.00000E+00
    0.12421E+00         0.72511E-02         0.00000E+00
    0.12259E+00         0.77499E-02         0.00000E+00
    0.12085E+00         0.82241E-02         0.00000E+00
    0.11900E+00         0.86722E-02         0.00000E+00
    0.11703E+00         0.90927E-02         0.00000E+00
    0.11495E+00         0.94842E-02         0.00000E+00
    0.11275E+00         0.98450E-02         0.00000E+00
    0.11044E+00         0.10174E-01         0.00000E+00
    0.10803E+00         0.10469E-01         0.00000E+00
    0.10550E+00         0.10730E-01         0.00000E+00
    0.10288E+00         0.10955E-01         0.00000E+00
    0.10014E+00         0.11143E-01         0.00000E+00
    0.97310E-01         0.11293E-01         0.00000E+00
    0.94377E-01         0.11403E-01         0.00000E+00
    0.91347E-01         0.11472E-01         0.00000E+00
    0.88222E-01         0.11500E-01         0.00000E+00
    0.85003E-01         0.11486E-01         0.00000E+00
    0.81693E-01         0.11428E-01         0.00000E+00
    0.78295E-01         0.11325E-01         0.00000E+00
    0.74811E-01         0.11178E-01         0.00000E+00
    0.71242E-01         0.10984E-01         0.00000E+00
    0.67591E-01         0.10743E-01         0.00000E+00
    0.63861E-01         0.10455E-01         0.00000E+00
    0.60054E-01         0.10118E-01         0.00000E+00
    0.56172E-01         0.97324E-02         0.00000E+00
    0.52218E-01         0.92970E-02         0.00000E+00
    0.48193E-01         0.88112E-02         0.00000E+00
    0.44101E-01         0.82746E-02         0.00000E+00
    0.39943E-01         0.76865E-02         0.00000E+00
    0.35723E-01         0.70464E-02         0.00000E+00
    0.31443E-01         0.63539E-02         0.00000E+00
    0.27104E-01         0.56084E-02         0.00000E+00
    0.22711E-01         0.48096E-02         0.00000E+00
    0.18264E-01         0.39569E-02         0.00000E+00
    0.13767E-01         0.30499E-02         0.00000E+00
    0.92226E-02         0.20884E-02         0.00000E+00
    0.46327E-02         0.10719E-02         0.00000E+00
    0.00000E+00         0.00000E+00         0.00000E+00
    0.14789E+00        -0.30019E-03         0.00000E+00
    0.14791E+00         0.43147E-03         0.00000E+00
    0.14778E+00         0.11621E-02         0.00000E+00
    0.14751E+00         0.18894E-02         0.00000E+00
    0.14710E+00         0.26111E-02         0.00000E+00
    0.14655E+00         0.33250E-02         0.00000E+00
    0.14585E+00         0.40288E-02         0.00000E+00
    0.14502E+00         0.47205E-02         0.00000E+00
    0.14404E+00         0.53978E-02         0.00000E+00
    0.14292E+00         0.60587E-02         0.00000E+00
    0.14167E+00         0.67011E-02         0.00000E+00
    0.14027E+00         0.73230E-02         0.00000E+00
    0.13875E+00         0.79224E-02         0.00000E+00
    0.13708E+00         0.84974E-02         0.00000E+00
    0.13529E+00         0.90462E-02         0.00000E+00
    0.13336E+00         0.95669E-02         0.00000E+00
    0.13130E+00         0.10058E-01         0.00000E+00
    0.12912E+00         0.10517E-01         0.00000E+00
    0.12681E+00         0.10943E-01         0.00000E+00
    0.12437E+00         0.11334E-01         0.00000E+00
    0.12181E+00         0.11690E-01         0.00000E+00
    0.11913E+00         0.12007E-01         0.00000E+00
    0.11634E+00         0.12285E-01         0.00000E+00
    0.11342E+00         0.12522E-01         0.00000E+00
    0.11040E+00         0.12718E-01         0.00000E+00
    0.10726E+00         0.12870E-01         0.00000E+00
    0.10402E+00         0.12978E-01         0.00000E+00
    0.10066E+00         0.13041E-01         0.00000E+00
    0.97206E-01         0.13057E-01         0.00000E+00
    0.93648E-01         0.13025E-01         0.00000E+00
    0.89991E-01         0.12945E-01         0.00000E+00
    0.86237E-01         0.12815E-01         0.00000E+00
    0.82389E-01         0.12635E-01         0.00000E+00
    0.78450E-01         0.12404E-01         0.00000E+00
    0.74421E-01         0.12121E-01         0.00000E+00
    0.70307E-01         0.11784E-01         0.00000E+00
    0.66108E-01         0.11395E-01         0.00000E+00
    0.61829E-01         0.10951E-01         0.00000E+00
    0.57471E-01         0.10452E-01         0.00000E+00
    0.53037E-01         0.98981E-02         0.00000E+00
    0.48529E-01         0.92880E-02         0.00000E+00
    0.43951E-01         0.86213E-02         0.00000E+00
    0.39305E-01         0.78976E-02         0.00000E+00
    0.34593E-01         0.71163E-02         0.00000E+00
    0.29819E-01         0.62771E-02         0.00000E+00
    0.24984E-01         0.53794E-02         0.00000E+00
    0.20092E-01         0.44228E-02         0.00000E+00
    0.15145E-01         0.34070E-02         0.00000E+00
    0.10145E-01         0.23315E-02         0.00000E+00
    0.50961E-02         0.11959E-02         0.00000E+00
    0.00000E+00         0.00000E+00         0.00000E+00
    0.16335E+00         0.19868E-03         0.00000E+00
    0.16338E+00         0.10146E-02         0.00000E+00
    0.16326E+00         0.18292E-02         0.00000E+00
    0.16297E+00         0.26399E-02         0.00000E+00
    0.16252E+00         0.34438E-02         0.00000E+00
    0.16191E+00         0.42386E-02         0.00000E+00
    0.16114E+00         0.50216E-02         0.00000E+00
    0.16021E+00         0.57902E-02         0.00000E+00
    0.15912E+00         0.65422E-02         0.00000E+00
    0.15788E+00         0.72750E-02         0.00000E+00
    0.15648E+00         0.79863E-02         0.00000E+00
    0.15493E+00         0.86738E-02         0.00000E+00
    0.15323E+00         0.93352E-02         0.00000E+00
    0.15138E+00         0.99686E-02         0.00000E+00
    0.14938E+00         0.10572E-01         0.00000E+00
    0.14723E+00         0.11142E-01         0.00000E+00
    0.14494E+00         0.11679E-01         0.00000E+00
    0.14251E+00         0.12179E-01         0.00000E+00
    0.13994E+00         0.12642E-01         0.00000E+00
    0.13723E+00         0.13065E-01         0.00000E+00
    0.13438E+00         0.13446E-01         0.00000E+00
    0.13141E+00         0.13785E-01         0.00000E+00
    0.12830E+00         0.14079E-01         0.00000E+00
    0.12507E+00         0.14327E-01         0.00000E+00
    0.12171E+00         0.14527E-01         0.00000E+00
    0.11823E+00         0.14680E-01         0.00000E+00
    0.11463E+00         0.14782E-01         0.00000E+00
    0.11092E+00         0.14833E-01         0.00000E+00
    0.10709E+00         0.14832E-01         0.00000E+00
    0.10315E+00         0.14778E-01         0.00000E+00
    0.99107E-01         0.14670E-01         0.00000E+00
    0.94957E-01         0.14506E-01         0.00000E+00
    0.90705E-01         0.14286E-01         0.00000E+00
    0.86354E-01         0.14010E-01         0.00000E+00
    0.81906E-01         0.13675E-01         0.00000E+00
    0.77366E-01         0.13283E-01         0.00000E+00
    0.72735E-01         0.12831E-01         0.00000E+00
    0.68017E-01         0.12319E-01         0.00000E+00
    0.63214E-01         0.11748E-01         0.00000E+00
    0.58330E-01         0.11115E-01         0.00000E+00
    0.53366E-01         0.10421E-01         0.00000E+00
    0.48326E-01         0.96645E-02         0.00000E+00
    0.43213E-01         0.88460E-02         0.00000E+00
    0.38030E-01         0.79646E-02         0.00000E+00
    0.32778E-01         0.70198E-02         0.00000E+00
    0.27462E-01         0.60114E-02         0.00000E+00
    0.22083E-01         0.49388E-02         0.00000E+00
    0.16645E-01         0.38018E-02         0.00000E+00
    0.11150E-01         0.25998E-02         0.00000E+00
    0.56005E-02         0.13327E-02         0.00000E+00
    0.00000E+00         0.00000E+00         0.00000E+00
    0.18061E+00         0.83297E-03         0.00000E+00
    0.18066E+00         0.17445E-02         0.00000E+00
    0.18052E+00         0.26542E-02         0.00000E+00
    0.18021E+00         0.35590E-02         0.00000E+00
    0.17971E+00         0.44557E-02         0.00000E+00
    0.17903E+00         0.53415E-02         0.00000E+00
    0.17817E+00         0.62133E-02         0.00000E+00
    0.17713E+00         0.70682E-02         0.00000E+00
    0.17592E+00         0.79034E-02         0.00000E+00
    0.17453E+00         0.87162E-02         0.00000E+00
    0.17296E+00         0.95038E-02         0.00000E+00
    0.17123E+00         0.10264E-01         0.00000E+00
    0.16932E+00         0.10993E-01         0.00000E+00
    0.16725E+00         0.11690E-01         0.00000E+00
    0.16501E+00         0.12352E-01         0.00000E+00
    0.16261E+00         0.12977E-01         0.00000E+00
    0.16005E+00         0.13563E-01         0.00000E+00
    0.15733E+00         0.14106E-01         0.00000E+00
    0.15446E+00         0.14607E-01         0.00000E+00
    0.15144E+00         0.15062E-01         0.00000E+00
    0.14827E+00         0.15470E-01         0.00000E+00
    0.14495E+00         0.15829E-01         0.00000E+00
    0.14149E+00         0.16137E-01         0.00000E+00
    0.13790E+00         0.16394E-01         0.00000E+00
    0.13416E+00         0.16596E-01         0.00000E+00
    0.13030E+00         0.16745E-01         0.00000E+00
    0.12630E+00         0.16837E-01         0.00000E+00
    0.12218E+00         0.16871E-01         0.00000E+00
    0.11794E+00         0.16847E-01         0.00000E+00
    0.11358E+00         0.16764E-01         0.00000E+00
    0.10910E+00         0.16620E-01         0.00000E+00
    0.10450E+00         0.16415E-01         0.00000E+00
    0.99802E-01         0.16147E-01         0.00000E+00
    0.94994E-01         0.15816E-01         0.00000E+00
    0.90082E-01         0.15422E-01         0.00000E+00
    0.85071E-01         0.14963E-01         0.00000E+00
    0.79963E-01         0.14439E-01         0.00000E+00
    0.74762E-01         0.13849E-01         0.00000E+00
    0.69470E-01         0.13193E-01         0.00000E+00
    0.64090E-01         0.12470E-01         0.00000E+00
    0.58627E-01         0.11680E-01         0.00000E+00
    0.53082E-01         0.10823E-01         0.00000E+00
    0.47459E-01         0.98970E-02         0.00000E+00
    0.41760E-01         0.89030E-02         0.00000E+00
    0.35989E-01         0.78402E-02         0.00000E+00
    0.30149E-01         0.67082E-02         0.00000E+00
    0.24241E-01         0.55069E-02         0.00000E+00
    0.18270E-01         0.42357E-02         0.00000E+00
    0.12238E-01         0.28944E-02         0.00000E+00
    0.61466E-02         0.14826E-02         0.00000E+00
    0.00000E+00         0.00000E+00         0.00000E+00
    0.19991E+00         0.16045E-02         0.00000E+00
    0.19997E+00         0.26248E-02         0.00000E+00
    0.19982E+00         0.36426E-02         0.00000E+00
    0.19947E+00         0.46542E-02         0.00000E+00
    0.19891E+00         0.56561E-02         0.00000E+00
    0.19814E+00         0.66446E-02         0.00000E+00
    0.19717E+00         0.76164E-02         0.00000E+00
    0.19600E+00         0.85682E-02         0.00000E+00
    0.19463E+00         0.94966E-02         0.00000E+00
    0.19306E+00         0.10399E-01         0.00000E+00
    0.19130E+00         0.11271E-01         0.00000E+00
    0.18935E+00         0.12111E-01         0.00000E+00
    0.18720E+00         0.12916E-01         0.00000E+00
    0.18487E+00         0.13682E-01         0.00000E+00
    0.18235E+00         0.14408E-01         0.00000E+00
    0.17966E+00         0.15091E-01         0.00000E+00
    0.17678E+00         0.15729E-01         0.00000E+00
    0.17374E+00         0.16319E-01         0.00000E+00
    0.17052E+00         0.16858E-01         0.00000E+00
    0.16714E+00         0.17346E-01         0.00000E+00
    0.16359E+00         0.17780E-01         0.00000E+00
    0.15988E+00         0.18159E-01         0.00000E+00
    0.15602E+00         0.18479E-01         0.00000E+00
    0.15201E+00         0.18741E-01         0.00000E+00
    0.14785E+00         0.18943E-01         0.00000E+00
    0.14355E+00         0.19082E-01         0.00000E+00
    0.13910E+00         0.19159E-01         0.00000E+00
    0.13453E+00         0.19171E-01         0.00000E+00
    0.12981E+00         0.19117E-01         0.00000E+00
    0.12497E+00         0.18997E-01         0.00000E+00
    0.12001E+00         0.18809E-01         0.00000E+00
    0.11492E+00         0.18554E-01         0.00000E+00
    0.10972E+00         0.18229E-01         0.00000E+00
    0.10440E+00         0.17834E-01         0.00000E+00
    0.98979E-01         0.17369E-01         0.00000E+00
    0.93448E-01         0.16833E-01         0.00000E+00
    0.87814E-01         0.16225E-01         0.00000E+00
    0.82081E-01         0.15545E-01         0.00000E+00
    0.76252E-01         0.14793E-01         0.00000E+00
    0.70331E-01         0.13968E-01         0.00000E+00
    0.64321E-01         0.13070E-01         0.00000E+00
    0.58225E-01         0.12098E-01         0.00000E+00
    0.52046E-01         0.11053E-01         0.00000E+00
    0.45788E-01         0.99329E-02         0.00000E+00
    0.39454E-01         0.87390E-02         0.00000E+00
    0.33046E-01         0.74704E-02         0.00000E+00
    0.26567E-01         0.61271E-02         0.00000E+00
    0.20020E-01         0.47086E-02         0.00000E+00
    0.13408E-01         0.32148E-02         0.00000E+00
    0.67340E-02         0.16453E-02         0.00000E+00
    0.00000E+00         0.00000E+00         0.00000E+00
    0.22154E+00         0.24992E-02         0.00000E+00
    0.22161E+00         0.36439E-02         0.00000E+00
    0.22144E+00         0.47851E-02         0.00000E+00
    0.22103E+00         0.59184E-02         0.00000E+00
    0.22039E+00         0.70396E-02         0.00000E+00
    0.21951E+00         0.81446E-02         0.00000E+00
    0.21840E+00         0.92294E-02         0.00000E+00
    0.21707E+00         0.10290E-01         0.00000E+00
    0.21551E+00         0.11323E-01         0.00000E+00
    0.21372E+00         0.12325E-01         0.00000E+00
    0.21172E+00         0.13292E-01         0.00000E+00
    0.20950E+00         0.14221E-01         0.00000E+00
    0.20707E+00         0.15108E-01         0.00000E+00
    0.20443E+00         0.15951E-01         0.00000E+00
    0.20159E+00         0.16747E-01         0.00000E+00
    0.19854E+00         0.17493E-01         0.00000E+00
    0.19530E+00         0.18186E-01         0.00000E+00
    0.19187E+00         0.18824E-01         0.00000E+00
    0.18825E+00         0.19405E-01         0.00000E+00
    0.18445E+00         0.19927E-01         0.00000E+00
    0.18047E+00         0.20386E-01         0.00000E+00
    0.17632E+00         0.20783E-01         0.00000E+00
    0.17200E+00         0.21113E-01         0.00000E+00
    0.16751E+00         0.21378E-01         0.00000E+00
    0.16287E+00         0.21573E-01         0.00000E+00
    0.15806E+00         0.21699E-01         0.00000E+00
    0.15311E+00         0.21754E-01         0.00000E+00
    0.14801E+00         0.21737E-01         0.00000E+00
    0.14278E+00         0.21646E-01         0.00000E+00
    0.13740E+00         0.21481E-01         0.00000E+00
    0.13189E+00         0.21241E-01         0.00000E+00
    0.12626E+00         0.20925E-01         0.00000E+00
    0.12050E+00         0.20533E-01         0.00000E+00
    0.11462E+00         0.20064E-01         0.00000E+00
    0.10862E+00         0.19517E-01         0.00000E+00
    0.10251E+00         0.18892E-01         0.00000E+00
    0.96301E-01         0.18189E-01         0.00000E+00
    0.89984E-01         0.17407E-01         0.00000E+00
    0.83567E-01         0.16546E-01         0.00000E+00
    0.77055E-01         0.15606E-01         0.00000E+00
    0.70449E-01         0.14587E-01         0.00000E+00
    0.63754E-01         0.13488E-01         0.00000E+00
    0.56974E-01         0.12309E-01         0.00000E+00
    0.50111E-01         0.11051E-01         0.00000E+00
    0.43168E-01         0.97129E-02         0.00000E+00
    0.36148E-01         0.82948E-02         0.00000E+00
    0.29055E-01         0.67966E-02         0.00000E+00
    0.21891E-01         0.52181E-02         0.00000E+00
    0.14659E-01         0.35593E-02         0.00000E+00
    0.73612E-02         0.18200E-02         0.00000E+00
    0.00000E+00         0.00000E+00         0.00000E+00
    0.24585E+00         0.34776E-02         0.00000E+00
    0.24591E+00         0.47653E-02         0.00000E+00
    0.24570E+00         0.60478E-02         0.00000E+00
    0.24521E+00         0.73201E-02         0.00000E+00
    0.24446E+00         0.85772E-02         0.00000E+00
    0.24344E+00         0.98145E-02         0.00000E+00
    0.24215E+00         0.11027E-01         0.00000E+00
    0.24061E+00         0.12211E-01         0.00000E+00
    0.23881E+00         0.13362E-01         0.00000E+00
    0.23677E+00         0.14476E-01         0.00000E+00
    0.23447E+00         0.15548E-01         0.00000E+00
    0.23193E+00         0.16575E-01         0.00000E+00
    0.22916E+00         0.17554E-01         0.00000E+00
    0.22615E+00         0.18481E-01         0.00000E+00
    0.22292E+00         0.19354E-01         0.00000E+00
    0.21946E+00         0.20168E-01         0.00000E+00
    0.21579E+00         0.20921E-01         0.00000E+00
    0.21191E+00         0.21611E-01         0.00000E+00
    0.20782E+00         0.22235E-01         0.00000E+00
    0.20353E+00         0.22790E-01         0.00000E+00
    0.19905E+00         0.23276E-01         0.00000E+00
    0.19438E+00         0.23689E-01         0.00000E+00
    0.18953E+00         0.24027E-01         0.00000E+00
    0.18450E+00         0.24290E-01         0.00000E+00
    0.17929E+00         0.24476E-01         0.00000E+00
    0.17393E+00         0.24583E-01         0.00000E+00
    0.16840E+00         0.24610E-01         0.00000E+00
    0.16271E+00         0.24557E-01         0.00000E+00
    0.15688E+00         0.24421E-01         0.00000E+00
    0.15090E+00         0.24203E-01         0.00000E+00
    0.14478E+00         0.23902E-01         0.00000E+00
    0.13853E+00         0.23516E-01         0.00000E+00
    0.13215E+00         0.23047E-01         0.00000E+00
    0.12564E+00         0.22492E-01         0.00000E+00
    0.11902E+00         0.21852E-01         0.00000E+00
    0.11228E+00         0.21127E-01         0.00000E+00
    0.10543E+00         0.20317E-01         0.00000E+00
    0.98472E-01         0.19421E-01         0.00000E+00
    0.91413E-01         0.18439E-01         0.00000E+00
    0.84255E-01         0.17371E-01         0.00000E+00
    0.77003E-01         0.16218E-01         0.00000E+00
    0.69660E-01         0.14980E-01         0.00000E+00
    0.62229E-01         0.13656E-01         0.00000E+00
    0.54715E-01         0.12247E-01         0.00000E+00
    0.47119E-01         0.10752E-01         0.00000E+00
    0.39446E-01         0.91728E-02         0.00000E+00
    0.31697E-01         0.75082E-02         0.00000E+00
    0.23875E-01         0.57586E-02         0.00000E+00
    0.15984E-01         0.39240E-02         0.00000E+00
    0.80247E-02         0.20045E-02         0.00000E+00
    0.00000E+00         0.00000E+00         0.00000E+00
    0.27324E+00         0.44621E-02         0.00000E+00
    0.27327E+00         0.59144E-02         0.00000E+00
    0.27299E+00         0.73592E-02         0.00000E+00
    0.27239E+00         0.87908E-02         0.00000E+00
    0.27148E+00         0.10203E-01         0.00000E+00
    0.27027E+00         0.11591E-01         0.00000E+00
    0.26876E+00         0.12950E-01         0.00000E+00
    0.26696E+00         0.14273E-01         0.00000E+00
    0.26486E+00         0.15556E-01         0.00000E+00
    0.26249E+00         0.16796E-01         0.00000E+00
    0.25983E+00         0.17986E-01         0.00000E+00
    0.25691E+00         0.19124E-01         0.00000E+00
    0.25372E+00         0.20204E-01         0.00000E+00
    0.25027E+00         0.21225E-01         0.00000E+00
    0.24657E+00         0.22181E-01         0.00000E+00
    0.24263E+00         0.23069E-01         0.00000E+00
    0.23844E+00         0.23888E-01         0.00000E+00
    0.23403E+00         0.24633E-01         0.00000E+00
    0.22939E+00         0.25303E-01         0.00000E+00
    0.22453E+00         0.25894E-01         0.00000E+00
    0.21946E+00         0.26405E-01         0.00000E+00
    0.21419E+00         0.26834E-01         0.00000E+00
    0.20873E+00         0.27179E-01         0.00000E+00
    0.20307E+00         0.27438E-01         0.00000E+00
    0.19723E+00         0.27610E-01         0.00000E+00
    0.19121E+00         0.27694E-01         0.00000E+00
    0.18502E+00         0.27688E-01         0.00000E+00
    0.17867E+00         0.27592E-01         0.00000E+00
    0.17217E+00         0.27404E-01         0.00000E+00
    0.16551E+00         0.27125E-01         0.00000E+00
    0.15871E+00         0.26754E-01         0.00000E+00
    0.15177E+00         0.26290E-01         0.00000E+00
    0.14470E+00         0.25733E-01         0.00000E+00
    0.13750E+00         0.25083E-01         0.00000E+00
    0.13018E+00         0.24341E-01         0.00000E+00
    0.12274E+00         0.23505E-01         0.00000E+00
    0.11519E+00         0.22576E-01         0.00000E+00
    0.10753E+00         0.21555E-01         0.00000E+00
    0.99770E-01         0.20441E-01         0.00000E+00
    0.91913E-01         0.19236E-01         0.00000E+00
    0.83961E-01         0.17938E-01         0.00000E+00
    0.75919E-01         0.16549E-01         0.00000E+00
    0.67791E-01         0.15070E-01         0.00000E+00
    0.59579E-01         0.13499E-01         0.00000E+00
    0.51287E-01         0.11839E-01         0.00000E+00
    0.42918E-01         0.10088E-01         0.00000E+00
    0.34474E-01         0.82486E-02         0.00000E+00
    0.25959E-01         0.63196E-02         0.00000E+00
    0.17373E-01         0.43017E-02         0.00000E+00
    0.87196E-02         0.21951E-02         0.00000E+00
    0.00000E+00         0.00000E+00         0.00000E+00
    0.30420E+00         0.53188E-02         0.00000E+00
    0.30416E+00         0.69612E-02         0.00000E+00
    0.30376E+00         0.85931E-02         0.00000E+00
    0.30299E+00         0.10208E-01         0.00000E+00
    0.30188E+00         0.11798E-01         0.00000E+00
    0.30041E+00         0.13358E-01         0.00000E+00
    0.29861E+00         0.14882E-01         0.00000E+00
    0.29647E+00         0.16363E-01         0.00000E+00
    0.29400E+00         0.17797E-01         0.00000E+00
    0.29122E+00         0.19178E-01         0.00000E+00
    0.28812E+00         0.20501E-01         0.00000E+00
    0.28472E+00         0.21762E-01         0.00000E+00
    0.28103E+00         0.22956E-01         0.00000E+00
    0.27704E+00         0.24080E-01         0.00000E+00
    0.27278E+00         0.25129E-01         0.00000E+00
    0.26825E+00         0.26100E-01         0.00000E+00
    0.26346E+00         0.26991E-01         0.00000E+00
    0.25842E+00         0.27797E-01         0.00000E+00
    0.25313E+00         0.28516E-01         0.00000E+00
    0.24760E+00         0.29146E-01         0.00000E+00
    0.24185E+00         0.29685E-01         0.00000E+00
    0.23588E+00         0.30130E-01         0.00000E+00
    0.22970E+00         0.30480E-01         0.00000E+00
    0.22332E+00         0.30734E-01         0.00000E+00
    0.21675E+00         0.30890E-01         0.00000E+00
    0.20999E+00         0.30947E-01         0.00000E+00
    0.20305E+00         0.30904E-01         0.00000E+00
    0.19595E+00         0.30760E-01         0.00000E+00
    0.18868E+00         0.30516E-01         0.00000E+00
    0.18126E+00         0.30170E-01         0.00000E+00
    0.17369E+00         0.29722E-01         0.00000E+00
    0.16598E+00         0.29173E-01         0.00000E+00
    0.15814E+00         0.28522E-01         0.00000E+00
    0.15017E+00         0.27770E-01         0.00000E+00
    0.14207E+00         0.26916E-01         0.00000E+00
    0.13387E+00         0.25962E-01         0.00000E+00
    0.12555E+00         0.24907E-01         0.00000E+00
    0.11713E+00         0.23753E-01         0.00000E+00
    0.10861E+00         0.22500E-01         0.00000E+00
    0.99993E-01         0.21148E-01         0.00000E+00
    0.91288E-01         0.19699E-01         0.00000E+00
    0.82496E-01         0.18153E-01         0.00000E+00
    0.73622E-01         0.16511E-01         0.00000E+00
    0.64668E-01         0.14773E-01         0.00000E+00
    0.55639E-01         0.12941E-01         0.00000E+00
    0.46536E-01         0.11015E-01         0.00000E+00
    0.37363E-01         0.89960E-02         0.00000E+00
    0.28121E-01         0.68844E-02         0.00000E+00
    0.18812E-01         0.46809E-02         0.00000E+00
    0.94380E-02         0.23859E-02         0.00000E+00
    0.00000E+00         0.00000E+00         0.00000E+00
    0.33928E+00         0.58345E-02         0.00000E+00
    0.33912E+00         0.76969E-02         0.00000E+00
    0.33853E+00         0.95444E-02         0.00000E+00
    0.33753E+00         0.11369E-01         0.00000E+00
    0.33613E+00         0.13163E-01         0.00000E+00
    0.33433E+00         0.14920E-01         0.00000E+00
    0.33214E+00         0.16632E-01         0.00000E+00
    0.32957E+00         0.18293E-01         0.00000E+00
    0.32663E+00         0.19897E-01         0.00000E+00
    0.32333E+00         0.21438E-01         0.00000E+00
    0.31969E+00         0.22911E-01         0.00000E+00
    0.31570E+00         0.24311E-01         0.00000E+00
    0.31139E+00         0.25633E-01         0.00000E+00
    0.30676E+00         0.26873E-01         0.00000E+00
    0.30182E+00         0.28027E-01         0.00000E+00
    0.29659E+00         0.29090E-01         0.00000E+00
    0.29107E+00         0.30061E-01         0.00000E+00
    0.28528E+00         0.30935E-01         0.00000E+00
    0.27922E+00         0.31710E-01         0.00000E+00
    0.27291E+00         0.32384E-01         0.00000E+00
    0.26636E+00         0.32954E-01         0.00000E+00
    0.25958E+00         0.33419E-01         0.00000E+00
    0.25257E+00         0.33777E-01         0.00000E+00
    0.24535E+00         0.34027E-01         0.00000E+00
    0.23794E+00         0.34167E-01         0.00000E+00
    0.23033E+00         0.34198E-01         0.00000E+00
    0.22253E+00         0.34117E-01         0.00000E+00
    0.21457E+00         0.33925E-01         0.00000E+00
    0.20644E+00         0.33622E-01         0.00000E+00
    0.19815E+00         0.33207E-01         0.00000E+00
    0.18972E+00         0.32681E-01         0.00000E+00
    0.18115E+00         0.32043E-01         0.00000E+00
    0.17245E+00         0.31295E-01         0.00000E+00
    0.16362E+00         0.30438E-01         0.00000E+00
    0.15468E+00         0.29470E-01         0.00000E+00
    0.14563E+00         0.28395E-01         0.00000E+00
    0.13648E+00         0.27212E-01         0.00000E+00
    0.12722E+00         0.25922E-01         0.00000E+00
    0.11788E+00         0.24527E-01         0.00000E+00
    0.10845E+00         0.23028E-01         0.00000E+00
    0.98931E-01         0.21426E-01         0.00000E+00
    0.89339E-01         0.19722E-01         0.00000E+00
    0.79672E-01         0.17917E-01         0.00000E+00
    0.69935E-01         0.16013E-01         0.00000E+00
    0.60130E-01         0.14011E-01         0.00000E+00
    0.50261E-01         0.11912E-01         0.00000E+00
    0.40328E-01         0.97172E-02         0.00000E+00
    0.30335E-01         0.74276E-02         0.00000E+00
    0.20282E-01         0.50443E-02         0.00000E+00
    0.10170E-01         0.25682E-02         0.00000E+00
    0.00000E+00         0.00000E+00         0.00000E+00
    0.37915E+00         0.56861E-02         0.00000E+00
    0.37877E+00         0.78031E-02         0.00000E+00
    0.37792E+00         0.98993E-02         0.00000E+00
    0.37658E+00         0.11966E-01         0.00000E+00
    0.37478E+00         0.13993E-01         0.00000E+00
    0.37253E+00         0.15974E-01         0.00000E+00
    0.36984E+00         0.17901E-01         0.00000E+00
    0.36672E+00         0.19767E-01         0.00000E+00
    0.36318E+00         0.21564E-01         0.00000E+00
    0.35924E+00         0.23287E-01         0.00000E+00
    0.35491E+00         0.24930E-01         0.00000E+00
    0.35020E+00         0.26487E-01         0.00000E+00
    0.34513E+00         0.27953E-01         0.00000E+00
    0.33972E+00         0.29324E-01         0.00000E+00
    0.33396E+00         0.30596E-01         0.00000E+00
    0.32788E+00         0.31765E-01         0.00000E+00
    0.32150E+00         0.32828E-01         0.00000E+00
    0.31482E+00         0.33781E-01         0.00000E+00
    0.30785E+00         0.34622E-01         0.00000E+00
    0.30062E+00         0.35348E-01         0.00000E+00
    0.29313E+00         0.35958E-01         0.00000E+00
    0.28540E+00         0.36450E-01         0.00000E+00
    0.27743E+00         0.36823E-01         0.00000E+00
    0.26925E+00         0.37075E-01         0.00000E+00
    0.26086E+00         0.37206E-01         0.00000E+00
    0.25227E+00         0.37214E-01         0.00000E+00
    0.24350E+00         0.37101E-01         0.00000E+00
    0.23456E+00         0.36866E-01         0.00000E+00
    0.22545E+00         0.36508E-01         0.00000E+00
    0.21620E+00         0.36029E-01         0.00000E+00
    0.20680E+00         0.35429E-01         0.00000E+00
    0.19726E+00         0.34709E-01         0.00000E+00
    0.18761E+00         0.33869E-01         0.00000E+00
    0.17783E+00         0.32911E-01         0.00000E+00
    0.16796E+00         0.31836E-01         0.00000E+00
    0.15798E+00         0.30644E-01         0.00000E+00
    0.14791E+00         0.29339E-01         0.00000E+00
    0.13775E+00         0.27921E-01         0.00000E+00
    0.12751E+00         0.26392E-01         0.00000E+00
    0.11720E+00         0.24753E-01         0.00000E+00
    0.10682E+00         0.23006E-01         0.00000E+00
    0.96381E-01         0.21154E-01         0.00000E+00
    0.85878E-01         0.19197E-01         0.00000E+00
    0.75319E-01         0.17138E-01         0.00000E+00
    0.64706E-01         0.14978E-01         0.00000E+00
    0.54041E-01         0.12720E-01         0.00000E+00
    0.43328E-01         0.10364E-01         0.00000E+00
    0.32567E-01         0.79126E-02         0.00000E+00
    0.21758E-01         0.53672E-02         0.00000E+00
    0.10903E-01         0.27293E-02         0.00000E+00
    0.00000E+00         0.00000E+00         0.00000E+00
    0.42455E+00         0.44017E-02         0.00000E+00
    0.42386E+00         0.68130E-02         0.00000E+00
    0.42260E+00         0.91954E-02         0.00000E+00
    0.42080E+00         0.11539E-01         0.00000E+00
    0.41846E+00         0.13834E-01         0.00000E+00
    0.41561E+00         0.16071E-01         0.00000E+00
    0.41227E+00         0.18243E-01         0.00000E+00
    0.40843E+00         0.20340E-01         0.00000E+00
    0.40414E+00         0.22357E-01         0.00000E+00
    0.39939E+00         0.24286E-01         0.00000E+00
    0.39421E+00         0.26122E-01         0.00000E+00
    0.38861E+00         0.27858E-01         0.00000E+00
    0.38262E+00         0.29489E-01         0.00000E+00
    0.37624E+00         0.31011E-01         0.00000E+00
    0.36950E+00         0.32419E-01         0.00000E+00
    0.36241E+00         0.33711E-01         0.00000E+00
    0.35499E+00         0.34881E-01         0.00000E+00
    0.34725E+00         0.35929E-01         0.00000E+00
    0.33922E+00         0.36851E-01         0.00000E+00
    0.33090E+00         0.37644E-01         0.00000E+00
    0.32231E+00         0.38308E-01         0.00000E+00
    0.31347E+00         0.38842E-01         0.00000E+00
    0.30439E+00         0.39243E-01         0.00000E+00
    0.29509E+00         0.39511E-01         0.00000E+00
    0.28558E+00         0.39646E-01         0.00000E+00
    0.27587E+00         0.39648E-01         0.00000E+00
    0.26599E+00         0.39516E-01         0.00000E+00
    0.25593E+00         0.39252E-01         0.00000E+00
    0.24573E+00         0.38856E-01         0.00000E+00
    0.23537E+00         0.38328E-01         0.00000E+00
    0.22489E+00         0.37670E-01         0.00000E+00
    0.21428E+00         0.36883E-01         0.00000E+00
    0.20356E+00         0.35968E-01         0.00000E+00
    0.19274E+00         0.34927E-01         0.00000E+00
    0.18183E+00         0.33762E-01         0.00000E+00
    0.17084E+00         0.32475E-01         0.00000E+00
    0.15977E+00         0.31068E-01         0.00000E+00
    0.14863E+00         0.29542E-01         0.00000E+00
    0.13744E+00         0.27900E-01         0.00000E+00
    0.12619E+00         0.26144E-01         0.00000E+00
    0.11489E+00         0.24277E-01         0.00000E+00
    0.10354E+00         0.22300E-01         0.00000E+00
    0.92163E-01         0.20217E-01         0.00000E+00
    0.80747E-01         0.18030E-01         0.00000E+00
    0.69298E-01         0.15741E-01         0.00000E+00
    0.57819E-01         0.13353E-01         0.00000E+00
    0.46311E-01         0.10868E-01         0.00000E+00
    0.34775E-01         0.82878E-02         0.00000E+00
    0.23212E-01         0.56151E-02         0.00000E+00
    0.11621E-01         0.28518E-02         0.00000E+00
    0.00000E+00         0.00000E+00         0.00000E+00
    0.47637E+00         0.13117E-02         0.00000E+00
    0.47519E+00         0.40619E-02         0.00000E+00
    0.47336E+00         0.67729E-02         0.00000E+00
    0.47091E+00         0.94334E-02         0.00000E+00
    0.46786E+00         0.12033E-01         0.00000E+00
    0.46422E+00         0.14562E-01         0.00000E+00
    0.46002E+00         0.17011E-01         0.00000E+00
    0.45528E+00         0.19373E-01         0.00000E+00
    0.45002E+00         0.21639E-01         0.00000E+00
    0.44427E+00         0.23802E-01         0.00000E+00
    0.43803E+00         0.25857E-01         0.00000E+00
    0.43134E+00         0.27798E-01         0.00000E+00
    0.42422E+00         0.29618E-01         0.00000E+00
    0.41668E+00         0.31315E-01         0.00000E+00
    0.40875E+00         0.32883E-01         0.00000E+00
    0.40044E+00         0.34320E-01         0.00000E+00
    0.39179E+00         0.35622E-01         0.00000E+00
    0.38280E+00         0.36787E-01         0.00000E+00
    0.37350E+00         0.37812E-01         0.00000E+00
    0.36390E+00         0.38696E-01         0.00000E+00
    0.35403E+00         0.39438E-01         0.00000E+00
    0.34390E+00         0.40036E-01         0.00000E+00
    0.33353E+00         0.40490E-01         0.00000E+00
    0.32295E+00         0.40800E-01         0.00000E+00
    0.31215E+00         0.40966E-01         0.00000E+00
    0.30117E+00         0.40988E-01         0.00000E+00
    0.29002E+00         0.40867E-01         0.00000E+00
    0.27870E+00         0.40604E-01         0.00000E+00
    0.26725E+00         0.40199E-01         0.00000E+00
    0.25566E+00         0.39654E-01         0.00000E+00
    0.24396E+00         0.38972E-01         0.00000E+00
    0.23216E+00         0.38152E-01         0.00000E+00
    0.22026E+00         0.37198E-01         0.00000E+00
    0.20828E+00         0.36112E-01         0.00000E+00
    0.19624E+00         0.34896E-01         0.00000E+00
    0.18414E+00         0.33551E-01         0.00000E+00
    0.17198E+00         0.32082E-01         0.00000E+00
    0.15979E+00         0.30490E-01         0.00000E+00
    0.14756E+00         0.28779E-01         0.00000E+00
    0.13531E+00         0.26950E-01         0.00000E+00
    0.12303E+00         0.25008E-01         0.00000E+00
    0.11074E+00         0.22955E-01         0.00000E+00
    0.98446E-01         0.20794E-01         0.00000E+00
    0.86142E-01         0.18529E-01         0.00000E+00
    0.73835E-01         0.16162E-01         0.00000E+00
    0.61527E-01         0.13697E-01         0.00000E+00
    0.49221E-01         0.11136E-01         0.00000E+00
    0.36916E-01         0.84833E-02         0.00000E+00
    0.24612E-01         0.57411E-02         0.00000E+00
    0.12307E-01         0.29124E-02         0.00000E+00
    0.00000E+00         0.00000E+00         0.00000E+00
    0.53558E+00        -0.45111E-02         0.00000E+00
    0.53368E+00        -0.13721E-02         0.00000E+00
    0.53106E+00         0.17140E-02         0.00000E+00
    0.52773E+00         0.47352E-02         0.00000E+00
    0.52371E+00         0.76806E-02         0.00000E+00
    0.51905E+00         0.10540E-01         0.00000E+00
    0.51375E+00         0.13304E-01         0.00000E+00
    0.50786E+00         0.15963E-01         0.00000E+00
    0.50139E+00         0.18512E-01         0.00000E+00
    0.49437E+00         0.20942E-01         0.00000E+00
    0.48683E+00         0.23247E-01         0.00000E+00
    0.47880E+00         0.25422E-01         0.00000E+00
    0.47030E+00         0.27463E-01         0.00000E+00
    0.46136E+00         0.29364E-01         0.00000E+00
    0.45200E+00         0.31122E-01         0.00000E+00
    0.44225E+00         0.32735E-01         0.00000E+00
    0.43213E+00         0.34200E-01         0.00000E+00
    0.42166E+00         0.35514E-01         0.00000E+00
    0.41088E+00         0.36677E-01         0.00000E+00
    0.39979E+00         0.37686E-01         0.00000E+00
    0.38843E+00         0.38542E-01         0.00000E+00
    0.37681E+00         0.39244E-01         0.00000E+00
    0.36496E+00         0.39792E-01         0.00000E+00
    0.35290E+00         0.40187E-01         0.00000E+00
    0.34063E+00         0.40428E-01         0.00000E+00
    0.32820E+00         0.40517E-01         0.00000E+00
    0.31560E+00         0.40455E-01         0.00000E+00
    0.30287E+00         0.40244E-01         0.00000E+00
    0.29001E+00         0.39884E-01         0.00000E+00
    0.27705E+00         0.39379E-01         0.00000E+00
    0.26399E+00         0.38730E-01         0.00000E+00
    0.25086E+00         0.37938E-01         0.00000E+00
    0.23766E+00         0.37008E-01         0.00000E+00
    0.22441E+00         0.35940E-01         0.00000E+00
    0.21113E+00         0.34739E-01         0.00000E+00
    0.19781E+00         0.33406E-01         0.00000E+00
    0.18448E+00         0.31946E-01         0.00000E+00
    0.17115E+00         0.30360E-01         0.00000E+00
    0.15781E+00         0.28653E-01         0.00000E+00
    0.14449E+00         0.26827E-01         0.00000E+00
    0.13118E+00         0.24887E-01         0.00000E+00
    0.11790E+00         0.22836E-01         0.00000E+00
    0.10465E+00         0.20677E-01         0.00000E+00
    0.91428E-01         0.18415E-01         0.00000E+00
    0.78246E-01         0.16053E-01         0.00000E+00
    0.65104E-01         0.13595E-01         0.00000E+00
    0.52003E-01         0.11044E-01         0.00000E+00
    0.38944E-01         0.84059E-02         0.00000E+00
    0.25925E-01         0.56832E-02         0.00000E+00
    0.12944E-01         0.28800E-02         0.00000E+00
    0.00000E+00         0.00000E+00         0.00000E+00
    0.60323E+00        -0.14323E-01         0.00000E+00
    0.60034E+00        -0.10742E-01         0.00000E+00
    0.59662E+00        -0.72305E-02         0.00000E+00
    0.59211E+00        -0.38018E-02         0.00000E+00
    0.58683E+00        -0.46707E-03         0.00000E+00
    0.58082E+00         0.27635E-02         0.00000E+00
    0.57413E+00         0.58809E-02         0.00000E+00
    0.56677E+00         0.88767E-02         0.00000E+00
    0.55879E+00         0.11744E-01         0.00000E+00
    0.55021E+00         0.14476E-01         0.00000E+00
    0.54108E+00         0.17067E-01         0.00000E+00
    0.53141E+00         0.19513E-01         0.00000E+00
    0.52125E+00         0.21809E-01         0.00000E+00
    0.51063E+00         0.23952E-01         0.00000E+00
    0.49956E+00         0.25940E-01         0.00000E+00
    0.48809E+00         0.27769E-01         0.00000E+00
    0.47625E+00         0.29440E-01         0.00000E+00
    0.46405E+00         0.30949E-01         0.00000E+00
    0.45154E+00         0.32298E-01         0.00000E+00
    0.43872E+00         0.33485E-01         0.00000E+00
    0.42564E+00         0.34510E-01         0.00000E+00
    0.41231E+00         0.35374E-01         0.00000E+00
    0.39876E+00         0.36079E-01         0.00000E+00
    0.38501E+00         0.36623E-01         0.00000E+00
    0.37109E+00         0.37010E-01         0.00000E+00
    0.35701E+00         0.37241E-01         0.00000E+00
    0.34279E+00         0.37317E-01         0.00000E+00
    0.32847E+00         0.37240E-01         0.00000E+00
    0.31404E+00         0.37012E-01         0.00000E+00
    0.29954E+00         0.36636E-01         0.00000E+00
    0.28498E+00         0.36113E-01         0.00000E+00
    0.27038E+00         0.35448E-01         0.00000E+00
    0.25575E+00         0.34641E-01         0.00000E+00
    0.24110E+00         0.33696E-01         0.00000E+00
    0.22646E+00         0.32617E-01         0.00000E+00
    0.21183E+00         0.31406E-01         0.00000E+00
    0.19723E+00         0.30066E-01         0.00000E+00
    0.18266E+00         0.28601E-01         0.00000E+00
    0.16814E+00         0.27015E-01         0.00000E+00
    0.15368E+00         0.25311E-01         0.00000E+00
    0.13928E+00         0.23493E-01         0.00000E+00
    0.12496E+00         0.21566E-01         0.00000E+00
    0.11071E+00         0.19532E-01         0.00000E+00
    0.96553E-01         0.17397E-01         0.00000E+00
    0.82481E-01         0.15165E-01         0.00000E+00
    0.68501E-01         0.12841E-01         0.00000E+00
    0.54615E-01         0.10429E-01         0.00000E+00
    0.40822E-01         0.79342E-02         0.00000E+00
    0.27124E-01         0.53611E-02         0.00000E+00
    0.13518E-01         0.27147E-02         0.00000E+00
    0.00000E+00         0.00000E+00         0.00000E+00
    0.68050E+00        -0.29795E-01         0.00000E+00
    0.67622E+00        -0.25714E-01         0.00000E+00
    0.67102E+00        -0.21726E-01         0.00000E+00
    0.66493E+00        -0.17842E-01         0.00000E+00
    0.65801E+00        -0.14074E-01         0.00000E+00
    0.65029E+00        -0.10429E-01         0.00000E+00
    0.64181E+00        -0.69183E-02         0.00000E+00
    0.63262E+00        -0.35474E-02         0.00000E+00
    0.62276E+00        -0.32295E-03         0.00000E+00
    0.61227E+00         0.27498E-02         0.00000E+00
    0.60119E+00         0.56667E-02         0.00000E+00
    0.58955E+00         0.84243E-02         0.00000E+00
    0.57740E+00         0.11020E-01         0.00000E+00
    0.56477E+00         0.13451E-01         0.00000E+00
    0.55169E+00         0.15718E-01         0.00000E+00
    0.53821E+00         0.17818E-01         0.00000E+00
    0.52435E+00         0.19752E-01         0.00000E+00
    0.51014E+00         0.21520E-01         0.00000E+00
    0.49563E+00         0.23122E-01         0.00000E+00
    0.48083E+00         0.24560E-01         0.00000E+00
    0.46578E+00         0.25835E-01         0.00000E+00
    0.45050E+00         0.26948E-01         0.00000E+00
    0.43503E+00         0.27901E-01         0.00000E+00
    0.41938E+00         0.28695E-01         0.00000E+00
    0.40359E+00         0.29333E-01         0.00000E+00
    0.38767E+00         0.29817E-01         0.00000E+00
    0.37165E+00         0.30149E-01         0.00000E+00
    0.35555E+00         0.30331E-01         0.00000E+00
    0.33940E+00         0.30366E-01         0.00000E+00
    0.32320E+00         0.30257E-01         0.00000E+00
    0.30699E+00         0.30005E-01         0.00000E+00
    0.29077E+00         0.29613E-01         0.00000E+00
    0.27457E+00         0.29084E-01         0.00000E+00
    0.25841E+00         0.28421E-01         0.00000E+00
    0.24229E+00         0.27626E-01         0.00000E+00
    0.22623E+00         0.26703E-01         0.00000E+00
    0.21026E+00         0.25654E-01         0.00000E+00
    0.19437E+00         0.24483E-01         0.00000E+00
    0.17858E+00         0.23194E-01         0.00000E+00
    0.16290E+00         0.21789E-01         0.00000E+00
    0.14735E+00         0.20273E-01         0.00000E+00
    0.13193E+00         0.18650E-01         0.00000E+00
    0.11665E+00         0.16923E-01         0.00000E+00
    0.10151E+00         0.15098E-01         0.00000E+00
    0.86532E-01         0.13180E-01         0.00000E+00
    0.71707E-01         0.11173E-01         0.00000E+00
    0.57042E-01         0.90818E-02         0.00000E+00
    0.42539E-01         0.69133E-02         0.00000E+00
    0.28199E-01         0.46727E-02         0.00000E+00
    0.14020E-01         0.23662E-02         0.00000E+00
    0.00000E+00         0.00000E+00         0.00000E+00
    0.76854E+00        -0.53106E-01         0.00000E+00
    0.76239E+00        -0.48471E-01         0.00000E+00
    0.75522E+00        -0.43955E-01         0.00000E+00
    0.74708E+00        -0.39569E-01         0.00000E+00
    0.73804E+00        -0.35323E-01         0.00000E+00
    0.72813E+00        -0.31225E-01         0.00000E+00
    0.71742E+00        -0.27281E-01         0.00000E+00
    0.70596E+00        -0.23496E-01         0.00000E+00
    0.69379E+00        -0.19875E-01         0.00000E+00
    0.68096E+00        -0.16420E-01         0.00000E+00
    0.66753E+00        -0.13135E-01         0.00000E+00
    0.65353E+00        -0.10018E-01         0.00000E+00
    0.63901E+00        -0.70724E-02         0.00000E+00
    0.62402E+00        -0.42961E-02         0.00000E+00
    0.60859E+00        -0.16887E-02         0.00000E+00
    0.59276E+00         0.75135E-03         0.00000E+00
    0.57658E+00         0.30258E-02         0.00000E+00
    0.56007E+00         0.51369E-02         0.00000E+00
    0.54328E+00         0.70870E-02         0.00000E+00
    0.52623E+00         0.88789E-02         0.00000E+00
    0.50897E+00         0.10515E-01         0.00000E+00
    0.49151E+00         0.11999E-01         0.00000E+00
    0.47389E+00         0.13332E-01         0.00000E+00
    0.45613E+00         0.14519E-01         0.00000E+00
    0.43827E+00         0.15561E-01         0.00000E+00
    0.42032E+00         0.16462E-01         0.00000E+00
    0.40232E+00         0.17223E-01         0.00000E+00
    0.38428E+00         0.17848E-01         0.00000E+00
    0.36623E+00         0.18338E-01         0.00000E+00
    0.34819E+00         0.18696E-01         0.00000E+00
    0.33018E+00         0.18924E-01         0.00000E+00
    0.31221E+00         0.19025E-01         0.00000E+00
    0.29431E+00         0.18999E-01         0.00000E+00
    0.27650E+00         0.18849E-01         0.00000E+00
    0.25879E+00         0.18578E-01         0.00000E+00
    0.24120E+00         0.18186E-01         0.00000E+00
    0.22374E+00         0.17677E-01         0.00000E+00
    0.20643E+00         0.17052E-01         0.00000E+00
    0.18928E+00         0.16315E-01         0.00000E+00
    0.17231E+00         0.15466E-01         0.00000E+00
    0.15552E+00         0.14511E-01         0.00000E+00
    0.13893E+00         0.13452E-01         0.00000E+00
    0.12256E+00         0.12292E-01         0.00000E+00
    0.10640E+00         0.11036E-01         0.00000E+00
    0.90475E-01         0.96884E-02         0.00000E+00
    0.74782E-01         0.82544E-02         0.00000E+00
    0.59330E-01         0.67395E-02         0.00000E+00
    0.44123E-01         0.51496E-02         0.00000E+00
    0.29166E-01         0.34916E-02         0.00000E+00
    0.14458E-01         0.17725E-02         0.00000E+00
    0.00000E+00         0.00000E+00         0.00000E+00
    0.86853E+00        -0.87057E-01         0.00000E+00
    0.85988E+00        -0.81815E-01         0.00000E+00
    0.85012E+00        -0.76725E-01         0.00000E+00
    0.83934E+00        -0.71797E-01         0.00000E+00
    0.82758E+00        -0.67036E-01         0.00000E+00
    0.81493E+00        -0.62448E-01         0.00000E+00
    0.80144E+00        -0.58036E-01         0.00000E+00
    0.78718E+00        -0.53803E-01         0.00000E+00
    0.77220E+00        -0.49748E-01         0.00000E+00
    0.75656E+00        -0.45871E-01         0.00000E+00
    0.74032E+00        -0.42171E-01         0.00000E+00
    0.72353E+00        -0.38645E-01         0.00000E+00
    0.70624E+00        -0.35290E-01         0.00000E+00
    0.68850E+00        -0.32102E-01         0.00000E+00
    0.67035E+00        -0.29077E-01         0.00000E+00
    0.65185E+00        -0.26209E-01         0.00000E+00
    0.63302E+00        -0.23495E-01         0.00000E+00
    0.61392E+00        -0.20928E-01         0.00000E+00
    0.59458E+00        -0.18505E-01         0.00000E+00
    0.57503E+00        -0.16219E-01         0.00000E+00
    0.55531E+00        -0.14067E-01         0.00000E+00
    0.53545E+00        -0.12043E-01         0.00000E+00
    0.51548E+00        -0.10144E-01         0.00000E+00
    0.49543E+00        -0.83647E-02         0.00000E+00
    0.47533E+00        -0.67028E-02         0.00000E+00
    0.45519E+00        -0.51549E-02         0.00000E+00
    0.43505E+00        -0.37184E-02         0.00000E+00
    0.41493E+00        -0.23911E-02         0.00000E+00
    0.39485E+00        -0.11714E-02         0.00000E+00
    0.37484E+00        -0.57788E-04         0.00000E+00
    0.35490E+00         0.95056E-03         0.00000E+00
    0.33507E+00         0.18543E-02         0.00000E+00
    0.31535E+00         0.26538E-02         0.00000E+00
    0.29578E+00         0.33491E-02         0.00000E+00
    0.27637E+00         0.39402E-02         0.00000E+00
    0.25712E+00         0.44270E-02         0.00000E+00
    0.23808E+00         0.48096E-02         0.00000E+00
    0.21924E+00         0.50878E-02         0.00000E+00
    0.20062E+00         0.52620E-02         0.00000E+00
    0.18225E+00         0.53327E-02         0.00000E+00
    0.16414E+00         0.53008E-02         0.00000E+00
    0.14629E+00         0.51678E-02         0.00000E+00
    0.12874E+00         0.49356E-02         0.00000E+00
    0.11148E+00         0.46069E-02         0.00000E+00
    0.94532E-01         0.41850E-02         0.00000E+00
    0.77911E-01         0.36743E-02         0.00000E+00
    0.61625E-01         0.30798E-02         0.00000E+00
    0.45684E-01         0.24076E-02         0.00000E+00
    0.30096E-01         0.16647E-02         0.00000E+00
    0.14866E-01         0.85910E-03         0.00000E+00
    0.00000E+00         0.00000E+00         0.00000E+00
    0.98149E+00        -0.13519E+00         0.00000E+00
    0.96955E+00        -0.12930E+00         0.00000E+00
    0.95646E+00        -0.12360E+00         0.00000E+00
    0.94229E+00        -0.11810E+00         0.00000E+00
    0.92713E+00        -0.11279E+00         0.00000E+00
    0.91106E+00        -0.10769E+00         0.00000E+00
    0.89415E+00        -0.10279E+00         0.00000E+00
    0.87647E+00        -0.98079E-01         0.00000E+00
    0.85811E+00        -0.93560E-01         0.00000E+00
    0.83912E+00        -0.89226E-01         0.00000E+00
    0.81956E+00        -0.85068E-01         0.00000E+00
    0.79951E+00        -0.81079E-01         0.00000E+00
    0.77902E+00        -0.77250E-01         0.00000E+00
    0.75813E+00        -0.73572E-01         0.00000E+00
    0.73691E+00        -0.70035E-01         0.00000E+00
    0.71540E+00        -0.66631E-01         0.00000E+00
    0.69364E+00        -0.63349E-01         0.00000E+00
    0.67168E+00        -0.60181E-01         0.00000E+00
    0.64955E+00        -0.57117E-01         0.00000E+00
    0.62729E+00        -0.54151E-01         0.00000E+00
    0.60493E+00        -0.51273E-01         0.00000E+00
    0.58250E+00        -0.48478E-01         0.00000E+00
    0.56004E+00        -0.45759E-01         0.00000E+00
    0.53756E+00        -0.43112E-01         0.00000E+00
    0.51510E+00        -0.40533E-01         0.00000E+00
    0.49267E+00        -0.38018E-01         0.00000E+00
    0.47031E+00        -0.35565E-01         0.00000E+00
    0.44802E+00        -0.33173E-01         0.00000E+00
    0.42582E+00        -0.30843E-01         0.00000E+00
    0.40375E+00        -0.28574E-01         0.00000E+00
    0.38181E+00        -0.26368E-01         0.00000E+00
    0.36002E+00        -0.24227E-01         0.00000E+00
    0.33841E+00        -0.22155E-01         0.00000E+00
    0.31699E+00        -0.20154E-01         0.00000E+00
    0.29577E+00        -0.18228E-01         0.00000E+00
    0.27478E+00        -0.16382E-01         0.00000E+00
    0.25404E+00        -0.14619E-01         0.00000E+00
    0.23356E+00        -0.12944E-01         0.00000E+00
    0.21336E+00        -0.11360E-01         0.00000E+00
    0.19346E+00        -0.98725E-02         0.00000E+00
    0.17388E+00        -0.84829E-02         0.00000E+00
    0.15464E+00        -0.71943E-02         0.00000E+00
    0.13576E+00        -0.60082E-02         0.00000E+00
    0.11726E+00        -0.49252E-02         0.00000E+00
    0.99164E-01        -0.39447E-02         0.00000E+00
    0.81485E-01        -0.30648E-02         0.00000E+00
    0.64244E-01        -0.22822E-02         0.00000E+00
    0.47459E-01        -0.15918E-02         0.00000E+00
    0.31147E-01        -0.98726E-03         0.00000E+00
    0.15323E-01        -0.46004E-03         0.00000E+00
    0.00000E+00         0.00000E+00         0.00000E+00
    0.11082E+01        -0.20193E+00         0.00000E+00
    0.10920E+01        -0.19536E+00         0.00000E+00
    0.10747E+01        -0.18903E+00         0.00000E+00
    0.10562E+01        -0.18295E+00         0.00000E+00
    0.10368E+01        -0.17710E+00         0.00000E+00
    0.10165E+01        -0.17147E+00         0.00000E+00
    0.99544E+00        -0.16607E+00         0.00000E+00
    0.97365E+00        -0.16087E+00         0.00000E+00
    0.95125E+00        -0.15587E+00         0.00000E+00
    0.92832E+00        -0.15106E+00         0.00000E+00
    0.90491E+00        -0.14640E+00         0.00000E+00
    0.88111E+00        -0.14189E+00         0.00000E+00
    0.85698E+00        -0.13752E+00         0.00000E+00
    0.83257E+00        -0.13326E+00         0.00000E+00
    0.80794E+00        -0.12910E+00         0.00000E+00
    0.78314E+00        -0.12502E+00         0.00000E+00
    0.75820E+00        -0.12101E+00         0.00000E+00
    0.73318E+00        -0.11705E+00         0.00000E+00
    0.70811E+00        -0.11312E+00         0.00000E+00
    0.68301E+00        -0.10923E+00         0.00000E+00
    0.65792E+00        -0.10534E+00         0.00000E+00
    0.63287E+00        -0.10146E+00         0.00000E+00
    0.60787E+00        -0.97584E-01         0.00000E+00
    0.58295E+00        -0.93694E-01         0.00000E+00
    0.55812E+00        -0.89792E-01         0.00000E+00
    0.53340E+00        -0.85874E-01         0.00000E+00
    0.50881E+00        -0.81940E-01         0.00000E+00
    0.48436E+00        -0.77991E-01         0.00000E+00
    0.46007E+00        -0.74029E-01         0.00000E+00
    0.43595E+00        -0.70059E-01         0.00000E+00
    0.41200E+00        -0.66086E-01         0.00000E+00
    0.38825E+00        -0.62118E-01         0.00000E+00
    0.36471E+00        -0.58163E-01         0.00000E+00
    0.34139E+00        -0.54229E-01         0.00000E+00
    0.31832E+00        -0.50328E-01         0.00000E+00
    0.29549E+00        -0.46469E-01         0.00000E+00
    0.27295E+00        -0.42664E-01         0.00000E+00
    0.25070E+00        -0.38924E-01         0.00000E+00
    0.22876E+00        -0.35260E-01         0.00000E+00
    0.20717E+00        -0.31684E-01         0.00000E+00
    0.18594E+00        -0.28205E-01         0.00000E+00
    0.16510E+00        -0.24832E-01         0.00000E+00
    0.14468E+00        -0.21574E-01         0.00000E+00
    0.12470E+00        -0.18437E-01         0.00000E+00
    0.10521E+00        -0.15426E-01         0.00000E+00
    0.86217E-01        -0.12544E-01         0.00000E+00
    0.67769E-01        -0.97917E-02         0.00000E+00
    0.49892E-01        -0.71672E-02         0.00000E+00
    0.32618E-01        -0.46659E-02         0.00000E+00
    0.15978E-01        -0.22803E-02         0.00000E+00
    0.00000E+00         0.00000E+00         0.00000E+00
    0.12492E+01        -0.29280E+00         0.00000E+00
    0.12275E+01        -0.28554E+00         0.00000E+00
    0.12047E+01        -0.27859E+00         0.00000E+00
    0.11809E+01        -0.27193E+00         0.00000E+00
    0.11563E+01        -0.26555E+00         0.00000E+00
    0.11308E+01        -0.25943E+00         0.00000E+00
    0.11047E+01        -0.25354E+00         0.00000E+00
    0.10780E+01        -0.24787E+00         0.00000E+00
    0.10508E+01        -0.24239E+00         0.00000E+00
    0.10233E+01        -0.23707E+00         0.00000E+00
    0.99548E+00        -0.23189E+00         0.00000E+00
    0.96746E+00        -0.22681E+00         0.00000E+00
    0.93929E+00        -0.22181E+00         0.00000E+00
    0.91103E+00        -0.21686E+00         0.00000E+00
    0.88274E+00        -0.21193E+00         0.00000E+00
    0.85447E+00        -0.20699E+00         0.00000E+00
    0.82624E+00        -0.20203E+00         0.00000E+00
    0.79809E+00        -0.19702E+00         0.00000E+00
    0.77006E+00        -0.19194E+00         0.00000E+00
    0.74217E+00        -0.18677E+00         0.00000E+00
    0.71442E+00        -0.18150E+00         0.00000E+00
    0.68684E+00        -0.17612E+00         0.00000E+00
    0.65944E+00        -0.17061E+00         0.00000E+00
    0.63223E+00        -0.16497E+00         0.00000E+00
    0.60521E+00        -0.15920E+00         0.00000E+00
    0.57838E+00        -0.15329E+00         0.00000E+00
    0.55174E+00        -0.14725E+00         0.00000E+00
    0.52531E+00        -0.14108E+00         0.00000E+00
    0.49908E+00        -0.13479E+00         0.00000E+00
    0.47305E+00        -0.12839E+00         0.00000E+00
    0.44722E+00        -0.12190E+00         0.00000E+00
    0.42160E+00        -0.11532E+00         0.00000E+00
    0.39620E+00        -0.10867E+00         0.00000E+00
    0.37102E+00        -0.10197E+00         0.00000E+00
    0.34608E+00        -0.95241E-01         0.00000E+00
    0.32138E+00        -0.88505E-01         0.00000E+00
    0.29694E+00        -0.81783E-01         0.00000E+00
    0.27279E+00        -0.75096E-01         0.00000E+00
    0.24894E+00        -0.68468E-01         0.00000E+00
    0.22543E+00        -0.61919E-01         0.00000E+00
    0.20228E+00        -0.55472E-01         0.00000E+00
    0.17953E+00        -0.49148E-01         0.00000E+00
    0.15721E+00        -0.42965E-01         0.00000E+00
    0.13537E+00        -0.36940E-01         0.00000E+00
    0.11406E+00        -0.31087E-01         0.00000E+00
    0.93313E-01        -0.25420E-01         0.00000E+00
    0.73192E-01        -0.19945E-01         0.00000E+00
    0.53745E-01        -0.14667E-01         0.00000E+00
    0.35027E-01        -0.95874E-02         0.00000E+00
    0.17094E-01        -0.47013E-02         0.00000E+00
    0.00000E+00         0.00000E+00         0.00000E+00
    0.14042E+01        -0.41469E+00         0.00000E+00
    0.13756E+01        -0.40677E+00         0.00000E+00
    0.13459E+01        -0.39923E+00         0.00000E+00
    0.13154E+01        -0.39204E+00         0.00000E+00
    0.12842E+01        -0.38518E+00         0.00000E+00
    0.12524E+01        -0.37861E+00         0.00000E+00
    0.12203E+01        -0.37229E+00         0.00000E+00
    0.11878E+01        -0.36618E+00         0.00000E+00
    0.11551E+01        -0.36023E+00         0.00000E+00
    0.11223E+01        -0.35440E+00         0.00000E+00
    0.10896E+01        -0.34864E+00         0.00000E+00
    0.10569E+01        -0.34291E+00         0.00000E+00
    0.10244E+01        -0.33717E+00         0.00000E+00
    0.99215E+00        -0.33136E+00         0.00000E+00
    0.96012E+00        -0.32545E+00         0.00000E+00
    0.92837E+00        -0.31940E+00         0.00000E+00
    0.89694E+00        -0.31317E+00         0.00000E+00
    0.86584E+00        -0.30675E+00         0.00000E+00
    0.83509E+00        -0.30009E+00         0.00000E+00
    0.80468E+00        -0.29317E+00         0.00000E+00
    0.77461E+00        -0.28599E+00         0.00000E+00
    0.74489E+00        -0.27851E+00         0.00000E+00
    0.71549E+00        -0.27074E+00         0.00000E+00
    0.68641E+00        -0.26267E+00         0.00000E+00
    0.65762E+00        -0.25429E+00         0.00000E+00
    0.62911E+00        -0.24561E+00         0.00000E+00
    0.60086E+00        -0.23663E+00         0.00000E+00
    0.57285E+00        -0.22737E+00         0.00000E+00
    0.54506E+00        -0.21785E+00         0.00000E+00
    0.51748E+00        -0.20807E+00         0.00000E+00
    0.49008E+00        -0.19806E+00         0.00000E+00
    0.46287E+00        -0.18785E+00         0.00000E+00
    0.43582E+00        -0.17746E+00         0.00000E+00
    0.40893E+00        -0.16693E+00         0.00000E+00
    0.38221E+00        -0.15628E+00         0.00000E+00
    0.35565E+00        -0.14556E+00         0.00000E+00
    0.32928E+00        -0.13480E+00         0.00000E+00
    0.30309E+00        -0.12404E+00         0.00000E+00
    0.27712E+00        -0.11331E+00         0.00000E+00
    0.25139E+00        -0.10266E+00         0.00000E+00
    0.22595E+00        -0.92126E-01         0.00000E+00
    0.20083E+00        -0.81742E-01         0.00000E+00
    0.17609E+00        -0.71546E-01         0.00000E+00
    0.15177E+00        -0.61573E-01         0.00000E+00
    0.12796E+00        -0.51852E-01         0.00000E+00
    0.10472E+00        -0.42413E-01         0.00000E+00
    0.82125E-01        -0.33275E-01         0.00000E+00
    0.60265E-01        -0.24458E-01         0.00000E+00
    0.39228E-01        -0.15972E-01         0.00000E+00
    0.19107E-01        -0.78200E-02         0.00000E+00
    0.00000E+00         0.00000E+00         0.00000E+00
    0.15723E+01        -0.57651E+00         0.00000E+00
    0.15347E+01        -0.56795E+00         0.00000E+00
    0.14963E+01        -0.55987E+00         0.00000E+00
    0.14574E+01        -0.55222E+00         0.00000E+00
    0.14182E+01        -0.54495E+00         0.00000E+00
    0.13788E+01        -0.53800E+00         0.00000E+00
    0.13393E+01        -0.53129E+00         0.00000E+00
    0.13001E+01        -0.52476E+00         0.00000E+00
    0.12611E+01        -0.51833E+00         0.00000E+00
    0.12225E+01        -0.51193E+00         0.00000E+00
    0.11845E+01        -0.50549E+00         0.00000E+00
    0.11469E+01        -0.49893E+00         0.00000E+00
    0.11100E+01        -0.49220E+00         0.00000E+00
    0.10738E+01        -0.48523E+00         0.00000E+00
    0.10382E+01        -0.47797E+00         0.00000E+00
    0.10033E+01        -0.47036E+00         0.00000E+00
    0.96912E+00        -0.46237E+00         0.00000E+00
    0.93560E+00        -0.45395E+00         0.00000E+00
    0.90272E+00        -0.44506E+00         0.00000E+00
    0.87047E+00        -0.43570E+00         0.00000E+00
    0.83881E+00        -0.42582E+00         0.00000E+00
    0.80769E+00        -0.41543E+00         0.00000E+00
    0.77708E+00        -0.40451E+00         0.00000E+00
    0.74692E+00        -0.39306E+00         0.00000E+00
    0.71716E+00        -0.38109E+00         0.00000E+00
    0.68775E+00        -0.36860E+00         0.00000E+00
    0.65864E+00        -0.35561E+00         0.00000E+00
    0.62978E+00        -0.34215E+00         0.00000E+00
    0.60112E+00        -0.32822E+00         0.00000E+00
    0.57262E+00        -0.31387E+00         0.00000E+00
    0.54423E+00        -0.29912E+00         0.00000E+00
    0.51592E+00        -0.28402E+00         0.00000E+00
    0.48765E+00        -0.26861E+00         0.00000E+00
    0.45940E+00        -0.25292E+00         0.00000E+00
    0.43114E+00        -0.23703E+00         0.00000E+00
    0.40286E+00        -0.22096E+00         0.00000E+00
    0.37456E+00        -0.20479E+00         0.00000E+00
    0.34625E+00        -0.18857E+00         0.00000E+00
    0.31794E+00        -0.17235E+00         0.00000E+00
    0.28965E+00        -0.15621E+00         0.00000E+00
    0.26143E+00        -0.14020E+00         0.00000E+00
    0.23332E+00        -0.12439E+00         0.00000E+00
    0.20538E+00        -0.10884E+00         0.00000E+00
    0.17769E+00        -0.93602E-01         0.00000E+00
    0.15035E+00        -0.78744E-01         0.00000E+00
    0.12344E+00        -0.64314E-01         0.00000E+00
    0.97093E-01        -0.50361E-01         0.00000E+00
    0.71428E-01        -0.36926E-01         0.00000E+00
    0.46589E-01        -0.24040E-01         0.00000E+00
    0.22726E-01        -0.11728E-01         0.00000E+00
    0.00000E+00         0.00000E+00         0.00000E+00
    0.17508E+01        -0.79028E+00         0.00000E+00
    0.17016E+01        -0.78105E+00         0.00000E+00
    0.16520E+01        -0.77244E+00         0.00000E+00
    0.16025E+01        -0.76436E+00         0.00000E+00
    0.15533E+01        -0.75670E+00         0.00000E+00
    0.15047E+01        -0.74935E+00         0.00000E+00
    0.14568E+01        -0.74219E+00         0.00000E+00
    0.14098E+01        -0.73512E+00         0.00000E+00
    0.13639E+01        -0.72801E+00         0.00000E+00
    0.13192E+01        -0.72075E+00         0.00000E+00
    0.12756E+01        -0.71325E+00         0.00000E+00
    0.12334E+01        -0.70541E+00         0.00000E+00
    0.11924E+01        -0.69714E+00         0.00000E+00
    0.11527E+01        -0.68836E+00         0.00000E+00
    0.11143E+01        -0.67901E+00         0.00000E+00
    0.10772E+01        -0.66902E+00         0.00000E+00
    0.10411E+01        -0.65834E+00         0.00000E+00
    0.10062E+01        -0.64695E+00         0.00000E+00
    0.97238E+00        -0.63479E+00         0.00000E+00
    0.93947E+00        -0.62186E+00         0.00000E+00
    0.90743E+00        -0.60814E+00         0.00000E+00
    0.87616E+00        -0.59362E+00         0.00000E+00
    0.84557E+00        -0.57830E+00         0.00000E+00
    0.81557E+00        -0.56220E+00         0.00000E+00
    0.78606E+00        -0.54532E+00         0.00000E+00
    0.75695E+00        -0.52768E+00         0.00000E+00
    0.72813E+00        -0.50931E+00         0.00000E+00
    0.69953E+00        -0.49024E+00         0.00000E+00
    0.67104E+00        -0.47051E+00         0.00000E+00
    0.64260E+00        -0.45016E+00         0.00000E+00
    0.61411E+00        -0.42923E+00         0.00000E+00
    0.58551E+00        -0.40778E+00         0.00000E+00
    0.55672E+00        -0.38586E+00         0.00000E+00
    0.52770E+00        -0.36352E+00         0.00000E+00
    0.49837E+00        -0.34085E+00         0.00000E+00
    0.46871E+00        -0.31790E+00         0.00000E+00
    0.43869E+00        -0.29476E+00         0.00000E+00
    0.40827E+00        -0.27150E+00         0.00000E+00
    0.37747E+00        -0.24821E+00         0.00000E+00
    0.34628E+00        -0.22498E+00         0.00000E+00
    0.31473E+00        -0.20189E+00         0.00000E+00
    0.28287E+00        -0.17905E+00         0.00000E+00
    0.25076E+00        -0.15655E+00         0.00000E+00
    0.21848E+00        -0.13448E+00         0.00000E+00
    0.18615E+00        -0.11296E+00         0.00000E+00
    0.15389E+00        -0.92066E-01         0.00000E+00
    0.12186E+00        -0.71897E-01         0.00000E+00
    0.90235E-01        -0.52536E-01         0.00000E+00
    0.59226E-01        -0.34060E-01         0.00000E+00
    0.29063E-01        -0.16532E-01         0.00000E+00
    0.00000E+00         0.00000E+00         0.00000E+00
    0.19337E+01        -0.10732E+01         0.00000E+00
    0.18688E+01        -0.10631E+01         0.00000E+00
    0.18048E+01        -0.10537E+01         0.00000E+00
    0.17419E+01        -0.10449E+01         0.00000E+00
    0.16806E+01        -0.10365E+01         0.00000E+00
    0.16211E+01        -0.10283E+01         0.00000E+00
    0.15636E+01        -0.10202E+01         0.00000E+00
    0.15083E+01        -0.10119E+01         0.00000E+00
    0.14553E+01        -0.10034E+01         0.00000E+00
    0.14046E+01        -0.99434E+00         0.00000E+00
    0.13562E+01        -0.98472E+00         0.00000E+00
    0.13101E+01        -0.97441E+00         0.00000E+00
    0.12662E+01        -0.96329E+00         0.00000E+00
    0.12244E+01        -0.95128E+00         0.00000E+00
    0.11846E+01        -0.93832E+00         0.00000E+00
    0.11467E+01        -0.92435E+00         0.00000E+00
    0.11105E+01        -0.90934E+00         0.00000E+00
    0.10760E+01        -0.89326E+00         0.00000E+00
    0.10429E+01        -0.87610E+00         0.00000E+00
    0.10111E+01        -0.85785E+00         0.00000E+00
    0.98043E+00        -0.83851E+00         0.00000E+00
    0.95075E+00        -0.81811E+00         0.00000E+00
    0.92191E+00        -0.79665E+00         0.00000E+00
    0.89374E+00        -0.77415E+00         0.00000E+00
    0.86611E+00        -0.75066E+00         0.00000E+00
    0.83886E+00        -0.72620E+00         0.00000E+00
    0.81186E+00        -0.70081E+00         0.00000E+00
    0.78497E+00        -0.67453E+00         0.00000E+00
    0.75804E+00        -0.64742E+00         0.00000E+00
    0.73097E+00        -0.61950E+00         0.00000E+00
    0.70361E+00        -0.59086E+00         0.00000E+00
    0.67586E+00        -0.56153E+00         0.00000E+00
    0.64760E+00        -0.53158E+00         0.00000E+00
    0.61872E+00        -0.50109E+00         0.00000E+00
    0.58913E+00        -0.47013E+00         0.00000E+00
    0.55875E+00        -0.43877E+00         0.00000E+00
    0.52748E+00        -0.40711E+00         0.00000E+00
    0.49528E+00        -0.37524E+00         0.00000E+00
    0.46207E+00        -0.34326E+00         0.00000E+00
    0.42784E+00        -0.31129E+00         0.00000E+00
    0.39257E+00        -0.27945E+00         0.00000E+00
    0.35626E+00        -0.24786E+00         0.00000E+00
    0.31895E+00        -0.21668E+00         0.00000E+00
    0.28071E+00        -0.18604E+00         0.00000E+00
    0.24162E+00        -0.15609E+00         0.00000E+00
    0.20183E+00        -0.12701E+00         0.00000E+00
    0.16150E+00        -0.98939E-01         0.00000E+00
    0.12086E+00        -0.72052E-01         0.00000E+00
    0.80178E-01        -0.46503E-01         0.00000E+00
    0.39766E-01        -0.22439E-01         0.00000E+00
    0.00000E+00         0.00000E+00         0.00000E+00
    0.21058E+01        -0.14506E+01         0.00000E+00
    0.20201E+01        -0.14383E+01         0.00000E+00
    0.19373E+01        -0.14269E+01         0.00000E+00
    0.18580E+01        -0.14161E+01         0.00000E+00
    0.17826E+01        -0.14056E+01         0.00000E+00
    0.17112E+01        -0.13950E+01         0.00000E+00
    0.16438E+01        -0.13841E+01         0.00000E+00
    0.15807E+01        -0.13727E+01         0.00000E+00
    0.15215E+01        -0.13604E+01         0.00000E+00
    0.14663E+01        -0.13472E+01         0.00000E+00
    0.14149E+01        -0.13329E+01         0.00000E+00
    0.13670E+01        -0.13175E+01         0.00000E+00
    0.13224E+01        -0.13007E+01         0.00000E+00
    0.12809E+01        -0.12826E+01         0.00000E+00
    0.12422E+01        -0.12631E+01         0.00000E+00
    0.12060E+01        -0.12423E+01         0.00000E+00
    0.11722E+01        -0.12201E+01         0.00000E+00
    0.11404E+01        -0.11965E+01         0.00000E+00
    0.11104E+01        -0.11716E+01         0.00000E+00
    0.10820E+01        -0.11453E+01         0.00000E+00
    0.10549E+01        -0.11178E+01         0.00000E+00
    0.10288E+01        -0.10891E+01         0.00000E+00
    0.10037E+01        -0.10592E+01         0.00000E+00
    0.97933E+00        -0.10281E+01         0.00000E+00
    0.95540E+00        -0.99593E+00         0.00000E+00
    0.93178E+00        -0.96272E+00         0.00000E+00
    0.90828E+00        -0.92851E+00         0.00000E+00
    0.88473E+00        -0.89335E+00         0.00000E+00
    0.86094E+00        -0.85728E+00         0.00000E+00
    0.83675E+00        -0.82036E+00         0.00000E+00
    0.81199E+00        -0.78263E+00         0.00000E+00
    0.78651E+00        -0.74414E+00         0.00000E+00
    0.76013E+00        -0.70495E+00         0.00000E+00
    0.73271E+00        -0.66512E+00         0.00000E+00
    0.70408E+00        -0.62472E+00         0.00000E+00
    0.67410E+00        -0.58381E+00         0.00000E+00
    0.64261E+00        -0.54247E+00         0.00000E+00
    0.60947E+00        -0.50080E+00         0.00000E+00
    0.57456E+00        -0.45890E+00         0.00000E+00
    0.53775E+00        -0.41688E+00         0.00000E+00
    0.49893E+00        -0.37489E+00         0.00000E+00
    0.45802E+00        -0.33307E+00         0.00000E+00
    0.41496E+00        -0.29160E+00         0.00000E+00
    0.36972E+00        -0.25067E+00         0.00000E+00
    0.32230E+00        -0.21049E+00         0.00000E+00
    0.27277E+00        -0.17131E+00         0.00000E+00
    0.22124E+00        -0.13338E+00         0.00000E+00
    0.16790E+00        -0.96983E-01         0.00000E+00
    0.11299E+00        -0.62416E-01         0.00000E+00
    0.56881E-01        -0.29990E-01         0.00000E+00
    0.00000E+00         0.00000E+00         0.00000E+00
    0.22317E+01        -0.19561E+01         0.00000E+00
    0.21190E+01        -0.19383E+01         0.00000E+00
    0.20138E+01        -0.19215E+01         0.00000E+00
    0.19163E+01        -0.19049E+01         0.00000E+00
    0.18265E+01        -0.18882E+01         0.00000E+00
    0.17442E+01        -0.18709E+01         0.00000E+00
    0.16690E+01        -0.18526E+01         0.00000E+00
    0.16007E+01        -0.18331E+01         0.00000E+00
    0.15387E+01        -0.18121E+01         0.00000E+00
    0.14826E+01        -0.17896E+01         0.00000E+00
    0.14319E+01        -0.17654E+01         0.00000E+00
    0.13860E+01        -0.17396E+01         0.00000E+00
    0.13445E+01        -0.17120E+01         0.00000E+00
    0.13068E+01        -0.16828E+01         0.00000E+00
    0.12726E+01        -0.16520E+01         0.00000E+00
    0.12414E+01        -0.16196E+01         0.00000E+00
    0.12129E+01        -0.15858E+01         0.00000E+00
    0.11866E+01        -0.15505E+01         0.00000E+00
    0.11622E+01        -0.15140E+01         0.00000E+00
    0.11395E+01        -0.14762E+01         0.00000E+00
    0.11180E+01        -0.14372E+01         0.00000E+00
    0.10976E+01        -0.13971E+01         0.00000E+00
    0.10781E+01        -0.13561E+01         0.00000E+00
    0.10591E+01        -0.13140E+01         0.00000E+00
    0.10405E+01        -0.12710E+01         0.00000E+00
    0.10220E+01        -0.12272E+01         0.00000E+00
    0.10035E+01        -0.11826E+01         0.00000E+00
    0.98467E+00        -0.11371E+01         0.00000E+00
    0.96544E+00        -0.10909E+01         0.00000E+00
    0.94557E+00        -0.10440E+01         0.00000E+00
    0.92488E+00        -0.99645E+00         0.00000E+00
    0.90316E+00        -0.94819E+00         0.00000E+00
    0.88023E+00        -0.89929E+00         0.00000E+00
    0.85586E+00        -0.84977E+00         0.00000E+00
    0.82985E+00        -0.79965E+00         0.00000E+00
    0.80198E+00        -0.74898E+00         0.00000E+00
    0.77202E+00        -0.69778E+00         0.00000E+00
    0.73971E+00        -0.64611E+00         0.00000E+00
    0.70482E+00        -0.59402E+00         0.00000E+00
    0.66708E+00        -0.54161E+00         0.00000E+00
    0.62623E+00        -0.48897E+00         0.00000E+00
    0.58200E+00        -0.43623E+00         0.00000E+00
    0.53413E+00        -0.38356E+00         0.00000E+00
    0.48238E+00        -0.33117E+00         0.00000E+00
    0.42653E+00        -0.27930E+00         0.00000E+00
    0.36639E+00        -0.22826E+00         0.00000E+00
    0.30186E+00        -0.17841E+00         0.00000E+00
    0.23287E+00        -0.13016E+00         0.00000E+00
    0.15944E+00        -0.83969E-01         0.00000E+00
    0.81690E-01        -0.40367E-01         0.00000E+00
    0.00000E+00         0.00000E+00         0.00000E+00
    0.22356E+01        -0.26213E+01         0.00000E+00
    0.20936E+01        -0.25906E+01         0.00000E+00
    0.19668E+01        -0.25602E+01         0.00000E+00
    0.18542E+01        -0.25296E+01         0.00000E+00
    0.17547E+01        -0.24980E+01         0.00000E+00
    0.16674E+01        -0.24649E+01         0.00000E+00
    0.15910E+01        -0.24300E+01         0.00000E+00
    0.15244E+01        -0.23932E+01         0.00000E+00
    0.14663E+01        -0.23543E+01         0.00000E+00
    0.14157E+01        -0.23135E+01         0.00000E+00
    0.13716E+01        -0.22708E+01         0.00000E+00
    0.13331E+01        -0.22263E+01         0.00000E+00
    0.12994E+01        -0.21803E+01         0.00000E+00
    0.12699E+01        -0.21328E+01         0.00000E+00
    0.12438E+01        -0.20840E+01         0.00000E+00
    0.12206E+01        -0.20341E+01         0.00000E+00
    0.12000E+01        -0.19833E+01         0.00000E+00
    0.11814E+01        -0.19315E+01         0.00000E+00
    0.11644E+01        -0.18790E+01         0.00000E+00
    0.11489E+01        -0.18259E+01         0.00000E+00
    0.11344E+01        -0.17722E+01         0.00000E+00
    0.11207E+01        -0.17180E+01         0.00000E+00
    0.11077E+01        -0.16634E+01         0.00000E+00
    0.10949E+01        -0.16084E+01         0.00000E+00
    0.10823E+01        -0.15531E+01         0.00000E+00
    0.10697E+01        -0.14975E+01         0.00000E+00
    0.10569E+01        -0.14415E+01         0.00000E+00
    0.10436E+01        -0.13853E+01         0.00000E+00
    0.10298E+01        -0.13287E+01         0.00000E+00
    0.10152E+01        -0.12719E+01         0.00000E+00
    0.99962E+00        -0.12147E+01         0.00000E+00
    0.98291E+00        -0.11571E+01         0.00000E+00
    0.96485E+00        -0.10992E+01         0.00000E+00
    0.94521E+00        -0.10409E+01         0.00000E+00
    0.92375E+00        -0.98217E+00         0.00000E+00
    0.90018E+00        -0.92294E+00         0.00000E+00
    0.87423E+00        -0.86318E+00         0.00000E+00
    0.84556E+00        -0.80288E+00         0.00000E+00
    0.81379E+00        -0.74199E+00         0.00000E+00
    0.77853E+00        -0.68051E+00         0.00000E+00
    0.73931E+00        -0.61842E+00         0.00000E+00
    0.69563E+00        -0.55576E+00         0.00000E+00
    0.64692E+00        -0.49259E+00         0.00000E+00
    0.59257E+00        -0.42901E+00         0.00000E+00
    0.53194E+00        -0.36519E+00         0.00000E+00
    0.46433E+00        -0.30140E+00         0.00000E+00
    0.38909E+00        -0.23800E+00         0.00000E+00
    0.30557E+00        -0.17549E+00         0.00000E+00
    0.21324E+00        -0.11450E+00         0.00000E+00
    0.11162E+00        -0.55756E-01         0.00000E+00
    0.00000E+00         0.00000E+00         0.00000E+00
    0.19840E+01        -0.34393E+01         0.00000E+00
    0.18238E+01        -0.33827E+01         0.00000E+00
    0.16883E+01        -0.33257E+01         0.00000E+00
    0.15752E+01        -0.32668E+01         0.00000E+00
    0.14816E+01        -0.32055E+01         0.00000E+00
    0.14040E+01        -0.31417E+01         0.00000E+00
    0.13399E+01        -0.30757E+01         0.00000E+00
    0.12867E+01        -0.30077E+01         0.00000E+00
    0.12424E+01        -0.29381E+01         0.00000E+00
    0.12055E+01        -0.28674E+01         0.00000E+00
    0.11746E+01        -0.27958E+01         0.00000E+00
    0.11486E+01        -0.27236E+01         0.00000E+00
    0.11267E+01        -0.26511E+01         0.00000E+00
    0.11081E+01        -0.25785E+01         0.00000E+00
    0.10922E+01        -0.25060E+01         0.00000E+00
    0.10785E+01        -0.24338E+01         0.00000E+00
    0.10666E+01        -0.23619E+01         0.00000E+00
    0.10561E+01        -0.22904E+01         0.00000E+00
    0.10467E+01        -0.22194E+01         0.00000E+00
    0.10382E+01        -0.21490E+01         0.00000E+00
    0.10304E+01        -0.20792E+01         0.00000E+00
    0.10230E+01        -0.20099E+01         0.00000E+00
    0.10159E+01        -0.19412E+01         0.00000E+00
    0.10089E+01        -0.18731E+01         0.00000E+00
    0.10018E+01        -0.18055E+01         0.00000E+00
    0.99463E+00        -0.17384E+01         0.00000E+00
    0.98714E+00        -0.16719E+01         0.00000E+00
    0.97922E+00        -0.16057E+01         0.00000E+00
    0.97074E+00        -0.15400E+01         0.00000E+00
    0.96155E+00        -0.14745E+01         0.00000E+00
    0.95152E+00        -0.14093E+01         0.00000E+00
    0.94047E+00        -0.13443E+01         0.00000E+00
    0.92825E+00        -0.12794E+01         0.00000E+00
    0.91466E+00        -0.12145E+01         0.00000E+00
    0.89947E+00        -0.11494E+01         0.00000E+00
    0.88243E+00        -0.10842E+01         0.00000E+00
    0.86327E+00        -0.10187E+01         0.00000E+00
    0.84164E+00        -0.95266E+00         0.00000E+00
    0.81714E+00        -0.88607E+00         0.00000E+00
    0.78931E+00        -0.81874E+00         0.00000E+00
    0.75760E+00        -0.75053E+00         0.00000E+00
    0.72135E+00        -0.68125E+00         0.00000E+00
    0.67977E+00        -0.61076E+00         0.00000E+00
    0.63192E+00        -0.53890E+00         0.00000E+00
    0.57665E+00        -0.46553E+00         0.00000E+00
    0.51261E+00        -0.39056E+00         0.00000E+00
    0.43820E+00        -0.31401E+00         0.00000E+00
    0.35156E+00        -0.23602E+00         0.00000E+00
    0.25071E+00        -0.15701E+00         0.00000E+00
    0.13379E+00        -0.77822E-01         0.00000E+00
    0.00000E+00         0.00000E+00         0.00000E+00
    0.12930E+01        -0.42950E+01         0.00000E+00
    0.11541E+01        -0.41970E+01         0.00000E+00
    0.10524E+01        -0.40928E+01         0.00000E+00
    0.97604E+00        -0.39847E+01         0.00000E+00
    0.91767E+00        -0.38745E+01         0.00000E+00
    0.87239E+00        -0.37635E+01         0.00000E+00
    0.83685E+00        -0.36528E+01         0.00000E+00
    0.80870E+00        -0.35430E+01         0.00000E+00
    0.78622E+00        -0.34347E+01         0.00000E+00
    0.76814E+00        -0.33283E+01         0.00000E+00
    0.75352E+00        -0.32239E+01         0.00000E+00
    0.74161E+00        -0.31217E+01         0.00000E+00
    0.73185E+00        -0.30217E+01         0.00000E+00
    0.72380E+00        -0.29240E+01         0.00000E+00
    0.71711E+00        -0.28286E+01         0.00000E+00
    0.71149E+00        -0.27354E+01         0.00000E+00
    0.70670E+00        -0.26443E+01         0.00000E+00
    0.70257E+00        -0.25553E+01         0.00000E+00
    0.69894E+00        -0.24684E+01         0.00000E+00
    0.69567E+00        -0.23833E+01         0.00000E+00
    0.69265E+00        -0.23000E+01         0.00000E+00
    0.68979E+00        -0.22185E+01         0.00000E+00
    0.68699E+00        -0.21386E+01         0.00000E+00
    0.68419E+00        -0.20603E+01         0.00000E+00
    0.68130E+00        -0.19833E+01         0.00000E+00
    0.67827E+00        -0.19077E+01         0.00000E+00
    0.67502E+00        -0.18334E+01         0.00000E+00
    0.67149E+00        -0.17602E+01         0.00000E+00
    0.66761E+00        -0.16880E+01         0.00000E+00
    0.66331E+00        -0.16167E+01         0.00000E+00
    0.65851E+00        -0.15463E+01         0.00000E+00
    0.65312E+00        -0.14765E+01         0.00000E+00
    0.64704E+00        -0.14073E+01         0.00000E+00
    0.64016E+00        -0.13386E+01         0.00000E+00
    0.63236E+00        -0.12702E+01         0.00000E+00
    0.62348E+00        -0.12020E+01         0.00000E+00
    0.61333E+00        -0.11338E+01         0.00000E+00
    0.60171E+00        -0.10654E+01         0.00000E+00
    0.58836E+00        -0.99660E+00         0.00000E+00
    0.57294E+00        -0.92721E+00         0.00000E+00
    0.55507E+00        -0.85694E+00         0.00000E+00
    0.53426E+00        -0.78548E+00         0.00000E+00
    0.50989E+00        -0.71246E+00         0.00000E+00
    0.48115E+00        -0.63745E+00         0.00000E+00
    0.44703E+00        -0.55995E+00         0.00000E+00
    0.40614E+00        -0.47935E+00         0.00000E+00
    0.35666E+00        -0.39491E+00         0.00000E+00
    0.29601E+00        -0.30579E+00         0.00000E+00
    0.22053E+00        -0.21098E+00         0.00000E+00
    0.12473E+00        -0.10940E+00         0.00000E+00
    0.00000E+00         0.00000E+00         0.00000E+00
    0.00000E+00        -0.48145E+01         0.00000E+00
    0.00000E+00        -0.46552E+01         0.00000E+00
    0.00000E+00        -0.44970E+01         0.00000E+00
    0.00000E+00        -0.43424E+01         0.00000E+00
    0.00000E+00        -0.41924E+01         0.00000E+00
    0.00000E+00        -0.40473E+01         0.00000E+00
    0.00000E+00        -0.39074E+01         0.00000E+00
    0.00000E+00        -0.37725E+01         0.00000E+00
    0.00000E+00        -0.36425E+01         0.00000E+00
    0.00000E+00        -0.35171E+01         0.00000E+00
    0.00000E+00        -0.33962E+01         0.00000E+00
    0.00000E+00        -0.32794E+01         0.00000E+00
    0.00000E+00        -0.31666E+01         0.00000E+00
    0.00000E+00        -0.30575E+01         0.00000E+00
    0.00000E+00        -0.29520E+01         0.00000E+00
    0.00000E+00        -0.28497E+01         0.00000E+00
    0.00000E+00        -0.27505E+01         0.00000E+00
    0.00000E+00        -0.26543E+01         0.00000E+00
    0.00000E+00        -0.25607E+01         0.00000E+00
    0.00000E+00        -0.24698E+01         0.00000E+00
    0.00000E+00        -0.23812E+01         0.00000E+00
    0.00000E+00        -0.22949E+01         0.00000E+00
    0.00000E+00        -0.22106E+01         0.00000E+00
    0.00000E+00        -0.21283E+01         0.00000E+00
    0.00000E+00        -0.20478E+01         0.00000E+00
    0.00000E+00        -0.19690E+01         0.00000E+00
    0.00000E+00        -0.18918E+01         0.00000E+00
    0.00000E+00        -0.18160E+01         0.00000E+00
    0.00000E+00        -0.17415E+01         0.00000E+00
    0.00000E+00        -0.16682E+01         0.00000E+00
    0.00000E+00        -0.15959E+01         0.00000E+00
    0.00000E+00        -0.15245E+01         0.00000E+00
    0.00000E+00        -0.14540E+01         0.00000E+00
    0.00000E+00        -0.13841E+01         0.00000E+00
    0.00000E+00        -0.13147E+01         0.00000E+00
    0.00000E+00        -0.12457E+01         0.00000E+00
    0.00000E+00        -0.11769E+01         0.00000E+00
    0.00000E+00        -0.11080E+01         0.00000E+00
    0.00000E+00        -0.10390E+01         0.00000E+00
    0.00000E+00        -0.96939E+00         0.00000E+00
    0.00000E+00        -0.89905E+00         0.00000E+00
    0.00000E+00        -0.82757E+00         0.00000E+00
    0.00000E+00        -0.75453E+00         0.00000E+00
    0.00000E+00        -0.67939E+00         0.00000E+00
    0.00000E+00        -0.60150E+00         0.00000E+00
    0.00000E+00        -0.51998E+00         0.00000E+00
    0.00000E+00        -0.43374E+00         0.00000E+00
    0.00000E+00        -0.34125E+00         0.00000E+00
    0.00000E+00        -0.24041E+00         0.00000E+00
    0.00000E+00        -0.12820E+00         0.00000E+00
    0.00000E+00         0.00000E+00         0.00000E+00
CELL_DATA       5000
VECTORS vDarcy double 
    0.73895E-06         0.00000E+00         0.00000E+00
    0.73895E-06        -0.41910E-20         0.00000E+00
    0.73895E-06         0.00000E+00         0.00000E+00
    0.73895E-06         0.93132E-21         0.00000E+00
    0.73895E-06         0.60536E-20         0.00000E+00
    0.73895E-06         0.41910E-20         0.00000E+00
    0.73895E-06        -0.41910E-20         0.00000E+00
    0.73895E-06        -0.41910E-20         0.00000E+00
    0.73895E-06        -0.41910E-20         0.00000E+00
    0.73895E-06         0.00000E+00         0.00000E+00
    0.73895E-06        -0.93132E-20         0.00000E+00
    0.73895E-06        -0.51223E-20         0.00000E+00
    0.73895E-06        -0.69849E-20         0.00000E+00
    0.73895E-06         0.44238E-20         0.00000E+00
    0.73895E-06         0.46566E-21         0.00000E+00
    0.73895E-06         0.00000E+00         0.00000E+00
    0.73895E-06         0.00000E+00         0.00000E+00
    0.73895E-06         0.46566E-20         0.00000E+00
    0.73895E-06         0.00000E+00         0.00000E+00
    0.73895E-06        -0.23283E-20         0.00000E+00
    0.73895E-06         0.23283E-20         0.00000E+00
    0.73895E-06         0.00000E+00         0.00000E+00
    0.73895E-06         0.00000E+00         0.00000E+00
    0.73895E-06         0.51223E-20         0.00000E+00
    0.73895E-06         0.25611E-20         0.00000E+00
    0.73895E-06         0.69849E-21         0.00000E+00
    0.73895E-06         0.16298E-20         0.00000E+00
    0.73895E-06         0.23283E-20         0.00000E+00
    0.73895E-06         0.00000E+00         0.00000E+00
    0.73895E-06         0.00000E+00         0.00000E+00
    0.73895E-06        -0.46566E-20         0.00000E+00
    0.73895E-06         0.93132E-20         0.00000E+00
    0.73895E-06         0.74506E-20         0.00000E+00
    0.73895E-06         0.65193E-20         0.00000E+00
    0.73895E-06         0.27940E-20         0.00000E+00
    0.73895E-06        -0.27940E-20         0.00000E+00
    0.73895E-06         0.00000E+00         0.00000E+00
    0.73895E-06         0.00000E+00         0.00000E+00
    0.73895E-06        -0.65193E-20         0.00000E+00
    0.73895E-06         0.27940E-20         0.00000E+00
    0.73895E-06        -0.93132E-21         0.00000E+00
    0.73895E-06         0.46566E-21         0.00000E+00
    0.73895E-06         0.00000E+00         0.00000E+00
    0.73895E-06        -0.41910E-20         0.00000E+00
    0.73895E-06        -0.23283E-20         0.00000E+00
    0.73895E-06        -0.27940E-20         0.00000E+00
    0.73895E-06         0.46566E-21         0.00000E+00
    0.73895E-06        -0.23283E-20         0.00000E+00
    0.73895E-06         0.00000E+00         0.00000E+00
    0.73895E-06         0.23283E-20         0.00000E+00
    0.58253E-06         0.65193E-20         0.00000E+00
    0.58253E-06         0.79162E-20         0.00000E+00
    0.58253E-06        -0.97789E-20         0.00000E+00
    0.58253E-06        -0.46566E-21         0.00000E+00
    0.58253E-06        -0.46566E-20         0.00000E+00
    0.58253E-06         0.69849E-21         0.00000E+00
    0.58253E-06        -0.67521E-20         0.00000E+00
    0.58253E-06        -0.10710E-19         0.00000E+00
    0.58253E-06        -0.37253E-20         0.00000E+00
    0.58253E-06        -0.88476E-20         0.00000E+00
    0.58253E-06        -0.12107E-19         0.00000E+00
    0.58253E-06        -0.93132E-21         0.00000E+00
    0.58253E-06         0.37253E-20         0.00000E+00
    0.58253E-06         0.10245E-19         0.00000E+00
    0.58253E-06         0.41910E-20         0.00000E+00
    0.58253E-06        -0.18626E-20         0.00000E+00
    0.58253E-06         0.46566E-20         0.00000E+00
    0.58253E-06         0.32596E-20         0.00000E+00
    0.58253E-06         0.51223E-20         0.00000E+00
    0.58253E-06         0.93132E-20         0.00000E+00
    0.58253E-06         0.18626E-20         0.00000E+00
    0.58253E-06        -0.11642E-19         0.00000E+00
    0.58253E-06        -0.97789E-20         0.00000E+00
    0.58253E-06        -0.51223E-20         0.00000E+00
    0.58253E-06        -0.46566E-21         0.00000E+00
    0.58253E-06        -0.65193E-20         0.00000E+00
    0.58253E-06        -0.93132E-21         0.00000E+00
    0.58253E-06        -0.55879E-20         0.00000E+00
    0.58253E-06         0.23283E-20         0.00000E+00
    0.58253E-06         0.12107E-19         0.00000E+00
    0.58253E-06         0.32596E-20         0.00000E+00
    0.58253E-06         0.25611E-19         0.00000E+00
    0.58253E-06         0.16764E-19         0.00000E+00
    0.58253E-06         0.32596E-20         0.00000E+00
    0.58253E-06         0.37253E-20         0.00000E+00
    0.58253E-06        -0.60536E-20         0.00000E+00
    0.58253E-06         0.23283E-20         0.00000E+00
    0.58253E-06         0.27940E-20         0.00000E+00
    0.58253E-06        -0.32596E-20         0.00000E+00
    0.58253E-06         0.10245E-19         0.00000E+00
    0.58253E-06         0.11642E-20         0.00000E+00
    0.58253E-06         0.41910E-20         0.00000E+00
    0.58253E-06        -0.11642E-19         0.00000E+00
    0.58253E-06        -0.15832E-19         0.00000E+00
    0.58253E-06        -0.12107E-19         0.00000E+00
    0.58253E-06        -0.41910E-20         0.00000E+00
    0.58253E-06        -0.46566E-21         0.00000E+00
    0.58253E-06        -0.93132E-20         0.00000E+00
    0.58253E-06         0.00000E+00         0.00000E+00
    0.58253E-06        -0.39581E-20         0.00000E+00
    0.36657E-06        -0.37253E-20         0.00000E+00
    0.36657E-06         0.13970E-20         0.00000E+00
    0.36657E-06        -0.83819E-20         0.00000E+00
    0.36657E-06         0.00000E+00         0.00000E+00
    0.36657E-06        -0.15134E-19         0.00000E+00
    0.36657E-06        -0.60536E-20         0.00000E+00
    0.36657E-06        -0.23982E-19         0.00000E+00
    0.36657E-06        -0.32596E-20         0.00000E+00
    0.36657E-06         0.97789E-20         0.00000E+00
    0.36657E-06         0.15832E-19         0.00000E+00
    0.36657E-06         0.14901E-19         0.00000E+00
    0.36657E-06         0.65193E-20         0.00000E+00
    0.36657E-06         0.10012E-19         0.00000E+00
    0.36657E-06         0.18626E-20         0.00000E+00
    0.36657E-06         0.55879E-20         0.00000E+00
    0.36657E-06        -0.18626E-20         0.00000E+00
    0.36657E-06         0.32596E-20         0.00000E+00
    0.36657E-06         0.79162E-20         0.00000E+00
    0.36657E-06         0.74506E-20         0.00000E+00
    0.36657E-06         0.13970E-19         0.00000E+00
    0.36657E-06        -0.74506E-20         0.00000E+00
    0.36657E-06        -0.18161E-19         0.00000E+00
    0.36657E-06        -0.13039E-19         0.00000E+00
    0.36657E-06        -0.13504E-19         0.00000E+00
    0.36657E-06        -0.55879E-20         0.00000E+00
    0.36657E-06         0.25611E-20         0.00000E+00
    0.36657E-06         0.46566E-20         0.00000E+00
    0.36657E-06        -0.69849E-21         0.00000E+00
    0.36657E-06         0.88476E-20         0.00000E+00
    0.36657E-06         0.22585E-19         0.00000E+00
    0.36657E-06         0.93132E-21         0.00000E+00
    0.36657E-06         0.25844E-19         0.00000E+00
    0.36657E-06         0.13970E-20         0.00000E+00
    0.36657E-06         0.27940E-20         0.00000E+00
    0.36657E-06         0.27940E-20         0.00000E+00
    0.36657E-06        -0.12573E-19         0.00000E+00
    0.36657E-06        -0.12806E-19         0.00000E+00
    0.36657E-06        -0.67521E-20         0.00000E+00
    0.36657E-06        -0.55879E-20         0.00000E+00
    0.36657E-06        -0.41910E-20         0.00000E+00
    0.36657E-06        -0.34925E-20         0.00000E+00
    0.36657E-06        -0.46566E-21         0.00000E+00
    0.36657E-06        -0.60536E-20         0.00000E+00
    0.36657E-06        -0.15600E-19         0.00000E+00
    0.36657E-06        -0.13271E-19         0.00000E+00
    0.36657E-06         0.46566E-21         0.00000E+00
    0.36657E-06         0.60536E-20         0.00000E+00
    0.36657E-06        -0.69849E-21         0.00000E+00
    0.36657E-06        -0.62864E-20         0.00000E+00
    0.36657E-06        -0.79162E-20         0.00000E+00
    0.18806E-06        -0.46566E-20         0.00000E+00
    0.18806E-06        -0.51223E-20         0.00000E+00
    0.18806E-06        -0.51223E-20         0.00000E+00
    0.18806E-06         0.18626E-20         0.00000E+00
    0.18806E-06        -0.27940E-20         0.00000E+00
    0.18806E-06        -0.55879E-20         0.00000E+00
    0.18806E-06         0.13970E-20         0.00000E+00
    0.18806E-06         0.11176E-19         0.00000E+00
    0.18806E-06         0.51223E-20         0.00000E+00
    0.18806E-06         0.23749E-19         0.00000E+00
    0.18806E-06         0.20955E-19         0.00000E+00
    0.18806E-06         0.11642E-19         0.00000E+00
    0.18806E-06         0.14435E-19         0.00000E+00
    0.18806E-06         0.93132E-20         0.00000E+00
    0.18806E-06         0.13970E-19         0.00000E+00
    0.18806E-06         0.69849E-20         0.00000E+00
    0.18806E-06         0.27940E-20         0.00000E+00
    0.18806E-06         0.76834E-20         0.00000E+00
    0.18806E-06         0.53551E-20         0.00000E+00
    0.18806E-06         0.93132E-21         0.00000E+00
    0.18806E-06        -0.19092E-19         0.00000E+00
    0.18806E-06        -0.79162E-20         0.00000E+00
    0.18806E-06         0.55879E-20         0.00000E+00
    0.18806E-06        -0.88476E-20         0.00000E+00
    0.18806E-06         0.11409E-19         0.00000E+00
    0.18806E-06         0.13737E-19         0.00000E+00
    0.18806E-06         0.65193E-20         0.00000E+00
    0.18806E-06         0.27940E-20         0.00000E+00
    0.18806E-06         0.69849E-20         0.00000E+00
    0.18806E-06         0.51223E-20         0.00000E+00
    0.18806E-06        -0.51223E-20         0.00000E+00
    0.18806E-06         0.97789E-20         0.00000E+00
    0.18806E-06        -0.46566E-20         0.00000E+00
    0.18806E-06        -0.97789E-20         0.00000E+00
    0.18806E-06         0.37253E-20         0.00000E+00
    0.18806E-06        -0.14901E-19         0.00000E+00
    0.18806E-06        -0.79162E-20         0.00000E+00
    0.18806E-06        -0.97789E-20         0.00000E+00
    0.18806E-06        -0.27940E-20         0.00000E+00
    0.18806E-06        -0.15367E-19         0.00000E+00
    0.18806E-06        -0.16764E-19         0.00000E+00
    0.18806E-06        -0.18626E-20         0.00000E+00
    0.18806E-06         0.27940E-20         0.00000E+00
    0.18806E-06        -0.10245E-19         0.00000E+00
    0.18806E-06        -0.83819E-20         0.00000E+00
    0.18806E-06        -0.55879E-20         0.00000E+00
    0.18806E-06         0.00000E+00         0.00000E+00
    0.18806E-06         0.46566E-21         0.00000E+00
    0.18806E-06        -0.46566E-21         0.00000E+00
    0.18806E-06         0.13970E-20         0.00000E+00
    0.80691E-07         0.32596E-20         0.00000E+00
    0.80691E-07         0.18626E-20         0.00000E+00
    0.80691E-07         0.37253E-20         0.00000E+00
    0.80691E-07         0.72177E-20         0.00000E+00
    0.80691E-07         0.88476E-20         0.00000E+00
    0.80691E-07         0.65193E-20         0.00000E+00
    0.80691E-07         0.12107E-19         0.00000E+00
    0.80691E-07         0.12107E-19         0.00000E+00
    0.80691E-07        -0.12573E-19         0.00000E+00
    0.80691E-07         0.27940E-20         0.00000E+00
    0.80691E-07         0.11642E-19         0.00000E+00
    0.80691E-07         0.48894E-20         0.00000E+00
    0.80691E-07         0.15367E-19         0.00000E+00
    0.80691E-07         0.22585E-19         0.00000E+00
    0.80691E-07         0.17229E-19         0.00000E+00
    0.80691E-07         0.14435E-19         0.00000E+00
    0.80691E-07         0.10710E-19         0.00000E+00
    0.80691E-07        -0.27940E-20         0.00000E+00
    0.80691E-07         0.46566E-20         0.00000E+00
    0.80691E-07        -0.37253E-20         0.00000E+00
    0.80691E-07        -0.69849E-20         0.00000E+00
    0.80691E-07         0.32596E-20         0.00000E+00
    0.80691E-07         0.93132E-20         0.00000E+00
    0.80691E-07         0.23283E-21         0.00000E+00
    0.80691E-07         0.14668E-19         0.00000E+00
    0.80691E-07         0.11176E-19         0.00000E+00
    0.80691E-07        -0.58208E-20         0.00000E+00
    0.80691E-07        -0.46566E-20         0.00000E+00
    0.80691E-07        -0.18626E-20         0.00000E+00
    0.80691E-07         0.74506E-20         0.00000E+00
    0.80691E-07         0.41910E-20         0.00000E+00
    0.80691E-07        -0.93132E-20         0.00000E+00
    0.80691E-07        -0.13970E-20         0.00000E+00
    0.80691E-07        -0.65193E-20         0.00000E+00
    0.80691E-07        -0.97789E-20         0.00000E+00
    0.80691E-07        -0.51223E-20         0.00000E+00
    0.80691E-07         0.10710E-19         0.00000E+00
    0.80691E-07         0.32596E-20         0.00000E+00
    0.80691E-07         0.32596E-20         0.00000E+00
    0.80691E-07        -0.55879E-20         0.00000E+00
    0.80691E-07        -0.97789E-20         0.00000E+00
    0.80691E-07        -0.17928E-19         0.00000E+00
    0.80691E-07        -0.20489E-19         0.00000E+00
    0.80691E-07        -0.15367E-19         0.00000E+00
    0.80691E-07        -0.10012E-19         0.00000E+00
    0.80691E-07        -0.12107E-19         0.00000E+00
    0.80691E-07        -0.13737E-19         0.00000E+00
    0.80691E-07        -0.19092E-19         0.00000E+00
    0.80691E-07         0.23283E-20         0.00000E+00
    0.80691E-07         0.13970E-20         0.00000E+00
    0.29736E-07        -0.18626E-20         0.00000E+00
    0.29736E-07         0.55879E-20         0.00000E+00
    0.29736E-07         0.93132E-20         0.00000E+00
    0.29736E-07         0.18161E-19         0.00000E+00
    0.29736E-07         0.83819E-20         0.00000E+00
    0.29736E-07        -0.41910E-20         0.00000E+00
    0.29736E-07        -0.12573E-19         0.00000E+00
    0.29736E-07        -0.39581E-20         0.00000E+00
    0.29736E-07        -0.10943E-19         0.00000E+00
    0.29736E-07         0.93132E-20         0.00000E+00
    0.29736E-07         0.34925E-20         0.00000E+00
    0.29736E-07         0.44238E-20         0.00000E+00
    0.29736E-07         0.39581E-20         0.00000E+00
    0.29736E-07         0.21886E-19         0.00000E+00
    0.29736E-07         0.93132E-20         0.00000E+00
    0.29736E-07         0.14435E-19         0.00000E+00
    0.29736E-07         0.14435E-19         0.00000E+00
    0.29736E-07         0.88476E-20         0.00000E+00
    0.29736E-07         0.55879E-20         0.00000E+00
    0.29736E-07         0.27940E-20         0.00000E+00
    0.29736E-07        -0.32596E-20         0.00000E+00
    0.29736E-07         0.74506E-20         0.00000E+00
    0.29736E-07        -0.46566E-21         0.00000E+00
    0.29736E-07        -0.13970E-20         0.00000E+00
    0.29736E-07         0.46566E-21         0.00000E+00
    0.29736E-07         0.17695E-19         0.00000E+00
    0.29736E-07        -0.55879E-20         0.00000E+00
    0.29736E-07         0.69849E-20         0.00000E+00
    0.29736E-07         0.00000E+00         0.00000E+00
    0.29736E-07         0.60536E-20         0.00000E+00
    0.29736E-07        -0.46566E-21         0.00000E+00
    0.29736E-07        -0.79162E-20         0.00000E+00
    0.29736E-07         0.00000E+00         0.00000E+00
    0.29736E-07         0.10245E-19         0.00000E+00
    0.29736E-07        -0.13504E-19         0.00000E+00
    0.29736E-07        -0.74506E-20         0.00000E+00
    0.29736E-07         0.23283E-20         0.00000E+00
    0.29736E-07        -0.37253E-20         0.00000E+00
    0.29736E-07        -0.67521E-20         0.00000E+00
    0.29736E-07        -0.46566E-20         0.00000E+00
    0.29736E-07        -0.10710E-19         0.00000E+00
    0.29736E-07        -0.21420E-19         0.00000E+00
    0.29736E-07        -0.21886E-19         0.00000E+00
    0.29736E-07        -0.23283E-19         0.00000E+00
    0.29736E-07        -0.18394E-19         0.00000E+00
    0.29736E-07        -0.97789E-20         0.00000E+00
    0.29736E-07        -0.83819E-20         0.00000E+00
    0.29736E-07        -0.22352E-19         0.00000E+00
    0.29736E-07        -0.88476E-20         0.00000E+00
    0.29736E-07        -0.13970E-20         0.00000E+00
    0.96510E-08         0.11642E-20         0.00000E+00
    0.96510E-08        -0.23283E-20         0.00000E+00
    0.96510E-08        -0.69849E-20         0.00000E+00
    0.96510E-08         0.93132E-20         0.00000E+00
    0.96510E-08         0.13970E-20         0.00000E+00
    0.96510E-08        -0.14901E-19         0.00000E+00
    0.96510E-08        -0.14901E-19         0.00000E+00
    0.96510E-08        -0.21886E-19         0.00000E+00
    0.96510E-08        -0.15832E-19         0.00000E+00
    0.96510E-08        -0.93132E-21         0.00000E+00
    0.96510E-08        -0.83819E-20         0.00000E+00
    0.96510E-08         0.12107E-19         0.00000E+00
    0.96510E-08         0.13970E-19         0.00000E+00
    0.96510E-08         0.22352E-19         0.00000E+00
    0.96510E-08         0.13504E-19         0.00000E+00
    0.96510E-08         0.51223E-20         0.00000E+00
    0.96510E-08         0.16764E-19         0.00000E+00
    0.96510E-08         0.83819E-20         0.00000E+00
    0.96510E-08        -0.32596E-20         0.00000E+00
    0.96510E-08        -0.79162E-20         0.00000E+00
    0.96510E-08        -0.12107E-19         0.00000E+00
    0.96510E-08         0.00000E+00         0.00000E+00
    0.96510E-08         0.69849E-20         0.00000E+00
    0.96510E-08         0.93132E-21         0.00000E+00
    0.96510E-08         0.41910E-20         0.00000E+00
    0.96510E-08         0.22352E-19         0.00000E+00
    0.96510E-08         0.21420E-19         0.00000E+00
    0.96510E-08         0.33062E-19         0.00000E+00
    0.96510E-08         0.69849E-20         0.00000E+00
    0.96510E-08        -0.65193E-20         0.00000E+00
    0.96510E-08         0.46566E-21         0.00000E+00
    0.96510E-08        -0.97789E-20         0.00000E+00
    0.96510E-08        -0.11642E-19         0.00000E+00
    0.96510E-08        -0.79162E-20         0.00000E+00
    0.96510E-08        -0.13039E-19         0.00000E+00
    0.96510E-08        -0.46566E-20         0.00000E+00
    0.96510E-08        -0.18626E-20         0.00000E+00
    0.96510E-08        -0.10710E-19         0.00000E+00
    0.96510E-08        -0.69849E-21         0.00000E+00
    0.96510E-08        -0.20955E-20         0.00000E+00
    0.96510E-08        -0.93132E-21         0.00000E+00
    0.96510E-08        -0.65193E-20         0.00000E+00
    0.96510E-08        -0.15832E-19         0.00000E+00
    0.96510E-08        -0.29802E-19         0.00000E+00
    0.96510E-08        -0.21886E-19         0.00000E+00
    0.96510E-08        -0.19092E-19         0.00000E+00
    0.96510E-08        -0.37253E-20         0.00000E+00
    0.96510E-08        -0.21653E-19         0.00000E+00
    0.96510E-08        -0.55879E-20         0.00000E+00
    0.96510E-08        -0.23283E-20         0.00000E+00
    0.28198E-08         0.23283E-20         0.00000E+00
    0.28198E-08        -0.41910E-20         0.00000E+00
    0.28198E-08        -0.74506E-20         0.00000E+00
    0.28198E-08        -0.27940E-20         0.00000E+00
    0.28198E-08        -0.44238E-20         0.00000E+00
    0.28198E-08        -0.16298E-19         0.00000E+00
    0.28198E-08        -0.15134E-19         0.00000E+00
    0.28198E-08        -0.12573E-19         0.00000E+00
    0.28198E-08        -0.21886E-19         0.00000E+00
    0.28198E-08        -0.65193E-20         0.00000E+00
    0.28198E-08        -0.18626E-20         0.00000E+00
    0.28198E-08        -0.51223E-20         0.00000E+00
    0.28198E-08        -0.48894E-20         0.00000E+00
    0.28198E-08         0.11642E-19         0.00000E+00
    0.28198E-08         0.37253E-20         0.00000E+00
    0.28198E-08         0.27940E-20         0.00000E+00
    0.28198E-08         0.13970E-19         0.00000E+00
    0.28198E-08         0.46566E-20         0.00000E+00
    0.28198E-08        -0.93132E-20         0.00000E+00
    0.28198E-08        -0.11642E-19         0.00000E+00
    0.28198E-08        -0.83819E-20         0.00000E+00
    0.28198E-08         0.23283E-20         0.00000E+00
    0.28198E-08         0.97789E-20         0.00000E+00
    0.28198E-08         0.10710E-19         0.00000E+00
    0.28198E-08         0.55879E-20         0.00000E+00
    0.28198E-08         0.26077E-19         0.00000E+00
    0.28198E-08         0.28405E-19         0.00000E+00
    0.28198E-08         0.38650E-19         0.00000E+00
    0.28198E-08         0.11176E-19         0.00000E+00
    0.28198E-08        -0.79162E-20         0.00000E+00
    0.28198E-08        -0.51223E-20         0.00000E+00
    0.28198E-08        -0.13970E-19         0.00000E+00
    0.28198E-08        -0.25611E-19         0.00000E+00
    0.28198E-08        -0.83819E-20         0.00000E+00
    0.28198E-08        -0.46566E-20         0.00000E+00
    0.28198E-08         0.41910E-20         0.00000E+00
    0.28198E-08         0.23283E-20         0.00000E+00
    0.28198E-08         0.55879E-20         0.00000E+00
    0.28198E-08         0.32596E-20         0.00000E+00
    0.28198E-08         0.46566E-20         0.00000E+00
    0.28198E-08        -0.10710E-19         0.00000E+00
    0.28198E-08        -0.12573E-19         0.00000E+00
    0.28198E-08        -0.16764E-19         0.00000E+00
    0.28198E-08        -0.30734E-19         0.00000E+00
    0.28198E-08        -0.19325E-19         0.00000E+00
    0.28198E-08        -0.20489E-19         0.00000E+00
    0.28198E-08        -0.95461E-20         0.00000E+00
    0.28198E-08        -0.16298E-19         0.00000E+00
    0.28198E-08        -0.55879E-20         0.00000E+00
    0.28198E-08        -0.93132E-21         0.00000E+00
    0.75536E-09        -0.23283E-20         0.00000E+00
    0.75536E-09         0.67521E-20         0.00000E+00
    0.75536E-09         0.37253E-20         0.00000E+00
    0.75536E-09        -0.30268E-20         0.00000E+00
    0.75536E-09        -0.34925E-20         0.00000E+00
    0.75536E-09        -0.19325E-19         0.00000E+00
    0.75536E-09        -0.18859E-19         0.00000E+00
    0.75536E-09        -0.14435E-19         0.00000E+00
    0.75536E-09        -0.19092E-19         0.00000E+00
    0.75536E-09        -0.14435E-19         0.00000E+00
    0.75536E-09        -0.13970E-19         0.00000E+00
    0.75536E-09        -0.17229E-19         0.00000E+00
    0.75536E-09        -0.15134E-19         0.00000E+00
    0.75536E-09         0.46566E-21         0.00000E+00
    0.75536E-09        -0.93132E-20         0.00000E+00
    0.75536E-09         0.46566E-21         0.00000E+00
    0.75536E-09        -0.55879E-20         0.00000E+00
    0.75536E-09         0.27940E-20         0.00000E+00
    0.75536E-09        -0.23283E-20         0.00000E+00
    0.75536E-09        -0.23283E-20         0.00000E+00
    0.75536E-09        -0.13504E-19         0.00000E+00
    0.75536E-09        -0.46566E-20         0.00000E+00
    0.75536E-09        -0.55879E-20         0.00000E+00
    0.75536E-09         0.20955E-20         0.00000E+00
    0.75536E-09         0.26077E-19         0.00000E+00
    0.75536E-09         0.27008E-19         0.00000E+00
    0.75536E-09         0.72177E-20         0.00000E+00
    0.75536E-09         0.20023E-19         0.00000E+00
    0.75536E-09         0.16764E-19         0.00000E+00
    0.75536E-09         0.79162E-20         0.00000E+00
    0.75536E-09        -0.74506E-20         0.00000E+00
    0.75536E-09        -0.74506E-20         0.00000E+00
    0.75536E-09        -0.60536E-20         0.00000E+00
    0.75536E-09        -0.74506E-20         0.00000E+00
    0.75536E-09         0.74506E-20         0.00000E+00
    0.75536E-09         0.18626E-20         0.00000E+00
    0.75536E-09        -0.97789E-20         0.00000E+00
    0.75536E-09         0.74506E-20         0.00000E+00
    0.75536E-09         0.51223E-20         0.00000E+00
    0.75536E-09        -0.18626E-20         0.00000E+00
    0.75536E-09        -0.11874E-19         0.00000E+00
    0.75536E-09        -0.60536E-20         0.00000E+00
    0.75536E-09        -0.20955E-19         0.00000E+00
    0.75536E-09        -0.21420E-19         0.00000E+00
    0.75536E-09        -0.22352E-19         0.00000E+00
    0.75536E-09        -0.16298E-19         0.00000E+00
    0.75536E-09         0.69849E-21         0.00000E+00
    0.75536E-09        -0.97789E-20         0.00000E+00
    0.75536E-09        -0.46566E-20         0.00000E+00
    0.75536E-09         0.44238E-20         0.00000E+00
    0.18828E-09         0.27940E-20         0.00000E+00
    0.18828E-09         0.46566E-20         0.00000E+00
    0.18828E-09         0.48894E-20         0.00000E+00
    0.18828E-09         0.13271E-19         0.00000E+00
    0.18828E-09        -0.32596E-20         0.00000E+00
    0.18828E-09        -0.17928E-19         0.00000E+00
    0.18828E-09        -0.20955E-19         0.00000E+00
    0.18828E-09        -0.28871E-19         0.00000E+00
    0.18828E-09        -0.27940E-19         0.00000E+00
    0.18828E-09        -0.29104E-19         0.00000E+00
    0.18828E-09        -0.17928E-19         0.00000E+00
    0.18828E-09        -0.65193E-20         0.00000E+00
    0.18828E-09        -0.14901E-19         0.00000E+00
    0.18828E-09        -0.46566E-21         0.00000E+00
    0.18828E-09        -0.11642E-19         0.00000E+00
    0.18828E-09        -0.12107E-19         0.00000E+00
    0.18828E-09         0.18626E-20         0.00000E+00
    0.18828E-09         0.32596E-20         0.00000E+00
    0.18828E-09         0.74506E-20         0.00000E+00
    0.18828E-09        -0.41910E-20         0.00000E+00
    0.18828E-09        -0.25146E-19         0.00000E+00
    0.18828E-09        -0.13504E-19         0.00000E+00
    0.18828E-09        -0.17229E-19         0.00000E+00
    0.18828E-09        -0.55879E-20         0.00000E+00
    0.18828E-09         0.22817E-19         0.00000E+00
    0.18828E-09         0.20023E-19         0.00000E+00
    0.18828E-09         0.18394E-19         0.00000E+00
    0.18828E-09         0.16764E-19         0.00000E+00
    0.18828E-09         0.12107E-19         0.00000E+00
    0.18828E-09         0.69849E-20         0.00000E+00
    0.18828E-09        -0.46566E-21         0.00000E+00
    0.18828E-09        -0.60536E-20         0.00000E+00
    0.18828E-09        -0.67521E-20         0.00000E+00
    0.18828E-09        -0.16298E-19         0.00000E+00
    0.18828E-09        -0.12107E-19         0.00000E+00
    0.18828E-09         0.23283E-20         0.00000E+00
    0.18828E-09        -0.97789E-20         0.00000E+00
    0.18828E-09        -0.74506E-20         0.00000E+00
    0.18828E-09         0.60536E-20         0.00000E+00
    0.18828E-09        -0.34925E-20         0.00000E+00
    0.18828E-09        -0.13039E-19         0.00000E+00
    0.18828E-09        -0.16298E-20         0.00000E+00
    0.18828E-09        -0.19325E-19         0.00000E+00
    0.18828E-09        -0.20955E-19         0.00000E+00
    0.18828E-09        -0.13970E-19         0.00000E+00
    0.18828E-09        -0.12107E-19         0.00000E+00
    0.18828E-09         0.12573E-19         0.00000E+00
    0.18828E-09        -0.10012E-19         0.00000E+00
    0.18828E-09        -0.37253E-20         0.00000E+00
    0.18828E-09         0.46566E-21         0.00000E+00
    0.44188E-10         0.97789E-20         0.00000E+00
    0.44188E-10         0.74506E-20         0.00000E+00
    0.44188E-10         0.55879E-20         0.00000E+00
    0.44188E-10         0.18161E-19         0.00000E+00
    0.44188E-10         0.93132E-21         0.00000E+00
    0.44188E-10        -0.15367E-19         0.00000E+00
    0.44188E-10        -0.31199E-19         0.00000E+00
    0.44188E-10        -0.25379E-19         0.00000E+00
    0.44188E-10        -0.35390E-19         0.00000E+00
    0.44188E-10        -0.31199E-19         0.00000E+00
    0.44188E-10        -0.20023E-19         0.00000E+00
    0.44188E-10        -0.53551E-20         0.00000E+00
    0.44188E-10        -0.16298E-19         0.00000E+00
    0.44188E-10         0.00000E+00         0.00000E+00
    0.44188E-10        -0.18161E-19         0.00000E+00
    0.44188E-10        -0.93132E-21         0.00000E+00
    0.44188E-10         0.46566E-20         0.00000E+00
    0.44188E-10         0.93132E-20         0.00000E+00
    0.44188E-10         0.95461E-20         0.00000E+00
    0.44188E-10        -0.14668E-19         0.00000E+00
    0.44188E-10        -0.14901E-19         0.00000E+00
    0.44188E-10        -0.16764E-19         0.00000E+00
    0.44188E-10        -0.18161E-19         0.00000E+00
    0.44188E-10        -0.41910E-20         0.00000E+00
    0.44188E-10         0.88476E-20         0.00000E+00
    0.44188E-10         0.37253E-20         0.00000E+00
    0.44188E-10         0.16764E-19         0.00000E+00
    0.44188E-10         0.93132E-20         0.00000E+00
    0.44188E-10         0.10245E-19         0.00000E+00
    0.44188E-10        -0.11642E-20         0.00000E+00
    0.44188E-10        -0.46566E-21         0.00000E+00
    0.44188E-10        -0.23283E-20         0.00000E+00
    0.44188E-10        -0.97789E-20         0.00000E+00
    0.44188E-10        -0.83819E-20         0.00000E+00
    0.44188E-10        -0.11176E-19         0.00000E+00
    0.44188E-10        -0.46566E-20         0.00000E+00
    0.44188E-10         0.46566E-21         0.00000E+00
    0.44188E-10        -0.14435E-19         0.00000E+00
    0.44188E-10        -0.23283E-20         0.00000E+00
    0.44188E-10        -0.27940E-20         0.00000E+00
    0.44188E-10        -0.23283E-19         0.00000E+00
    0.44188E-10        -0.79162E-20         0.00000E+00
    0.44188E-10        -0.19092E-19         0.00000E+00
    0.44188E-10        -0.19092E-19         0.00000E+00
    0.44188E-10        -0.13970E-19         0.00000E+00
    0.44188E-10        -0.83819E-20         0.00000E+00
    0.44188E-10         0.27940E-20         0.00000E+00
    0.44188E-10        -0.74506E-20         0.00000E+00
    0.44188E-10        -0.46566E-20         0.00000E+00
    0.44188E-10        -0.23283E-20         0.00000E+00
    0.98561E-11         0.10710E-19         0.00000E+00
    0.98561E-11         0.65193E-20         0.00000E+00
    0.98561E-11         0.83819E-20         0.00000E+00
    0.98561E-11         0.55879E-20         0.00000E+00
    0.98561E-11        -0.41910E-20         0.00000E+00
    0.98561E-11        -0.22817E-19         0.00000E+00
    0.98561E-11        -0.32829E-19         0.00000E+00
    0.98561E-11        -0.28871E-19         0.00000E+00
    0.98561E-11        -0.30035E-19         0.00000E+00
    0.98561E-11        -0.27707E-19         0.00000E+00
    0.98561E-11        -0.27474E-19         0.00000E+00
    0.98561E-11        -0.65193E-20         0.00000E+00
    0.98561E-11        -0.17928E-19         0.00000E+00
    0.98561E-11         0.23283E-20         0.00000E+00
    0.98561E-11        -0.69849E-20         0.00000E+00
    0.98561E-11         0.48894E-20         0.00000E+00
    0.98561E-11        -0.37253E-20         0.00000E+00
    0.98561E-11         0.12573E-19         0.00000E+00
    0.98561E-11         0.55879E-20         0.00000E+00
    0.98561E-11        -0.12107E-19         0.00000E+00
    0.98561E-11        -0.12806E-19         0.00000E+00
    0.98561E-11        -0.74506E-20         0.00000E+00
    0.98561E-11        -0.16298E-19         0.00000E+00
    0.98561E-11        -0.13504E-19         0.00000E+00
    0.98561E-11        -0.46566E-21         0.00000E+00
    0.98561E-11        -0.76834E-20         0.00000E+00
    0.98561E-11         0.34925E-20         0.00000E+00
    0.98561E-11         0.12573E-19         0.00000E+00
    0.98561E-11         0.14435E-19         0.00000E+00
    0.98561E-11         0.18626E-20         0.00000E+00
    0.98561E-11        -0.44238E-20         0.00000E+00
    0.98561E-11        -0.18626E-20         0.00000E+00
    0.98561E-11         0.00000E+00         0.00000E+00
    0.98561E-11         0.46566E-21         0.00000E+00
    0.98561E-11         0.23283E-20         0.00000E+00
    0.98561E-11        -0.83819E-20         0.00000E+00
    0.98561E-11        -0.14668E-19         0.00000E+00
    0.98561E-11        -0.10710E-19         0.00000E+00
    0.98561E-11         0.93132E-21         0.00000E+00
    0.98561E-11        -0.22352E-19         0.00000E+00
    0.98561E-11        -0.22352E-19         0.00000E+00
    0.98561E-11        -0.88476E-20         0.00000E+00
    0.98561E-11        -0.20955E-19         0.00000E+00
    0.98561E-11        -0.23283E-19         0.00000E+00
    0.98561E-11        -0.22817E-19         0.00000E+00
    0.98561E-11        -0.88476E-20         0.00000E+00
    0.98561E-11        -0.44238E-20         0.00000E+00
    0.98561E-11        -0.32596E-20         0.00000E+00
    0.98561E-11        -0.13970E-20         0.00000E+00
    0.98561E-11         0.69849E-21         0.00000E+00
    0.21051E-11         0.79162E-20         0.00000E+00
    0.21051E-11         0.46566E-20         0.00000E+00
    0.21051E-11         0.60536E-20         0.00000E+00
    0.21051E-11         0.27940E-20         0.00000E+00
    0.21051E-11        -0.13970E-19         0.00000E+00
    0.21051E-11        -0.24680E-19         0.00000E+00
    0.21051E-11        -0.29337E-19         0.00000E+00
    0.21051E-11        -0.31199E-19         0.00000E+00
    0.21051E-11        -0.29337E-19         0.00000E+00
    0.21051E-11        -0.23749E-19         0.00000E+00
    0.21051E-11        -0.18626E-19         0.00000E+00
    0.21051E-11        -0.41910E-20         0.00000E+00
    0.21051E-11        -0.14901E-19         0.00000E+00
    0.21051E-11         0.55879E-20         0.00000E+00
    0.21051E-11        -0.74506E-20         0.00000E+00
    0.21051E-11         0.00000E+00         0.00000E+00
    0.21051E-11         0.69849E-20         0.00000E+00
    0.21051E-11         0.13737E-19         0.00000E+00
    0.21051E-11         0.74506E-20         0.00000E+00
    0.21051E-11        -0.11409E-19         0.00000E+00
    0.21051E-11        -0.13970E-19         0.00000E+00
    0.21051E-11        -0.41910E-20         0.00000E+00
    0.21051E-11        -0.23283E-19         0.00000E+00
    0.21051E-11        -0.16298E-19         0.00000E+00
    0.21051E-11        -0.97789E-20         0.00000E+00
    0.21051E-11        -0.11642E-19         0.00000E+00
    0.21051E-11         0.93132E-20         0.00000E+00
    0.21051E-11         0.21420E-19         0.00000E+00
    0.21051E-11         0.46566E-20         0.00000E+00
    0.21051E-11         0.00000E+00         0.00000E+00
    0.21051E-11        -0.14435E-19         0.00000E+00
    0.21051E-11         0.00000E+00         0.00000E+00
    0.21051E-11        -0.27940E-20         0.00000E+00
    0.21051E-11         0.65193E-20         0.00000E+00
    0.21051E-11         0.46566E-20         0.00000E+00
    0.21051E-11        -0.74506E-20         0.00000E+00
    0.21051E-11        -0.18161E-19         0.00000E+00
    0.21051E-11        -0.12340E-19         0.00000E+00
    0.21051E-11        -0.12107E-19         0.00000E+00
    0.21051E-11        -0.25611E-19         0.00000E+00
    0.21051E-11        -0.23749E-19         0.00000E+00
    0.21051E-11        -0.13970E-19         0.00000E+00
    0.21051E-11        -0.22817E-19         0.00000E+00
    0.21051E-11        -0.24214E-19         0.00000E+00
    0.21051E-11        -0.16764E-19         0.00000E+00
    0.21051E-11        -0.46566E-20         0.00000E+00
    0.21051E-11        -0.34925E-20         0.00000E+00
    0.21051E-11        -0.11176E-19         0.00000E+00
    0.21051E-11         0.18626E-20         0.00000E+00
    0.21051E-11         0.46566E-21         0.00000E+00
    0.43317E-12         0.69849E-20         0.00000E+00
    0.43317E-12         0.48894E-20         0.00000E+00
    0.43317E-12         0.32596E-20         0.00000E+00
    0.43317E-12         0.32596E-20         0.00000E+00
    0.43317E-12        -0.65193E-20         0.00000E+00
    0.43317E-12        -0.20489E-19         0.00000E+00
    0.43317E-12        -0.29802E-19         0.00000E+00
    0.43317E-12        -0.31199E-19         0.00000E+00
    0.43317E-12        -0.28871E-19         0.00000E+00
    0.43317E-12        -0.15367E-19         0.00000E+00
    0.43317E-12        -0.17229E-19         0.00000E+00
    0.43317E-12        -0.37253E-20         0.00000E+00
    0.43317E-12        -0.12107E-19         0.00000E+00
    0.43317E-12         0.37253E-20         0.00000E+00
    0.43317E-12        -0.74506E-20         0.00000E+00
    0.43317E-12         0.23283E-20         0.00000E+00
    0.43317E-12         0.74506E-20         0.00000E+00
    0.43317E-12         0.16298E-19         0.00000E+00
    0.43317E-12         0.11874E-19         0.00000E+00
    0.43317E-12        -0.14668E-19         0.00000E+00
    0.43317E-12        -0.13039E-19         0.00000E+00
    0.43317E-12        -0.11642E-19         0.00000E+00
    0.43317E-12        -0.29337E-19         0.00000E+00
    0.43317E-12        -0.17229E-19         0.00000E+00
    0.43317E-12        -0.23283E-20         0.00000E+00
    0.43317E-12        -0.13970E-19         0.00000E+00
    0.43317E-12         0.79162E-20         0.00000E+00
    0.43317E-12         0.14435E-19         0.00000E+00
    0.43317E-12        -0.37253E-20         0.00000E+00
    0.43317E-12        -0.69849E-20         0.00000E+00
    0.43317E-12        -0.14901E-19         0.00000E+00
    0.43317E-12        -0.65193E-20         0.00000E+00
    0.43317E-12        -0.18626E-20         0.00000E+00
    0.43317E-12         0.37253E-20         0.00000E+00
    0.43317E-12         0.37253E-20         0.00000E+00
    0.43317E-12        -0.41910E-20         0.00000E+00
    0.43317E-12        -0.69849E-20         0.00000E+00
    0.43317E-12        -0.13737E-19         0.00000E+00
    0.43317E-12        -0.16531E-19         0.00000E+00
    0.43317E-12        -0.13970E-19         0.00000E+00
    0.43317E-12        -0.23749E-19         0.00000E+00
    0.43317E-12        -0.19791E-19         0.00000E+00
    0.43317E-12        -0.25146E-19         0.00000E+00
    0.43317E-12        -0.23749E-19         0.00000E+00
    0.43317E-12        -0.12107E-19         0.00000E+00
    0.43317E-12        -0.37253E-20         0.00000E+00
    0.43317E-12        -0.27940E-20         0.00000E+00
    0.43317E-12        -0.76834E-20         0.00000E+00
    0.43317E-12         0.27940E-20         0.00000E+00
    0.43317E-12         0.41910E-20         0.00000E+00
    0.86295E-13         0.60536E-20         0.00000E+00
    0.86295E-13         0.69849E-21         0.00000E+00
    0.86295E-13        -0.25611E-20         0.00000E+00
    0.86295E-13        -0.46566E-20         0.00000E+00
    0.86295E-13        -0.13504E-19         0.00000E+00
    0.86295E-13        -0.23283E-19         0.00000E+00
    0.86295E-13        -0.32363E-19         0.00000E+00
    0.86295E-13        -0.31199E-19         0.00000E+00
    0.86295E-13        -0.32131E-19         0.00000E+00
    0.86295E-13        -0.23749E-19         0.00000E+00
    0.86295E-13        -0.17928E-19         0.00000E+00
    0.86295E-13        -0.41910E-20         0.00000E+00
    0.86295E-13        -0.10245E-19         0.00000E+00
    0.86295E-13         0.37253E-20         0.00000E+00
    0.86295E-13        -0.25611E-20         0.00000E+00
    0.86295E-13         0.74506E-20         0.00000E+00
    0.86295E-13         0.74506E-20         0.00000E+00
    0.86295E-13         0.28871E-19         0.00000E+00
    0.86295E-13         0.79162E-20         0.00000E+00
    0.86295E-13        -0.83819E-20         0.00000E+00
    0.86295E-13        -0.10710E-19         0.00000E+00
    0.86295E-13        -0.16298E-19         0.00000E+00
    0.86295E-13        -0.26543E-19         0.00000E+00
    0.86295E-13        -0.16298E-19         0.00000E+00
    0.86295E-13        -0.74506E-20         0.00000E+00
    0.86295E-13        -0.97789E-20         0.00000E+00
    0.86295E-13         0.60536E-20         0.00000E+00
    0.86295E-13         0.13970E-19         0.00000E+00
    0.86295E-13        -0.46566E-21         0.00000E+00
    0.86295E-13        -0.20489E-19         0.00000E+00
    0.86295E-13        -0.95461E-20         0.00000E+00
    0.86295E-13        -0.23283E-20         0.00000E+00
    0.86295E-13         0.27940E-20         0.00000E+00
    0.86295E-13         0.23283E-20         0.00000E+00
    0.86295E-13         0.46566E-20         0.00000E+00
    0.86295E-13        -0.46566E-20         0.00000E+00
    0.86295E-13        -0.23283E-20         0.00000E+00
    0.86295E-13        -0.69849E-20         0.00000E+00
    0.86295E-13        -0.60536E-20         0.00000E+00
    0.86295E-13        -0.20023E-19         0.00000E+00
    0.86295E-13        -0.29802E-19         0.00000E+00
    0.86295E-13        -0.22817E-19         0.00000E+00
    0.86295E-13        -0.27241E-19         0.00000E+00
    0.86295E-13        -0.26543E-19         0.00000E+00
    0.86295E-13        -0.18161E-19         0.00000E+00
    0.86295E-13        -0.69849E-20         0.00000E+00
    0.86295E-13         0.00000E+00         0.00000E+00
    0.86295E-13        -0.46566E-21         0.00000E+00
    0.86295E-13         0.18626E-20         0.00000E+00
    0.86295E-13         0.65193E-20         0.00000E+00
    0.16712E-13         0.41910E-20         0.00000E+00
    0.16712E-13         0.48894E-20         0.00000E+00
    0.16712E-13        -0.39581E-20         0.00000E+00
    0.16712E-13        -0.13039E-19         0.00000E+00
    0.16712E-13        -0.17695E-19         0.00000E+00
    0.16712E-13        -0.25379E-19         0.00000E+00
    0.16712E-13        -0.31665E-19         0.00000E+00
    0.16712E-13        -0.29337E-19         0.00000E+00
    0.16712E-13        -0.32596E-19         0.00000E+00
    0.16712E-13        -0.26077E-19         0.00000E+00
    0.16712E-13        -0.18161E-19         0.00000E+00
    0.16712E-13        -0.55879E-20         0.00000E+00
    0.16712E-13        -0.13271E-19         0.00000E+00
    0.16712E-13         0.27940E-20         0.00000E+00
    0.16712E-13        -0.16298E-20         0.00000E+00
    0.16712E-13         0.95461E-20         0.00000E+00
    0.16712E-13         0.16764E-19         0.00000E+00
    0.16712E-13         0.29104E-19         0.00000E+00
    0.16712E-13         0.15367E-19         0.00000E+00
    0.16712E-13         0.93132E-21         0.00000E+00
    0.16712E-13        -0.93132E-20         0.00000E+00
    0.16712E-13        -0.17229E-19         0.00000E+00
    0.16712E-13        -0.20955E-19         0.00000E+00
    0.16712E-13        -0.23283E-19         0.00000E+00
    0.16712E-13        -0.12107E-19         0.00000E+00
    0.16712E-13        -0.10710E-19         0.00000E+00
    0.16712E-13         0.88476E-20         0.00000E+00
    0.16712E-13         0.12107E-19         0.00000E+00
    0.16712E-13        -0.65193E-20         0.00000E+00
    0.16712E-13        -0.12340E-19         0.00000E+00
    0.16712E-13        -0.11176E-19         0.00000E+00
    0.16712E-13         0.69849E-20         0.00000E+00
    0.16712E-13        -0.30268E-20         0.00000E+00
    0.16712E-13         0.88476E-20         0.00000E+00
    0.16712E-13        -0.93132E-21         0.00000E+00
    0.16712E-13        -0.12573E-19         0.00000E+00
    0.16712E-13        -0.79162E-20         0.00000E+00
    0.16712E-13        -0.13039E-19         0.00000E+00
    0.16712E-13        -0.41910E-20         0.00000E+00
    0.16712E-13        -0.25844E-19         0.00000E+00
    0.16712E-13        -0.28173E-19         0.00000E+00
    0.16712E-13        -0.20023E-19         0.00000E+00
    0.16712E-13        -0.30035E-19         0.00000E+00
    0.16712E-13        -0.33528E-19         0.00000E+00
    0.16712E-13        -0.24447E-19         0.00000E+00
    0.16712E-13        -0.17229E-19         0.00000E+00
    0.16712E-13        -0.69849E-20         0.00000E+00
    0.16712E-13        -0.46566E-20         0.00000E+00
    0.16712E-13        -0.23283E-20         0.00000E+00
    0.16712E-13         0.48894E-20         0.00000E+00
    0.31567E-14         0.46566E-20         0.00000E+00
    0.31567E-14         0.93132E-20         0.00000E+00
    0.31567E-14        -0.10943E-19         0.00000E+00
    0.31567E-14        -0.23283E-20         0.00000E+00
    0.31567E-14        -0.15832E-19         0.00000E+00
    0.31567E-14        -0.22352E-19         0.00000E+00
    0.31567E-14        -0.32363E-19         0.00000E+00
    0.31567E-14        -0.24680E-19         0.00000E+00
    0.31567E-14        -0.26077E-19         0.00000E+00
    0.31567E-14        -0.19791E-19         0.00000E+00
    0.31567E-14        -0.17695E-19         0.00000E+00
    0.31567E-14        -0.65193E-20         0.00000E+00
    0.31567E-14        -0.16065E-19         0.00000E+00
    0.31567E-14        -0.18626E-20         0.00000E+00
    0.31567E-14        -0.74506E-20         0.00000E+00
    0.31567E-14         0.67521E-20         0.00000E+00
    0.31567E-14         0.20023E-19         0.00000E+00
    0.31567E-14         0.28173E-19         0.00000E+00
    0.31567E-14         0.20489E-19         0.00000E+00
    0.31567E-14         0.69849E-21         0.00000E+00
    0.31567E-14        -0.13504E-19         0.00000E+00
    0.31567E-14        -0.15832E-19         0.00000E+00
    0.31567E-14        -0.29337E-19         0.00000E+00
    0.31567E-14        -0.23283E-19         0.00000E+00
    0.31567E-14        -0.60536E-20         0.00000E+00
    0.31567E-14        -0.69849E-20         0.00000E+00
    0.31567E-14         0.10245E-19         0.00000E+00
    0.31567E-14         0.18161E-19         0.00000E+00
    0.31567E-14        -0.46566E-20         0.00000E+00
    0.31567E-14        -0.83819E-20         0.00000E+00
    0.31567E-14        -0.10943E-19         0.00000E+00
    0.31567E-14        -0.46566E-21         0.00000E+00
    0.31567E-14        -0.27940E-20         0.00000E+00
    0.31567E-14         0.48894E-20         0.00000E+00
    0.31567E-14        -0.53551E-20         0.00000E+00
    0.31567E-14        -0.88476E-20         0.00000E+00
    0.31567E-14        -0.41910E-20         0.00000E+00
    0.31567E-14        -0.16298E-19         0.00000E+00
    0.31567E-14        -0.19092E-19         0.00000E+00
    0.31567E-14        -0.29337E-19         0.00000E+00
    0.31567E-14        -0.31432E-19         0.00000E+00
    0.31567E-14        -0.23749E-19         0.00000E+00
    0.31567E-14        -0.32131E-19         0.00000E+00
    0.31567E-14        -0.40745E-19         0.00000E+00
    0.31567E-14        -0.21886E-19         0.00000E+00
    0.31567E-14        -0.20955E-19         0.00000E+00
    0.31567E-14        -0.74506E-20         0.00000E+00
    0.31567E-14        -0.10477E-19         0.00000E+00
    0.31567E-14        -0.37253E-20         0.00000E+00
    0.31567E-14        -0.46566E-21         0.00000E+00
    0.58324E-15         0.44238E-20         0.00000E+00
    0.58324E-15         0.55879E-20         0.00000E+00
    0.58324E-15        -0.55879E-20         0.00000E+00
    0.58324E-15        -0.13970E-20         0.00000E+00
    0.58324E-15        -0.19558E-19         0.00000E+00
    0.58324E-15        -0.30501E-19         0.00000E+00
    0.58324E-15        -0.31665E-19         0.00000E+00
    0.58324E-15        -0.21420E-19         0.00000E+00
    0.58324E-15        -0.25611E-19         0.00000E+00
    0.58324E-15        -0.13271E-19         0.00000E+00
    0.58324E-15        -0.10245E-19         0.00000E+00
    0.58324E-15         0.37253E-20         0.00000E+00
    0.58323E-15        -0.14435E-19         0.00000E+00
    0.58323E-15         0.74506E-20         0.00000E+00
    0.58323E-15        -0.93132E-20         0.00000E+00
    0.58323E-15         0.93132E-20         0.00000E+00
    0.58323E-15         0.60536E-20         0.00000E+00
    0.58323E-15         0.13504E-19         0.00000E+00
    0.58323E-15         0.93132E-20         0.00000E+00
    0.58324E-15         0.46566E-21         0.00000E+00
    0.58324E-15        -0.18859E-19         0.00000E+00
    0.58324E-15        -0.12573E-19         0.00000E+00
    0.58323E-15        -0.30734E-19         0.00000E+00
    0.58323E-15        -0.15832E-19         0.00000E+00
    0.58323E-15        -0.51223E-20         0.00000E+00
    0.58323E-15        -0.83819E-20         0.00000E+00
    0.58324E-15         0.11409E-19         0.00000E+00
    0.58324E-15         0.20023E-19         0.00000E+00
    0.58324E-15        -0.37253E-20         0.00000E+00
    0.58324E-15        -0.51223E-20         0.00000E+00
    0.58324E-15        -0.55879E-20         0.00000E+00
    0.58324E-15         0.41910E-20         0.00000E+00
    0.58324E-15         0.88476E-20         0.00000E+00
    0.58324E-15        -0.23283E-20         0.00000E+00
    0.58323E-15         0.13970E-20         0.00000E+00
    0.58323E-15        -0.76834E-20         0.00000E+00
    0.58324E-15        -0.13970E-19         0.00000E+00
    0.58324E-15        -0.21420E-19         0.00000E+00
    0.58324E-15        -0.20023E-19         0.00000E+00
    0.58324E-15        -0.31665E-19         0.00000E+00
    0.58323E-15        -0.35390E-19         0.00000E+00
    0.58323E-15        -0.26776E-19         0.00000E+00
    0.58323E-15        -0.39581E-19         0.00000E+00
    0.58323E-15        -0.40978E-19         0.00000E+00
    0.58323E-15        -0.29802E-19         0.00000E+00
    0.58323E-15        -0.23283E-19         0.00000E+00
    0.58323E-15        -0.10710E-19         0.00000E+00
    0.58324E-15        -0.15367E-19         0.00000E+00
    0.58324E-15        -0.93132E-21         0.00000E+00
    0.58324E-15        -0.23283E-20         0.00000E+00
    0.10565E-15         0.46566E-20         0.00000E+00
    0.10565E-15         0.88476E-20         0.00000E+00
    0.10565E-15         0.51223E-20         0.00000E+00
    0.10565E-15        -0.23283E-20         0.00000E+00
    0.10565E-15        -0.23283E-19         0.00000E+00
    0.10564E-15        -0.32596E-19         0.00000E+00
    0.10564E-15        -0.23283E-19         0.00000E+00
    0.10564E-15        -0.21420E-19         0.00000E+00
    0.10564E-15        -0.31665E-19         0.00000E+00
    0.10565E-15        -0.24680E-19         0.00000E+00
    0.10565E-15        -0.15832E-19         0.00000E+00
    0.10566E-15         0.10012E-19         0.00000E+00
    0.10566E-15        -0.55879E-20         0.00000E+00
    0.10565E-15         0.20023E-19         0.00000E+00
    0.10565E-15         0.13970E-20         0.00000E+00
    0.10565E-15         0.23283E-19         0.00000E+00
    0.10565E-15         0.46566E-20         0.00000E+00
    0.10564E-15         0.11176E-19         0.00000E+00
    0.10564E-15         0.23283E-20         0.00000E+00
    0.10564E-15        -0.69849E-20         0.00000E+00
    0.10564E-15        -0.21886E-19         0.00000E+00
    0.10565E-15        -0.16298E-19         0.00000E+00
    0.10565E-15        -0.22817E-19         0.00000E+00
    0.10565E-15        -0.18161E-19         0.00000E+00
    0.10565E-15        -0.16298E-19         0.00000E+00
    0.10565E-15        -0.83819E-20         0.00000E+00
    0.10565E-15        -0.58208E-20         0.00000E+00
    0.10566E-15         0.97789E-20         0.00000E+00
    0.10566E-15         0.00000E+00         0.00000E+00
    0.10566E-15        -0.41910E-20         0.00000E+00
    0.10566E-15        -0.13039E-19         0.00000E+00
    0.10566E-15         0.27940E-20         0.00000E+00
    0.10566E-15         0.46566E-20         0.00000E+00
    0.10566E-15         0.00000E+00         0.00000E+00
    0.10566E-15        -0.46566E-20         0.00000E+00
    0.10567E-15        -0.51223E-20         0.00000E+00
    0.10566E-15        -0.97789E-20         0.00000E+00
    0.10566E-15        -0.20955E-19         0.00000E+00
    0.10566E-15        -0.10710E-19         0.00000E+00
    0.10566E-15        -0.24447E-19         0.00000E+00
    0.10566E-15        -0.27940E-19         0.00000E+00
    0.10566E-15        -0.22352E-19         0.00000E+00
    0.10566E-15        -0.33528E-19         0.00000E+00
    0.10565E-15        -0.39116E-19         0.00000E+00
    0.10565E-15        -0.41444E-19         0.00000E+00
    0.10565E-15        -0.24680E-19         0.00000E+00
    0.10565E-15        -0.62864E-20         0.00000E+00
    0.10565E-15        -0.13271E-19         0.00000E+00
    0.10565E-15        -0.41910E-20         0.00000E+00
    0.10565E-15         0.46566E-21         0.00000E+00
    0.18805E-16         0.23283E-20         0.00000E+00
    0.18807E-16         0.79162E-20         0.00000E+00
    0.18808E-16         0.13504E-19         0.00000E+00
    0.18806E-16         0.81491E-20         0.00000E+00
    0.18803E-16        -0.69849E-20         0.00000E+00
    0.18799E-16        -0.26543E-19         0.00000E+00
    0.18798E-16        -0.25146E-19         0.00000E+00
    0.18798E-16        -0.24214E-19         0.00000E+00
    0.18797E-16        -0.30734E-19         0.00000E+00
    0.18795E-16        -0.25611E-19         0.00000E+00
    0.18792E-16        -0.24913E-19         0.00000E+00
    0.18794E-16        -0.51223E-20         0.00000E+00
    0.18797E-16        -0.74506E-20         0.00000E+00
    0.18800E-16         0.23516E-19         0.00000E+00
    0.18801E-16         0.60536E-20         0.00000E+00
    0.18801E-16         0.20023E-19         0.00000E+00
    0.18803E-16         0.12573E-19         0.00000E+00
    0.18804E-16         0.19092E-19         0.00000E+00
    0.18803E-16         0.88476E-20         0.00000E+00
    0.18802E-16        -0.14435E-19         0.00000E+00
    0.18803E-16        -0.31199E-19         0.00000E+00
    0.18803E-16        -0.21420E-19         0.00000E+00
    0.18806E-16        -0.27940E-19         0.00000E+00
    0.18805E-16        -0.19558E-19         0.00000E+00
    0.18803E-16        -0.14435E-19         0.00000E+00
    0.18804E-16        -0.17229E-19         0.00000E+00
    0.18804E-16        -0.74506E-20         0.00000E+00
    0.18801E-16         0.88476E-20         0.00000E+00
    0.18800E-16         0.23283E-20         0.00000E+00
    0.18800E-16        -0.88476E-20         0.00000E+00
    0.18800E-16        -0.16298E-19         0.00000E+00
    0.18800E-16        -0.46566E-20         0.00000E+00
    0.18803E-16        -0.51223E-20         0.00000E+00
    0.18805E-16        -0.27940E-20         0.00000E+00
    0.18805E-16        -0.37253E-20         0.00000E+00
    0.18803E-16        -0.51223E-20         0.00000E+00
    0.18803E-16        -0.16298E-20         0.00000E+00
    0.18804E-16        -0.11642E-19         0.00000E+00
    0.18802E-16        -0.15832E-19         0.00000E+00
    0.18802E-16        -0.16298E-19         0.00000E+00
    0.18802E-16        -0.27008E-19         0.00000E+00
    0.18802E-16        -0.18859E-19         0.00000E+00
    0.18802E-16        -0.29802E-19         0.00000E+00
    0.18802E-16        -0.40978E-19         0.00000E+00
    0.18803E-16        -0.39348E-19         0.00000E+00
    0.18804E-16        -0.20489E-19         0.00000E+00
    0.18805E-16        -0.97789E-20         0.00000E+00
    0.18807E-16        -0.10245E-19         0.00000E+00
    0.18806E-16        -0.37253E-20         0.00000E+00
    0.18806E-16        -0.23283E-20         0.00000E+00
    0.32919E-17         0.18626E-20         0.00000E+00
    0.32916E-17         0.25611E-20         0.00000E+00
    0.32923E-17         0.11642E-19         0.00000E+00
    0.32939E-17         0.90804E-20         0.00000E+00
    0.32969E-17         0.46566E-21         0.00000E+00
    0.32978E-17        -0.16298E-19         0.00000E+00
    0.32950E-17        -0.17695E-19         0.00000E+00
    0.32926E-17        -0.18161E-19         0.00000E+00
    0.32923E-17        -0.25146E-19         0.00000E+00
    0.32908E-17        -0.10710E-19         0.00000E+00
    0.32897E-17        -0.26543E-19         0.00000E+00
    0.32891E-17        -0.37253E-20         0.00000E+00
    0.32891E-17        -0.16764E-19         0.00000E+00
    0.32911E-17         0.58208E-20         0.00000E+00
    0.32937E-17         0.27940E-20         0.00000E+00
    0.32955E-17         0.15832E-19         0.00000E+00
    0.32953E-17         0.65193E-20         0.00000E+00
    0.32966E-17         0.13039E-19         0.00000E+00
    0.32985E-17         0.14203E-19         0.00000E+00
    0.32978E-17        -0.10710E-19         0.00000E+00
    0.32947E-17        -0.17695E-19         0.00000E+00
    0.32919E-17        -0.22352E-19         0.00000E+00
    0.32910E-17        -0.31432E-19         0.00000E+00
    0.32927E-17        -0.18626E-19         0.00000E+00
    0.32935E-17        -0.97789E-20         0.00000E+00
    0.32898E-17        -0.88476E-20         0.00000E+00
    0.32884E-17        -0.46566E-20         0.00000E+00
    0.32901E-17         0.12573E-19         0.00000E+00
    0.32916E-17        -0.46566E-21         0.00000E+00
    0.32926E-17        -0.13504E-19         0.00000E+00
    0.32923E-17        -0.10710E-19         0.00000E+00
    0.32905E-17        -0.37253E-20         0.00000E+00
    0.32876E-17        -0.93132E-21         0.00000E+00
    0.32859E-17        -0.10245E-19         0.00000E+00
    0.32868E-17        -0.23283E-20         0.00000E+00
    0.32880E-17        -0.46566E-20         0.00000E+00
    0.32870E-17        -0.46566E-20         0.00000E+00
    0.32864E-17        -0.88476E-20         0.00000E+00
    0.32872E-17        -0.13039E-19         0.00000E+00
    0.32884E-17        -0.21420E-19         0.00000E+00
    0.32892E-17        -0.34925E-19         0.00000E+00
    0.32904E-17        -0.14901E-19         0.00000E+00
    0.32908E-17        -0.32596E-19         0.00000E+00
    0.32901E-17        -0.37253E-19         0.00000E+00
    0.32879E-17        -0.32131E-19         0.00000E+00
    0.32860E-17        -0.20955E-19         0.00000E+00
    0.32854E-17        -0.10710E-19         0.00000E+00
    0.32863E-17        -0.19558E-19         0.00000E+00
    0.32879E-17        -0.23283E-20         0.00000E+00
    0.32876E-17        -0.37253E-20         0.00000E+00
    0.57148E-18         0.41910E-20         0.00000E+00
    0.57067E-18         0.51223E-20         0.00000E+00
    0.57131E-18         0.18626E-20         0.00000E+00
    0.57183E-18         0.93132E-21         0.00000E+00
    0.57195E-18        -0.11409E-19         0.00000E+00
    0.57404E-18        -0.19092E-19         0.00000E+00
    0.57730E-18        -0.15367E-19         0.00000E+00
    0.57905E-18        -0.17928E-19         0.00000E+00
    0.57765E-18        -0.18626E-19         0.00000E+00
    0.57783E-18        -0.11642E-19         0.00000E+00
    0.57754E-18        -0.19558E-19         0.00000E+00
    0.57567E-18        -0.18626E-20         0.00000E+00
    0.57649E-18        -0.21420E-19         0.00000E+00
    0.57725E-18        -0.93132E-21         0.00000E+00
    0.57754E-18        -0.46566E-20         0.00000E+00
    0.57876E-18         0.11409E-19         0.00000E+00
    0.57888E-18         0.10245E-19         0.00000E+00
    0.57608E-18         0.13504E-19         0.00000E+00
    0.57218E-18         0.18394E-19         0.00000E+00
    0.56962E-18         0.37253E-20         0.00000E+00
    0.56863E-18        -0.12573E-19         0.00000E+00
    0.56863E-18        -0.11642E-19         0.00000E+00
    0.56654E-18        -0.21420E-19         0.00000E+00
    0.56159E-18        -0.14435E-19         0.00000E+00
    0.55885E-18        -0.46566E-20         0.00000E+00
    0.56147E-18        -0.79162E-20         0.00000E+00
    0.56223E-18        -0.55879E-20         0.00000E+00
    0.56013E-18         0.13039E-19         0.00000E+00
    0.56071E-18        -0.46566E-20         0.00000E+00
    0.56141E-18        -0.18161E-19         0.00000E+00
    0.56188E-18        -0.12107E-19         0.00000E+00
    0.56281E-18         0.00000E+00         0.00000E+00
    0.56339E-18         0.37253E-20         0.00000E+00
    0.56374E-18        -0.55879E-20         0.00000E+00
    0.56234E-18        -0.18626E-20         0.00000E+00
    0.56205E-18        -0.10245E-19         0.00000E+00
    0.56362E-18        -0.69849E-20         0.00000E+00
    0.56648E-18        -0.17229E-19         0.00000E+00
    0.56787E-18        -0.16764E-19         0.00000E+00
    0.56654E-18        -0.18161E-19         0.00000E+00
    0.56479E-18        -0.31199E-19         0.00000E+00
    0.56386E-18        -0.19558E-19         0.00000E+00
    0.56392E-18        -0.31199E-19         0.00000E+00
    0.56432E-18        -0.36322E-19         0.00000E+00
    0.56700E-18        -0.32596E-19         0.00000E+00
    0.56782E-18        -0.20489E-19         0.00000E+00
    0.56828E-18        -0.88476E-20         0.00000E+00
    0.56741E-18        -0.19558E-19         0.00000E+00
    0.56613E-18        -0.37253E-20         0.00000E+00
    0.56613E-18         0.16298E-20         0.00000E+00
    0.94296E-19         0.32596E-20         0.00000E+00
    0.95926E-19         0.41910E-20         0.00000E+00
    0.96508E-19        -0.93132E-21         0.00000E+00
    0.97672E-19         0.27940E-20         0.00000E+00
    0.96043E-19        -0.83819E-20         0.00000E+00
    0.94413E-19        -0.19325E-19         0.00000E+00
    0.93307E-19        -0.25379E-19         0.00000E+00
    0.94122E-19        -0.19791E-19         0.00000E+00
    0.97847E-19        -0.26077E-19         0.00000E+00
    0.99943E-19        -0.19092E-19         0.00000E+00
    0.10099E-18        -0.18161E-19         0.00000E+00
    0.10256E-18        -0.23283E-20         0.00000E+00
    0.99768E-19        -0.13504E-19         0.00000E+00
    0.97731E-19        -0.46566E-20         0.00000E+00
    0.96974E-19         0.23283E-21         0.00000E+00
    0.93656E-19         0.12107E-19         0.00000E+00
    0.92725E-19         0.16298E-19         0.00000E+00
    0.93540E-19         0.23749E-19         0.00000E+00
    0.95752E-19         0.14203E-19         0.00000E+00
    0.98487E-19         0.79162E-20         0.00000E+00
    0.97614E-19        -0.10710E-19         0.00000E+00
    0.96974E-19        -0.97789E-20         0.00000E+00
    0.98255E-19        -0.20955E-19         0.00000E+00
    0.10128E-18        -0.83819E-20         0.00000E+00
    0.10128E-18        -0.27940E-20         0.00000E+00
    0.99826E-19        -0.74506E-20         0.00000E+00
    0.97963E-19         0.25611E-20         0.00000E+00
    0.98429E-19         0.15367E-19         0.00000E+00
    0.97672E-19        -0.51223E-20         0.00000E+00
    0.95286E-19        -0.10245E-19         0.00000E+00
    0.93947E-19        -0.14435E-19         0.00000E+00
    0.91735E-19         0.32596E-20         0.00000E+00
    0.88825E-19         0.65193E-20         0.00000E+00
    0.88825E-19        -0.37253E-20         0.00000E+00
    0.89058E-19         0.16298E-20         0.00000E+00
    0.88592E-19        -0.62864E-20         0.00000E+00
    0.87777E-19        -0.12107E-19         0.00000E+00
    0.87020E-19        -0.17695E-19         0.00000E+00
    0.86147E-19        -0.15832E-19         0.00000E+00
    0.87195E-19        -0.18161E-19         0.00000E+00
    0.87894E-19        -0.29802E-19         0.00000E+00
    0.89814E-19        -0.26543E-19         0.00000E+00
    0.91561E-19        -0.31898E-19         0.00000E+00
    0.91211E-19        -0.39348E-19         0.00000E+00
    0.89640E-19        -0.33993E-19         0.00000E+00
    0.89000E-19        -0.18626E-19         0.00000E+00
    0.89000E-19        -0.15367E-19         0.00000E+00
    0.89814E-19        -0.17229E-19         0.00000E+00
    0.90746E-19        -0.41910E-20         0.00000E+00
    0.89814E-19         0.48894E-20         0.00000E+00
    0.12224E-20         0.23283E-20         0.00000E+00
    0.69849E-21        -0.25611E-20         0.00000E+00
    0.20955E-20        -0.60536E-20         0.00000E+00
    0.29104E-20        -0.46566E-21         0.00000E+00
    0.46566E-20        -0.10245E-19         0.00000E+00
    0.73342E-20        -0.18859E-19         0.00000E+00
    0.88476E-20        -0.26776E-19         0.00000E+00
    0.10128E-19        -0.29802E-19         0.00000E+00
    0.97789E-20        -0.32131E-19         0.00000E+00
    0.10361E-19        -0.24214E-19         0.00000E+00
    0.13271E-19        -0.31665E-19         0.00000E+00
    0.15134E-19         0.32596E-20         0.00000E+00
    0.15367E-19        -0.10943E-19         0.00000E+00
    0.15250E-19         0.32596E-20         0.00000E+00
    0.14959E-19         0.69849E-21         0.00000E+00
    0.16706E-19         0.16065E-19         0.00000E+00
    0.18103E-19         0.11409E-19         0.00000E+00
    0.19325E-19         0.16298E-19         0.00000E+00
    0.17288E-19         0.13039E-19         0.00000E+00
    0.17695E-19         0.93132E-21         0.00000E+00
    0.21246E-19        -0.17229E-19         0.00000E+00
    0.22934E-19        -0.65193E-20         0.00000E+00
    0.22002E-19        -0.17229E-19         0.00000E+00
    0.17229E-19        -0.79162E-20         0.00000E+00
    0.16880E-19        -0.13970E-20         0.00000E+00
    0.17870E-19        -0.60536E-20         0.00000E+00
    0.20373E-19        -0.41910E-20         0.00000E+00
    0.20314E-19         0.18626E-19         0.00000E+00
    0.17521E-19         0.74506E-20         0.00000E+00
    0.16880E-19        -0.60536E-20         0.00000E+00
    0.16473E-19        -0.60536E-20         0.00000E+00
    0.15832E-19         0.11176E-19         0.00000E+00
    0.15076E-19         0.11409E-19         0.00000E+00
    0.13679E-19        -0.13970E-20         0.00000E+00
    0.12107E-19         0.23283E-20         0.00000E+00
    0.12689E-19        -0.74506E-20         0.00000E+00
    0.11816E-19        -0.67521E-20         0.00000E+00
    0.10885E-19        -0.12573E-19         0.00000E+00
    0.98953E-20        -0.17695E-19         0.00000E+00
    0.80909E-20        -0.13039E-19         0.00000E+00
    0.82073E-20        -0.37951E-19         0.00000E+00
    0.98953E-20        -0.27474E-19         0.00000E+00
    0.93714E-20        -0.39116E-19         0.00000E+00
    0.10186E-19        -0.37020E-19         0.00000E+00
    0.10885E-19        -0.33062E-19         0.00000E+00
    0.11525E-19        -0.15134E-19         0.00000E+00
    0.10303E-19        -0.15367E-19         0.00000E+00
    0.78580E-20        -0.12573E-19         0.00000E+00
    0.62864E-20        -0.13970E-20         0.00000E+00
    0.75088E-20         0.46566E-21         0.00000E+00
   -0.30268E-20         0.23283E-20         0.00000E+00
   -0.41910E-20         0.32596E-20         0.00000E+00
   -0.58208E-20        -0.58208E-20         0.00000E+00
   -0.75088E-20         0.13970E-20         0.00000E+00
   -0.75088E-20        -0.18859E-19         0.00000E+00
   -0.77416E-20        -0.25611E-19         0.00000E+00
   -0.50059E-20        -0.35856E-19         0.00000E+00
   -0.32596E-20        -0.37719E-19         0.00000E+00
   -0.10477E-20        -0.35856E-19         0.00000E+00
   -0.81491E-21        -0.30734E-19         0.00000E+00
   -0.25029E-20        -0.32596E-19         0.00000E+00
   -0.33760E-20        -0.93132E-21         0.00000E+00
    0.11642E-21        -0.18626E-19         0.00000E+00
    0.15716E-20         0.23283E-20         0.00000E+00
    0.27358E-20         0.00000E+00         0.00000E+00
    0.22701E-20         0.10245E-19         0.00000E+00
    0.14552E-20         0.88476E-20         0.00000E+00
   -0.23510E-37         0.19092E-19         0.00000E+00
    0.17462E-20         0.17229E-19         0.00000E+00
    0.23283E-20        -0.37253E-20         0.00000E+00
    0.14552E-20        -0.20023E-19         0.00000E+00
   -0.81491E-21        -0.74506E-20         0.00000E+00
   -0.23283E-21        -0.17229E-19         0.00000E+00
    0.26776E-20        -0.41910E-20         0.00000E+00
    0.34343E-20        -0.18626E-20         0.00000E+00
    0.27358E-20        -0.27940E-20         0.00000E+00
   -0.15716E-20        -0.93132E-21         0.00000E+00
   -0.31432E-20         0.24680E-19         0.00000E+00
   -0.20373E-20         0.11176E-19         0.00000E+00
   -0.75670E-21        -0.69849E-20         0.00000E+00
    0.64028E-21        -0.65193E-20         0.00000E+00
    0.23283E-21         0.14901E-19         0.00000E+00
    0.58208E-21         0.10710E-19         0.00000E+00
    0.22119E-20         0.37253E-20         0.00000E+00
    0.23283E-20         0.32596E-20         0.00000E+00
    0.81491E-21        -0.37253E-20         0.00000E+00
    0.17462E-21        -0.27940E-20         0.00000E+00
    0.14552E-20        -0.10710E-19         0.00000E+00
    0.26776E-20        -0.13039E-19         0.00000E+00
    0.51223E-20        -0.23749E-19         0.00000E+00
    0.59372E-20        -0.37020E-19         0.00000E+00
    0.44238E-20        -0.22817E-19         0.00000E+00
    0.16880E-20        -0.32131E-19         0.00000E+00
   -0.87311E-21        -0.32596E-19         0.00000E+00
   -0.30850E-20        -0.30268E-19         0.00000E+00
   -0.43656E-20        -0.14203E-19         0.00000E+00
   -0.33760E-20        -0.13039E-19         0.00000E+00
    0.40745E-21        -0.15367E-19         0.00000E+00
    0.18044E-20         0.00000E+00         0.00000E+00
    0.00000E+00         0.46566E-21         0.00000E+00
   -0.40745E-20         0.18626E-20         0.00000E+00
   -0.22119E-20        -0.46566E-21         0.00000E+00
   -0.34925E-21        -0.27940E-20         0.00000E+00
    0.22119E-20        -0.23283E-20         0.00000E+00
    0.25611E-20        -0.16764E-19         0.00000E+00
    0.20955E-20        -0.32596E-19         0.00000E+00
    0.13970E-20        -0.37719E-19         0.00000E+00
    0.69849E-21        -0.37253E-19         0.00000E+00
   -0.15134E-20        -0.32596E-19         0.00000E+00
   -0.38417E-20        -0.26543E-19         0.00000E+00
   -0.34925E-20        -0.27707E-19         0.00000E+00
   -0.30850E-20        -0.10710E-19         0.00000E+00
   -0.19791E-20        -0.20955E-19         0.00000E+00
   -0.15716E-20        -0.27940E-20         0.00000E+00
   -0.46566E-21        -0.46566E-20         0.00000E+00
    0.17462E-21         0.11642E-19         0.00000E+00
    0.25611E-20         0.55879E-20         0.00000E+00
    0.36671E-20         0.16298E-19         0.00000E+00
    0.37835E-20         0.12806E-19         0.00000E+00
    0.32596E-20        -0.86147E-20         0.00000E+00
    0.52387E-20        -0.19092E-19         0.00000E+00
    0.61700E-20        -0.27940E-20         0.00000E+00
    0.47148E-20        -0.18161E-19         0.00000E+00
    0.51223E-20        -0.13039E-19         0.00000E+00
    0.51223E-20        -0.83819E-20         0.00000E+00
    0.56461E-20         0.18626E-20         0.00000E+00
    0.93132E-20        -0.27940E-20         0.00000E+00
    0.11700E-19         0.18626E-19         0.00000E+00
    0.12515E-19         0.13970E-20         0.00000E+00
    0.13388E-19        -0.13039E-19         0.00000E+00
    0.13504E-19        -0.65193E-20         0.00000E+00
    0.14610E-19         0.13504E-19         0.00000E+00
    0.13213E-19         0.13970E-19         0.00000E+00
    0.10186E-19         0.51223E-20         0.00000E+00
    0.87311E-20         0.60536E-20         0.00000E+00
    0.94296E-20        -0.23283E-20         0.00000E+00
    0.90222E-20        -0.60536E-20         0.00000E+00
    0.83237E-20        -0.12107E-19         0.00000E+00
    0.62864E-20        -0.11874E-19         0.00000E+00
    0.31432E-20        -0.21886E-19         0.00000E+00
    0.13970E-20        -0.32596E-19         0.00000E+00
    0.75670E-21        -0.18161E-19         0.00000E+00
    0.17462E-21        -0.24913E-19         0.00000E+00
    0.25029E-20        -0.34459E-19         0.00000E+00
    0.33178E-20        -0.25146E-19         0.00000E+00
    0.36671E-20        -0.11176E-19         0.00000E+00
    0.75670E-21        -0.11642E-19         0.00000E+00
   -0.18626E-20        -0.18626E-19         0.00000E+00
   -0.29686E-20         0.00000E+00         0.00000E+00
   -0.18626E-20        -0.32596E-20         0.00000E+00
    0.75670E-21         0.20955E-20         0.00000E+00
   -0.93132E-21        -0.16298E-20         0.00000E+00
   -0.24447E-20        -0.12107E-19         0.00000E+00
   -0.93132E-21        -0.11176E-19         0.00000E+00
    0.81491E-21        -0.17229E-19         0.00000E+00
    0.24447E-20        -0.35390E-19         0.00000E+00
    0.26776E-20        -0.35856E-19         0.00000E+00
    0.22119E-20        -0.30268E-19         0.00000E+00
    0.32014E-20        -0.31898E-19         0.00000E+00
    0.44820E-20        -0.22817E-19         0.00000E+00
    0.49477E-20        -0.31199E-19         0.00000E+00
    0.25611E-20        -0.74506E-20         0.00000E+00
    0.13970E-20        -0.22817E-19         0.00000E+00
    0.87311E-21        -0.37253E-20         0.00000E+00
    0.12806E-20        -0.14435E-19         0.00000E+00
    0.29686E-20         0.25611E-20         0.00000E+00
    0.26193E-20         0.58208E-20         0.00000E+00
    0.18626E-20         0.12107E-19         0.00000E+00
    0.60536E-20         0.18626E-20         0.00000E+00
    0.72177E-20        -0.74506E-20         0.00000E+00
    0.65193E-20        -0.18626E-19         0.00000E+00
    0.65193E-20        -0.69849E-20         0.00000E+00
    0.87311E-20        -0.17229E-19         0.00000E+00
    0.86729E-20        -0.13970E-19         0.00000E+00
    0.80327E-20        -0.60536E-20         0.00000E+00
    0.87894E-20        -0.23283E-20         0.00000E+00
    0.61118E-20         0.32596E-20         0.00000E+00
    0.32014E-20         0.19092E-19         0.00000E+00
    0.75670E-21         0.46566E-20         0.00000E+00
    0.00000E+00        -0.14901E-19         0.00000E+00
    0.29104E-21        -0.12107E-19         0.00000E+00
    0.46566E-21         0.83819E-20         0.00000E+00
    0.13388E-20         0.20489E-19         0.00000E+00
    0.25029E-20         0.65193E-20         0.00000E+00
    0.19209E-20         0.10710E-19         0.00000E+00
    0.23283E-21         0.51223E-20         0.00000E+00
   -0.58208E-21        -0.65193E-20         0.00000E+00
    0.75670E-21        -0.88476E-20         0.00000E+00
    0.23283E-20        -0.13039E-19         0.00000E+00
    0.57044E-20        -0.18859E-19         0.00000E+00
    0.68103E-20        -0.33295E-19         0.00000E+00
    0.72177E-20        -0.14435E-19         0.00000E+00
    0.79744E-20        -0.27940E-19         0.00000E+00
    0.82655E-20        -0.37253E-19         0.00000E+00
    0.73342E-20        -0.24680E-19         0.00000E+00
    0.74506E-20        -0.13737E-19         0.00000E+00
    0.91968E-20         0.00000E+00         0.00000E+00
    0.83237E-20        -0.11176E-19         0.00000E+00
    0.83237E-20        -0.30268E-20         0.00000E+00
    0.72177E-20        -0.13970E-20         0.00000E+00
    0.45984E-20         0.55879E-20         0.00000E+00
    0.49477E-20         0.13970E-20         0.00000E+00
    0.51223E-20        -0.65193E-20         0.00000E+00
    0.36089E-20        -0.97789E-20         0.00000E+00
    0.24447E-20        -0.23283E-19         0.00000E+00
    0.23283E-20        -0.35390E-19         0.00000E+00
    0.20955E-20        -0.38184E-19         0.00000E+00
    0.43074E-20        -0.40280E-19         0.00000E+00
    0.55879E-20        -0.31199E-19         0.00000E+00
    0.39581E-20        -0.18161E-19         0.00000E+00
    0.12806E-20        -0.21886E-19         0.00000E+00
    0.12224E-20        -0.65193E-20         0.00000E+00
    0.17462E-20        -0.18626E-19         0.00000E+00
    0.52387E-21         0.46566E-20         0.00000E+00
   -0.75670E-21        -0.13970E-19         0.00000E+00
   -0.28522E-20         0.34925E-20         0.00000E+00
   -0.38999E-20         0.83819E-20         0.00000E+00
   -0.37253E-20         0.10710E-19         0.00000E+00
   -0.66939E-20        -0.46566E-21         0.00000E+00
   -0.83819E-20        -0.69849E-20         0.00000E+00
   -0.51805E-20        -0.26077E-19         0.00000E+00
   -0.29104E-20        -0.14901E-19         0.00000E+00
   -0.22701E-20        -0.23749E-19         0.00000E+00
   -0.15134E-20        -0.10245E-19         0.00000E+00
   -0.11059E-20        -0.11176E-19         0.00000E+00
    0.12224E-20        -0.46566E-20         0.00000E+00
    0.33178E-20         0.51223E-20         0.00000E+00
    0.41327E-20         0.27474E-19         0.00000E+00
    0.38417E-20         0.14901E-19         0.00000E+00
    0.75670E-21        -0.46566E-20         0.00000E+00
   -0.35507E-20        -0.32596E-20         0.00000E+00
   -0.54715E-20         0.13737E-19         0.00000E+00
   -0.61118E-20         0.16298E-19         0.00000E+00
   -0.50641E-20         0.65193E-20         0.00000E+00
   -0.31432E-20         0.51223E-20         0.00000E+00
    0.58208E-21         0.27940E-20         0.00000E+00
    0.16298E-20        -0.97789E-20         0.00000E+00
    0.18044E-20        -0.16764E-19         0.00000E+00
    0.25611E-20        -0.23050E-19         0.00000E+00
    0.38999E-20        -0.29569E-19         0.00000E+00
    0.42492E-20        -0.38417E-19         0.00000E+00
    0.54715E-20        -0.17229E-19         0.00000E+00
    0.57044E-20        -0.31199E-19         0.00000E+00
    0.57626E-20        -0.35390E-19         0.00000E+00
    0.57044E-20        -0.22817E-19         0.00000E+00
    0.27358E-20        -0.69849E-20         0.00000E+00
    0.98953E-21        -0.53551E-20         0.00000E+00
    0.39581E-20        -0.13970E-19         0.00000E+00
    0.49477E-20        -0.13970E-20         0.00000E+00
    0.51805E-20        -0.46566E-21         0.00000E+00
    0.19732E-19         0.37253E-20         0.00000E+00
    0.17812E-19         0.65193E-20         0.00000E+00
    0.15192E-19        -0.93132E-21         0.00000E+00
    0.11292E-19         0.88476E-20         0.00000E+00
    0.67521E-20        -0.16065E-19         0.00000E+00
    0.40745E-20        -0.31199E-19         0.00000E+00
    0.30268E-20        -0.34692E-19         0.00000E+00
   -0.11642E-21        -0.35390E-19         0.00000E+00
   -0.27940E-20        -0.31199E-19         0.00000E+00
   -0.81491E-21        -0.19558E-19         0.00000E+00
    0.11642E-20        -0.21653E-19         0.00000E+00
   -0.40745E-21         0.46566E-21         0.00000E+00
   -0.32596E-20        -0.10245E-19         0.00000E+00
   -0.50641E-20         0.60536E-20         0.00000E+00
   -0.40163E-20        -0.10245E-19         0.00000E+00
   -0.42492E-20         0.67521E-20         0.00000E+00
   -0.21537E-20         0.23283E-20         0.00000E+00
   -0.17462E-20         0.12107E-19         0.00000E+00
   -0.87311E-21         0.10245E-19         0.00000E+00
   -0.19791E-20        -0.60536E-20         0.00000E+00
   -0.53551E-20        -0.25611E-19         0.00000E+00
   -0.64028E-20        -0.17229E-19         0.00000E+00
   -0.68685E-20        -0.26543E-19         0.00000E+00
   -0.65775E-20        -0.15367E-19         0.00000E+00
   -0.86147E-20        -0.41910E-20         0.00000E+00
   -0.11933E-19        -0.18626E-20         0.00000E+00
   -0.12398E-19        -0.46566E-20         0.00000E+00
   -0.91386E-20         0.19558E-19         0.00000E+00
   -0.75088E-20         0.12573E-19         0.00000E+00
   -0.43656E-20        -0.46566E-21         0.00000E+00
   -0.21537E-20         0.13970E-20         0.00000E+00
   -0.10477E-20         0.16764E-19         0.00000E+00
   -0.15134E-20         0.79162E-20         0.00000E+00
   -0.34925E-21         0.60536E-20         0.00000E+00
   -0.58208E-22        -0.93132E-21         0.00000E+00
   -0.46566E-21        -0.51223E-20         0.00000E+00
   -0.11642E-20        -0.93132E-20         0.00000E+00
    0.11642E-21        -0.19092E-19         0.00000E+00
   -0.69849E-21        -0.21886E-19         0.00000E+00
   -0.29104E-20        -0.23749E-19         0.00000E+00
   -0.66357E-20        -0.30734E-19         0.00000E+00
   -0.67521E-20        -0.24214E-19         0.00000E+00
   -0.61118E-20        -0.28173E-19         0.00000E+00
   -0.68685E-20        -0.36787E-19         0.00000E+00
   -0.69849E-20        -0.22817E-19         0.00000E+00
   -0.22701E-20        -0.12573E-19         0.00000E+00
    0.15134E-20        -0.15600E-19         0.00000E+00
    0.21537E-20        -0.18859E-19         0.00000E+00
    0.23865E-20        -0.23283E-20         0.00000E+00
    0.27358E-20        -0.18626E-20         0.00000E+00
   -0.57626E-20         0.76834E-20         0.00000E+00
   -0.58208E-20         0.83819E-20         0.00000E+00
   -0.49477E-20         0.10943E-19         0.00000E+00
   -0.27940E-20         0.11874E-19         0.00000E+00
   -0.17462E-21        -0.10710E-19         0.00000E+00
    0.93132E-21        -0.27474E-19         0.00000E+00
   -0.16298E-20        -0.23516E-19         0.00000E+00
   -0.23283E-20        -0.25611E-19         0.00000E+00
   -0.11642E-20        -0.36787E-19         0.00000E+00
   -0.46566E-21        -0.27008E-19         0.00000E+00
   -0.58208E-22        -0.27940E-19         0.00000E+00
    0.19209E-20         0.60536E-20         0.00000E+00
    0.41910E-20        -0.86147E-20         0.00000E+00
    0.49477E-20         0.48894E-20         0.00000E+00
    0.37835E-20        -0.27940E-20         0.00000E+00
    0.23865E-20         0.23283E-20         0.00000E+00
    0.35507E-20        -0.23283E-20         0.00000E+00
    0.45402E-20         0.95461E-20         0.00000E+00
    0.41910E-20         0.23283E-20         0.00000E+00
    0.54715E-20        -0.23283E-20         0.00000E+00
    0.61118E-20        -0.17462E-19         0.00000E+00
    0.45402E-20        -0.15832E-19         0.00000E+00
    0.35507E-20        -0.20489E-19         0.00000E+00
    0.93132E-21        -0.69849E-20         0.00000E+00
    0.40745E-21         0.16298E-20         0.00000E+00
    0.32014E-20        -0.93132E-21         0.00000E+00
    0.24447E-20        -0.37253E-20         0.00000E+00
    0.58208E-22         0.13504E-19         0.00000E+00
    0.00000E+00         0.00000E+00         0.00000E+00
    0.22701E-20        -0.88476E-20         0.00000E+00
    0.33178E-20        -0.62864E-20         0.00000E+00
    0.45402E-20         0.16298E-19         0.00000E+00
    0.51805E-20         0.81491E-20         0.00000E+00
    0.51223E-20         0.41910E-20         0.00000E+00
    0.42492E-20         0.27940E-20         0.00000E+00
    0.26776E-20         0.23283E-20         0.00000E+00
    0.16880E-20        -0.14435E-19         0.00000E+00
    0.17462E-21        -0.13737E-19         0.00000E+00
   -0.15134E-20        -0.16531E-19         0.00000E+00
   -0.17462E-20        -0.16065E-19         0.00000E+00
   -0.15134E-20        -0.19092E-19         0.00000E+00
   -0.42492E-20        -0.15600E-19         0.00000E+00
   -0.67521E-20        -0.31898E-19         0.00000E+00
   -0.40163E-20        -0.44703E-19         0.00000E+00
   -0.64028E-21        -0.32363E-19         0.00000E+00
   -0.64028E-21        -0.26543E-19         0.00000E+00
   -0.20955E-20        -0.17229E-19         0.00000E+00
   -0.18626E-20        -0.18161E-19         0.00000E+00
   -0.31432E-20        -0.18626E-20         0.00000E+00
   -0.25611E-20        -0.23283E-20         0.00000E+00
   -0.39581E-20         0.60536E-20         0.00000E+00
   -0.36089E-20         0.44238E-20         0.00000E+00
   -0.13970E-20         0.69849E-21         0.00000E+00
    0.98953E-21        -0.41910E-20         0.00000E+00
    0.12224E-20        -0.13970E-19         0.00000E+00
    0.16880E-20        -0.25379E-19         0.00000E+00
    0.41910E-20        -0.27241E-19         0.00000E+00
    0.69849E-20        -0.33760E-19         0.00000E+00
    0.73924E-20        -0.38417E-19         0.00000E+00
    0.58208E-20        -0.23050E-19         0.00000E+00
    0.40745E-20        -0.21886E-19         0.00000E+00
    0.21537E-20        -0.93132E-21         0.00000E+00
    0.10477E-20        -0.13970E-19         0.00000E+00
   -0.98953E-21         0.13504E-19         0.00000E+00
   -0.13388E-20        -0.53551E-20         0.00000E+00
   -0.11059E-20         0.86147E-20         0.00000E+00
   -0.30850E-20         0.27940E-20         0.00000E+00
   -0.36671E-20         0.10012E-19         0.00000E+00
   -0.47148E-20         0.74506E-20         0.00000E+00
   -0.51223E-20        -0.60536E-20         0.00000E+00
   -0.48312E-20        -0.18626E-19         0.00000E+00
   -0.38417E-20        -0.18161E-19         0.00000E+00
   -0.14552E-20        -0.23749E-19         0.00000E+00
    0.20373E-20        -0.62864E-20         0.00000E+00
    0.21537E-20        -0.67521E-20         0.00000E+00
    0.15716E-20         0.93132E-21         0.00000E+00
    0.46566E-21         0.46566E-20         0.00000E+00
   -0.81491E-21         0.26543E-19         0.00000E+00
   -0.34343E-20         0.93132E-21         0.00000E+00
   -0.45984E-20        -0.10710E-19         0.00000E+00
   -0.59372E-20        -0.69849E-20         0.00000E+00
   -0.61118E-20         0.12806E-19         0.00000E+00
   -0.71595E-20         0.86147E-20         0.00000E+00
   -0.74506E-20         0.37253E-20         0.00000E+00
   -0.71595E-20         0.32596E-20         0.00000E+00
   -0.31432E-20        -0.32596E-20         0.00000E+00
   -0.14552E-20        -0.18161E-19         0.00000E+00
    0.11642E-21        -0.14901E-19         0.00000E+00
    0.34343E-20        -0.21886E-19         0.00000E+00
    0.52969E-20        -0.20023E-19         0.00000E+00
    0.62282E-20        -0.27940E-19         0.00000E+00
    0.88476E-20        -0.69849E-20         0.00000E+00
    0.81491E-20        -0.26543E-19         0.00000E+00
    0.34925E-20        -0.42375E-19         0.00000E+00
    0.52387E-21        -0.30268E-19         0.00000E+00
   -0.19209E-20        -0.15367E-19         0.00000E+00
   -0.24447E-20        -0.17229E-19         0.00000E+00
   -0.38417E-20        -0.11874E-19         0.00000E+00
   -0.52387E-20         0.00000E+00         0.00000E+00
   -0.52387E-20        -0.18626E-20         0.00000E+00
   -0.77416E-20        -0.27940E-20         0.00000E+00
   -0.61118E-20        -0.27940E-20         0.00000E+00
   -0.55879E-20        -0.37253E-20         0.00000E+00
   -0.64028E-20        -0.37253E-20         0.00000E+00
   -0.53551E-20        -0.19791E-19         0.00000E+00
   -0.30850E-20        -0.33528E-19         0.00000E+00
   -0.17462E-20        -0.35390E-19         0.00000E+00
   -0.31432E-20        -0.30035E-19         0.00000E+00
   -0.61700E-20        -0.28638E-19         0.00000E+00
   -0.71013E-20        -0.16531E-19         0.00000E+00
   -0.69849E-20        -0.19092E-19         0.00000E+00
   -0.58208E-20        -0.27940E-20         0.00000E+00
   -0.43074E-20        -0.65193E-20         0.00000E+00
   -0.35507E-20         0.10943E-19         0.00000E+00
   -0.40163E-20        -0.93132E-21         0.00000E+00
   -0.48312E-20         0.30268E-20         0.00000E+00
   -0.25029E-20         0.27940E-20         0.00000E+00
    0.58208E-21         0.53551E-20         0.00000E+00
    0.28522E-20         0.72177E-20         0.00000E+00
    0.40745E-20        -0.72177E-20         0.00000E+00
    0.44820E-20        -0.18626E-19         0.00000E+00
    0.22119E-20        -0.13039E-19         0.00000E+00
   -0.11642E-20        -0.21886E-19         0.00000E+00
   -0.25029E-20        -0.17229E-19         0.00000E+00
   -0.16880E-20        -0.37253E-20         0.00000E+00
   -0.13388E-20        -0.20955E-20         0.00000E+00
   -0.40745E-21         0.60536E-20         0.00000E+00
   -0.17462E-21         0.31199E-19         0.00000E+00
   -0.93132E-21         0.12573E-19         0.00000E+00
   -0.21537E-20        -0.37253E-20         0.00000E+00
   -0.43656E-20        -0.93132E-21         0.00000E+00
   -0.66939E-20         0.19558E-19         0.00000E+00
   -0.84401E-20         0.18859E-19         0.00000E+00
   -0.87311E-20        -0.27940E-20         0.00000E+00
   -0.81491E-20         0.46566E-21         0.00000E+00
   -0.10710E-19        -0.32596E-20         0.00000E+00
   -0.12165E-19        -0.14435E-19         0.00000E+00
   -0.12980E-19        -0.18626E-19         0.00000E+00
   -0.14785E-19        -0.23749E-19         0.00000E+00
   -0.15774E-19        -0.20955E-19         0.00000E+00
   -0.16298E-19        -0.29104E-19         0.00000E+00
   -0.15832E-19        -0.20023E-19         0.00000E+00
   -0.13621E-19        -0.21420E-19         0.00000E+00
   -0.11350E-19        -0.33295E-19         0.00000E+00
   -0.81491E-20        -0.31199E-19         0.00000E+00
   -0.35507E-20        -0.24447E-19         0.00000E+00
   -0.18626E-20        -0.17229E-19         0.00000E+00
    0.13388E-20        -0.16065E-19         0.00000E+00
    0.38417E-20        -0.69849E-20         0.00000E+00
    0.55879E-20         0.00000E+00         0.00000E+00
   -0.40745E-20         0.41910E-20         0.00000E+00
   -0.60536E-20        -0.60536E-20         0.00000E+00
   -0.38417E-20        -0.11642E-19         0.00000E+00
   -0.10477E-20        -0.46566E-20         0.00000E+00
   -0.11642E-20        -0.22585E-19         0.00000E+00
   -0.46566E-20        -0.30734E-19         0.00000E+00
   -0.64028E-20        -0.34459E-19         0.00000E+00
   -0.48894E-20        -0.30268E-19         0.00000E+00
   -0.17462E-20        -0.29337E-19         0.00000E+00
    0.58208E-21        -0.21420E-19         0.00000E+00
    0.12224E-20        -0.22352E-19         0.00000E+00
    0.12806E-20        -0.27940E-20         0.00000E+00
    0.23283E-21        -0.10477E-19         0.00000E+00
    0.15716E-20         0.53551E-20         0.00000E+00
    0.49477E-20        -0.51223E-20         0.00000E+00
    0.65193E-20         0.41910E-20         0.00000E+00
    0.36671E-20         0.32596E-20         0.00000E+00
    0.93132E-21         0.46566E-20         0.00000E+00
   -0.14552E-20         0.27940E-20         0.00000E+00
   -0.43074E-20        -0.37253E-20         0.00000E+00
   -0.57626E-20        -0.18626E-19         0.00000E+00
   -0.57044E-20        -0.18626E-20         0.00000E+00
   -0.54133E-20        -0.17229E-19         0.00000E+00
   -0.53551E-20        -0.11642E-19         0.00000E+00
   -0.71013E-20         0.11642E-20         0.00000E+00
   -0.90222E-20        -0.25611E-20         0.00000E+00
   -0.80909E-20        -0.25611E-20         0.00000E+00
   -0.43656E-20         0.23749E-19         0.00000E+00
   -0.23865E-20         0.83819E-20         0.00000E+00
   -0.16880E-20        -0.23283E-20         0.00000E+00
    0.29104E-21         0.13970E-20         0.00000E+00
    0.14552E-20         0.20955E-19         0.00000E+00
    0.25611E-20         0.15832E-19         0.00000E+00
    0.34343E-20        -0.13970E-20         0.00000E+00
    0.81491E-21         0.46566E-20         0.00000E+00
    0.00000E+00         0.65193E-20         0.00000E+00
   -0.52387E-21        -0.11176E-19         0.00000E+00
   -0.25029E-20        -0.97789E-20         0.00000E+00
   -0.42492E-20        -0.13039E-19         0.00000E+00
   -0.50641E-20        -0.19558E-19         0.00000E+00
   -0.47148E-20        -0.40978E-19         0.00000E+00
   -0.18626E-20        -0.20955E-19         0.00000E+00
   -0.12224E-20        -0.29337E-19         0.00000E+00
   -0.98953E-21        -0.41444E-19         0.00000E+00
   -0.23865E-20        -0.41444E-19         0.00000E+00
   -0.45984E-20        -0.28405E-19         0.00000E+00
   -0.64028E-20        -0.20023E-19         0.00000E+00
   -0.69849E-20        -0.25611E-19         0.00000E+00
   -0.80327E-20        -0.12107E-19         0.00000E+00
   -0.86147E-20         0.11642E-20         0.00000E+00
    0.13039E-19         0.86147E-20         0.00000E+00
    0.12573E-19         0.48894E-20         0.00000E+00
    0.72177E-20        -0.58208E-20         0.00000E+00
    0.25029E-20        -0.74506E-20         0.00000E+00
    0.18626E-20        -0.14901E-19         0.00000E+00
    0.18626E-20        -0.25146E-19         0.00000E+00
    0.20955E-20        -0.30966E-19         0.00000E+00
   -0.93132E-21        -0.32131E-19         0.00000E+00
   -0.48894E-20        -0.30268E-19         0.00000E+00
   -0.59372E-20        -0.20489E-19         0.00000E+00
   -0.61700E-20        -0.29104E-19         0.00000E+00
   -0.37253E-20        -0.23283E-20         0.00000E+00
   -0.37835E-20        -0.13970E-19         0.00000E+00
   -0.32014E-20        -0.11642E-20         0.00000E+00
   -0.23865E-20        -0.18626E-19         0.00000E+00
   -0.29104E-20         0.81491E-20         0.00000E+00
   -0.28522E-20         0.93132E-20         0.00000E+00
   -0.23865E-20         0.16764E-19         0.00000E+00
   -0.41327E-20         0.46566E-20         0.00000E+00
   -0.26776E-20         0.93132E-21         0.00000E+00
   -0.22119E-20        -0.17229E-19         0.00000E+00
   -0.93132E-21        -0.67521E-20         0.00000E+00
   -0.34925E-21        -0.21886E-19         0.00000E+00
   -0.64028E-21        -0.46566E-20         0.00000E+00
    0.00000E+00         0.48894E-20         0.00000E+00
    0.29104E-21        -0.32596E-20         0.00000E+00
   -0.12224E-20        -0.53551E-20         0.00000E+00
   -0.29686E-20         0.15600E-19         0.00000E+00
   -0.23865E-20         0.18626E-20         0.00000E+00
   -0.98953E-21        -0.44238E-20         0.00000E+00
   -0.11642E-21        -0.58208E-20         0.00000E+00
    0.23865E-20         0.16298E-19         0.00000E+00
    0.25029E-20         0.11409E-19         0.00000E+00
    0.24447E-20         0.55879E-20         0.00000E+00
    0.36089E-20         0.27940E-20         0.00000E+00
    0.53551E-20         0.44238E-20         0.00000E+00
    0.55879E-20        -0.23283E-20         0.00000E+00
    0.45402E-20        -0.65193E-20         0.00000E+00
    0.61118E-20        -0.16065E-19         0.00000E+00
    0.70431E-20        -0.16531E-19         0.00000E+00
    0.44820E-20        -0.35856E-19         0.00000E+00
    0.12806E-20        -0.20256E-19         0.00000E+00
    0.58208E-22        -0.32596E-19         0.00000E+00
    0.69849E-21        -0.41677E-19         0.00000E+00
    0.18044E-20        -0.33528E-19         0.00000E+00
    0.16880E-20        -0.22817E-19         0.00000E+00
    0.19791E-20        -0.16997E-19         0.00000E+00
    0.11642E-21        -0.17462E-19         0.00000E+00
    0.11642E-21        -0.65193E-20         0.00000E+00
    0.13388E-20        -0.16298E-20         0.00000E+00
    0.18044E-20         0.18626E-20         0.00000E+00
    0.34925E-20         0.30268E-20         0.00000E+00
    0.65193E-20         0.74506E-20         0.00000E+00
    0.85565E-20        -0.23283E-20         0.00000E+00
    0.87894E-20        -0.15600E-19         0.00000E+00
    0.78580E-20        -0.18161E-19         0.00000E+00
    0.70431E-20        -0.23749E-19         0.00000E+00
    0.62864E-20        -0.25146E-19         0.00000E+00
    0.84401E-20        -0.27940E-19         0.00000E+00
    0.90804E-20        -0.19092E-19         0.00000E+00
    0.62864E-20        -0.21653E-19         0.00000E+00
    0.37253E-20        -0.60536E-20         0.00000E+00
    0.26776E-20        -0.11409E-19         0.00000E+00
    0.15716E-20        -0.46566E-21         0.00000E+00
    0.69849E-21        -0.11176E-19         0.00000E+00
   -0.10477E-20         0.76834E-20         0.00000E+00
   -0.87311E-21         0.58208E-20         0.00000E+00
    0.29104E-21         0.18161E-19         0.00000E+00
   -0.52387E-21         0.13039E-19         0.00000E+00
   -0.12806E-20        -0.60536E-20         0.00000E+00
    0.52387E-21        -0.19558E-19         0.00000E+00
    0.46566E-21        -0.11176E-19         0.00000E+00
    0.93132E-21        -0.24447E-19         0.00000E+00
    0.18626E-20        -0.44238E-20         0.00000E+00
    0.25611E-20        -0.34925E-20         0.00000E+00
    0.36671E-20        -0.23283E-20         0.00000E+00
    0.51223E-20         0.11642E-20         0.00000E+00
    0.36671E-20         0.22352E-19         0.00000E+00
    0.52387E-21         0.93132E-20         0.00000E+00
   -0.87311E-21        -0.81491E-20         0.00000E+00
   -0.64028E-21        -0.12806E-19         0.00000E+00
   -0.11642E-20         0.14203E-19         0.00000E+00
   -0.19209E-20         0.16764E-19         0.00000E+00
   -0.29104E-20         0.48894E-20         0.00000E+00
   -0.49477E-20         0.20955E-20         0.00000E+00
   -0.50059E-20        -0.25611E-20         0.00000E+00
   -0.47730E-20         0.00000E+00         0.00000E+00
   -0.32596E-20        -0.11176E-19         0.00000E+00
   -0.32014E-20        -0.16065E-19         0.00000E+00
   -0.36671E-20        -0.16298E-19         0.00000E+00
   -0.38417E-20        -0.27940E-19         0.00000E+00
   -0.93132E-21        -0.22119E-19         0.00000E+00
    0.64028E-21        -0.32829E-19         0.00000E+00
    0.12224E-20        -0.41444E-19         0.00000E+00
   -0.58208E-22        -0.34692E-19         0.00000E+00
    0.58208E-22        -0.22817E-19         0.00000E+00
    0.11642E-21        -0.17229E-19         0.00000E+00
    0.75670E-21        -0.17928E-19         0.00000E+00
    0.11059E-20        -0.58208E-20         0.00000E+00
   -0.52387E-21        -0.32596E-20         0.00000E+00
    0.15367E-19         0.11642E-20         0.00000E+00
    0.13388E-19         0.27940E-20         0.00000E+00
    0.13621E-19        -0.37253E-20         0.00000E+00
    0.13621E-19         0.46566E-21         0.00000E+00
    0.11874E-19        -0.88476E-20         0.00000E+00
    0.10594E-19        -0.14668E-19         0.00000E+00
    0.94296E-20        -0.17928E-19         0.00000E+00
    0.71013E-20        -0.19558E-19         0.00000E+00
    0.34343E-20        -0.26543E-19         0.00000E+00
    0.23283E-20        -0.15832E-19         0.00000E+00
    0.24447E-20        -0.79162E-20         0.00000E+00
    0.11059E-20         0.46566E-20         0.00000E+00
    0.11642E-20        -0.11176E-19         0.00000E+00
   -0.29104E-21         0.11642E-19         0.00000E+00
   -0.29104E-20        -0.60536E-20         0.00000E+00
   -0.41327E-20         0.14435E-19         0.00000E+00
   -0.38417E-20         0.65193E-20         0.00000E+00
   -0.46566E-20         0.19092E-19         0.00000E+00
   -0.40163E-20         0.12107E-19         0.00000E+00
   -0.15134E-20        -0.12573E-19         0.00000E+00
   -0.20955E-20        -0.16764E-19         0.00000E+00
   -0.27940E-20        -0.14435E-19         0.00000E+00
   -0.28522E-20        -0.23749E-19         0.00000E+00
   -0.41910E-20        -0.69849E-20         0.00000E+00
   -0.33178E-20        -0.69849E-20         0.00000E+00
   -0.25611E-20        -0.62864E-20         0.00000E+00
   -0.19209E-20        -0.13970E-20         0.00000E+00
    0.75670E-21         0.21420E-19         0.00000E+00
    0.30850E-20         0.13504E-19         0.00000E+00
    0.35507E-20        -0.12107E-19         0.00000E+00
    0.20373E-20        -0.74506E-20         0.00000E+00
    0.22119E-20         0.11409E-19         0.00000E+00
    0.31432E-20         0.16065E-19         0.00000E+00
    0.41327E-20         0.93132E-20         0.00000E+00
    0.34343E-20         0.90804E-20         0.00000E+00
    0.13970E-20         0.46566E-21         0.00000E+00
    0.13970E-20        -0.23283E-20         0.00000E+00
    0.13388E-20        -0.14435E-19         0.00000E+00
    0.20955E-20        -0.19092E-19         0.00000E+00
    0.37835E-20        -0.19325E-19         0.00000E+00
    0.44820E-20        -0.36554E-19         0.00000E+00
    0.50641E-20        -0.24680E-19         0.00000E+00
    0.31432E-20        -0.32131E-19         0.00000E+00
    0.26776E-20        -0.36322E-19         0.00000E+00
    0.21537E-20        -0.36787E-19         0.00000E+00
    0.12806E-20        -0.15832E-19         0.00000E+00
   -0.52387E-21        -0.16531E-19         0.00000E+00
   -0.13388E-20        -0.16298E-19         0.00000E+00
   -0.13970E-20        -0.18626E-20         0.00000E+00
   -0.30268E-20         0.20955E-20         0.00000E+00
    0.91968E-20         0.48894E-20         0.00000E+00
    0.87311E-20         0.86147E-20         0.00000E+00
    0.56461E-20         0.67521E-20         0.00000E+00
    0.24447E-20         0.76834E-20         0.00000E+00
    0.12224E-20        -0.60536E-20         0.00000E+00
    0.12806E-20        -0.13970E-19         0.00000E+00
    0.26193E-20        -0.16065E-19         0.00000E+00
    0.48312E-20        -0.17229E-19         0.00000E+00
    0.61700E-20        -0.20955E-19         0.00000E+00
    0.52969E-20        -0.12340E-19         0.00000E+00
    0.58790E-20        -0.15367E-19         0.00000E+00
    0.66357E-20         0.13039E-19         0.00000E+00
    0.50641E-20        -0.10245E-19         0.00000E+00
    0.59954E-20         0.15367E-19         0.00000E+00
    0.62282E-20         0.27940E-20         0.00000E+00
    0.43656E-20         0.14901E-19         0.00000E+00
    0.45402E-20         0.65193E-20         0.00000E+00
    0.52387E-20         0.16764E-19         0.00000E+00
    0.55879E-20         0.97789E-20         0.00000E+00
    0.41910E-20        -0.93132E-20         0.00000E+00
    0.26776E-20        -0.12107E-19         0.00000E+00
    0.16298E-20        -0.12107E-19         0.00000E+00
    0.69849E-21        -0.16298E-19         0.00000E+00
    0.34925E-21        -0.12340E-19         0.00000E+00
    0.75670E-21        -0.83819E-20         0.00000E+00
   -0.13970E-20         0.23283E-21         0.00000E+00
   -0.21537E-20        -0.72177E-20         0.00000E+00
   -0.34343E-20         0.17695E-19         0.00000E+00
   -0.43656E-20         0.83819E-20         0.00000E+00
   -0.40745E-20        -0.41910E-20         0.00000E+00
   -0.39581E-20        -0.46566E-20         0.00000E+00
   -0.30268E-20         0.86147E-20         0.00000E+00
   -0.19791E-20         0.93132E-20         0.00000E+00
   -0.20373E-20         0.83819E-20         0.00000E+00
   -0.13388E-20         0.97789E-20         0.00000E+00
    0.58208E-21         0.37253E-20         0.00000E+00
    0.64028E-21        -0.76834E-20         0.00000E+00
    0.11059E-20        -0.12573E-19         0.00000E+00
   -0.58208E-21        -0.16065E-19         0.00000E+00
   -0.11059E-20        -0.21653E-19         0.00000E+00
   -0.15134E-20        -0.37719E-19         0.00000E+00
   -0.98953E-21        -0.25146E-19         0.00000E+00
   -0.40745E-21        -0.28405E-19         0.00000E+00
    0.40745E-21        -0.37486E-19         0.00000E+00
   -0.11642E-21        -0.33295E-19         0.00000E+00
    0.29104E-21        -0.17229E-19         0.00000E+00
    0.29104E-21        -0.97789E-20         0.00000E+00
   -0.64028E-21        -0.10943E-19         0.00000E+00
   -0.12224E-20        -0.46566E-20         0.00000E+00
    0.34925E-21        -0.23283E-21         0.00000E+00
   -0.15891E-19         0.41910E-20         0.00000E+00
   -0.16065E-19         0.93132E-20         0.00000E+00
   -0.13097E-19         0.11409E-19         0.00000E+00
   -0.10477E-19         0.74506E-20         0.00000E+00
   -0.73342E-20        -0.14901E-19         0.00000E+00
   -0.41327E-20        -0.23749E-19         0.00000E+00
   -0.36089E-20        -0.18626E-19         0.00000E+00
   -0.39581E-20        -0.20489E-19         0.00000E+00
   -0.44238E-20        -0.22817E-19         0.00000E+00
   -0.54715E-20        -0.37253E-20         0.00000E+00
   -0.57044E-20        -0.21886E-19         0.00000E+00
   -0.43074E-20         0.37253E-20         0.00000E+00
   -0.18044E-20        -0.83819E-20         0.00000E+00
   -0.16880E-20         0.53551E-20         0.00000E+00
   -0.11059E-20         0.51223E-20         0.00000E+00
   -0.87311E-21         0.12573E-19         0.00000E+00
   -0.29104E-21         0.10710E-19         0.00000E+00
   -0.16880E-20         0.17229E-19         0.00000E+00
   -0.44820E-20         0.17695E-19         0.00000E+00
   -0.51805E-20        -0.27940E-20         0.00000E+00
   -0.39581E-20        -0.14435E-19         0.00000E+00
   -0.18626E-20        -0.15832E-19         0.00000E+00
    0.12806E-20        -0.21420E-19         0.00000E+00
    0.32014E-20        -0.15134E-19         0.00000E+00
    0.35507E-20        -0.27940E-20         0.00000E+00
    0.38999E-20         0.93132E-21         0.00000E+00
    0.34925E-20        -0.58208E-20         0.00000E+00
    0.27358E-20         0.22817E-19         0.00000E+00
    0.33178E-20         0.37253E-20         0.00000E+00
    0.31432E-20         0.46566E-21         0.00000E+00
    0.19791E-20        -0.60536E-20         0.00000E+00
    0.29104E-21         0.15367E-19         0.00000E+00
   -0.93132E-21         0.10245E-19         0.00000E+00
   -0.98953E-21         0.90804E-20         0.00000E+00
   -0.19791E-20         0.88476E-20         0.00000E+00
   -0.23865E-20         0.18626E-20         0.00000E+00
   -0.22119E-20        -0.79162E-20         0.00000E+00
   -0.37835E-20        -0.79162E-20         0.00000E+00
   -0.26776E-20        -0.16764E-19         0.00000E+00
   -0.10477E-20        -0.25146E-19         0.00000E+00
   -0.11642E-20        -0.34925E-19         0.00000E+00
   -0.29686E-20        -0.23283E-19         0.00000E+00
   -0.33178E-20        -0.26310E-19         0.00000E+00
   -0.27940E-20        -0.40047E-19         0.00000E+00
   -0.22701E-20        -0.33528E-19         0.00000E+00
   -0.22701E-20        -0.25146E-19         0.00000E+00
    0.87311E-21        -0.18394E-19         0.00000E+00
    0.35507E-20        -0.11176E-19         0.00000E+00
    0.38999E-20        -0.37253E-20         0.00000E+00
    0.19791E-20         0.46566E-20         0.00000E+00
   -0.84401E-20         0.18626E-20         0.00000E+00
   -0.91968E-20         0.88476E-20         0.00000E+00
   -0.10186E-19         0.65193E-20         0.00000E+00
   -0.11642E-19         0.27940E-20         0.00000E+00
   -0.13271E-19        -0.14668E-19         0.00000E+00
   -0.14319E-19        -0.32829E-19         0.00000E+00
   -0.12107E-19        -0.25611E-19         0.00000E+00
   -0.93132E-20        -0.27940E-19         0.00000E+00
   -0.68685E-20        -0.24214E-19         0.00000E+00
   -0.30850E-20        -0.15367E-19         0.00000E+00
   -0.58208E-22        -0.19558E-19         0.00000E+00
   -0.23283E-20         0.41910E-20         0.00000E+00
   -0.29686E-20        -0.14435E-19         0.00000E+00
    0.52387E-21         0.46566E-21         0.00000E+00
    0.26776E-20        -0.16298E-20         0.00000E+00
    0.21537E-20         0.15600E-19         0.00000E+00
    0.14552E-20         0.16065E-19         0.00000E+00
    0.12806E-20         0.20955E-19         0.00000E+00
    0.87311E-21         0.20955E-19         0.00000E+00
    0.81491E-21        -0.32596E-20         0.00000E+00
   -0.11059E-20        -0.13970E-19         0.00000E+00
   -0.43074E-20        -0.11176E-19         0.00000E+00
   -0.65775E-20        -0.24680E-19         0.00000E+00
   -0.90804E-20        -0.15367E-19         0.00000E+00
   -0.86729E-20        -0.51223E-20         0.00000E+00
   -0.69849E-20        -0.88476E-20         0.00000E+00
   -0.49477E-20        -0.27940E-20         0.00000E+00
   -0.36671E-20         0.16764E-19         0.00000E+00
   -0.48894E-20         0.69849E-20         0.00000E+00
   -0.38999E-20        -0.55879E-20         0.00000E+00
   -0.27940E-20         0.00000E+00         0.00000E+00
   -0.25029E-20         0.20489E-19         0.00000E+00
   -0.41327E-20         0.15367E-19         0.00000E+00
   -0.59954E-20         0.72177E-20         0.00000E+00
   -0.48894E-20         0.88476E-20         0.00000E+00
   -0.34343E-20        -0.16298E-20         0.00000E+00
   -0.17462E-20        -0.11409E-19         0.00000E+00
   -0.52387E-21        -0.14435E-19         0.00000E+00
    0.11642E-20        -0.19791E-19         0.00000E+00
    0.15716E-20        -0.31199E-19         0.00000E+00
    0.13388E-20        -0.29337E-19         0.00000E+00
    0.87311E-21        -0.21188E-19         0.00000E+00
    0.16880E-20        -0.34226E-19         0.00000E+00
    0.23865E-20        -0.37719E-19         0.00000E+00
    0.10477E-20        -0.28871E-19         0.00000E+00
   -0.17462E-21        -0.22352E-19         0.00000E+00
   -0.34343E-20        -0.16298E-19         0.00000E+00
   -0.71013E-20        -0.95461E-20         0.00000E+00
   -0.94878E-20         0.37253E-20         0.00000E+00
   -0.91386E-20         0.23283E-21         0.00000E+00
   -0.72760E-20         0.00000E+00         0.00000E+00
   -0.64028E-20         0.74506E-20         0.00000E+00
   -0.30850E-20         0.11642E-20         0.00000E+00
    0.29104E-21        -0.23283E-20         0.00000E+00
    0.15716E-20        -0.95461E-20         0.00000E+00
   -0.11642E-21        -0.24680E-19         0.00000E+00
   -0.58208E-21        -0.33528E-19         0.00000E+00
   -0.10477E-20        -0.32596E-19         0.00000E+00
   -0.11059E-20        -0.34459E-19         0.00000E+00
   -0.11059E-20        -0.23749E-19         0.00000E+00
   -0.11059E-20        -0.28638E-19         0.00000E+00
    0.25611E-20         0.32596E-20         0.00000E+00
    0.31432E-20        -0.16298E-19         0.00000E+00
    0.11059E-20        -0.11642E-20         0.00000E+00
    0.14552E-20        -0.69849E-20         0.00000E+00
    0.11059E-20         0.19092E-19         0.00000E+00
    0.21537E-20         0.10245E-19         0.00000E+00
    0.34925E-20         0.17928E-19         0.00000E+00
    0.48894E-20         0.20955E-19         0.00000E+00
    0.44238E-20         0.18626E-20         0.00000E+00
    0.60536E-20        -0.13737E-19         0.00000E+00
    0.75670E-20        -0.88476E-20         0.00000E+00
    0.82655E-20        -0.17462E-19         0.00000E+00
    0.83237E-20        -0.95461E-20         0.00000E+00
    0.71013E-20        -0.41910E-20         0.00000E+00
    0.47148E-20        -0.12107E-19         0.00000E+00
    0.41910E-20         0.18626E-20         0.00000E+00
    0.58208E-22         0.23749E-19         0.00000E+00
   -0.87311E-21         0.11409E-19         0.00000E+00
   -0.23283E-20        -0.69849E-20         0.00000E+00
   -0.44238E-20         0.00000E+00         0.00000E+00
   -0.44820E-20         0.20955E-19         0.00000E+00
   -0.42492E-20         0.18161E-19         0.00000E+00
   -0.19791E-20         0.18626E-20         0.00000E+00
    0.14552E-20        -0.30268E-20         0.00000E+00
    0.32014E-20        -0.69849E-20         0.00000E+00
    0.40745E-20        -0.16764E-19         0.00000E+00
    0.44238E-20        -0.22817E-19         0.00000E+00
    0.50641E-20        -0.22352E-19         0.00000E+00
    0.43074E-20        -0.26077E-19         0.00000E+00
    0.41910E-20        -0.29802E-19         0.00000E+00
    0.43074E-20        -0.17462E-19         0.00000E+00
    0.34925E-20        -0.31199E-19         0.00000E+00
    0.20373E-20        -0.34925E-19         0.00000E+00
    0.75670E-21        -0.24680E-19         0.00000E+00
   -0.29104E-21        -0.15134E-19         0.00000E+00
   -0.23865E-20        -0.46566E-21         0.00000E+00
   -0.16880E-20        -0.69849E-20         0.00000E+00
    0.19209E-20        -0.27940E-20         0.00000E+00
    0.25029E-20        -0.32596E-20         0.00000E+00
    0.44238E-20         0.46566E-20         0.00000E+00
    0.22119E-20         0.81491E-20         0.00000E+00
    0.00000E+00        -0.46566E-20         0.00000E+00
   -0.12806E-20         0.46566E-21         0.00000E+00
   -0.16298E-20        -0.19558E-19         0.00000E+00
    0.28522E-20        -0.30966E-19         0.00000E+00
    0.57044E-20        -0.38417E-19         0.00000E+00
    0.57044E-20        -0.30501E-19         0.00000E+00
    0.45402E-20        -0.30268E-19         0.00000E+00
    0.32596E-20        -0.20955E-19         0.00000E+00
    0.19791E-20        -0.25611E-19         0.00000E+00
   -0.22119E-20         0.13970E-20         0.00000E+00
   -0.43656E-20        -0.97789E-20         0.00000E+00
   -0.52387E-20         0.37253E-20         0.00000E+00
   -0.66357E-20        -0.34925E-20         0.00000E+00
   -0.69267E-20         0.20256E-19         0.00000E+00
   -0.74506E-20         0.88476E-20         0.00000E+00
   -0.89058E-20         0.14901E-19         0.00000E+00
   -0.73342E-20         0.88476E-20         0.00000E+00
   -0.31432E-20        -0.74506E-20         0.00000E+00
   -0.52387E-21        -0.19092E-19         0.00000E+00
   -0.93132E-21        -0.13970E-19         0.00000E+00
   -0.11642E-20        -0.16764E-19         0.00000E+00
   -0.58208E-21        -0.16065E-19         0.00000E+00
    0.18626E-20        -0.48894E-20         0.00000E+00
    0.22119E-20        -0.30268E-20         0.00000E+00
    0.10477E-20         0.25611E-20         0.00000E+00
    0.20373E-20         0.35390E-19         0.00000E+00
    0.15134E-20         0.10710E-19         0.00000E+00
    0.22119E-20        -0.93132E-21         0.00000E+00
    0.27358E-20         0.20955E-20         0.00000E+00
    0.36089E-20         0.16298E-19         0.00000E+00
    0.57044E-20         0.10710E-19         0.00000E+00
    0.61118E-20        -0.18626E-20         0.00000E+00
    0.33178E-20        -0.34925E-20         0.00000E+00
    0.11642E-20        -0.51223E-20         0.00000E+00
   -0.31432E-20        -0.93132E-20         0.00000E+00
   -0.60536E-20        -0.22352E-19         0.00000E+00
   -0.83819E-20        -0.11176E-19         0.00000E+00
   -0.10652E-19        -0.20023E-19         0.00000E+00
   -0.10594E-19        -0.35623E-19         0.00000E+00
   -0.95461E-20        -0.20023E-19         0.00000E+00
   -0.87311E-20        -0.27707E-19         0.00000E+00
   -0.71595E-20        -0.39581E-19         0.00000E+00
   -0.39581E-20        -0.32596E-19         0.00000E+00
    0.40745E-21        -0.21886E-19         0.00000E+00
    0.47730E-20        -0.79162E-20         0.00000E+00
    0.73924E-20        -0.14901E-19         0.00000E+00
    0.73924E-20        -0.72177E-20         0.00000E+00
    0.75670E-20        -0.93132E-21         0.00000E+00
    0.10477E-20         0.37253E-20         0.00000E+00
    0.40745E-20         0.65193E-20         0.00000E+00
    0.51805E-20         0.23283E-21         0.00000E+00
    0.52387E-20         0.46566E-20         0.00000E+00
    0.34925E-20        -0.19325E-19         0.00000E+00
    0.23283E-21        -0.33528E-19         0.00000E+00
   -0.33760E-20        -0.30268E-19         0.00000E+00
   -0.55297E-20        -0.33295E-19         0.00000E+00
   -0.34343E-20        -0.31898E-19         0.00000E+00
   -0.17462E-20        -0.22817E-19         0.00000E+00
   -0.46566E-21        -0.19092E-19         0.00000E+00
    0.11642E-20         0.60536E-20         0.00000E+00
    0.18626E-20        -0.88476E-20         0.00000E+00
    0.15134E-20         0.60536E-20         0.00000E+00
    0.11642E-20        -0.18626E-20         0.00000E+00
    0.37835E-20         0.13970E-19         0.00000E+00
    0.38999E-20         0.19558E-19         0.00000E+00
    0.25611E-20         0.18626E-19         0.00000E+00
    0.34925E-21         0.62864E-20         0.00000E+00
   -0.38417E-20        -0.55879E-20         0.00000E+00
   -0.58208E-20        -0.21886E-19         0.00000E+00
   -0.57044E-20        -0.11176E-19         0.00000E+00
   -0.26776E-20        -0.27940E-19         0.00000E+00
   -0.20955E-20        -0.11642E-19         0.00000E+00
   -0.27940E-20        -0.13271E-19         0.00000E+00
   -0.13388E-20         0.18626E-20         0.00000E+00
   -0.19209E-20         0.23283E-20         0.00000E+00
   -0.58208E-21         0.28405E-19         0.00000E+00
    0.18044E-20         0.10245E-19         0.00000E+00
    0.15134E-20        -0.13970E-20         0.00000E+00
    0.15716E-20        -0.93132E-21         0.00000E+00
    0.13970E-20         0.15367E-19         0.00000E+00
   -0.10477E-20         0.10943E-19         0.00000E+00
   -0.36671E-20         0.69849E-20         0.00000E+00
   -0.41910E-20         0.55879E-20         0.00000E+00
   -0.38417E-20         0.13970E-20         0.00000E+00
   -0.93132E-21        -0.51223E-20         0.00000E+00
   -0.13970E-20        -0.93132E-20         0.00000E+00
   -0.13388E-20        -0.11874E-19         0.00000E+00
    0.12224E-20        -0.20722E-19         0.00000E+00
   -0.64028E-21        -0.34459E-19         0.00000E+00
   -0.10477E-20        -0.20955E-19         0.00000E+00
    0.13388E-20        -0.41211E-19         0.00000E+00
    0.39581E-20        -0.47265E-19         0.00000E+00
    0.33760E-20        -0.41910E-19         0.00000E+00
    0.12806E-20        -0.20722E-19         0.00000E+00
   -0.81491E-21        -0.18626E-19         0.00000E+00
   -0.87311E-21        -0.14435E-19         0.00000E+00
   -0.18626E-20        -0.44238E-20         0.00000E+00
   -0.31432E-20         0.69849E-21         0.00000E+00
   -0.30850E-20         0.23283E-20         0.00000E+00
   -0.44238E-20         0.48894E-20         0.00000E+00
   -0.52969E-20         0.23283E-20         0.00000E+00
   -0.51223E-20         0.13970E-20         0.00000E+00
   -0.47730E-20        -0.11409E-19         0.00000E+00
   -0.44238E-20        -0.20489E-19         0.00000E+00
   -0.37253E-20        -0.29337E-19         0.00000E+00
   -0.37835E-20        -0.30734E-19         0.00000E+00
   -0.62864E-20        -0.28638E-19         0.00000E+00
   -0.10477E-19        -0.15832E-19         0.00000E+00
   -0.11118E-19        -0.23283E-19         0.00000E+00
   -0.11001E-19         0.93132E-21         0.00000E+00
   -0.10652E-19        -0.81491E-20         0.00000E+00
   -0.86729E-20         0.55879E-20         0.00000E+00
   -0.72760E-20        -0.76834E-20         0.00000E+00
   -0.94878E-20         0.17695E-19         0.00000E+00
   -0.75670E-20         0.12806E-19         0.00000E+00
   -0.41327E-20         0.11874E-19         0.00000E+00
   -0.36671E-20         0.19092E-19         0.00000E+00
   -0.45402E-20        -0.46566E-21         0.00000E+00
   -0.22119E-20        -0.20023E-19         0.00000E+00
   -0.26776E-20        -0.14435E-19         0.00000E+00
   -0.45402E-20        -0.28173E-19         0.00000E+00
   -0.61118E-20        -0.93132E-20         0.00000E+00
   -0.69849E-20        -0.90804E-20         0.00000E+00
   -0.68103E-20        -0.58208E-20         0.00000E+00
   -0.57626E-20         0.32596E-20         0.00000E+00
   -0.67521E-20         0.21420E-19         0.00000E+00
   -0.84983E-20         0.12107E-19         0.00000E+00
   -0.82655E-20         0.93132E-21         0.00000E+00
   -0.82655E-20        -0.37253E-20         0.00000E+00
   -0.75088E-20         0.10710E-19         0.00000E+00
   -0.38417E-20         0.13039E-19         0.00000E+00
   -0.87311E-21         0.10710E-19         0.00000E+00
   -0.58208E-21         0.41910E-20         0.00000E+00
   -0.17462E-20         0.46566E-20         0.00000E+00
   -0.44238E-20        -0.93132E-20         0.00000E+00
   -0.38999E-20        -0.93132E-20         0.00000E+00
   -0.30268E-20        -0.18394E-19         0.00000E+00
   -0.40163E-20        -0.13970E-19         0.00000E+00
   -0.40163E-20        -0.28871E-19         0.00000E+00
   -0.47730E-20        -0.23749E-19         0.00000E+00
   -0.66939E-20        -0.40978E-19         0.00000E+00
   -0.97207E-20        -0.46100E-19         0.00000E+00
   -0.10768E-19        -0.36787E-19         0.00000E+00
   -0.11176E-19        -0.19092E-19         0.00000E+00
   -0.11700E-19        -0.97789E-20         0.00000E+00
   -0.11933E-19        -0.16764E-19         0.00000E+00
   -0.12980E-19         0.34925E-20         0.00000E+00
   -0.14494E-19         0.30268E-20         0.00000E+00
   -0.10477E-20         0.65193E-20         0.00000E+00
   -0.10477E-20         0.83819E-20         0.00000E+00
   -0.34925E-21         0.23283E-20         0.00000E+00
    0.52387E-21        -0.30268E-20         0.00000E+00
    0.98953E-21        -0.12107E-19         0.00000E+00
   -0.58208E-21        -0.19558E-19         0.00000E+00
   -0.25611E-20        -0.21886E-19         0.00000E+00
   -0.57626E-20        -0.23050E-19         0.00000E+00
   -0.68685E-20        -0.18161E-19         0.00000E+00
   -0.47730E-20        -0.14901E-19         0.00000E+00
   -0.36089E-20        -0.27008E-19         0.00000E+00
   -0.38417E-20         0.93132E-21         0.00000E+00
   -0.40745E-20        -0.11642E-19         0.00000E+00
   -0.36671E-20        -0.16298E-20         0.00000E+00
   -0.38999E-20        -0.60536E-20         0.00000E+00
   -0.37835E-20         0.18626E-19         0.00000E+00
   -0.39581E-20         0.27940E-20         0.00000E+00
   -0.62864E-20         0.10710E-19         0.00000E+00
   -0.50059E-20         0.18859E-19         0.00000E+00
   -0.40745E-20         0.00000E+00         0.00000E+00
   -0.60536E-20        -0.16298E-19         0.00000E+00
   -0.53551E-20        -0.19092E-19         0.00000E+00
   -0.32014E-20        -0.23516E-19         0.00000E+00
   -0.26193E-20        -0.88476E-20         0.00000E+00
   -0.34343E-20        -0.13970E-20         0.00000E+00
   -0.62864E-20         0.46566E-21         0.00000E+00
   -0.82073E-20         0.39581E-20         0.00000E+00
   -0.70431E-20         0.23749E-19         0.00000E+00
   -0.48894E-20         0.79162E-20         0.00000E+00
   -0.38999E-20        -0.11642E-20         0.00000E+00
   -0.24447E-20        -0.13970E-20         0.00000E+00
   -0.29104E-20         0.76834E-20         0.00000E+00
   -0.54133E-20         0.83819E-20         0.00000E+00
   -0.47148E-20        -0.65193E-20         0.00000E+00
   -0.15134E-20         0.18626E-20         0.00000E+00
    0.69849E-21         0.13970E-20         0.00000E+00
    0.30850E-20        -0.48894E-20         0.00000E+00
    0.24447E-20        -0.88476E-20         0.00000E+00
    0.11642E-20        -0.20489E-19         0.00000E+00
    0.44820E-20        -0.18859E-19         0.00000E+00
    0.55297E-20        -0.30966E-19         0.00000E+00
    0.64028E-20        -0.23749E-19         0.00000E+00
    0.72177E-20        -0.32829E-19         0.00000E+00
    0.69267E-20        -0.36322E-19         0.00000E+00
    0.45984E-20        -0.27474E-19         0.00000E+00
    0.36671E-20        -0.17462E-19         0.00000E+00
    0.30850E-20        -0.65193E-20         0.00000E+00
    0.24447E-20        -0.95461E-20         0.00000E+00
    0.21537E-20         0.46566E-20         0.00000E+00
    0.34925E-20         0.55879E-20         0.00000E+00
   -0.11642E-20         0.79162E-20         0.00000E+00
   -0.93132E-21         0.60536E-20         0.00000E+00
   -0.15716E-20         0.10477E-19         0.00000E+00
   -0.68103E-20         0.55879E-20         0.00000E+00
   -0.10128E-19        -0.11642E-20         0.00000E+00
   -0.10943E-19        -0.19092E-19         0.00000E+00
   -0.81491E-20        -0.22817E-19         0.00000E+00
   -0.43656E-20        -0.23283E-19         0.00000E+00
   -0.25029E-20        -0.25146E-19         0.00000E+00
   -0.23865E-20        -0.15600E-19         0.00000E+00
   -0.27358E-20        -0.18859E-19         0.00000E+00
   -0.34925E-20         0.69849E-21         0.00000E+00
   -0.41910E-20        -0.93132E-20         0.00000E+00
   -0.68103E-20         0.76834E-20         0.00000E+00
   -0.93714E-20         0.41910E-20         0.00000E+00
   -0.11118E-19         0.13504E-19         0.00000E+00
   -0.10419E-19         0.11176E-19         0.00000E+00
   -0.96043E-20         0.12573E-19         0.00000E+00
   -0.91386E-20         0.18626E-20         0.00000E+00
   -0.55879E-20        -0.97789E-20         0.00000E+00
   -0.25611E-20        -0.19092E-19         0.00000E+00
   -0.15134E-20        -0.21420E-19         0.00000E+00
   -0.12806E-20        -0.29802E-19         0.00000E+00
   -0.81491E-21        -0.12107E-19         0.00000E+00
    0.11642E-20        -0.10477E-19         0.00000E+00
    0.48312E-20         0.13970E-20         0.00000E+00
    0.81491E-20        -0.20955E-20         0.00000E+00
    0.78580E-20         0.20023E-19         0.00000E+00
    0.64611E-20         0.65193E-20         0.00000E+00
    0.70431E-20        -0.10012E-19         0.00000E+00
    0.71595E-20        -0.13970E-20         0.00000E+00
    0.75088E-20         0.74506E-20         0.00000E+00
    0.10768E-19         0.62864E-20         0.00000E+00
    0.10186E-19        -0.67521E-20         0.00000E+00
    0.77416E-20        -0.13970E-20         0.00000E+00
    0.53551E-20         0.93132E-21         0.00000E+00
    0.50059E-20        -0.97789E-20         0.00000E+00
    0.73342E-20        -0.13970E-19         0.00000E+00
    0.82655E-20        -0.18161E-19         0.00000E+00
    0.65775E-20        -0.21886E-19         0.00000E+00
    0.32596E-20        -0.27241E-19         0.00000E+00
    0.46566E-21        -0.17229E-19         0.00000E+00
   -0.18626E-20        -0.32829E-19         0.00000E+00
   -0.17462E-20        -0.36322E-19         0.00000E+00
    0.11642E-20        -0.33993E-19         0.00000E+00
    0.29686E-20        -0.21886E-19         0.00000E+00
    0.51805E-20        -0.10710E-19         0.00000E+00
    0.59954E-20        -0.10245E-19         0.00000E+00
    0.55879E-20         0.93132E-21         0.00000E+00
    0.48894E-20         0.30268E-20         0.00000E+00
   -0.57044E-20         0.53551E-20         0.00000E+00
   -0.60536E-20         0.48894E-20         0.00000E+00
   -0.36089E-20         0.83819E-20         0.00000E+00
    0.46566E-21         0.81491E-20         0.00000E+00
    0.34925E-20        -0.25611E-20         0.00000E+00
    0.53551E-20        -0.20023E-19         0.00000E+00
    0.44238E-20        -0.28173E-19         0.00000E+00
    0.19791E-20        -0.27940E-19         0.00000E+00
    0.58208E-21        -0.26776E-19         0.00000E+00
   -0.11642E-21        -0.12806E-19         0.00000E+00
    0.58208E-21        -0.16764E-19         0.00000E+00
    0.46566E-21        -0.46566E-21         0.00000E+00
    0.75670E-21        -0.46566E-20         0.00000E+00
    0.26193E-20         0.97789E-20         0.00000E+00
    0.59372E-20         0.23283E-20         0.00000E+00
    0.60536E-20         0.18859E-19         0.00000E+00
    0.72760E-20         0.53551E-20         0.00000E+00
    0.87311E-20         0.88476E-20         0.00000E+00
    0.82655E-20         0.23283E-20         0.00000E+00
    0.67521E-20        -0.18161E-19         0.00000E+00
    0.65193E-20        -0.23749E-19         0.00000E+00
    0.64028E-20        -0.25611E-19         0.00000E+00
    0.68103E-20        -0.28405E-19         0.00000E+00
    0.66939E-20        -0.16764E-19         0.00000E+00
    0.59372E-20        -0.79162E-20         0.00000E+00
    0.36671E-20        -0.58208E-20         0.00000E+00
    0.14552E-20         0.27940E-20         0.00000E+00
    0.46566E-21         0.20023E-19         0.00000E+00
    0.19209E-20         0.41910E-20         0.00000E+00
    0.36671E-20        -0.15600E-19         0.00000E+00
    0.62282E-20        -0.11176E-19         0.00000E+00
    0.77416E-20         0.74506E-20         0.00000E+00
    0.56461E-20         0.41910E-20         0.00000E+00
    0.45402E-20        -0.93132E-21         0.00000E+00
    0.45402E-20         0.93132E-21         0.00000E+00
    0.66357E-20        -0.16298E-20         0.00000E+00
    0.71013E-20        -0.79162E-20         0.00000E+00
    0.48312E-20        -0.74506E-20         0.00000E+00
   -0.69849E-21        -0.74506E-20         0.00000E+00
   -0.64028E-21        -0.15367E-19         0.00000E+00
    0.17462E-21        -0.21886E-19         0.00000E+00
    0.20955E-20        -0.12573E-19         0.00000E+00
    0.33178E-20        -0.29337E-19         0.00000E+00
    0.23865E-20        -0.33993E-19         0.00000E+00
   -0.12224E-20        -0.34459E-19         0.00000E+00
   -0.39581E-20        -0.16531E-19         0.00000E+00
   -0.59954E-20        -0.16764E-19         0.00000E+00
   -0.55879E-20        -0.83819E-20         0.00000E+00
   -0.40163E-20        -0.74506E-20         0.00000E+00
   -0.16298E-20         0.69849E-21         0.00000E+00
   -0.58208E-22         0.37253E-20         0.00000E+00
    0.23283E-21         0.44238E-20         0.00000E+00
   -0.46566E-21         0.23283E-20         0.00000E+00
   -0.18626E-20         0.46566E-21         0.00000E+00
   -0.26193E-20        -0.10710E-19         0.00000E+00
   -0.22701E-20        -0.21188E-19         0.00000E+00
   -0.52387E-21        -0.25611E-19         0.00000E+00
    0.10477E-20        -0.30268E-19         0.00000E+00
    0.29104E-20        -0.26776E-19         0.00000E+00
    0.40745E-20        -0.18161E-19         0.00000E+00
    0.69267E-20        -0.27707E-19         0.00000E+00
    0.77416E-20        -0.18626E-20         0.00000E+00
    0.68103E-20        -0.55879E-20         0.00000E+00
    0.64611E-20         0.10012E-19         0.00000E+00
    0.48894E-20        -0.67521E-20         0.00000E+00
    0.58208E-20         0.15367E-19         0.00000E+00
    0.76252E-20        -0.23283E-20         0.00000E+00
    0.79744E-20         0.25611E-20         0.00000E+00
    0.85565E-20         0.88476E-20         0.00000E+00
    0.74506E-20        -0.10245E-19         0.00000E+00
    0.64028E-20        -0.20256E-19         0.00000E+00
    0.45402E-20        -0.25611E-19         0.00000E+00
    0.22701E-20        -0.18394E-19         0.00000E+00
    0.23283E-21        -0.15832E-19         0.00000E+00
   -0.87311E-21        -0.58208E-20         0.00000E+00
    0.11642E-21        -0.13970E-20         0.00000E+00
    0.13970E-20         0.69849E-21         0.00000E+00
    0.30850E-20         0.16531E-19         0.00000E+00
    0.19209E-20         0.27940E-20         0.00000E+00
   -0.23283E-21        -0.97789E-20         0.00000E+00
   -0.14552E-20        -0.17462E-19         0.00000E+00
   -0.93132E-21         0.88476E-20         0.00000E+00
    0.58208E-21         0.37253E-20         0.00000E+00
    0.25029E-20        -0.30268E-20         0.00000E+00
    0.30268E-20        -0.18626E-20         0.00000E+00
    0.31432E-20        -0.55879E-20         0.00000E+00
    0.36671E-20        -0.95461E-20         0.00000E+00
    0.75088E-20        -0.79162E-20         0.00000E+00
    0.12282E-19        -0.83819E-20         0.00000E+00
    0.13446E-19        -0.15367E-19         0.00000E+00
    0.11583E-19        -0.20489E-19         0.00000E+00
    0.96625E-20        -0.11642E-19         0.00000E+00
    0.63446E-20        -0.26543E-19         0.00000E+00
    0.73924E-20        -0.29802E-19         0.00000E+00
    0.79744E-20        -0.22352E-19         0.00000E+00
    0.73924E-20        -0.12806E-19         0.00000E+00
    0.72760E-20        -0.10245E-19         0.00000E+00
    0.77998E-20        -0.11409E-19         0.00000E+00
    0.73342E-20        -0.74506E-20         0.00000E+00
    0.52387E-20         0.93132E-21         0.00000E+00
    0.30268E-20         0.41910E-20         0.00000E+00
    0.22119E-20         0.41910E-20         0.00000E+00
    0.30850E-20         0.27940E-20         0.00000E+00
    0.46566E-20         0.00000E+00         0.00000E+00
    0.38417E-20        -0.11176E-19         0.00000E+00
    0.31432E-20        -0.18626E-19         0.00000E+00
    0.11059E-20        -0.28405E-19         0.00000E+00
    0.23283E-21        -0.30966E-19         0.00000E+00
   -0.58208E-22        -0.36787E-19         0.00000E+00
    0.24447E-20        -0.23749E-19         0.00000E+00
    0.22701E-20        -0.31665E-19         0.00000E+00
    0.23283E-20        -0.34925E-20         0.00000E+00
    0.44820E-20        -0.15367E-19         0.00000E+00
    0.87894E-20         0.60536E-20         0.00000E+00
    0.96625E-20         0.93132E-21         0.00000E+00
    0.85565E-20         0.23283E-20         0.00000E+00
    0.80909E-20         0.30268E-20         0.00000E+00
    0.56461E-20         0.93132E-20         0.00000E+00
    0.47148E-20         0.60536E-20         0.00000E+00
    0.52387E-20        -0.65193E-20         0.00000E+00
    0.61700E-20        -0.18859E-19         0.00000E+00
    0.61700E-20        -0.12107E-19         0.00000E+00
    0.55879E-20        -0.15134E-19         0.00000E+00
    0.64611E-20        -0.74506E-20         0.00000E+00
    0.52387E-20        -0.55879E-20         0.00000E+00
    0.57044E-20        -0.18626E-20         0.00000E+00
    0.52969E-20        -0.37253E-20         0.00000E+00
    0.37835E-20         0.18161E-19         0.00000E+00
    0.38999E-20         0.65193E-20         0.00000E+00
    0.68103E-20        -0.14435E-19         0.00000E+00
    0.74506E-20        -0.12573E-19         0.00000E+00
    0.69267E-20         0.39581E-20         0.00000E+00
    0.57626E-20         0.44238E-20         0.00000E+00
    0.48312E-20        -0.46566E-20         0.00000E+00
    0.29686E-20         0.23283E-20         0.00000E+00
    0.13970E-20        -0.20955E-20         0.00000E+00
    0.58208E-21        -0.11642E-19         0.00000E+00
   -0.52387E-21        -0.17229E-19         0.00000E+00
   -0.24447E-20        -0.14203E-19         0.00000E+00
   -0.32014E-20        -0.11176E-19         0.00000E+00
   -0.15134E-20        -0.27474E-19         0.00000E+00
    0.15716E-20        -0.13970E-19         0.00000E+00
    0.41910E-20        -0.21886E-19         0.00000E+00
    0.47730E-20        -0.38883E-19         0.00000E+00
    0.66939E-20        -0.28405E-19         0.00000E+00
    0.86147E-20        -0.13970E-19         0.00000E+00
    0.91386E-20        -0.88476E-20         0.00000E+00
    0.72760E-20        -0.72177E-20         0.00000E+00
    0.35507E-20         0.69849E-20         0.00000E+00
    0.31432E-20        -0.27940E-20         0.00000E+00
    0.15832E-19         0.27940E-20         0.00000E+00
    0.15832E-19         0.90804E-20         0.00000E+00
    0.14144E-19         0.41910E-20         0.00000E+00
    0.13271E-19         0.13970E-20         0.00000E+00
    0.12980E-19        -0.72177E-20         0.00000E+00
    0.14435E-19        -0.20023E-19         0.00000E+00
    0.14610E-19        -0.23283E-19         0.00000E+00
    0.14028E-19        -0.26310E-19         0.00000E+00
    0.11525E-19        -0.28173E-19         0.00000E+00
    0.80327E-20        -0.24214E-19         0.00000E+00
    0.78580E-20        -0.30734E-19         0.00000E+00
    0.80327E-20        -0.10710E-19         0.00000E+00
    0.83237E-20        -0.24214E-19         0.00000E+00
    0.72760E-20        -0.37253E-20         0.00000E+00
    0.10652E-19        -0.90804E-20         0.00000E+00
    0.11350E-19         0.97789E-20         0.00000E+00
    0.80909E-20         0.17695E-19         0.00000E+00
    0.62864E-20         0.16298E-19         0.00000E+00
    0.58208E-20         0.69849E-20         0.00000E+00
    0.34925E-20        -0.79162E-20         0.00000E+00
    0.18626E-20        -0.13737E-19         0.00000E+00
    0.10477E-20        -0.12573E-19         0.00000E+00
    0.27940E-20        -0.26310E-19         0.00000E+00
    0.56461E-20        -0.86147E-20         0.00000E+00
    0.54133E-20         0.32596E-20         0.00000E+00
    0.19209E-20         0.27940E-20         0.00000E+00
    0.26193E-20        -0.27940E-20         0.00000E+00
    0.40745E-20         0.14901E-19         0.00000E+00
    0.56461E-20        -0.23283E-21         0.00000E+00
    0.56461E-20        -0.18626E-19         0.00000E+00
    0.41910E-20        -0.79162E-20         0.00000E+00
    0.30850E-20         0.90804E-20         0.00000E+00
    0.19791E-20         0.14668E-19         0.00000E+00
   -0.69849E-21         0.16298E-20         0.00000E+00
   -0.25029E-20         0.23283E-20         0.00000E+00
   -0.58208E-21        -0.23283E-20         0.00000E+00
   -0.64028E-21        -0.41910E-20         0.00000E+00
   -0.11642E-20        -0.14203E-19         0.00000E+00
   -0.10477E-20        -0.93132E-20         0.00000E+00
    0.13388E-20        -0.18626E-19         0.00000E+00
    0.11642E-21        -0.27707E-19         0.00000E+00
   -0.10477E-20        -0.21420E-19         0.00000E+00
   -0.10477E-20        -0.27241E-19         0.00000E+00
   -0.75670E-21        -0.33528E-19         0.00000E+00
   -0.36671E-20        -0.29802E-19         0.00000E+00
   -0.48312E-20        -0.12340E-19         0.00000E+00
   -0.65193E-20        -0.88476E-20         0.00000E+00
   -0.59372E-20        -0.60536E-20         0.00000E+00
   -0.24447E-20         0.74506E-20         0.00000E+00
   -0.30268E-20         0.20955E-20         0.00000E+00
    0.94878E-20         0.25611E-20         0.00000E+00
    0.87311E-20         0.15134E-19         0.00000E+00
    0.87311E-20         0.62864E-20         0.00000E+00
    0.83819E-20         0.58208E-20         0.00000E+00
    0.80327E-20        -0.10245E-19         0.00000E+00
    0.80327E-20        -0.23516E-19         0.00000E+00
    0.77998E-20        -0.19092E-19         0.00000E+00
    0.68685E-20        -0.18626E-19         0.00000E+00
    0.64028E-20        -0.18626E-19         0.00000E+00
    0.71013E-20        -0.19092E-19         0.00000E+00
    0.69849E-20        -0.28871E-19         0.00000E+00
    0.56461E-20        -0.97789E-20         0.00000E+00
    0.41910E-20        -0.18626E-19         0.00000E+00
    0.40163E-20        -0.23283E-20         0.00000E+00
    0.13388E-20        -0.93132E-20         0.00000E+00
    0.58208E-22         0.15832E-19         0.00000E+00
    0.37835E-20         0.88476E-20         0.00000E+00
    0.64028E-20         0.16764E-19         0.00000E+00
    0.65193E-20         0.11874E-19         0.00000E+00
    0.74506E-20        -0.53551E-20         0.00000E+00
    0.89640E-20        -0.14901E-19         0.00000E+00
    0.82655E-20        -0.79162E-20         0.00000E+00
    0.54715E-20        -0.21420E-19         0.00000E+00
    0.15134E-20        -0.74506E-20         0.00000E+00
    0.98953E-21         0.13970E-20         0.00000E+00
    0.30850E-20         0.32596E-20         0.00000E+00
    0.37835E-20        -0.37253E-20         0.00000E+00
    0.75670E-21         0.18161E-19         0.00000E+00
   -0.23865E-20         0.46566E-20         0.00000E+00
   -0.43656E-20        -0.74506E-20         0.00000E+00
   -0.68685E-20        -0.37253E-20         0.00000E+00
   -0.82655E-20         0.19325E-19         0.00000E+00
   -0.93714E-20         0.19791E-19         0.00000E+00
   -0.87894E-20         0.79162E-20         0.00000E+00
   -0.86147E-20         0.23283E-20         0.00000E+00
   -0.10128E-19        -0.41910E-20         0.00000E+00
   -0.82655E-20        -0.93132E-20         0.00000E+00
   -0.57044E-20        -0.17928E-19         0.00000E+00
   -0.33760E-20        -0.20489E-19         0.00000E+00
   -0.28522E-20        -0.20955E-19         0.00000E+00
   -0.26776E-20        -0.25146E-19         0.00000E+00
   -0.12806E-20        -0.21420E-19         0.00000E+00
   -0.15134E-20        -0.33062E-19         0.00000E+00
   -0.11059E-20        -0.31665E-19         0.00000E+00
   -0.18044E-20        -0.15832E-19         0.00000E+00
   -0.30850E-20        -0.79162E-20         0.00000E+00
   -0.30850E-20        -0.88476E-20         0.00000E+00
   -0.32596E-20        -0.11642E-19         0.00000E+00
   -0.26193E-20        -0.41910E-20         0.00000E+00
   -0.93132E-21         0.60536E-20         0.00000E+00
   -0.69849E-20         0.13970E-20         0.00000E+00
   -0.44238E-20         0.81491E-20         0.00000E+00
   -0.23865E-20         0.34925E-20         0.00000E+00
   -0.18626E-20         0.69849E-20         0.00000E+00
   -0.10477E-20        -0.12806E-19         0.00000E+00
    0.00000E+00        -0.22817E-19         0.00000E+00
    0.29104E-21        -0.23283E-19         0.00000E+00
    0.12224E-20        -0.14901E-19         0.00000E+00
    0.20955E-20        -0.24680E-19         0.00000E+00
    0.19791E-20        -0.17462E-19         0.00000E+00
    0.46566E-21        -0.26543E-19         0.00000E+00
    0.00000E+00        -0.93132E-21         0.00000E+00
   -0.46566E-21        -0.15600E-19         0.00000E+00
   -0.98953E-21        -0.18626E-20         0.00000E+00
   -0.87311E-21        -0.46566E-21         0.00000E+00
   -0.17462E-21         0.15600E-19         0.00000E+00
   -0.28522E-20         0.55879E-20         0.00000E+00
   -0.47730E-20         0.16065E-19         0.00000E+00
   -0.52387E-20         0.13970E-19         0.00000E+00
   -0.98371E-20         0.55879E-20         0.00000E+00
   -0.12165E-19        -0.16764E-19         0.00000E+00
   -0.10303E-19        -0.11176E-19         0.00000E+00
   -0.62864E-20        -0.20489E-19         0.00000E+00
   -0.31432E-20        -0.37253E-20         0.00000E+00
   -0.21537E-20        -0.39581E-20         0.00000E+00
   -0.21537E-20        -0.65193E-20         0.00000E+00
   -0.16880E-20         0.23283E-20         0.00000E+00
   -0.20373E-20         0.28871E-19         0.00000E+00
   -0.20955E-20         0.10710E-19         0.00000E+00
   -0.30850E-20         0.00000E+00         0.00000E+00
   -0.41327E-20         0.46566E-20         0.00000E+00
   -0.41910E-20         0.16298E-19         0.00000E+00
   -0.19791E-20         0.19558E-19         0.00000E+00
   -0.93132E-21         0.20955E-20         0.00000E+00
   -0.12806E-20         0.41910E-20         0.00000E+00
   -0.16880E-20        -0.27940E-20         0.00000E+00
   -0.32014E-20        -0.97789E-20         0.00000E+00
   -0.45984E-20        -0.18626E-19         0.00000E+00
   -0.55879E-20        -0.20722E-19         0.00000E+00
   -0.59954E-20        -0.17462E-19         0.00000E+00
   -0.75088E-20        -0.29337E-19         0.00000E+00
   -0.80327E-20        -0.20489E-19         0.00000E+00
   -0.77416E-20        -0.32363E-19         0.00000E+00
   -0.64611E-20        -0.37020E-19         0.00000E+00
   -0.35507E-20        -0.27474E-19         0.00000E+00
    0.21537E-20        -0.16997E-19         0.00000E+00
    0.40745E-20        -0.10012E-19         0.00000E+00
    0.48894E-20        -0.10943E-19         0.00000E+00
    0.36671E-20        -0.93132E-21         0.00000E+00
    0.24447E-20        -0.25611E-20         0.00000E+00
   -0.79744E-20         0.23283E-20         0.00000E+00
   -0.96625E-20         0.23283E-20         0.00000E+00
   -0.91386E-20        -0.11642E-20         0.00000E+00
   -0.76834E-20         0.16298E-20         0.00000E+00
   -0.73924E-20        -0.14203E-19         0.00000E+00
   -0.71013E-20        -0.25611E-19         0.00000E+00
   -0.71013E-20        -0.26543E-19         0.00000E+00
   -0.66357E-20        -0.21420E-19         0.00000E+00
   -0.62864E-20        -0.27241E-19         0.00000E+00
   -0.67521E-20        -0.15832E-19         0.00000E+00
   -0.66357E-20        -0.18626E-19         0.00000E+00
   -0.72177E-20        -0.23283E-21         0.00000E+00
   -0.75670E-20        -0.10710E-19         0.00000E+00
   -0.91386E-20         0.00000E+00         0.00000E+00
   -0.82655E-20        -0.27940E-20         0.00000E+00
   -0.75670E-20         0.12573E-19         0.00000E+00
   -0.66939E-20         0.16764E-19         0.00000E+00
   -0.74506E-20         0.20256E-19         0.00000E+00
   -0.81491E-20         0.21886E-19         0.00000E+00
   -0.56461E-20         0.74506E-20         0.00000E+00
   -0.44820E-20        -0.14435E-19         0.00000E+00
   -0.62864E-20        -0.13970E-19         0.00000E+00
   -0.77998E-20        -0.30734E-19         0.00000E+00
   -0.72177E-20        -0.11874E-19         0.00000E+00
   -0.59954E-20        -0.48894E-20         0.00000E+00
   -0.57626E-20        -0.41910E-20         0.00000E+00
   -0.46566E-20        -0.93132E-21         0.00000E+00
   -0.32014E-20         0.20489E-19         0.00000E+00
   -0.11642E-20         0.97789E-20         0.00000E+00
   -0.87311E-21         0.00000E+00         0.00000E+00
    0.15716E-20        -0.27940E-20         0.00000E+00
    0.36089E-20         0.11874E-19         0.00000E+00
    0.30268E-20         0.12573E-19         0.00000E+00
    0.16298E-20         0.62864E-20         0.00000E+00
    0.12806E-20         0.11642E-20         0.00000E+00
    0.69849E-21         0.79162E-20         0.00000E+00
   -0.69849E-21        -0.23283E-20         0.00000E+00
   -0.33178E-20        -0.11642E-19         0.00000E+00
   -0.57626E-20        -0.15832E-19         0.00000E+00
   -0.43656E-20        -0.21653E-19         0.00000E+00
   -0.28522E-20        -0.38184E-19         0.00000E+00
    0.11642E-21        -0.20955E-19         0.00000E+00
    0.23283E-21        -0.33760E-19         0.00000E+00
    0.17462E-21        -0.38650E-19         0.00000E+00
   -0.16880E-20        -0.34459E-19         0.00000E+00
   -0.36089E-20        -0.25611E-19         0.00000E+00
   -0.40163E-20        -0.97789E-20         0.00000E+00
   -0.34925E-20        -0.11176E-19         0.00000E+00
   -0.45984E-20         0.60536E-20         0.00000E+00
   -0.52969E-20        -0.18626E-20         0.00000E+00
   -0.11525E-19         0.55879E-20         0.00000E+00
   -0.11176E-19         0.65193E-20         0.00000E+00
   -0.11409E-19        -0.41910E-20         0.00000E+00
   -0.10012E-19        -0.27940E-20         0.00000E+00
   -0.10594E-19        -0.13970E-19         0.00000E+00
   -0.10477E-19        -0.31199E-19         0.00000E+00
   -0.91386E-20        -0.23749E-19         0.00000E+00
   -0.79162E-20        -0.32131E-19         0.00000E+00
   -0.53551E-20        -0.30268E-19         0.00000E+00
   -0.36671E-20        -0.16764E-19         0.00000E+00
   -0.15134E-20        -0.25146E-19         0.00000E+00
   -0.12806E-20         0.69849E-20         0.00000E+00
   -0.19791E-20        -0.13504E-19         0.00000E+00
   -0.15716E-20         0.25611E-20         0.00000E+00
   -0.15716E-20        -0.10477E-19         0.00000E+00
   -0.23283E-20         0.10710E-19         0.00000E+00
   -0.29686E-20         0.14435E-19         0.00000E+00
   -0.58208E-21         0.17229E-19         0.00000E+00
    0.11059E-20         0.18161E-19         0.00000E+00
    0.12806E-20        -0.23283E-20         0.00000E+00
    0.16298E-20        -0.13504E-19         0.00000E+00
    0.22119E-20        -0.10710E-19         0.00000E+00
    0.18626E-20        -0.21886E-19         0.00000E+00
   -0.10477E-20        -0.14435E-19         0.00000E+00
   -0.17462E-20        -0.60536E-20         0.00000E+00
   -0.18044E-20        -0.65193E-20         0.00000E+00
   -0.20373E-20        -0.37253E-20         0.00000E+00
   -0.28522E-20         0.14901E-19         0.00000E+00
   -0.19209E-20         0.18626E-20         0.00000E+00
   -0.64028E-21         0.11642E-20         0.00000E+00
   -0.16880E-20        -0.55879E-20         0.00000E+00
   -0.25029E-20         0.93132E-20         0.00000E+00
   -0.30268E-20         0.20489E-19         0.00000E+00
   -0.27358E-20         0.74506E-20         0.00000E+00
   -0.25029E-20         0.00000E+00         0.00000E+00
   -0.46566E-21         0.13970E-20         0.00000E+00
    0.31432E-20        -0.48894E-20         0.00000E+00
    0.64028E-20        -0.10710E-19         0.00000E+00
    0.89640E-20        -0.23749E-19         0.00000E+00
    0.10186E-19        -0.24680E-19         0.00000E+00
    0.83237E-20        -0.40513E-19         0.00000E+00
    0.56461E-20        -0.19092E-19         0.00000E+00
    0.37835E-20        -0.27008E-19         0.00000E+00
    0.18044E-20        -0.32131E-19         0.00000E+00
    0.64028E-21        -0.27707E-19         0.00000E+00
   -0.11059E-20        -0.12806E-19         0.00000E+00
   -0.38999E-20        -0.74506E-20         0.00000E+00
   -0.58790E-20        -0.55879E-20         0.00000E+00
   -0.55879E-20         0.65193E-20         0.00000E+00
   -0.53551E-20         0.00000E+00         0.00000E+00
   -0.58208E-20         0.23283E-21         0.00000E+00
   -0.59372E-20         0.88476E-20         0.00000E+00
   -0.61700E-20         0.46566E-21         0.00000E+00
   -0.88476E-20         0.93132E-21         0.00000E+00
   -0.88476E-20        -0.18161E-19         0.00000E+00
   -0.77998E-20        -0.27008E-19         0.00000E+00
   -0.66357E-20        -0.31665E-19         0.00000E+00
   -0.54715E-20        -0.42375E-19         0.00000E+00
   -0.48894E-20        -0.35390E-19         0.00000E+00
   -0.42492E-20        -0.20722E-19         0.00000E+00
   -0.36089E-20        -0.33528E-19         0.00000E+00
   -0.22701E-20         0.23283E-20         0.00000E+00
    0.69849E-21        -0.16764E-19         0.00000E+00
   -0.17462E-21         0.51223E-20         0.00000E+00
   -0.34925E-21        -0.23283E-20         0.00000E+00
   -0.18044E-20         0.16298E-19         0.00000E+00
    0.58208E-21         0.74506E-20         0.00000E+00
    0.13388E-20         0.74506E-20         0.00000E+00
    0.19209E-20         0.11176E-19         0.00000E+00
    0.37253E-20        -0.93132E-21         0.00000E+00
    0.36089E-20        -0.17695E-19         0.00000E+00
    0.34925E-20        -0.12107E-19         0.00000E+00
    0.39581E-20        -0.17229E-19         0.00000E+00
    0.47148E-20        -0.10245E-19         0.00000E+00
    0.27358E-20         0.27940E-20         0.00000E+00
    0.13970E-20        -0.79162E-20         0.00000E+00
    0.23283E-21         0.23283E-20         0.00000E+00
   -0.11059E-20         0.17695E-19         0.00000E+00
   -0.46566E-21        -0.23283E-20         0.00000E+00
    0.14552E-20        -0.72177E-20         0.00000E+00
    0.26193E-20        -0.23283E-20         0.00000E+00
    0.25029E-20         0.95461E-20         0.00000E+00
    0.44238E-20         0.16531E-19         0.00000E+00
    0.54133E-20         0.72177E-20         0.00000E+00
    0.34343E-20         0.69849E-20         0.00000E+00
    0.40745E-21        -0.48894E-20         0.00000E+00
   -0.23283E-21        -0.13039E-19         0.00000E+00
    0.29104E-21        -0.19092E-19         0.00000E+00
    0.10477E-20        -0.26543E-19         0.00000E+00
    0.29104E-21        -0.20955E-19         0.00000E+00
    0.87311E-21        -0.31665E-19         0.00000E+00
    0.19209E-20        -0.14901E-19         0.00000E+00
    0.28522E-20        -0.28173E-19         0.00000E+00
    0.35507E-20        -0.33528E-19         0.00000E+00
    0.34343E-20        -0.22585E-19         0.00000E+00
    0.33178E-20        -0.37253E-20         0.00000E+00
    0.32596E-20        -0.23283E-20         0.00000E+00
    0.29104E-20        -0.37253E-20         0.00000E+00
    0.22119E-20         0.69849E-20         0.00000E+00
    0.20373E-20         0.20955E-20         0.00000E+00
    0.69849E-20         0.58208E-20         0.00000E+00
    0.60536E-20         0.65193E-20         0.00000E+00
    0.60536E-20         0.18626E-20         0.00000E+00
    0.70431E-20         0.55879E-20         0.00000E+00
    0.59372E-20        -0.12806E-19         0.00000E+00
    0.32596E-20        -0.28405E-19         0.00000E+00
    0.38417E-20        -0.40047E-19         0.00000E+00
    0.32596E-20        -0.42841E-19         0.00000E+00
    0.29104E-20        -0.31199E-19         0.00000E+00
    0.24447E-20        -0.24680E-19         0.00000E+00
    0.29104E-21        -0.22352E-19         0.00000E+00
   -0.29104E-20        -0.55879E-20         0.00000E+00
   -0.37835E-20        -0.14435E-19         0.00000E+00
   -0.22701E-20        -0.51223E-20         0.00000E+00
   -0.40745E-21        -0.23283E-20         0.00000E+00
    0.40745E-21         0.13504E-19         0.00000E+00
    0.13388E-20         0.00000E+00         0.00000E+00
    0.14552E-20         0.74506E-20         0.00000E+00
    0.22119E-20         0.27940E-20         0.00000E+00
    0.19791E-20        -0.55879E-20         0.00000E+00
    0.27940E-20        -0.12573E-19         0.00000E+00
    0.93132E-21        -0.97789E-20         0.00000E+00
   -0.46566E-21        -0.20489E-19         0.00000E+00
   -0.12224E-20        -0.79162E-20         0.00000E+00
   -0.23283E-21         0.27940E-20         0.00000E+00
    0.11059E-20        -0.18626E-20         0.00000E+00
    0.25611E-20        -0.27940E-20         0.00000E+00
    0.44820E-20         0.14435E-19         0.00000E+00
    0.34343E-20         0.18626E-20         0.00000E+00
    0.14552E-20        -0.10245E-19         0.00000E+00
    0.34925E-21        -0.18626E-20         0.00000E+00
   -0.29104E-21         0.14901E-19         0.00000E+00
   -0.13970E-20         0.10710E-19         0.00000E+00
   -0.19791E-20         0.97789E-20         0.00000E+00
    0.52387E-21         0.74506E-20         0.00000E+00
    0.34925E-20        -0.74506E-20         0.00000E+00
    0.39581E-20        -0.83819E-20         0.00000E+00
    0.31432E-20        -0.22817E-19         0.00000E+00
    0.30268E-20        -0.20955E-19         0.00000E+00
    0.23865E-20        -0.20489E-19         0.00000E+00
    0.87311E-21        -0.31199E-19         0.00000E+00
    0.19209E-20        -0.17695E-19         0.00000E+00
    0.23283E-20        -0.32596E-19         0.00000E+00
    0.25029E-20        -0.34226E-19         0.00000E+00
    0.13970E-20        -0.16764E-19         0.00000E+00
    0.58208E-22        -0.27940E-20         0.00000E+00
   -0.69849E-21        -0.23283E-20         0.00000E+00
   -0.11059E-20         0.46566E-21         0.00000E+00
   -0.16880E-20         0.93132E-20         0.00000E+00
   -0.81491E-21         0.11642E-20         0.00000E+00
    0.23283E-21         0.81491E-20         0.00000E+00
    0.69849E-21         0.72177E-20         0.00000E+00
    0.17462E-20         0.00000E+00         0.00000E+00
    0.29686E-20        -0.69849E-20         0.00000E+00
    0.80909E-20        -0.19092E-19         0.00000E+00
    0.12631E-19        -0.34226E-19         0.00000E+00
    0.11700E-19        -0.37486E-19         0.00000E+00
    0.99535E-20        -0.36554E-19         0.00000E+00
    0.10594E-19        -0.30268E-19         0.00000E+00
    0.10245E-19        -0.20955E-19         0.00000E+00
    0.12224E-19        -0.24447E-19         0.00000E+00
    0.15832E-19        -0.53551E-20         0.00000E+00
    0.16764E-19        -0.19092E-19         0.00000E+00
    0.14319E-19         0.41910E-20         0.00000E+00
    0.10768E-19         0.00000E+00         0.00000E+00
    0.83237E-20         0.14901E-19         0.00000E+00
    0.61118E-20         0.69849E-20         0.00000E+00
    0.34925E-20         0.17229E-19         0.00000E+00
    0.64028E-21         0.12806E-19         0.00000E+00
   -0.81491E-21        -0.37253E-20         0.00000E+00
   -0.13388E-20        -0.13039E-19         0.00000E+00
   -0.47020E-37        -0.93132E-20         0.00000E+00
    0.13970E-20        -0.20955E-19         0.00000E+00
    0.35507E-20        -0.88476E-20         0.00000E+00
    0.43074E-20        -0.37253E-20         0.00000E+00
    0.27358E-20         0.00000E+00         0.00000E+00
    0.19791E-20        -0.74506E-20         0.00000E+00
    0.64028E-21         0.11176E-19         0.00000E+00
    0.13388E-20         0.74506E-20         0.00000E+00
    0.19791E-20        -0.37253E-20         0.00000E+00
    0.13970E-20         0.00000E+00         0.00000E+00
    0.18626E-20         0.12107E-19         0.00000E+00
    0.13388E-20         0.21420E-19         0.00000E+00
    0.34925E-21         0.10245E-19         0.00000E+00
    0.29104E-21         0.00000E+00         0.00000E+00
   -0.12806E-20        -0.51223E-20         0.00000E+00
   -0.54715E-20        -0.27940E-20         0.00000E+00
   -0.76834E-20        -0.15832E-19         0.00000E+00
   -0.93714E-20        -0.22119E-19         0.00000E+00
   -0.85565E-20        -0.20955E-19         0.00000E+00
   -0.85565E-20        -0.31199E-19         0.00000E+00
   -0.10186E-19        -0.11642E-19         0.00000E+00
   -0.14319E-19        -0.19558E-19         0.00000E+00
   -0.17986E-19        -0.24214E-19         0.00000E+00
   -0.17637E-19        -0.23516E-19         0.00000E+00
   -0.13912E-19        -0.69849E-20         0.00000E+00
   -0.11758E-19        -0.51223E-20         0.00000E+00
   -0.80909E-20        -0.83819E-20         0.00000E+00
   -0.61118E-20         0.23283E-20         0.00000E+00
   -0.50059E-20        -0.23283E-20         0.00000E+00
    0.72760E-20         0.34925E-20         0.00000E+00
    0.90804E-20         0.25611E-20         0.00000E+00
    0.10768E-19         0.00000E+00         0.00000E+00
    0.86147E-20        -0.30268E-20         0.00000E+00
    0.27940E-20        -0.23516E-19         0.00000E+00
   -0.13970E-20        -0.31199E-19         0.00000E+00
   -0.25611E-20        -0.29337E-19         0.00000E+00
   -0.26776E-20        -0.37253E-19         0.00000E+00
   -0.13970E-20        -0.36322E-19         0.00000E+00
    0.40745E-21        -0.21886E-19         0.00000E+00
   -0.10477E-20        -0.28405E-19         0.00000E+00
   -0.33760E-20        -0.74506E-20         0.00000E+00
   -0.39581E-20        -0.20256E-19         0.00000E+00
   -0.23865E-20         0.93132E-20         0.00000E+00
    0.11642E-20        -0.27940E-20         0.00000E+00
    0.25029E-20         0.14668E-19         0.00000E+00
    0.27940E-20         0.14668E-19         0.00000E+00
    0.31432E-20         0.22817E-19         0.00000E+00
    0.22701E-20         0.16764E-19         0.00000E+00
    0.58208E-21         0.46566E-20         0.00000E+00
    0.10477E-20        -0.17229E-19         0.00000E+00
    0.16880E-20        -0.14901E-19         0.00000E+00
    0.22119E-20        -0.27474E-19         0.00000E+00
    0.19209E-20        -0.12573E-19         0.00000E+00
    0.36671E-20        -0.51223E-20         0.00000E+00
    0.58790E-20        -0.69849E-20         0.00000E+00
    0.72177E-20         0.00000E+00         0.00000E+00
    0.58790E-20         0.21420E-19         0.00000E+00
    0.19209E-20         0.17462E-19         0.00000E+00
   -0.25029E-20         0.53551E-20         0.00000E+00
   -0.34343E-20         0.34925E-20         0.00000E+00
   -0.52387E-20         0.14203E-19         0.00000E+00
   -0.47148E-20         0.20955E-19         0.00000E+00
   -0.37835E-20         0.81491E-20         0.00000E+00
   -0.48312E-20         0.51223E-20         0.00000E+00
   -0.48894E-20         0.13970E-20         0.00000E+00
   -0.30268E-20         0.13970E-20         0.00000E+00
   -0.38417E-20        -0.74506E-20         0.00000E+00
   -0.71013E-20        -0.69849E-20         0.00000E+00
   -0.97789E-20        -0.20489E-19         0.00000E+00
   -0.11234E-19        -0.29569E-19         0.00000E+00
   -0.95461E-20        -0.11176E-19         0.00000E+00
   -0.58790E-20        -0.19092E-19         0.00000E+00
   -0.20373E-20        -0.26776E-19         0.00000E+00
   -0.18626E-20        -0.26543E-19         0.00000E+00
   -0.33760E-20        -0.12340E-19         0.00000E+00
   -0.32596E-20        -0.12806E-19         0.00000E+00
   -0.33178E-20        -0.18859E-19         0.00000E+00
   -0.19209E-20        -0.46566E-21         0.00000E+00
   -0.15716E-20        -0.13970E-20         0.00000E+00
   -0.10594E-19         0.48894E-20         0.00000E+00
   -0.12456E-19         0.46566E-21         0.00000E+00
   -0.13330E-19         0.00000E+00         0.00000E+00
   -0.12573E-19        -0.23283E-21         0.00000E+00
   -0.10419E-19        -0.69849E-20         0.00000E+00
   -0.10477E-19        -0.26776E-19         0.00000E+00
   -0.79744E-20        -0.34692E-19         0.00000E+00
   -0.77998E-20        -0.30734E-19         0.00000E+00
   -0.10245E-19        -0.38184E-19         0.00000E+00
   -0.10536E-19        -0.29802E-19         0.00000E+00
   -0.88476E-20        -0.25611E-19         0.00000E+00
   -0.94878E-20         0.00000E+00         0.00000E+00
   -0.10012E-19        -0.21420E-19         0.00000E+00
   -0.90222E-20         0.69849E-21         0.00000E+00
   -0.85565E-20        -0.60536E-20         0.00000E+00
   -0.81491E-20         0.10943E-19         0.00000E+00
   -0.67521E-20         0.13970E-19         0.00000E+00
   -0.51223E-20         0.18626E-19         0.00000E+00
   -0.34925E-20         0.20023E-19         0.00000E+00
   -0.17462E-20        -0.20955E-20         0.00000E+00
    0.11642E-21        -0.20489E-19         0.00000E+00
    0.15134E-20        -0.23749E-19         0.00000E+00
    0.29104E-20        -0.28871E-19         0.00000E+00
    0.34343E-20        -0.12573E-19         0.00000E+00
    0.27358E-20        -0.41910E-20         0.00000E+00
   -0.23283E-21        -0.23283E-20         0.00000E+00
   -0.45984E-20         0.74506E-20         0.00000E+00
   -0.56461E-20         0.26543E-19         0.00000E+00
   -0.25029E-20         0.18161E-19         0.00000E+00
    0.34925E-20        -0.30268E-20         0.00000E+00
    0.54133E-20         0.32596E-20         0.00000E+00
    0.49477E-20         0.24214E-19         0.00000E+00
    0.43074E-20         0.18161E-19         0.00000E+00
    0.32596E-20         0.95461E-20         0.00000E+00
    0.30850E-20         0.79162E-20         0.00000E+00
    0.32596E-20         0.53551E-20         0.00000E+00
   -0.52387E-21         0.23283E-20         0.00000E+00
   -0.19209E-20         0.93132E-21         0.00000E+00
    0.34925E-21        -0.88476E-20         0.00000E+00
    0.25029E-20        -0.17928E-19         0.00000E+00
    0.29686E-20        -0.29569E-19         0.00000E+00
    0.33760E-20        -0.18626E-19         0.00000E+00
    0.38417E-20        -0.31199E-19         0.00000E+00
    0.36671E-20        -0.37253E-19         0.00000E+00
    0.36671E-20        -0.16764E-19         0.00000E+00
    0.43074E-20        -0.13970E-19         0.00000E+00
    0.33760E-20        -0.12340E-19         0.00000E+00
    0.87311E-21        -0.79162E-20         0.00000E+00
   -0.21537E-20         0.93132E-21         0.00000E+00
   -0.34925E-20         0.13970E-20         0.00000E+00
    0.11059E-19         0.46566E-20         0.00000E+00
    0.11059E-19         0.83819E-20         0.00000E+00
    0.10128E-19        -0.23283E-20         0.00000E+00
    0.89640E-20        -0.13970E-20         0.00000E+00
    0.82073E-20        -0.11874E-19         0.00000E+00
    0.87311E-20        -0.26543E-19         0.00000E+00
    0.55879E-20        -0.29802E-19         0.00000E+00
    0.44238E-20        -0.27008E-19         0.00000E+00
    0.26776E-20        -0.24680E-19         0.00000E+00
   -0.16880E-20        -0.20023E-19         0.00000E+00
   -0.36671E-20        -0.25146E-19         0.00000E+00
   -0.27940E-20         0.69849E-21         0.00000E+00
   -0.46566E-20        -0.12107E-19         0.00000E+00
   -0.79744E-20         0.46566E-20         0.00000E+00
   -0.95461E-20        -0.32596E-20         0.00000E+00
   -0.11583E-19         0.88476E-20         0.00000E+00
   -0.10536E-19         0.30268E-20         0.00000E+00
   -0.79744E-20         0.14435E-19         0.00000E+00
   -0.68103E-20         0.74506E-20         0.00000E+00
   -0.54715E-20        -0.37253E-20         0.00000E+00
   -0.64028E-20        -0.20489E-19         0.00000E+00
   -0.98953E-20        -0.19558E-19         0.00000E+00
   -0.11409E-19        -0.31665E-19         0.00000E+00
   -0.11292E-19        -0.16298E-19         0.00000E+00
   -0.10943E-19         0.11642E-20         0.00000E+00
   -0.94878E-20        -0.32596E-20         0.00000E+00
   -0.62864E-20         0.97789E-20         0.00000E+00
   -0.59954E-20         0.23749E-19         0.00000E+00
   -0.77416E-20         0.83819E-20         0.00000E+00
   -0.11583E-19         0.32596E-20         0.00000E+00
   -0.14494E-19         0.51223E-20         0.00000E+00
   -0.13388E-19         0.17695E-19         0.00000E+00
   -0.91968E-20         0.60536E-20         0.00000E+00
   -0.53551E-20         0.55879E-20         0.00000E+00
   -0.42492E-20         0.00000E+00         0.00000E+00
   -0.29686E-20         0.32596E-20         0.00000E+00
   -0.58208E-22         0.60536E-20         0.00000E+00
    0.15134E-20        -0.16298E-20         0.00000E+00
    0.58208E-22        -0.69849E-20         0.00000E+00
   -0.13388E-20        -0.19558E-19         0.00000E+00
   -0.29686E-20        -0.30268E-19         0.00000E+00
   -0.22119E-20        -0.19558E-19         0.00000E+00
   -0.26776E-20        -0.28871E-19         0.00000E+00
   -0.27940E-20        -0.36089E-19         0.00000E+00
   -0.14552E-20        -0.28173E-19         0.00000E+00
   -0.52387E-21        -0.12107E-19         0.00000E+00
    0.00000E+00        -0.10245E-19         0.00000E+00
    0.16880E-20        -0.51223E-20         0.00000E+00
    0.28522E-20         0.46566E-20         0.00000E+00
    0.26776E-20         0.13970E-20         0.00000E+00
   -0.26193E-20         0.18626E-20         0.00000E+00
   -0.13970E-20         0.44238E-20         0.00000E+00
   -0.58208E-22         0.93132E-21         0.00000E+00
    0.81491E-21         0.32596E-20         0.00000E+00
   -0.11059E-20        -0.51223E-20         0.00000E+00
   -0.44238E-20        -0.20023E-19         0.00000E+00
   -0.43074E-20        -0.23283E-19         0.00000E+00
   -0.44238E-20        -0.27940E-19         0.00000E+00
   -0.44238E-20        -0.20489E-19         0.00000E+00
   -0.24447E-20        -0.12806E-19         0.00000E+00
   -0.26776E-20        -0.23749E-19         0.00000E+00
   -0.33760E-20         0.23283E-20         0.00000E+00
   -0.38417E-20        -0.65193E-20         0.00000E+00
   -0.39581E-20         0.13970E-19         0.00000E+00
   -0.51223E-20         0.30268E-20         0.00000E+00
   -0.66939E-20         0.13504E-19         0.00000E+00
   -0.79744E-20         0.51223E-20         0.00000E+00
   -0.89640E-20         0.74506E-20         0.00000E+00
   -0.94878E-20         0.74506E-20         0.00000E+00
   -0.10128E-19        -0.88476E-20         0.00000E+00
   -0.73342E-20        -0.23050E-19         0.00000E+00
   -0.33760E-20        -0.17695E-19         0.00000E+00
   -0.30268E-20        -0.28405E-19         0.00000E+00
   -0.28522E-20        -0.19558E-19         0.00000E+00
   -0.13970E-20        -0.51223E-20         0.00000E+00
   -0.16880E-20        -0.46566E-21         0.00000E+00
   -0.18044E-20        -0.27940E-20         0.00000E+00
   -0.58208E-22         0.27008E-19         0.00000E+00
    0.13970E-20         0.76834E-20         0.00000E+00
    0.48894E-20         0.39581E-20         0.00000E+00
    0.85565E-20        -0.46566E-21         0.00000E+00
    0.96043E-20         0.12107E-19         0.00000E+00
    0.66939E-20         0.10012E-19         0.00000E+00
    0.26776E-20         0.69849E-20         0.00000E+00
   -0.69849E-21         0.86147E-20         0.00000E+00
   -0.30268E-20         0.83819E-20         0.00000E+00
   -0.58790E-20        -0.13970E-20         0.00000E+00
   -0.49477E-20        -0.32596E-20         0.00000E+00
   -0.27940E-20        -0.69849E-20         0.00000E+00
   -0.17462E-21        -0.18626E-19         0.00000E+00
    0.17462E-21        -0.35390E-19         0.00000E+00
    0.98953E-21        -0.17695E-19         0.00000E+00
    0.23865E-20        -0.33528E-19         0.00000E+00
    0.40745E-20        -0.41211E-19         0.00000E+00
    0.55297E-20        -0.33528E-19         0.00000E+00
    0.70431E-20        -0.17695E-19         0.00000E+00
    0.79744E-20        -0.16298E-19         0.00000E+00
    0.99535E-20        -0.16298E-19         0.00000E+00
    0.13446E-19         0.11642E-20         0.00000E+00
    0.13039E-19         0.23283E-20         0.00000E+00
   -0.43074E-20         0.23283E-20         0.00000E+00
   -0.53551E-20         0.27940E-20         0.00000E+00
   -0.48894E-20         0.25611E-20         0.00000E+00
   -0.65193E-20         0.18626E-20         0.00000E+00
   -0.51805E-20        -0.93132E-21         0.00000E+00
   -0.20955E-20        -0.18626E-19         0.00000E+00
   -0.11642E-20        -0.27008E-19         0.00000E+00
    0.00000E+00        -0.24214E-19         0.00000E+00
   -0.93132E-21        -0.20489E-19         0.00000E+00
   -0.23283E-21        -0.19092E-19         0.00000E+00
   -0.58208E-22        -0.21653E-19         0.00000E+00
    0.10477E-20         0.44238E-20         0.00000E+00
    0.23283E-20        -0.10245E-19         0.00000E+00
    0.27940E-20         0.10245E-19         0.00000E+00
    0.53551E-20         0.41910E-20         0.00000E+00
    0.54715E-20         0.16065E-19         0.00000E+00
    0.49477E-20         0.13039E-19         0.00000E+00
    0.33178E-20         0.86147E-20         0.00000E+00
    0.30268E-20         0.10943E-19         0.00000E+00
    0.22119E-20        -0.88476E-20         0.00000E+00
    0.13970E-20        -0.31199E-19         0.00000E+00
    0.58208E-21        -0.25379E-19         0.00000E+00
    0.98953E-21        -0.27474E-19         0.00000E+00
    0.00000E+00        -0.17695E-19         0.00000E+00
   -0.13388E-20        -0.41910E-20         0.00000E+00
   -0.98953E-21         0.23283E-20         0.00000E+00
   -0.29104E-21        -0.74506E-20         0.00000E+00
   -0.64028E-21         0.16764E-19         0.00000E+00
   -0.17462E-21         0.37253E-20         0.00000E+00
   -0.17462E-21        -0.95461E-20         0.00000E+00
   -0.46566E-21        -0.10245E-19         0.00000E+00
   -0.23283E-21         0.14901E-19         0.00000E+00
    0.17462E-21         0.22585E-19         0.00000E+00
    0.15716E-20         0.76834E-20         0.00000E+00
    0.40745E-20         0.11642E-19         0.00000E+00
    0.55879E-20         0.65193E-20         0.00000E+00
    0.75088E-20        -0.23283E-20         0.00000E+00
    0.81491E-20        -0.55879E-20         0.00000E+00
    0.66939E-20        -0.97789E-20         0.00000E+00
    0.51805E-20        -0.15600E-19         0.00000E+00
    0.30268E-20        -0.37253E-19         0.00000E+00
    0.25611E-20        -0.21420E-19         0.00000E+00
    0.22701E-20        -0.38417E-19         0.00000E+00
    0.37835E-20        -0.46566E-19         0.00000E+00
    0.37835E-20        -0.33760E-19         0.00000E+00
    0.38999E-20        -0.28871E-19         0.00000E+00
    0.32014E-20        -0.12107E-19         0.00000E+00
    0.81491E-21        -0.20489E-19         0.00000E+00
   -0.17462E-20         0.46566E-21         0.00000E+00
   -0.27940E-20         0.41910E-20         0.00000E+00
   -0.98953E-21         0.41910E-20         0.00000E+00
   -0.17462E-20         0.60536E-20         0.00000E+00
   -0.22119E-20         0.46566E-20         0.00000E+00
   -0.39581E-20         0.74506E-20         0.00000E+00
   -0.49477E-20        -0.10710E-19         0.00000E+00
   -0.57044E-20        -0.20722E-19         0.00000E+00
   -0.57044E-20        -0.28405E-19         0.00000E+00
   -0.50059E-20        -0.33295E-19         0.00000E+00
   -0.18626E-20        -0.27940E-19         0.00000E+00
   -0.93132E-21        -0.18161E-19         0.00000E+00
   -0.26776E-20        -0.20489E-19         0.00000E+00
   -0.30850E-20         0.00000E+00         0.00000E+00
   -0.27940E-20        -0.13039E-19         0.00000E+00
   -0.23865E-20         0.55879E-20         0.00000E+00
   -0.21537E-20        -0.37253E-20         0.00000E+00
   -0.22119E-20         0.17229E-19         0.00000E+00
   -0.64028E-21         0.11642E-19         0.00000E+00
    0.11059E-20         0.16764E-19         0.00000E+00
   -0.64028E-21         0.16298E-19         0.00000E+00
   -0.11642E-20        -0.60536E-20         0.00000E+00
   -0.19791E-20        -0.25146E-19         0.00000E+00
   -0.47730E-20        -0.10245E-19         0.00000E+00
   -0.79744E-20        -0.26543E-19         0.00000E+00
   -0.83819E-20        -0.14435E-19         0.00000E+00
   -0.83819E-20        -0.27940E-20         0.00000E+00
   -0.98371E-20        -0.27940E-20         0.00000E+00
   -0.89058E-20        -0.65193E-20         0.00000E+00
   -0.82073E-20         0.11176E-19         0.00000E+00
   -0.57626E-20        -0.51223E-20         0.00000E+00
   -0.18626E-20        -0.15832E-19         0.00000E+00
   -0.81491E-21        -0.97789E-20         0.00000E+00
   -0.64028E-21         0.15367E-19         0.00000E+00
   -0.40745E-21         0.18626E-19         0.00000E+00
   -0.34925E-21         0.23283E-21         0.00000E+00
   -0.98953E-21         0.37253E-20         0.00000E+00
   -0.46566E-21         0.55879E-20         0.00000E+00
   -0.15134E-20        -0.48894E-20         0.00000E+00
   -0.16880E-20        -0.65193E-20         0.00000E+00
   -0.11642E-21        -0.17695E-19         0.00000E+00
    0.28522E-20        -0.14901E-19         0.00000E+00
    0.34343E-20        -0.33528E-19         0.00000E+00
    0.29686E-20        -0.18161E-19         0.00000E+00
    0.14552E-20        -0.34925E-19         0.00000E+00
   -0.14552E-20        -0.41444E-19         0.00000E+00
   -0.37835E-20        -0.31898E-19         0.00000E+00
   -0.69267E-20        -0.11176E-19         0.00000E+00
   -0.96625E-20        -0.11642E-19         0.00000E+00
   -0.80327E-20        -0.12107E-19         0.00000E+00
   -0.69267E-20        -0.23283E-20         0.00000E+00
   -0.55879E-20         0.18626E-20         0.00000E+00
   -0.87894E-20         0.46566E-20         0.00000E+00
   -0.90804E-20         0.12107E-19         0.00000E+00
   -0.81491E-20         0.60536E-20         0.00000E+00
   -0.83819E-20         0.13271E-19         0.00000E+00
   -0.80327E-20        -0.11642E-19         0.00000E+00
   -0.59372E-20        -0.27474E-19         0.00000E+00
   -0.27358E-20        -0.35390E-19         0.00000E+00
   -0.20955E-20        -0.32596E-19         0.00000E+00
   -0.44238E-20        -0.32596E-19         0.00000E+00
   -0.43656E-20        -0.13039E-19         0.00000E+00
   -0.45402E-20        -0.19092E-19         0.00000E+00
   -0.29104E-20        -0.46566E-20         0.00000E+00
   -0.36089E-20        -0.97789E-20         0.00000E+00
   -0.40745E-20         0.69849E-21         0.00000E+00
   -0.50059E-20         0.18626E-20         0.00000E+00
   -0.47148E-20         0.93132E-20         0.00000E+00
   -0.16880E-20         0.00000E+00         0.00000E+00
   -0.26776E-20         0.19092E-19         0.00000E+00
   -0.16880E-20         0.13970E-19         0.00000E+00
    0.00000E+00        -0.41910E-20         0.00000E+00
   -0.46566E-21        -0.16764E-19         0.00000E+00
    0.23283E-21        -0.10245E-19         0.00000E+00
    0.33760E-20        -0.24214E-19         0.00000E+00
    0.43074E-20        -0.13970E-19         0.00000E+00
    0.59372E-20        -0.95461E-20         0.00000E+00
    0.78580E-20        -0.55879E-20         0.00000E+00
    0.78580E-20        -0.55879E-20         0.00000E+00
    0.58790E-20         0.13737E-19         0.00000E+00
    0.33178E-20        -0.23283E-20         0.00000E+00
   -0.10477E-20        -0.19558E-19         0.00000E+00
   -0.42492E-20        -0.13970E-20         0.00000E+00
   -0.48312E-20         0.13737E-19         0.00000E+00
   -0.25611E-20         0.11409E-19         0.00000E+00
   -0.11642E-20         0.74506E-20         0.00000E+00
   -0.24447E-20         0.25611E-20         0.00000E+00
   -0.17462E-20         0.13970E-20         0.00000E+00
   -0.34925E-21        -0.41910E-20         0.00000E+00
    0.98953E-21        -0.48894E-20         0.00000E+00
   -0.29686E-20        -0.13039E-19         0.00000E+00
   -0.54133E-20        -0.16298E-19         0.00000E+00
   -0.43656E-20        -0.38184E-19         0.00000E+00
   -0.27940E-20        -0.20955E-19         0.00000E+00
   -0.25611E-20        -0.24913E-19         0.00000E+00
   -0.27358E-20        -0.32363E-19         0.00000E+00
   -0.28522E-20        -0.25844E-19         0.00000E+00
   -0.81491E-21        -0.95461E-20         0.00000E+00
   -0.17462E-21        -0.13271E-19         0.00000E+00
   -0.12806E-20        -0.13039E-19         0.00000E+00
   -0.13388E-20        -0.41910E-20         0.00000E+00
   -0.81491E-21         0.00000E+00         0.00000E+00
   -0.17462E-21         0.37253E-20         0.00000E+00
    0.11642E-20         0.83819E-20         0.00000E+00
    0.18626E-20         0.18626E-20         0.00000E+00
    0.41910E-20         0.46566E-20         0.00000E+00
    0.55879E-20        -0.14901E-19         0.00000E+00
    0.40745E-20        -0.27940E-19         0.00000E+00
    0.25611E-20        -0.34925E-19         0.00000E+00
    0.13970E-20        -0.31199E-19         0.00000E+00
    0.27358E-20        -0.29802E-19         0.00000E+00
    0.32596E-20        -0.17695E-19         0.00000E+00
    0.36671E-20        -0.21420E-19         0.00000E+00
    0.36671E-20        -0.46566E-21         0.00000E+00
    0.34343E-20        -0.10245E-19         0.00000E+00
    0.21537E-20         0.46566E-20         0.00000E+00
    0.28522E-20         0.13970E-20         0.00000E+00
    0.33760E-20         0.46566E-20         0.00000E+00
    0.17462E-20         0.46566E-20         0.00000E+00
    0.25611E-20         0.13504E-19         0.00000E+00
    0.46566E-20         0.69849E-20         0.00000E+00
    0.48312E-20        -0.60536E-20         0.00000E+00
    0.40745E-20        -0.16764E-19         0.00000E+00
    0.41910E-20        -0.21420E-19         0.00000E+00
    0.40745E-20        -0.26077E-19         0.00000E+00
    0.26776E-20        -0.14901E-19         0.00000E+00
    0.21537E-20        -0.10012E-19         0.00000E+00
    0.87311E-21        -0.12573E-19         0.00000E+00
    0.16298E-20        -0.23283E-20         0.00000E+00
   -0.64028E-21         0.26543E-19         0.00000E+00
   -0.34343E-20         0.12573E-19         0.00000E+00
   -0.40163E-20        -0.37253E-20         0.00000E+00
   -0.40163E-20        -0.27940E-20         0.00000E+00
   -0.30268E-20         0.60536E-20         0.00000E+00
   -0.36671E-20         0.10710E-19         0.00000E+00
   -0.31432E-20         0.48894E-20         0.00000E+00
   -0.16880E-20         0.23283E-20         0.00000E+00
   -0.12806E-20         0.27940E-20         0.00000E+00
   -0.40745E-20         0.93132E-21         0.00000E+00
   -0.44820E-20        -0.69849E-20         0.00000E+00
   -0.25029E-20        -0.93132E-20         0.00000E+00
    0.52387E-21        -0.14435E-19         0.00000E+00
   -0.19209E-20        -0.33993E-19         0.00000E+00
   -0.55879E-20        -0.16298E-19         0.00000E+00
   -0.55297E-20        -0.27241E-19         0.00000E+00
   -0.39581E-20        -0.41444E-19         0.00000E+00
   -0.16880E-20        -0.26077E-19         0.00000E+00
   -0.19209E-20        -0.14901E-19         0.00000E+00
   -0.19791E-20        -0.69849E-20         0.00000E+00
   -0.98953E-21        -0.17229E-19         0.00000E+00
    0.23283E-21        -0.65193E-20         0.00000E+00
    0.34925E-21         0.93132E-21         0.00000E+00
    0.47730E-20         0.51223E-20         0.00000E+00
    0.32596E-20         0.83819E-20         0.00000E+00
    0.18626E-20         0.65193E-20         0.00000E+00
   -0.20955E-20         0.55879E-20         0.00000E+00
   -0.66939E-20        -0.23283E-20         0.00000E+00
   -0.81491E-20        -0.27940E-19         0.00000E+00
   -0.91968E-20        -0.28871E-19         0.00000E+00
   -0.98371E-20        -0.25379E-19         0.00000E+00
   -0.12107E-19        -0.30734E-19         0.00000E+00
   -0.11642E-19        -0.23283E-19         0.00000E+00
   -0.10128E-19        -0.23516E-19         0.00000E+00
   -0.79162E-20        -0.51223E-20         0.00000E+00
   -0.68103E-20        -0.11176E-19         0.00000E+00
   -0.44820E-20         0.60536E-20         0.00000E+00
   -0.38999E-20        -0.10245E-19         0.00000E+00
   -0.32014E-20         0.11642E-19         0.00000E+00
   -0.52969E-20         0.10245E-19         0.00000E+00
   -0.78580E-20         0.12573E-19         0.00000E+00
   -0.93132E-20         0.83819E-20         0.00000E+00
   -0.90804E-20        -0.46566E-20         0.00000E+00
   -0.72760E-20        -0.23749E-19         0.00000E+00
   -0.61700E-20        -0.22352E-19         0.00000E+00
   -0.56461E-20        -0.25146E-19         0.00000E+00
   -0.46566E-20        -0.16298E-19         0.00000E+00
   -0.40745E-20        -0.74506E-20         0.00000E+00
   -0.46566E-20        -0.27940E-20         0.00000E+00
   -0.68103E-20         0.23283E-20         0.00000E+00
   -0.49477E-20         0.24680E-19         0.00000E+00
   -0.18626E-20         0.14435E-19         0.00000E+00
    0.17462E-21        -0.69849E-20         0.00000E+00
    0.11059E-20        -0.18626E-20         0.00000E+00
    0.11642E-21         0.65193E-20         0.00000E+00
    0.93132E-21         0.37253E-20         0.00000E+00
    0.29686E-20        -0.93132E-21         0.00000E+00
    0.26776E-20        -0.46566E-20         0.00000E+00
    0.36089E-20         0.27940E-20         0.00000E+00
    0.64611E-20        -0.51223E-20         0.00000E+00
    0.73924E-20        -0.97789E-20         0.00000E+00
    0.51805E-20        -0.93132E-20         0.00000E+00
    0.40163E-20        -0.19558E-19         0.00000E+00
    0.51223E-20        -0.25611E-19         0.00000E+00
    0.69849E-20        -0.15367E-19         0.00000E+00
    0.81491E-20        -0.34925E-19         0.00000E+00
    0.66939E-20        -0.35856E-19         0.00000E+00
    0.47730E-20        -0.30501E-19         0.00000E+00
    0.54715E-20        -0.21886E-19         0.00000E+00
    0.76252E-20        -0.12573E-19         0.00000E+00
    0.86147E-20        -0.17229E-19         0.00000E+00
    0.59372E-20        -0.37253E-20         0.00000E+00
    0.54715E-20         0.69849E-21         0.00000E+00
    0.27940E-20         0.51223E-20         0.00000E+00
    0.40745E-20         0.10710E-19         0.00000E+00
    0.60536E-20         0.74506E-20         0.00000E+00
    0.89640E-20         0.93132E-20         0.00000E+00
    0.12398E-19        -0.23283E-20         0.00000E+00
    0.11991E-19        -0.12107E-19         0.00000E+00
    0.89640E-20        -0.20023E-19         0.00000E+00
    0.62864E-20        -0.21886E-19         0.00000E+00
    0.61700E-20        -0.22817E-19         0.00000E+00
    0.34925E-20        -0.19558E-19         0.00000E+00
    0.64028E-21        -0.22352E-19         0.00000E+00
   -0.19209E-20        -0.55879E-20         0.00000E+00
   -0.37835E-20        -0.11642E-19         0.00000E+00
   -0.47148E-20         0.93132E-21         0.00000E+00
   -0.51223E-20        -0.46566E-20         0.00000E+00
   -0.75670E-20         0.13039E-19         0.00000E+00
   -0.45984E-20         0.27940E-20         0.00000E+00
   -0.69849E-21         0.11176E-19         0.00000E+00
    0.14552E-20         0.12107E-19         0.00000E+00
    0.64028E-21        -0.74506E-20         0.00000E+00
   -0.20373E-20        -0.23749E-19         0.00000E+00
   -0.46566E-20        -0.16298E-19         0.00000E+00
   -0.41910E-20        -0.29337E-19         0.00000E+00
   -0.41910E-20        -0.16764E-19         0.00000E+00
   -0.40745E-20        -0.62864E-20         0.00000E+00
   -0.45984E-20        -0.69849E-21         0.00000E+00
   -0.20955E-20         0.25611E-20         0.00000E+00
   -0.23283E-21         0.14435E-19         0.00000E+00
    0.64028E-21         0.55879E-20         0.00000E+00
    0.15716E-20        -0.19092E-19         0.00000E+00
    0.37835E-20        -0.27940E-20         0.00000E+00
    0.38417E-20         0.11176E-19         0.00000E+00
    0.18626E-20         0.69849E-20         0.00000E+00
    0.00000E+00         0.46566E-21         0.00000E+00
   -0.40745E-21         0.18626E-20         0.00000E+00
   -0.64028E-21        -0.79162E-20         0.00000E+00
   -0.81491E-21        -0.79162E-20         0.00000E+00
   -0.69849E-21        -0.88476E-20         0.00000E+00
    0.13970E-20        -0.51223E-20         0.00000E+00
    0.19209E-20        -0.20023E-19         0.00000E+00
    0.13388E-20        -0.33528E-19         0.00000E+00
    0.29104E-21        -0.17695E-19         0.00000E+00
   -0.75670E-21        -0.25146E-19         0.00000E+00
    0.29104E-21        -0.42841E-19         0.00000E+00
    0.33178E-20        -0.33993E-19         0.00000E+00
    0.33178E-20        -0.19092E-19         0.00000E+00
    0.69849E-21        -0.13970E-19         0.00000E+00
   -0.19209E-20        -0.74506E-20         0.00000E+00
   -0.24447E-20        -0.46566E-20         0.00000E+00
   -0.33760E-20         0.27940E-20         0.00000E+00
   -0.41910E-20         0.51223E-20         0.00000E+00
   -0.52387E-20         0.79162E-20         0.00000E+00
   -0.43656E-20         0.46566E-21         0.00000E+00
   -0.43074E-20         0.00000E+00         0.00000E+00
   -0.47730E-20        -0.97789E-20         0.00000E+00
   -0.40745E-20        -0.10710E-19         0.00000E+00
   -0.22119E-20        -0.19558E-19         0.00000E+00
    0.17462E-21        -0.23283E-19         0.00000E+00
    0.29104E-20        -0.29802E-19         0.00000E+00
    0.58208E-20        -0.15367E-19         0.00000E+00
    0.81491E-20        -0.17229E-19         0.00000E+00
    0.83237E-20         0.46566E-20         0.00000E+00
    0.96625E-20        -0.17229E-19         0.00000E+00
    0.89058E-20         0.74506E-20         0.00000E+00
    0.67521E-20         0.23283E-20         0.00000E+00
    0.63446E-20         0.97789E-20         0.00000E+00
    0.55297E-20        -0.32596E-20         0.00000E+00
    0.48312E-20         0.37253E-20         0.00000E+00
    0.44820E-20         0.79162E-20         0.00000E+00
    0.46566E-20         0.25611E-20         0.00000E+00
    0.40163E-20        -0.18161E-19         0.00000E+00
    0.50059E-20        -0.14435E-19         0.00000E+00
    0.26776E-20        -0.20023E-19         0.00000E+00
   -0.12806E-20        -0.62864E-20         0.00000E+00
   -0.29686E-20        -0.41910E-20         0.00000E+00
   -0.64028E-21        -0.16997E-19         0.00000E+00
    0.25611E-20        -0.12806E-19         0.00000E+00
    0.38999E-20         0.10245E-19         0.00000E+00
    0.29686E-20         0.93132E-20         0.00000E+00
   -0.19209E-20        -0.65193E-20         0.00000E+00
   -0.52969E-20        -0.18626E-20         0.00000E+00
   -0.43656E-20         0.74506E-20         0.00000E+00
   -0.25029E-20         0.97789E-20         0.00000E+00
   -0.18626E-20         0.18626E-20         0.00000E+00
   -0.11642E-21        -0.88476E-20         0.00000E+00
    0.19791E-20        -0.79162E-20         0.00000E+00
    0.13388E-20        -0.32596E-20         0.00000E+00
    0.40745E-21        -0.83819E-20         0.00000E+00
    0.22701E-20        -0.19558E-19         0.00000E+00
    0.39581E-20        -0.14901E-19         0.00000E+00
    0.39581E-20        -0.35390E-19         0.00000E+00
    0.46566E-20        -0.23283E-19         0.00000E+00
    0.58208E-20        -0.23050E-19         0.00000E+00
    0.36671E-20        -0.38184E-19         0.00000E+00
    0.34925E-21        -0.32829E-19         0.00000E+00
   -0.75670E-21        -0.14435E-19         0.00000E+00
   -0.12224E-20        -0.65193E-20         0.00000E+00
   -0.64028E-21        -0.23283E-20         0.00000E+00
   -0.29104E-21        -0.18626E-20         0.00000E+00
    0.34925E-21        -0.46566E-21         0.00000E+00
    0.71013E-20         0.83819E-20         0.00000E+00
    0.67521E-20         0.69849E-20         0.00000E+00
    0.48894E-20         0.18626E-20         0.00000E+00
    0.43656E-20         0.00000E+00         0.00000E+00
    0.43074E-20        -0.83819E-20         0.00000E+00
    0.48894E-20        -0.17695E-19         0.00000E+00
    0.62282E-20        -0.23283E-19         0.00000E+00
    0.63446E-20        -0.27940E-19         0.00000E+00
    0.34925E-20        -0.25146E-19         0.00000E+00
   -0.11642E-21        -0.15832E-19         0.00000E+00
   -0.13388E-20        -0.26077E-19         0.00000E+00
   -0.58208E-21         0.00000E+00         0.00000E+00
   -0.29104E-21        -0.16764E-19         0.00000E+00
    0.20373E-20         0.23283E-20         0.00000E+00
    0.64028E-20        -0.93132E-21         0.00000E+00
    0.55879E-20         0.13271E-19         0.00000E+00
    0.34343E-20         0.88476E-20         0.00000E+00
    0.12806E-20         0.83819E-20         0.00000E+00
   -0.14552E-20         0.17229E-19         0.00000E+00
   -0.33760E-20         0.62864E-20         0.00000E+00
   -0.33760E-20        -0.17462E-19         0.00000E+00
   -0.34925E-20        -0.15367E-19         0.00000E+00
   -0.19209E-20        -0.16764E-19         0.00000E+00
    0.15134E-20        -0.12573E-19         0.00000E+00
    0.49477E-20        -0.76834E-20         0.00000E+00
    0.32596E-20        -0.14435E-19         0.00000E+00
   -0.20373E-20        -0.34925E-20         0.00000E+00
   -0.62282E-20         0.15367E-19         0.00000E+00
   -0.58790E-20         0.60536E-20         0.00000E+00
   -0.20373E-20        -0.55879E-20         0.00000E+00
    0.20373E-20        -0.55879E-20         0.00000E+00
    0.19791E-20         0.55879E-20         0.00000E+00
    0.11059E-20         0.60536E-20         0.00000E+00
    0.69849E-21         0.23283E-20         0.00000E+00
   -0.22119E-20        -0.16298E-20         0.00000E+00
   -0.58208E-20        -0.69849E-21         0.00000E+00
   -0.62282E-20        -0.74506E-20         0.00000E+00
   -0.33178E-20        -0.17229E-19         0.00000E+00
   -0.40745E-20        -0.23749E-19         0.00000E+00
   -0.47148E-20        -0.15832E-19         0.00000E+00
   -0.50641E-20        -0.33528E-19         0.00000E+00
   -0.48894E-20        -0.29337E-19         0.00000E+00
   -0.25029E-20        -0.33062E-19         0.00000E+00
    0.18044E-20        -0.37719E-19         0.00000E+00
    0.32014E-20        -0.29337E-19         0.00000E+00
    0.42492E-20        -0.10012E-19         0.00000E+00
    0.45984E-20        -0.65193E-20         0.00000E+00
    0.45402E-20        -0.79162E-20         0.00000E+00
    0.48894E-20        -0.23283E-20         0.00000E+00
    0.51223E-20        -0.69849E-21         0.00000E+00
    0.23283E-20         0.11642E-20         0.00000E+00
    0.51223E-20         0.83819E-20         0.00000E+00
    0.65775E-20         0.51223E-20         0.00000E+00
    0.53551E-20         0.32596E-20         0.00000E+00
    0.45402E-20        -0.88476E-20         0.00000E+00
    0.34925E-20        -0.16298E-19         0.00000E+00
    0.81491E-21        -0.15134E-19         0.00000E+00
   -0.23283E-20        -0.19558E-19         0.00000E+00
   -0.32596E-20        -0.14668E-19         0.00000E+00
   -0.22119E-20        -0.11642E-19         0.00000E+00
   -0.24447E-20        -0.19558E-19         0.00000E+00
   -0.26776E-20        -0.65193E-20         0.00000E+00
   -0.17462E-20        -0.16298E-19         0.00000E+00
   -0.25029E-20        -0.51223E-20         0.00000E+00
   -0.47148E-20        -0.65193E-20         0.00000E+00
   -0.20955E-20         0.79162E-20         0.00000E+00
    0.16880E-20         0.14901E-19         0.00000E+00
    0.93132E-21         0.14901E-19         0.00000E+00
    0.31432E-20         0.15832E-19         0.00000E+00
    0.54133E-20         0.23283E-20         0.00000E+00
    0.61700E-20        -0.19791E-19         0.00000E+00
    0.59372E-20        -0.15367E-19         0.00000E+00
    0.51223E-20        -0.21653E-19         0.00000E+00
    0.39581E-20        -0.16298E-19         0.00000E+00
    0.25611E-20        -0.14435E-19         0.00000E+00
    0.35507E-20        -0.46566E-20         0.00000E+00
    0.58790E-20        -0.93132E-21         0.00000E+00
    0.92550E-20         0.12107E-19         0.00000E+00
    0.10070E-19         0.41910E-20         0.00000E+00
    0.56461E-20        -0.79162E-20         0.00000E+00
    0.37253E-20        -0.11642E-19         0.00000E+00
    0.57044E-20         0.23283E-20         0.00000E+00
    0.62864E-20         0.97789E-20         0.00000E+00
    0.68685E-20         0.18626E-20         0.00000E+00
    0.72760E-20         0.79162E-20         0.00000E+00
    0.70431E-20         0.97789E-20         0.00000E+00
    0.59372E-20        -0.10710E-19         0.00000E+00
    0.27940E-20        -0.12107E-19         0.00000E+00
    0.98953E-21        -0.11176E-19         0.00000E+00
    0.16880E-20        -0.24680E-19         0.00000E+00
    0.20373E-20        -0.27707E-19         0.00000E+00
    0.58208E-22        -0.22352E-19         0.00000E+00
   -0.23865E-20        -0.40047E-19         0.00000E+00
   -0.27358E-20        -0.50757E-19         0.00000E+00
   -0.19791E-20        -0.29569E-19         0.00000E+00
   -0.24447E-20        -0.13970E-19         0.00000E+00
   -0.20955E-20        -0.74506E-20         0.00000E+00
   -0.11642E-20        -0.51223E-20         0.00000E+00
   -0.18626E-20        -0.44238E-20         0.00000E+00
   -0.33760E-20        -0.46566E-21         0.00000E+00
    0.40745E-20         0.44238E-20         0.00000E+00
    0.13970E-20         0.74506E-20         0.00000E+00
    0.14552E-20         0.60536E-20         0.00000E+00
    0.25611E-20         0.48894E-20         0.00000E+00
    0.16880E-20        -0.13970E-20         0.00000E+00
    0.29104E-21        -0.12573E-19         0.00000E+00
    0.23865E-20        -0.17229E-19         0.00000E+00
    0.66939E-20        -0.20489E-19         0.00000E+00
    0.95461E-20        -0.27008E-19         0.00000E+00
    0.12689E-19        -0.15367E-19         0.00000E+00
    0.14435E-19        -0.25611E-19         0.00000E+00
    0.16182E-19        -0.51223E-20         0.00000E+00
    0.13679E-19        -0.11176E-19         0.00000E+00
    0.11118E-19         0.74506E-20         0.00000E+00
    0.90804E-20        -0.23283E-20         0.00000E+00
    0.51805E-20         0.23283E-20         0.00000E+00
    0.38999E-20         0.12107E-19         0.00000E+00
    0.38999E-20         0.17229E-19         0.00000E+00
    0.24447E-20         0.11176E-19         0.00000E+00
    0.15716E-20         0.00000E+00         0.00000E+00
    0.93132E-21        -0.18161E-19         0.00000E+00
   -0.29104E-21        -0.65193E-20         0.00000E+00
   -0.87311E-21        -0.22817E-19         0.00000E+00
   -0.64028E-21        -0.16065E-19         0.00000E+00
    0.46566E-21        -0.93132E-20         0.00000E+00
    0.52387E-21        -0.95461E-20         0.00000E+00
   -0.11059E-20        -0.25611E-20         0.00000E+00
   -0.25611E-20         0.13504E-19         0.00000E+00
   -0.43656E-20         0.79162E-20         0.00000E+00
   -0.32014E-20        -0.20955E-20         0.00000E+00
   -0.33760E-20        -0.83819E-20         0.00000E+00
   -0.60536E-20         0.51223E-20         0.00000E+00
   -0.86729E-20         0.12107E-19         0.00000E+00
   -0.10128E-19         0.88476E-20         0.00000E+00
   -0.11758E-19         0.37253E-20         0.00000E+00
   -0.91968E-20         0.32596E-20         0.00000E+00
   -0.81491E-20        -0.93132E-21         0.00000E+00
   -0.72760E-20        -0.88476E-20         0.00000E+00
   -0.45402E-20        -0.18626E-19         0.00000E+00
   -0.36089E-20        -0.27008E-19         0.00000E+00
   -0.21537E-20        -0.32131E-19         0.00000E+00
    0.34925E-21        -0.18161E-19         0.00000E+00
    0.15134E-20        -0.34692E-19         0.00000E+00
   -0.40745E-21        -0.44703E-19         0.00000E+00
   -0.52387E-21        -0.33528E-19         0.00000E+00
    0.43656E-20        -0.24214E-19         0.00000E+00
    0.67521E-20        -0.16298E-19         0.00000E+00
    0.71595E-20        -0.88476E-20         0.00000E+00
    0.90804E-20         0.69849E-21         0.00000E+00
    0.87311E-20        -0.18626E-20         0.00000E+00
   -0.55879E-20         0.13039E-19         0.00000E+00
   -0.39581E-20         0.60536E-20         0.00000E+00
   -0.32596E-20         0.93132E-21         0.00000E+00
   -0.46566E-21        -0.60536E-20         0.00000E+00
    0.26193E-20        -0.74506E-20         0.00000E+00
    0.71013E-20        -0.22352E-19         0.00000E+00
    0.81491E-20        -0.23283E-19         0.00000E+00
    0.65775E-20        -0.27008E-19         0.00000E+00
    0.41910E-20        -0.24214E-19         0.00000E+00
    0.22701E-20        -0.20023E-19         0.00000E+00
    0.19791E-20        -0.33062E-19         0.00000E+00
    0.24447E-20        -0.37253E-20         0.00000E+00
    0.29104E-20        -0.74506E-20         0.00000E+00
    0.44820E-20         0.48894E-20         0.00000E+00
    0.56461E-20         0.53551E-20         0.00000E+00
    0.50641E-20         0.12573E-19         0.00000E+00
    0.55297E-20         0.11176E-19         0.00000E+00
    0.51223E-20         0.26543E-19         0.00000E+00
    0.43656E-20         0.19092E-19         0.00000E+00
    0.27940E-20        -0.41910E-20         0.00000E+00
    0.36089E-20        -0.14435E-19         0.00000E+00
    0.51223E-20        -0.11642E-19         0.00000E+00
    0.66357E-20        -0.25146E-19         0.00000E+00
    0.57044E-20        -0.13271E-19         0.00000E+00
    0.33178E-20        -0.46566E-20         0.00000E+00
    0.35507E-20        -0.13039E-19         0.00000E+00
    0.41910E-20         0.18626E-20         0.00000E+00
    0.40163E-20         0.20955E-19         0.00000E+00
    0.34925E-20         0.14901E-19         0.00000E+00
    0.64028E-21         0.32596E-20         0.00000E+00
   -0.21537E-20         0.41910E-20         0.00000E+00
   -0.30850E-20         0.16764E-19         0.00000E+00
   -0.39581E-20         0.16298E-19         0.00000E+00
   -0.27940E-20         0.83819E-20         0.00000E+00
   -0.16880E-20        -0.93132E-21         0.00000E+00
   -0.19791E-20        -0.23283E-20         0.00000E+00
   -0.23283E-21        -0.60536E-20         0.00000E+00
    0.17462E-21        -0.10245E-19         0.00000E+00
   -0.64028E-21        -0.22817E-19         0.00000E+00
    0.14552E-20        -0.36322E-19         0.00000E+00
    0.39581E-20        -0.42608E-19         0.00000E+00
    0.48312E-20        -0.25146E-19         0.00000E+00
    0.61118E-20        -0.37719E-19         0.00000E+00
    0.82073E-20        -0.40513E-19         0.00000E+00
    0.62282E-20        -0.35856E-19         0.00000E+00
    0.20373E-20        -0.26077E-19         0.00000E+00
   -0.58208E-22        -0.15367E-19         0.00000E+00
    0.46566E-21        -0.14203E-19         0.00000E+00
    0.18044E-20        -0.65193E-20         0.00000E+00
    0.26776E-20        -0.60536E-20         0.00000E+00
   -0.13970E-20         0.79162E-20         0.00000E+00
   -0.15134E-20         0.46566E-20         0.00000E+00
   -0.24447E-20        -0.27940E-20         0.00000E+00
   -0.33760E-20        -0.67521E-20         0.00000E+00
   -0.52969E-20        -0.14435E-19         0.00000E+00
   -0.65193E-20        -0.27940E-19         0.00000E+00
   -0.53551E-20        -0.26543E-19         0.00000E+00
   -0.43074E-20        -0.19092E-19         0.00000E+00
   -0.31432E-20        -0.23749E-19         0.00000E+00
   -0.18626E-20        -0.16298E-19         0.00000E+00
   -0.33760E-20        -0.30268E-19         0.00000E+00
   -0.41910E-20        -0.55879E-20         0.00000E+00
   -0.26776E-20        -0.10710E-19         0.00000E+00
   -0.34925E-20         0.74506E-20         0.00000E+00
   -0.22701E-20         0.23283E-21         0.00000E+00
   -0.16298E-20         0.13970E-19         0.00000E+00
   -0.93132E-21         0.14203E-19         0.00000E+00
   -0.11642E-20         0.20489E-19         0.00000E+00
    0.16880E-20         0.15832E-19         0.00000E+00
    0.19791E-20        -0.18626E-20         0.00000E+00
    0.37253E-20        -0.21420E-19         0.00000E+00
    0.44238E-20        -0.16298E-19         0.00000E+00
    0.26193E-20        -0.18161E-19         0.00000E+00
    0.15134E-20        -0.83819E-20         0.00000E+00
    0.32014E-20        -0.83819E-20         0.00000E+00
    0.19209E-20        -0.46566E-20         0.00000E+00
    0.23283E-20        -0.74506E-20         0.00000E+00
    0.29104E-20         0.20955E-19         0.00000E+00
    0.30850E-20         0.14435E-19         0.00000E+00
    0.52387E-20         0.32596E-20         0.00000E+00
    0.76252E-20         0.41910E-20         0.00000E+00
    0.85565E-20         0.15367E-19         0.00000E+00
    0.91386E-20         0.20023E-19         0.00000E+00
    0.84983E-20         0.46566E-20         0.00000E+00
    0.66357E-20         0.25611E-20         0.00000E+00
    0.61700E-20        -0.65193E-20         0.00000E+00
    0.75670E-20        -0.15367E-19         0.00000E+00
    0.10477E-19        -0.14668E-19         0.00000E+00
    0.12631E-19        -0.27474E-19         0.00000E+00
    0.11118E-19        -0.37020E-19         0.00000E+00
    0.79162E-20        -0.44238E-19         0.00000E+00
    0.67521E-20        -0.25379E-19         0.00000E+00
    0.56461E-20        -0.41677E-19         0.00000E+00
    0.22701E-20        -0.33993E-19         0.00000E+00
    0.36671E-20        -0.33295E-19         0.00000E+00
    0.69849E-20        -0.24214E-19         0.00000E+00
    0.91386E-20        -0.23749E-19         0.00000E+00
    0.10361E-19        -0.18394E-19         0.00000E+00
    0.11583E-19        -0.12107E-19         0.00000E+00
    0.98371E-20         0.00000E+00         0.00000E+00
   -0.27940E-20         0.79162E-20         0.00000E+00
   -0.38417E-20         0.10710E-19         0.00000E+00
   -0.32014E-20        -0.46566E-20         0.00000E+00
   -0.34343E-20        -0.18626E-20         0.00000E+00
   -0.43074E-20        -0.10245E-19         0.00000E+00
   -0.47730E-20        -0.30501E-19         0.00000E+00
   -0.45402E-20        -0.27940E-19         0.00000E+00
   -0.21537E-20        -0.29802E-19         0.00000E+00
   -0.17462E-21        -0.32596E-19         0.00000E+00
    0.19791E-20        -0.20955E-19         0.00000E+00
    0.25611E-20        -0.22817E-19         0.00000E+00
    0.27940E-20        -0.79162E-20         0.00000E+00
    0.13970E-20        -0.74506E-20         0.00000E+00
   -0.75670E-21         0.11642E-19         0.00000E+00
   -0.20373E-20        -0.65193E-20         0.00000E+00
   -0.25029E-20         0.10710E-19         0.00000E+00
   -0.41327E-20         0.20256E-19         0.00000E+00
   -0.60536E-20         0.21886E-19         0.00000E+00
   -0.65775E-20         0.13039E-19         0.00000E+00
   -0.72760E-20        -0.46566E-20         0.00000E+00
   -0.73924E-20        -0.24680E-19         0.00000E+00
   -0.83819E-20        -0.97789E-20         0.00000E+00
   -0.85565E-20        -0.19558E-19         0.00000E+00
   -0.67521E-20        -0.13039E-19         0.00000E+00
   -0.60536E-20        -0.13970E-19         0.00000E+00
   -0.30268E-20        -0.37253E-20         0.00000E+00
   -0.29686E-20        -0.10012E-19         0.00000E+00
   -0.39581E-20         0.20955E-19         0.00000E+00
   -0.29686E-20         0.18626E-20         0.00000E+00
   -0.98953E-21        -0.65193E-20         0.00000E+00
    0.75670E-21        -0.27940E-20         0.00000E+00
    0.18626E-20         0.17695E-19         0.00000E+00
    0.11642E-20         0.16298E-19         0.00000E+00
    0.27940E-20         0.32596E-20         0.00000E+00
    0.44820E-20         0.27940E-20         0.00000E+00
    0.51223E-20        -0.65193E-20         0.00000E+00
    0.49477E-20        -0.20489E-19         0.00000E+00
    0.45984E-20        -0.21886E-19         0.00000E+00
    0.36671E-20        -0.26543E-19         0.00000E+00
    0.31432E-20        -0.22817E-19         0.00000E+00
    0.11059E-20        -0.34925E-19         0.00000E+00
   -0.27358E-20        -0.13970E-19         0.00000E+00
   -0.57626E-20        -0.24680E-19         0.00000E+00
   -0.65775E-20        -0.33295E-19         0.00000E+00
   -0.56461E-20        -0.41677E-19         0.00000E+00
   -0.71595E-20        -0.22817E-19         0.00000E+00
   -0.98371E-20        -0.21420E-19         0.00000E+00
   -0.11816E-19        -0.15367E-19         0.00000E+00
   -0.15134E-19        -0.60536E-20         0.00000E+00
   -0.14086E-19        -0.93132E-21         0.00000E+00
   -0.22701E-20         0.44238E-20         0.00000E+00
    0.81491E-21         0.51223E-20         0.00000E+00
    0.24447E-20        -0.41910E-20         0.00000E+00
    0.19791E-20        -0.18626E-20         0.00000E+00
    0.29104E-20        -0.65193E-20         0.00000E+00
    0.20955E-20        -0.24680E-19         0.00000E+00
    0.13388E-20        -0.27474E-19         0.00000E+00
    0.17462E-21        -0.34925E-19         0.00000E+00
   -0.13970E-20        -0.33062E-19         0.00000E+00
   -0.23283E-20        -0.22817E-19         0.00000E+00
   -0.15716E-20        -0.29802E-19         0.00000E+00
   -0.17462E-21        -0.69849E-20         0.00000E+00
    0.19791E-20        -0.83819E-20         0.00000E+00
    0.29686E-20         0.14901E-19         0.00000E+00
    0.26193E-20        -0.18626E-20         0.00000E+00
    0.69849E-21         0.21420E-19         0.00000E+00
    0.69849E-21         0.17695E-19         0.00000E+00
    0.27940E-20         0.20489E-19         0.00000E+00
    0.37253E-20         0.16298E-19         0.00000E+00
    0.27358E-20        -0.37253E-20         0.00000E+00
    0.87311E-21        -0.18161E-19         0.00000E+00
    0.22119E-20        -0.88476E-20         0.00000E+00
    0.30268E-20        -0.27474E-19         0.00000E+00
    0.12806E-20        -0.10477E-19         0.00000E+00
   -0.29104E-21        -0.10012E-19         0.00000E+00
   -0.16880E-20        -0.15832E-19         0.00000E+00
    0.00000E+00        -0.69849E-20         0.00000E+00
    0.36671E-20         0.11176E-19         0.00000E+00
    0.55297E-20         0.00000E+00         0.00000E+00
    0.39581E-20        -0.60536E-20         0.00000E+00
    0.21537E-20        -0.37253E-20         0.00000E+00
    0.25611E-20         0.14435E-19         0.00000E+00
    0.62282E-20         0.86147E-20         0.00000E+00
    0.71595E-20         0.00000E+00         0.00000E+00
    0.56461E-20         0.27940E-20         0.00000E+00
    0.45402E-20        -0.58208E-20         0.00000E+00
    0.29104E-20        -0.11642E-19         0.00000E+00
    0.23865E-20        -0.22817E-19         0.00000E+00
    0.15716E-20        -0.18626E-19         0.00000E+00
   -0.23283E-21        -0.15832E-19         0.00000E+00
   -0.75670E-21        -0.23283E-19         0.00000E+00
    0.69849E-21        -0.11176E-19         0.00000E+00
    0.29686E-20        -0.21886E-19         0.00000E+00
    0.48312E-20        -0.39581E-19         0.00000E+00
    0.31432E-20        -0.30734E-19         0.00000E+00
    0.14552E-20        -0.17695E-19         0.00000E+00
   -0.81491E-21        -0.65193E-20         0.00000E+00
   -0.34343E-20        -0.32596E-20         0.00000E+00
   -0.32014E-20        -0.18626E-20         0.00000E+00
   -0.54715E-20        -0.46566E-21         0.00000E+00
    0.15076E-19         0.23283E-20         0.00000E+00
    0.13853E-19        -0.93132E-21         0.00000E+00
    0.11001E-19         0.18626E-20         0.00000E+00
    0.79744E-20         0.32596E-20         0.00000E+00
    0.54715E-20        -0.60536E-20         0.00000E+00
    0.61700E-20        -0.23283E-19         0.00000E+00
    0.54133E-20        -0.26077E-19         0.00000E+00
    0.33760E-20        -0.27008E-19         0.00000E+00
    0.26776E-20        -0.29337E-19         0.00000E+00
    0.36671E-20        -0.27474E-19         0.00000E+00
    0.22701E-20        -0.26077E-19         0.00000E+00
   -0.75670E-21        -0.37253E-20         0.00000E+00
   -0.27358E-20        -0.58208E-20         0.00000E+00
   -0.54133E-20         0.13039E-19         0.00000E+00
   -0.40745E-20         0.00000E+00         0.00000E+00
   -0.23283E-20         0.23749E-19         0.00000E+00
   -0.12224E-20         0.55879E-20         0.00000E+00
    0.10477E-20         0.14435E-19         0.00000E+00
    0.26193E-20         0.10245E-19         0.00000E+00
    0.45984E-20        -0.74506E-20         0.00000E+00
    0.73342E-20        -0.19092E-19         0.00000E+00
    0.72177E-20        -0.14435E-19         0.00000E+00
    0.71013E-20        -0.28871E-19         0.00000E+00
    0.86147E-20        -0.74506E-20         0.00000E+00
    0.99535E-20        -0.83819E-20         0.00000E+00
    0.86147E-20        -0.74506E-20         0.00000E+00
    0.61118E-20        -0.55879E-20         0.00000E+00
    0.98953E-21         0.12107E-19         0.00000E+00
   -0.69849E-21         0.18626E-20         0.00000E+00
   -0.29104E-21        -0.27940E-20         0.00000E+00
    0.12224E-20        -0.69849E-20         0.00000E+00
    0.35507E-20         0.37253E-20         0.00000E+00
    0.29686E-20         0.69849E-20         0.00000E+00
    0.11642E-20         0.23283E-20         0.00000E+00
    0.16880E-20         0.13970E-20         0.00000E+00
    0.15716E-20         0.41910E-20         0.00000E+00
   -0.11642E-20        -0.44238E-20         0.00000E+00
   -0.37253E-20        -0.13970E-19         0.00000E+00
   -0.54133E-20        -0.16764E-19         0.00000E+00
   -0.59372E-20        -0.11642E-19         0.00000E+00
   -0.72760E-20        -0.24680E-19         0.00000E+00
   -0.76834E-20        -0.14901E-19         0.00000E+00
   -0.82073E-20        -0.24680E-19         0.00000E+00
   -0.10070E-19        -0.34925E-19         0.00000E+00
   -0.10885E-19        -0.29802E-19         0.00000E+00
   -0.97207E-20        -0.17229E-19         0.00000E+00
   -0.55879E-20        -0.67521E-20         0.00000E+00
   -0.33178E-20        -0.76834E-20         0.00000E+00
   -0.27358E-20        -0.23283E-20         0.00000E+00
   -0.11642E-20         0.69849E-21         0.00000E+00
    0.86147E-20         0.41910E-20         0.00000E+00
    0.86147E-20         0.10245E-19         0.00000E+00
    0.10943E-19         0.23283E-20         0.00000E+00
    0.13970E-19         0.62864E-20         0.00000E+00
    0.15192E-19        -0.10245E-19         0.00000E+00
    0.13853E-19        -0.18161E-19         0.00000E+00
    0.13737E-19        -0.23749E-19         0.00000E+00
    0.16007E-19        -0.21420E-19         0.00000E+00
    0.13446E-19        -0.19558E-19         0.00000E+00
    0.82073E-20        -0.12573E-19         0.00000E+00
    0.31432E-20        -0.79162E-20         0.00000E+00
    0.29104E-21         0.74506E-20         0.00000E+00
   -0.20373E-20         0.74506E-20         0.00000E+00
   -0.25611E-20         0.12573E-19         0.00000E+00
   -0.18626E-20        -0.27940E-20         0.00000E+00
   -0.17462E-20         0.14435E-19         0.00000E+00
   -0.11642E-20         0.41910E-20         0.00000E+00
   -0.12806E-20         0.10710E-19         0.00000E+00
   -0.98953E-21         0.79162E-20         0.00000E+00
   -0.29104E-21        -0.18626E-19         0.00000E+00
    0.10477E-20        -0.25611E-19         0.00000E+00
    0.18626E-20        -0.16764E-19         0.00000E+00
    0.37253E-20        -0.33993E-19         0.00000E+00
    0.49477E-20        -0.18161E-19         0.00000E+00
    0.50059E-20        -0.83819E-20         0.00000E+00
    0.55297E-20        -0.46566E-20         0.00000E+00
    0.64028E-20         0.23283E-20         0.00000E+00
    0.64028E-20         0.22352E-19         0.00000E+00
    0.65193E-20         0.46566E-20         0.00000E+00
    0.54133E-20        -0.55879E-20         0.00000E+00
    0.44820E-20        -0.16298E-19         0.00000E+00
    0.39581E-20         0.46566E-20         0.00000E+00
    0.46566E-20         0.74506E-20         0.00000E+00
    0.62864E-20         0.13970E-20         0.00000E+00
    0.51805E-20         0.37253E-20         0.00000E+00
    0.59954E-20         0.55879E-20         0.00000E+00
    0.73342E-20         0.00000E+00         0.00000E+00
    0.82655E-20        -0.14901E-19         0.00000E+00
    0.87894E-20        -0.12573E-19         0.00000E+00
    0.91386E-20        -0.11176E-19         0.00000E+00
    0.90804E-20        -0.19558E-19         0.00000E+00
    0.83819E-20        -0.11642E-19         0.00000E+00
    0.75088E-20        -0.22119E-19         0.00000E+00
    0.82073E-20        -0.33993E-19         0.00000E+00
    0.84983E-20        -0.31665E-19         0.00000E+00
    0.82073E-20        -0.16298E-19         0.00000E+00
    0.61700E-20        -0.14901E-19         0.00000E+00
    0.63446E-20        -0.13504E-19         0.00000E+00
    0.70431E-20        -0.18626E-20         0.00000E+00
    0.61700E-20        -0.25611E-20         0.00000E+00
    0.37835E-19         0.00000E+00         0.00000E+00
    0.38301E-19         0.79162E-20         0.00000E+00
    0.36205E-19         0.00000E+00         0.00000E+00
    0.33760E-19         0.11642E-20         0.00000E+00
    0.32654E-19        -0.51223E-20         0.00000E+00
    0.30384E-19        -0.60536E-20         0.00000E+00
    0.25728E-19        -0.69849E-20         0.00000E+00
    0.19383E-19        -0.18394E-19         0.00000E+00
    0.17055E-19        -0.72177E-20         0.00000E+00
    0.17695E-19        -0.16298E-20         0.00000E+00
    0.19674E-19        -0.46566E-20         0.00000E+00
    0.20838E-19         0.15367E-19         0.00000E+00
    0.22294E-19         0.46566E-21         0.00000E+00
    0.24855E-19         0.12107E-19         0.00000E+00
    0.24156E-19        -0.13970E-20         0.00000E+00
    0.21653E-19         0.19092E-19         0.00000E+00
    0.19849E-19         0.69849E-20         0.00000E+00
    0.17113E-19         0.17229E-19         0.00000E+00
    0.15949E-19         0.65193E-20         0.00000E+00
    0.14901E-19        -0.14435E-19         0.00000E+00
    0.13388E-19        -0.26543E-19         0.00000E+00
    0.13562E-19        -0.23283E-19         0.00000E+00
    0.14028E-19        -0.39116E-19         0.00000E+00
    0.13853E-19        -0.19092E-19         0.00000E+00
    0.15949E-19        -0.88476E-20         0.00000E+00
    0.16182E-19        -0.79162E-20         0.00000E+00
    0.16938E-19        -0.27940E-20         0.00000E+00
    0.18743E-19         0.14435E-19         0.00000E+00
    0.21129E-19         0.13970E-20         0.00000E+00
    0.24505E-19        -0.16298E-19         0.00000E+00
    0.28114E-19        -0.14901E-19         0.00000E+00
    0.28114E-19         0.65193E-20         0.00000E+00
    0.26426E-19         0.93132E-20         0.00000E+00
    0.24214E-19         0.16298E-20         0.00000E+00
    0.24331E-19         0.27940E-20         0.00000E+00
    0.25320E-19         0.00000E+00         0.00000E+00
    0.25553E-19         0.00000E+00         0.00000E+00
    0.24331E-19        -0.74506E-20         0.00000E+00
    0.21653E-19        -0.79162E-20         0.00000E+00
    0.22119E-19        -0.14901E-19         0.00000E+00
    0.22235E-19        -0.23516E-19         0.00000E+00
    0.24505E-19        -0.88476E-20         0.00000E+00
    0.24680E-19        -0.26543E-19         0.00000E+00
    0.24273E-19        -0.31898E-19         0.00000E+00
    0.23749E-19        -0.27474E-19         0.00000E+00
    0.23982E-19        -0.18161E-19         0.00000E+00
    0.25611E-19        -0.16298E-19         0.00000E+00
    0.26368E-19        -0.15832E-19         0.00000E+00
    0.25728E-19        -0.18626E-20         0.00000E+00
    0.25844E-19        -0.46566E-21         0.00000E+00
    0.12387E-18         0.46566E-20         0.00000E+00
    0.12387E-18         0.37253E-20         0.00000E+00
    0.12573E-18         0.69849E-20         0.00000E+00
    0.12724E-18        -0.23283E-20         0.00000E+00
    0.12864E-18        -0.23283E-20         0.00000E+00
    0.13155E-18        -0.11642E-19         0.00000E+00
    0.13877E-18        -0.10245E-19         0.00000E+00
    0.14552E-18        -0.13504E-19         0.00000E+00
    0.14738E-18        -0.13504E-19         0.00000E+00
    0.14890E-18        -0.37253E-20         0.00000E+00
    0.14750E-18        -0.10245E-19         0.00000E+00
    0.14750E-18         0.17229E-19         0.00000E+00
    0.14593E-18        -0.41910E-20         0.00000E+00
    0.14546E-18         0.97789E-20         0.00000E+00
    0.14412E-18         0.10245E-19         0.00000E+00
    0.14313E-18         0.25146E-19         0.00000E+00
    0.14389E-18         0.97789E-20         0.00000E+00
    0.14494E-18         0.18161E-19         0.00000E+00
    0.14663E-18         0.10245E-19         0.00000E+00
    0.14651E-18        -0.13039E-19         0.00000E+00
    0.14837E-18        -0.30268E-19         0.00000E+00
    0.14843E-18        -0.26077E-19         0.00000E+00
    0.14732E-18        -0.31199E-19         0.00000E+00
    0.14529E-18        -0.16298E-19         0.00000E+00
    0.14319E-18        -0.97789E-20         0.00000E+00
    0.14325E-18        -0.83819E-20         0.00000E+00
    0.14412E-18        -0.14435E-19         0.00000E+00
    0.14377E-18         0.14435E-19         0.00000E+00
    0.14278E-18         0.93132E-21         0.00000E+00
    0.13906E-18        -0.17229E-19         0.00000E+00
    0.13801E-18        -0.19092E-19         0.00000E+00
    0.14016E-18        -0.46566E-21         0.00000E+00
    0.14337E-18         0.93132E-20         0.00000E+00
    0.14552E-18         0.00000E+00         0.00000E+00
    0.14581E-18         0.00000E+00         0.00000E+00
    0.14552E-18         0.23283E-20         0.00000E+00
    0.14389E-18         0.51223E-20         0.00000E+00
    0.14366E-18        -0.27940E-20         0.00000E+00
    0.14389E-18        -0.83819E-20         0.00000E+00
    0.14319E-18        -0.12107E-19         0.00000E+00
    0.14267E-18        -0.31199E-19         0.00000E+00
    0.14249E-18        -0.13039E-19         0.00000E+00
    0.14255E-18        -0.26543E-19         0.00000E+00
    0.14377E-18        -0.32829E-19         0.00000E+00
    0.14465E-18        -0.27474E-19         0.00000E+00
    0.14441E-18        -0.21886E-19         0.00000E+00
    0.14243E-18        -0.13271E-19         0.00000E+00
    0.14063E-18        -0.10245E-19         0.00000E+00
    0.14022E-18        -0.65193E-20         0.00000E+00
    0.14057E-18         0.27940E-20         0.00000E+00
    0.84651E-18         0.13970E-20         0.00000E+00
    0.84587E-18         0.83819E-20         0.00000E+00
    0.84384E-18         0.46566E-20         0.00000E+00
    0.84203E-18         0.00000E+00         0.00000E+00
    0.84325E-18        -0.16764E-19         0.00000E+00
    0.84669E-18        -0.33528E-19         0.00000E+00
    0.84843E-18        -0.31199E-19         0.00000E+00
    0.84919E-18        -0.22352E-19         0.00000E+00
    0.85094E-18        -0.22352E-19         0.00000E+00
    0.85251E-18        -0.69849E-20         0.00000E+00
    0.85356E-18        -0.11642E-19         0.00000E+00
    0.85484E-18         0.15832E-19         0.00000E+00
    0.85519E-18         0.46566E-21         0.00000E+00
    0.85501E-18         0.10245E-19         0.00000E+00
    0.85687E-18         0.83819E-20         0.00000E+00
    0.85868E-18         0.24214E-19         0.00000E+00
    0.85792E-18         0.88476E-20         0.00000E+00
    0.85658E-18         0.14435E-19         0.00000E+00
    0.85752E-18         0.37253E-20         0.00000E+00
    0.85868E-18        -0.13970E-19         0.00000E+00
    0.85670E-18        -0.30268E-19         0.00000E+00
    0.85612E-18        -0.23283E-19         0.00000E+00
    0.85647E-18        -0.26543E-19         0.00000E+00
    0.85600E-18        -0.10710E-19         0.00000E+00
    0.85722E-18        -0.65193E-20         0.00000E+00
    0.85629E-18        -0.74506E-20         0.00000E+00
    0.85257E-18        -0.23283E-20         0.00000E+00
    0.84966E-18         0.16764E-19         0.00000E+00
    0.85001E-18         0.55879E-20         0.00000E+00
    0.85210E-18        -0.13504E-19         0.00000E+00
    0.85332E-18        -0.18161E-19         0.00000E+00
    0.85117E-18        -0.13970E-20         0.00000E+00
    0.84966E-18         0.23283E-20         0.00000E+00
    0.84937E-18         0.00000E+00         0.00000E+00
    0.84768E-18         0.46566E-20         0.00000E+00
    0.84779E-18         0.25611E-20         0.00000E+00
    0.85053E-18        -0.27940E-20         0.00000E+00
    0.85222E-18        -0.79162E-20         0.00000E+00
    0.85298E-18        -0.12573E-19         0.00000E+00
    0.85594E-18        -0.18859E-19         0.00000E+00
    0.85594E-18        -0.24214E-19         0.00000E+00
    0.85577E-18        -0.11409E-19         0.00000E+00
    0.85618E-18        -0.30734E-19         0.00000E+00
    0.85501E-18        -0.32363E-19         0.00000E+00
    0.85338E-18        -0.24680E-19         0.00000E+00
    0.85187E-18        -0.10477E-19         0.00000E+00
    0.84983E-18        -0.37253E-20         0.00000E+00
    0.84948E-18        -0.65193E-20         0.00000E+00
    0.84925E-18        -0.13970E-20         0.00000E+00
    0.84884E-18        -0.79162E-20         0.00000E+00
    0.49338E-17         0.32596E-20         0.00000E+00
    0.49340E-17         0.86147E-20         0.00000E+00
    0.49357E-17         0.60536E-20         0.00000E+00
    0.49364E-17         0.27940E-20         0.00000E+00
    0.49345E-17        -0.18394E-19         0.00000E+00
    0.49328E-17        -0.36787E-19         0.00000E+00
    0.49311E-17        -0.29802E-19         0.00000E+00
    0.49308E-17        -0.31199E-19         0.00000E+00
    0.49323E-17        -0.29802E-19         0.00000E+00
    0.49347E-17        -0.19092E-19         0.00000E+00
    0.49367E-17        -0.17695E-19         0.00000E+00
    0.49395E-17         0.13970E-20         0.00000E+00
    0.49423E-17        -0.46566E-21         0.00000E+00
    0.49415E-17         0.20023E-19         0.00000E+00
    0.49402E-17         0.25611E-20         0.00000E+00
    0.49413E-17         0.16298E-19         0.00000E+00
    0.49449E-17         0.27940E-20         0.00000E+00
    0.49465E-17         0.14901E-19         0.00000E+00
    0.49458E-17         0.32596E-20         0.00000E+00
    0.49432E-17        -0.83819E-20         0.00000E+00
    0.49431E-17        -0.20489E-19         0.00000E+00
    0.49408E-17        -0.17229E-19         0.00000E+00
    0.49388E-17        -0.22817E-19         0.00000E+00
    0.49378E-17        -0.14901E-19         0.00000E+00
    0.49382E-17        -0.18626E-20         0.00000E+00
    0.49371E-17        -0.23283E-20         0.00000E+00
    0.49395E-17         0.27940E-20         0.00000E+00
    0.49405E-17         0.20955E-19         0.00000E+00
    0.49404E-17         0.23283E-20         0.00000E+00
    0.49379E-17        -0.11176E-19         0.00000E+00
    0.49342E-17        -0.12107E-19         0.00000E+00
    0.49342E-17         0.18626E-20         0.00000E+00
    0.49346E-17         0.41910E-20         0.00000E+00
    0.49332E-17         0.46566E-20         0.00000E+00
    0.49327E-17         0.10943E-19         0.00000E+00
    0.49317E-17         0.37253E-20         0.00000E+00
    0.49295E-17        -0.93132E-21         0.00000E+00
    0.49290E-17        -0.88476E-20         0.00000E+00
    0.49303E-17        -0.19092E-19         0.00000E+00
    0.49304E-17        -0.24913E-19         0.00000E+00
    0.49342E-17        -0.36787E-19         0.00000E+00
    0.49383E-17        -0.18626E-19         0.00000E+00
    0.49384E-17        -0.22352E-19         0.00000E+00
    0.49382E-17        -0.29104E-19         0.00000E+00
    0.49379E-17        -0.20023E-19         0.00000E+00
    0.49403E-17        -0.17229E-19         0.00000E+00
    0.49443E-17        -0.69849E-20         0.00000E+00
    0.49455E-17        -0.65193E-20         0.00000E+00
    0.49456E-17        -0.20955E-20         0.00000E+00
    0.49463E-17        -0.41910E-20         0.00000E+00
    0.28199E-16         0.51223E-20         0.00000E+00
    0.28197E-16         0.11176E-19         0.00000E+00
    0.28195E-16         0.55879E-20         0.00000E+00
    0.28195E-16         0.00000E+00         0.00000E+00
    0.28194E-16        -0.10245E-19         0.00000E+00
    0.28192E-16        -0.23749E-19         0.00000E+00
    0.28192E-16        -0.31898E-19         0.00000E+00
    0.28192E-16        -0.32131E-19         0.00000E+00
    0.28193E-16        -0.39581E-19         0.00000E+00
    0.28194E-16        -0.25146E-19         0.00000E+00
    0.28194E-16        -0.29802E-19         0.00000E+00
    0.28196E-16        -0.65193E-20         0.00000E+00
    0.28196E-16        -0.10245E-19         0.00000E+00
    0.28202E-16         0.83819E-20         0.00000E+00
    0.28207E-16        -0.55879E-20         0.00000E+00
    0.28208E-16         0.13737E-19         0.00000E+00
    0.28206E-16         0.46566E-21         0.00000E+00
    0.28203E-16         0.18626E-19         0.00000E+00
    0.28204E-16         0.13970E-19         0.00000E+00
    0.28202E-16        -0.11642E-20         0.00000E+00
    0.28198E-16        -0.12107E-19         0.00000E+00
    0.28199E-16        -0.15367E-19         0.00000E+00
    0.28201E-16        -0.30268E-19         0.00000E+00
    0.28203E-16        -0.16764E-19         0.00000E+00
    0.28203E-16         0.41910E-20         0.00000E+00
    0.28201E-16         0.46566E-20         0.00000E+00
    0.28198E-16        -0.93132E-21         0.00000E+00
    0.28197E-16         0.22817E-19         0.00000E+00
    0.28196E-16         0.65193E-20         0.00000E+00
    0.28198E-16        -0.11642E-19         0.00000E+00
    0.28201E-16        -0.83819E-20         0.00000E+00
    0.28201E-16         0.23283E-20         0.00000E+00
    0.28201E-16         0.18626E-20         0.00000E+00
    0.28203E-16         0.27940E-20         0.00000E+00
    0.28204E-16         0.60536E-20         0.00000E+00
    0.28206E-16         0.00000E+00         0.00000E+00
    0.28210E-16        -0.11642E-20         0.00000E+00
    0.28211E-16        -0.74506E-20         0.00000E+00
    0.28209E-16        -0.16764E-19         0.00000E+00
    0.28208E-16        -0.23516E-19         0.00000E+00
    0.28205E-16        -0.38184E-19         0.00000E+00
    0.28202E-16        -0.23749E-19         0.00000E+00
    0.28202E-16        -0.25611E-19         0.00000E+00
    0.28205E-16        -0.28871E-19         0.00000E+00
    0.28204E-16        -0.25379E-19         0.00000E+00
    0.28203E-16        -0.15134E-19         0.00000E+00
    0.28198E-16        -0.79162E-20         0.00000E+00
    0.28197E-16        -0.69849E-20         0.00000E+00
    0.28198E-16        -0.46566E-20         0.00000E+00
    0.28197E-16        -0.20955E-20         0.00000E+00
    0.15847E-15         0.95461E-20         0.00000E+00
    0.15847E-15         0.69849E-20         0.00000E+00
    0.15847E-15         0.88476E-20         0.00000E+00
    0.15847E-15         0.69849E-20         0.00000E+00
    0.15847E-15        -0.83819E-20         0.00000E+00
    0.15847E-15        -0.25146E-19         0.00000E+00
    0.15847E-15        -0.38417E-19         0.00000E+00
    0.15847E-15        -0.23283E-19         0.00000E+00
    0.15847E-15        -0.38184E-19         0.00000E+00
    0.15847E-15        -0.33062E-19         0.00000E+00
    0.15847E-15        -0.29337E-19         0.00000E+00
    0.15847E-15        -0.55879E-20         0.00000E+00
    0.15847E-15        -0.15832E-19         0.00000E+00
    0.15847E-15        -0.74506E-20         0.00000E+00
    0.15847E-15        -0.37253E-20         0.00000E+00
    0.15847E-15         0.17229E-19         0.00000E+00
    0.15847E-15         0.37253E-20         0.00000E+00
    0.15847E-15         0.18161E-19         0.00000E+00
    0.15847E-15         0.10710E-19         0.00000E+00
    0.15847E-15         0.23283E-21         0.00000E+00
    0.15847E-15        -0.15367E-19         0.00000E+00
    0.15847E-15        -0.22817E-19         0.00000E+00
    0.15847E-15        -0.37719E-19         0.00000E+00
    0.15847E-15        -0.16764E-19         0.00000E+00
    0.15847E-15        -0.93132E-21         0.00000E+00
    0.15848E-15        -0.46566E-21         0.00000E+00
    0.15848E-15         0.13039E-19         0.00000E+00
    0.15848E-15         0.25611E-19         0.00000E+00
    0.15848E-15         0.18626E-20         0.00000E+00
    0.15847E-15        -0.11176E-19         0.00000E+00
    0.15847E-15        -0.69849E-20         0.00000E+00
    0.15847E-15         0.93132E-21         0.00000E+00
    0.15847E-15         0.13970E-20         0.00000E+00
    0.15847E-15        -0.67521E-20         0.00000E+00
    0.15847E-15         0.37253E-20         0.00000E+00
    0.15847E-15         0.23283E-21         0.00000E+00
    0.15847E-15        -0.48894E-20         0.00000E+00
    0.15846E-15        -0.46566E-21         0.00000E+00
    0.15846E-15        -0.13737E-19         0.00000E+00
    0.15846E-15        -0.15832E-19         0.00000E+00
    0.15846E-15        -0.31199E-19         0.00000E+00
    0.15846E-15        -0.16298E-19         0.00000E+00
    0.15846E-15        -0.25611E-19         0.00000E+00
    0.15846E-15        -0.31665E-19         0.00000E+00
    0.15846E-15        -0.23283E-19         0.00000E+00
    0.15846E-15        -0.11176E-19         0.00000E+00
    0.15846E-15        -0.90804E-20         0.00000E+00
    0.15847E-15        -0.12573E-19         0.00000E+00
    0.15847E-15        -0.51223E-20         0.00000E+00
    0.15847E-15         0.88476E-20         0.00000E+00
    0.87485E-15         0.18626E-20         0.00000E+00
    0.87485E-15         0.18626E-20         0.00000E+00
    0.87485E-15        -0.23283E-20         0.00000E+00
    0.87486E-15         0.46566E-21         0.00000E+00
    0.87486E-15        -0.10245E-19         0.00000E+00
    0.87486E-15        -0.28405E-19         0.00000E+00
    0.87486E-15        -0.35856E-19         0.00000E+00
    0.87486E-15        -0.24214E-19         0.00000E+00
    0.87486E-15        -0.35390E-19         0.00000E+00
    0.87486E-15        -0.27008E-19         0.00000E+00
    0.87485E-15        -0.22352E-19         0.00000E+00
    0.87485E-15        -0.48894E-20         0.00000E+00
    0.87485E-15        -0.88476E-20         0.00000E+00
    0.87485E-15         0.27940E-20         0.00000E+00
    0.87485E-15         0.00000E+00         0.00000E+00
    0.87485E-15         0.15367E-19         0.00000E+00
    0.87485E-15         0.97789E-20         0.00000E+00
    0.87485E-15         0.17229E-19         0.00000E+00
    0.87485E-15         0.11176E-19         0.00000E+00
    0.87485E-15        -0.46566E-20         0.00000E+00
    0.87485E-15        -0.18161E-19         0.00000E+00
    0.87485E-15        -0.25611E-19         0.00000E+00
    0.87485E-15        -0.32596E-19         0.00000E+00
    0.87484E-15        -0.13970E-19         0.00000E+00
    0.87484E-15        -0.10710E-19         0.00000E+00
    0.87484E-15        -0.41910E-20         0.00000E+00
    0.87485E-15         0.93132E-20         0.00000E+00
    0.87485E-15         0.24214E-19         0.00000E+00
    0.87485E-15         0.00000E+00         0.00000E+00
    0.87485E-15        -0.93132E-20         0.00000E+00
    0.87485E-15        -0.37253E-20         0.00000E+00
    0.87485E-15         0.46566E-20         0.00000E+00
    0.87485E-15         0.18626E-20         0.00000E+00
    0.87485E-15        -0.46566E-20         0.00000E+00
    0.87485E-15         0.79162E-20         0.00000E+00
    0.87485E-15        -0.93132E-21         0.00000E+00
    0.87486E-15        -0.65193E-20         0.00000E+00
    0.87486E-15        -0.55879E-20         0.00000E+00
    0.87486E-15        -0.23283E-20         0.00000E+00
    0.87485E-15        -0.55879E-20         0.00000E+00
    0.87485E-15        -0.26077E-19         0.00000E+00
    0.87485E-15        -0.14435E-19         0.00000E+00
    0.87485E-15        -0.26077E-19         0.00000E+00
    0.87485E-15        -0.31199E-19         0.00000E+00
    0.87485E-15        -0.18626E-19         0.00000E+00
    0.87485E-15        -0.14435E-19         0.00000E+00
    0.87485E-15        -0.13970E-19         0.00000E+00
    0.87485E-15        -0.19092E-19         0.00000E+00
    0.87485E-15        -0.10245E-19         0.00000E+00
    0.87485E-15         0.55879E-20         0.00000E+00
    0.47351E-14         0.69849E-20         0.00000E+00
    0.47351E-14         0.83819E-20         0.00000E+00
    0.47351E-14        -0.41910E-20         0.00000E+00
    0.47351E-14        -0.74506E-20         0.00000E+00
    0.47351E-14        -0.10710E-19         0.00000E+00
    0.47351E-14        -0.27474E-19         0.00000E+00
    0.47351E-14        -0.28405E-19         0.00000E+00
    0.47351E-14        -0.33062E-19         0.00000E+00
    0.47351E-14        -0.37719E-19         0.00000E+00
    0.47351E-14        -0.21420E-19         0.00000E+00
    0.47351E-14        -0.23283E-19         0.00000E+00
    0.47351E-14        -0.83819E-20         0.00000E+00
    0.47351E-14        -0.88476E-20         0.00000E+00
    0.47351E-14         0.11409E-19         0.00000E+00
    0.47351E-14        -0.32596E-20         0.00000E+00
    0.47351E-14         0.37253E-20         0.00000E+00
    0.47351E-14         0.16764E-19         0.00000E+00
    0.47351E-14         0.20955E-19         0.00000E+00
    0.47351E-14         0.14901E-19         0.00000E+00
    0.47351E-14         0.83819E-20         0.00000E+00
    0.47351E-14        -0.13271E-19         0.00000E+00
    0.47351E-14        -0.17695E-19         0.00000E+00
    0.47351E-14        -0.29337E-19         0.00000E+00
    0.47351E-14        -0.15832E-19         0.00000E+00
    0.47351E-14        -0.13271E-19         0.00000E+00
    0.47351E-14        -0.41910E-20         0.00000E+00
    0.47351E-14        -0.23283E-20         0.00000E+00
    0.47351E-14         0.97789E-20         0.00000E+00
    0.47351E-14         0.46566E-20         0.00000E+00
    0.47351E-14        -0.18161E-19         0.00000E+00
    0.47351E-14        -0.12573E-19         0.00000E+00
    0.47351E-14         0.12806E-19         0.00000E+00
    0.47351E-14         0.93132E-20         0.00000E+00
    0.47351E-14         0.18626E-20         0.00000E+00
    0.47351E-14         0.69849E-20         0.00000E+00
    0.47351E-14        -0.34925E-20         0.00000E+00
    0.47351E-14        -0.53551E-20         0.00000E+00
    0.47351E-14        -0.81491E-20         0.00000E+00
    0.47351E-14        -0.93132E-21         0.00000E+00
    0.47351E-14        -0.97789E-20         0.00000E+00
    0.47351E-14        -0.16764E-19         0.00000E+00
    0.47351E-14        -0.15367E-19         0.00000E+00
    0.47351E-14        -0.22585E-19         0.00000E+00
    0.47351E-14        -0.33062E-19         0.00000E+00
    0.47351E-14        -0.22352E-19         0.00000E+00
    0.47351E-14        -0.19092E-19         0.00000E+00
    0.47351E-14        -0.60536E-20         0.00000E+00
    0.47351E-14        -0.21420E-19         0.00000E+00
    0.47351E-14        -0.10710E-19         0.00000E+00
    0.47351E-14         0.23283E-20         0.00000E+00
    0.25068E-13         0.93132E-20         0.00000E+00
    0.25068E-13         0.48894E-20         0.00000E+00
    0.25068E-13         0.69849E-20         0.00000E+00
    0.25068E-13         0.13504E-19         0.00000E+00
    0.25068E-13        -0.83819E-20         0.00000E+00
    0.25068E-13        -0.26543E-19         0.00000E+00
    0.25068E-13        -0.31199E-19         0.00000E+00
    0.25068E-13        -0.29802E-19         0.00000E+00
    0.25068E-13        -0.37951E-19         0.00000E+00
    0.25068E-13        -0.27474E-19         0.00000E+00
    0.25068E-13        -0.23749E-19         0.00000E+00
    0.25068E-13        -0.93132E-20         0.00000E+00
    0.25068E-13        -0.10245E-19         0.00000E+00
    0.25068E-13         0.11642E-19         0.00000E+00
    0.25068E-13        -0.65193E-20         0.00000E+00
    0.25068E-13         0.11642E-19         0.00000E+00
    0.25068E-13         0.17229E-19         0.00000E+00
    0.25068E-13         0.28405E-19         0.00000E+00
    0.25068E-13         0.18626E-19         0.00000E+00
    0.25068E-13         0.17229E-19         0.00000E+00
    0.25068E-13        -0.74506E-20         0.00000E+00
    0.25068E-13        -0.13970E-19         0.00000E+00
    0.25068E-13        -0.32596E-19         0.00000E+00
    0.25068E-13        -0.27940E-19         0.00000E+00
    0.25068E-13        -0.10710E-19         0.00000E+00
    0.25068E-13        -0.10245E-19         0.00000E+00
    0.25068E-13         0.69849E-20         0.00000E+00
    0.25068E-13         0.69849E-20         0.00000E+00
    0.25068E-13         0.41910E-20         0.00000E+00
    0.25068E-13        -0.13039E-19         0.00000E+00
    0.25068E-13        -0.18161E-19         0.00000E+00
    0.25068E-13         0.00000E+00         0.00000E+00
    0.25068E-13         0.46566E-20         0.00000E+00
    0.25068E-13         0.27940E-20         0.00000E+00
    0.25068E-13         0.27940E-20         0.00000E+00
    0.25068E-13         0.18626E-20         0.00000E+00
    0.25068E-13        -0.23283E-21         0.00000E+00
    0.25068E-13         0.65193E-20         0.00000E+00
    0.25068E-13         0.23283E-20         0.00000E+00
    0.25068E-13        -0.17229E-19         0.00000E+00
    0.25068E-13        -0.20023E-19         0.00000E+00
    0.25068E-13        -0.21653E-19         0.00000E+00
    0.25068E-13        -0.22352E-19         0.00000E+00
    0.25068E-13        -0.34459E-19         0.00000E+00
    0.25068E-13        -0.21420E-19         0.00000E+00
    0.25068E-13        -0.11176E-19         0.00000E+00
    0.25068E-13        -0.11176E-19         0.00000E+00
    0.25068E-13        -0.65193E-20         0.00000E+00
    0.25068E-13        -0.65193E-20         0.00000E+00
    0.25068E-13         0.97789E-20         0.00000E+00
    0.12944E-12         0.23283E-20         0.00000E+00
    0.12944E-12         0.30268E-20         0.00000E+00
    0.12944E-12         0.93132E-21         0.00000E+00
    0.12944E-12         0.88476E-20         0.00000E+00
    0.12944E-12        -0.23283E-20         0.00000E+00
    0.12944E-12        -0.17229E-19         0.00000E+00
    0.12944E-12        -0.32596E-19         0.00000E+00
    0.12944E-12        -0.21188E-19         0.00000E+00
    0.12944E-12        -0.31665E-19         0.00000E+00
    0.12944E-12        -0.20489E-19         0.00000E+00
    0.12944E-12        -0.32131E-19         0.00000E+00
    0.12944E-12        -0.65193E-20         0.00000E+00
    0.12944E-12        -0.10710E-19         0.00000E+00
    0.12944E-12         0.60536E-20         0.00000E+00
    0.12944E-12        -0.46566E-20         0.00000E+00
    0.12944E-12         0.20489E-19         0.00000E+00
    0.12944E-12         0.14901E-19         0.00000E+00
    0.12944E-12         0.30734E-19         0.00000E+00
    0.12944E-12         0.22585E-19         0.00000E+00
    0.12944E-12         0.93132E-20         0.00000E+00
    0.12944E-12        -0.11642E-20         0.00000E+00
    0.12944E-12        -0.19092E-19         0.00000E+00
    0.12944E-12        -0.30734E-19         0.00000E+00
    0.12944E-12        -0.24680E-19         0.00000E+00
    0.12944E-12        -0.12340E-19         0.00000E+00
    0.12944E-12        -0.72177E-20         0.00000E+00
    0.12944E-12         0.79162E-20         0.00000E+00
    0.12944E-12         0.21886E-19         0.00000E+00
    0.12944E-12         0.13039E-19         0.00000E+00
    0.12944E-12         0.93132E-21         0.00000E+00
    0.12944E-12        -0.10477E-19         0.00000E+00
    0.12944E-12        -0.34925E-20         0.00000E+00
    0.12944E-12        -0.88476E-20         0.00000E+00
    0.12944E-12        -0.69849E-21         0.00000E+00
    0.12944E-12         0.93132E-20         0.00000E+00
    0.12944E-12        -0.41910E-20         0.00000E+00
    0.12944E-12        -0.93132E-21         0.00000E+00
    0.12944E-12        -0.27940E-20         0.00000E+00
    0.12944E-12        -0.46566E-20         0.00000E+00
    0.12944E-12        -0.22352E-19         0.00000E+00
    0.12944E-12        -0.22817E-19         0.00000E+00
    0.12944E-12        -0.13039E-19         0.00000E+00
    0.12944E-12        -0.29337E-19         0.00000E+00
    0.12944E-12        -0.29802E-19         0.00000E+00
    0.12944E-12        -0.25146E-19         0.00000E+00
    0.12944E-12        -0.10943E-19         0.00000E+00
    0.12944E-12        -0.97789E-20         0.00000E+00
    0.12944E-12        -0.46566E-20         0.00000E+00
    0.12944E-12         0.74506E-20         0.00000E+00
    0.12944E-12         0.62864E-20         0.00000E+00
    0.64975E-12         0.18626E-20         0.00000E+00
    0.64975E-12        -0.93132E-21         0.00000E+00
    0.64975E-12         0.60536E-20         0.00000E+00
    0.64975E-12         0.60536E-20         0.00000E+00
    0.64975E-12         0.27940E-20         0.00000E+00
    0.64975E-12        -0.13039E-19         0.00000E+00
    0.64975E-12        -0.29337E-19         0.00000E+00
    0.64975E-12        -0.21420E-19         0.00000E+00
    0.64975E-12        -0.35623E-19         0.00000E+00
    0.64975E-12        -0.15367E-19         0.00000E+00
    0.64975E-12        -0.28405E-19         0.00000E+00
    0.64975E-12        -0.10245E-19         0.00000E+00
    0.64975E-12        -0.12806E-19         0.00000E+00
    0.64975E-12         0.67521E-20         0.00000E+00
    0.64975E-12         0.27940E-20         0.00000E+00
    0.64975E-12         0.16764E-19         0.00000E+00
    0.64975E-12         0.12573E-19         0.00000E+00
    0.64975E-12         0.26310E-19         0.00000E+00
    0.64975E-12         0.19558E-19         0.00000E+00
    0.64975E-12        -0.23283E-21         0.00000E+00
    0.64975E-12         0.32596E-20         0.00000E+00
    0.64975E-12        -0.18626E-19         0.00000E+00
    0.64975E-12        -0.28871E-19         0.00000E+00
    0.64975E-12        -0.21188E-19         0.00000E+00
    0.64975E-12        -0.10710E-19         0.00000E+00
    0.64975E-12        -0.58208E-20         0.00000E+00
    0.64975E-12         0.10245E-19         0.00000E+00
    0.64975E-12         0.32131E-19         0.00000E+00
    0.64975E-12         0.18161E-19         0.00000E+00
    0.64975E-12         0.37253E-20         0.00000E+00
    0.64975E-12        -0.10245E-19         0.00000E+00
    0.64975E-12         0.46566E-21         0.00000E+00
    0.64975E-12        -0.79162E-20         0.00000E+00
    0.64975E-12         0.13970E-20         0.00000E+00
    0.64975E-12         0.69849E-20         0.00000E+00
    0.64975E-12        -0.37253E-20         0.00000E+00
    0.64975E-12        -0.27940E-20         0.00000E+00
    0.64975E-12        -0.12573E-19         0.00000E+00
    0.64975E-12        -0.93132E-20         0.00000E+00
    0.64975E-12        -0.24214E-19         0.00000E+00
    0.64975E-12        -0.27940E-19         0.00000E+00
    0.64975E-12        -0.13271E-19         0.00000E+00
    0.64975E-12        -0.20023E-19         0.00000E+00
    0.64975E-12        -0.22817E-19         0.00000E+00
    0.64975E-12        -0.27707E-19         0.00000E+00
    0.64975E-12        -0.13970E-19         0.00000E+00
    0.64975E-12        -0.65193E-20         0.00000E+00
    0.64975E-12        -0.60536E-20         0.00000E+00
    0.64975E-12         0.18626E-20         0.00000E+00
    0.64975E-12         0.79162E-20         0.00000E+00
    0.31577E-11         0.23283E-20         0.00000E+00
    0.31577E-11         0.32596E-20         0.00000E+00
    0.31577E-11         0.27940E-20         0.00000E+00
    0.31577E-11         0.74506E-20         0.00000E+00
    0.31577E-11         0.32596E-20         0.00000E+00
    0.31577E-11        -0.15367E-19         0.00000E+00
    0.31577E-11        -0.23749E-19         0.00000E+00
    0.31577E-11        -0.19092E-19         0.00000E+00
    0.31577E-11        -0.26310E-19         0.00000E+00
    0.31577E-11        -0.21420E-19         0.00000E+00
    0.31577E-11        -0.20955E-19         0.00000E+00
    0.31577E-11        -0.72177E-20         0.00000E+00
    0.31577E-11        -0.16298E-19         0.00000E+00
    0.31577E-11         0.65193E-20         0.00000E+00
    0.31577E-11         0.37253E-20         0.00000E+00
    0.31577E-11         0.83819E-20         0.00000E+00
    0.31577E-11         0.46566E-20         0.00000E+00
    0.31577E-11         0.27008E-19         0.00000E+00
    0.31577E-11         0.88476E-20         0.00000E+00
    0.31577E-11        -0.30268E-20         0.00000E+00
    0.31577E-11        -0.13504E-19         0.00000E+00
    0.31577E-11        -0.86147E-20         0.00000E+00
    0.31577E-11        -0.27940E-19         0.00000E+00
    0.31577E-11        -0.13970E-19         0.00000E+00
    0.31577E-11        -0.10943E-19         0.00000E+00
    0.31577E-11        -0.60536E-20         0.00000E+00
    0.31577E-11         0.88476E-20         0.00000E+00
    0.31577E-11         0.20023E-19         0.00000E+00
    0.31577E-11         0.18626E-20         0.00000E+00
    0.31577E-11        -0.20955E-20         0.00000E+00
    0.31577E-11        -0.65193E-20         0.00000E+00
    0.31577E-11         0.79162E-20         0.00000E+00
    0.31577E-11         0.93132E-20         0.00000E+00
    0.31577E-11         0.34925E-20         0.00000E+00
    0.31577E-11         0.00000E+00         0.00000E+00
    0.31577E-11         0.46566E-21         0.00000E+00
    0.31577E-11        -0.37253E-20         0.00000E+00
    0.31577E-11        -0.79162E-20         0.00000E+00
    0.31577E-11        -0.88476E-20         0.00000E+00
    0.31577E-11        -0.20955E-19         0.00000E+00
    0.31577E-11        -0.24913E-19         0.00000E+00
    0.31577E-11        -0.21420E-19         0.00000E+00
    0.31577E-11        -0.17229E-19         0.00000E+00
    0.31577E-11        -0.28405E-19         0.00000E+00
    0.31577E-11        -0.16298E-19         0.00000E+00
    0.31577E-11        -0.14435E-19         0.00000E+00
    0.31577E-11        -0.37253E-20         0.00000E+00
    0.31577E-11        -0.48894E-20         0.00000E+00
    0.31577E-11        -0.46566E-21         0.00000E+00
    0.31577E-11         0.93132E-21         0.00000E+00
    0.14784E-10         0.69849E-20         0.00000E+00
    0.14784E-10         0.13039E-19         0.00000E+00
    0.14784E-10        -0.79162E-20         0.00000E+00
    0.14784E-10         0.23283E-20         0.00000E+00
    0.14784E-10        -0.30268E-20         0.00000E+00
    0.14784E-10        -0.93132E-20         0.00000E+00
    0.14784E-10        -0.21420E-19         0.00000E+00
    0.14784E-10        -0.16997E-19         0.00000E+00
    0.14784E-10        -0.22352E-19         0.00000E+00
    0.14784E-10        -0.18626E-19         0.00000E+00
    0.14784E-10        -0.25611E-19         0.00000E+00
    0.14784E-10        -0.46566E-20         0.00000E+00
    0.14784E-10        -0.14435E-19         0.00000E+00
    0.14784E-10        -0.18626E-20         0.00000E+00
    0.14784E-10        -0.69849E-20         0.00000E+00
    0.14784E-10         0.23283E-21         0.00000E+00
    0.14784E-10         0.55879E-20         0.00000E+00
    0.14784E-10         0.10710E-19         0.00000E+00
    0.14784E-10         0.83819E-20         0.00000E+00
    0.14784E-10        -0.11642E-20         0.00000E+00
    0.14784E-10        -0.10245E-19         0.00000E+00
    0.14784E-10        -0.13504E-19         0.00000E+00
    0.14784E-10        -0.17695E-19         0.00000E+00
    0.14784E-10        -0.55879E-20         0.00000E+00
    0.14784E-10        -0.46566E-20         0.00000E+00
    0.14784E-10        -0.86147E-20         0.00000E+00
    0.14784E-10         0.10710E-19         0.00000E+00
    0.14784E-10         0.19558E-19         0.00000E+00
    0.14784E-10        -0.60536E-20         0.00000E+00
    0.14784E-10        -0.16298E-20         0.00000E+00
    0.14784E-10        -0.51223E-20         0.00000E+00
    0.14784E-10         0.16764E-19         0.00000E+00
    0.14784E-10         0.12806E-19         0.00000E+00
    0.14784E-10        -0.55879E-20         0.00000E+00
    0.14784E-10         0.55879E-20         0.00000E+00
    0.14784E-10         0.27940E-20         0.00000E+00
    0.14784E-10         0.69849E-21         0.00000E+00
    0.14784E-10        -0.74506E-20         0.00000E+00
    0.14784E-10        -0.19791E-19         0.00000E+00
    0.14784E-10        -0.15832E-19         0.00000E+00
    0.14784E-10        -0.13970E-19         0.00000E+00
    0.14784E-10        -0.16764E-19         0.00000E+00
    0.14784E-10        -0.20256E-19         0.00000E+00
    0.14784E-10        -0.26543E-19         0.00000E+00
    0.14784E-10        -0.16298E-19         0.00000E+00
    0.14784E-10        -0.12573E-19         0.00000E+00
    0.14784E-10         0.00000E+00         0.00000E+00
    0.14784E-10        -0.12573E-19         0.00000E+00
    0.14784E-10        -0.51223E-20         0.00000E+00
    0.14784E-10         0.18626E-20         0.00000E+00
    0.66282E-10         0.97789E-20         0.00000E+00
    0.66282E-10         0.88476E-20         0.00000E+00
    0.66282E-10         0.23283E-20         0.00000E+00
    0.66282E-10         0.18626E-20         0.00000E+00
    0.66282E-10         0.25611E-20         0.00000E+00
    0.66282E-10        -0.15600E-19         0.00000E+00
    0.66282E-10        -0.26543E-19         0.00000E+00
    0.66282E-10        -0.28173E-19         0.00000E+00
    0.66282E-10        -0.29802E-19         0.00000E+00
    0.66282E-10        -0.15832E-19         0.00000E+00
    0.66282E-10        -0.97789E-20         0.00000E+00
    0.66282E-10        -0.67521E-20         0.00000E+00
    0.66282E-10        -0.79162E-20         0.00000E+00
    0.66282E-10         0.14435E-19         0.00000E+00
    0.66282E-10        -0.51223E-20         0.00000E+00
    0.66282E-10        -0.27940E-20         0.00000E+00
    0.66282E-10         0.25611E-20         0.00000E+00
    0.66282E-10         0.15367E-19         0.00000E+00
    0.66282E-10         0.14901E-19         0.00000E+00
    0.66282E-10        -0.46566E-21         0.00000E+00
    0.66282E-10        -0.76834E-20         0.00000E+00
    0.66282E-10        -0.14901E-19         0.00000E+00
    0.66282E-10        -0.18626E-19         0.00000E+00
    0.66282E-10        -0.81491E-20         0.00000E+00
    0.66282E-10        -0.60536E-20         0.00000E+00
    0.66282E-10        -0.16065E-19         0.00000E+00
    0.66282E-10         0.79162E-20         0.00000E+00
    0.66282E-10         0.17695E-19         0.00000E+00
    0.66282E-10        -0.93132E-21         0.00000E+00
    0.66282E-10        -0.11642E-19         0.00000E+00
    0.66282E-10        -0.97789E-20         0.00000E+00
    0.66282E-10         0.83819E-20         0.00000E+00
    0.66282E-10         0.51223E-20         0.00000E+00
    0.66282E-10         0.00000E+00         0.00000E+00
    0.66282E-10         0.74506E-20         0.00000E+00
    0.66282E-10        -0.23283E-21         0.00000E+00
    0.66282E-10        -0.11642E-20         0.00000E+00
    0.66282E-10         0.27940E-20         0.00000E+00
    0.66282E-10        -0.88476E-20         0.00000E+00
    0.66282E-10        -0.19325E-19         0.00000E+00
    0.66282E-10        -0.19092E-19         0.00000E+00
    0.66282E-10        -0.15600E-19         0.00000E+00
    0.66282E-10        -0.23050E-19         0.00000E+00
    0.66282E-10        -0.30268E-19         0.00000E+00
    0.66282E-10        -0.14435E-19         0.00000E+00
    0.66282E-10        -0.10012E-19         0.00000E+00
    0.66282E-10         0.46566E-21         0.00000E+00
    0.66282E-10        -0.51223E-20         0.00000E+00
    0.66282E-10        -0.13970E-20         0.00000E+00
    0.66282E-10        -0.13970E-20         0.00000E+00
    0.28242E-09         0.39581E-20         0.00000E+00
    0.28242E-09         0.18626E-20         0.00000E+00
    0.28242E-09         0.55879E-20         0.00000E+00
    0.28242E-09         0.46566E-21         0.00000E+00
    0.28242E-09        -0.41910E-20         0.00000E+00
    0.28242E-09        -0.13970E-19         0.00000E+00
    0.28242E-09        -0.17229E-19         0.00000E+00
    0.28242E-09        -0.21886E-19         0.00000E+00
    0.28242E-09        -0.26310E-19         0.00000E+00
    0.28242E-09        -0.16065E-19         0.00000E+00
    0.28242E-09        -0.41910E-20         0.00000E+00
    0.28242E-09         0.46566E-20         0.00000E+00
    0.28242E-09        -0.74506E-20         0.00000E+00
    0.28242E-09         0.14435E-19         0.00000E+00
    0.28242E-09        -0.25611E-20         0.00000E+00
    0.28242E-09         0.95461E-20         0.00000E+00
    0.28242E-09         0.10943E-19         0.00000E+00
    0.28242E-09         0.15832E-19         0.00000E+00
    0.28242E-09         0.15832E-19         0.00000E+00
    0.28242E-09        -0.51223E-20         0.00000E+00
    0.28242E-09        -0.14435E-19         0.00000E+00
    0.28242E-09        -0.10710E-19         0.00000E+00
    0.28242E-09        -0.30268E-19         0.00000E+00
    0.28242E-09        -0.18394E-19         0.00000E+00
    0.28242E-09        -0.10245E-19         0.00000E+00
    0.28242E-09        -0.19325E-19         0.00000E+00
    0.28242E-09         0.46566E-21         0.00000E+00
    0.28242E-09         0.14901E-19         0.00000E+00
    0.28242E-09         0.13970E-20         0.00000E+00
    0.28242E-09        -0.93132E-20         0.00000E+00
    0.28242E-09        -0.97789E-20         0.00000E+00
    0.28242E-09         0.55879E-20         0.00000E+00
    0.28242E-09         0.53551E-20         0.00000E+00
    0.28242E-09         0.37253E-20         0.00000E+00
    0.28242E-09         0.37253E-20         0.00000E+00
    0.28242E-09        -0.67521E-20         0.00000E+00
    0.28242E-09        -0.48894E-20         0.00000E+00
    0.28242E-09         0.93132E-21         0.00000E+00
    0.28242E-09         0.46566E-21         0.00000E+00
    0.28242E-09        -0.16298E-19         0.00000E+00
    0.28242E-09        -0.30268E-19         0.00000E+00
    0.28242E-09        -0.21886E-19         0.00000E+00
    0.28242E-09        -0.27940E-19         0.00000E+00
    0.28242E-09        -0.30734E-19         0.00000E+00
    0.28242E-09        -0.14435E-19         0.00000E+00
    0.28242E-09        -0.97789E-20         0.00000E+00
    0.28242E-09        -0.32596E-20         0.00000E+00
    0.28242E-09        -0.27940E-20         0.00000E+00
    0.28242E-09         0.13970E-20         0.00000E+00
    0.28242E-09        -0.37253E-20         0.00000E+00
    0.11330E-08         0.11176E-19         0.00000E+00
    0.11330E-08         0.69849E-20         0.00000E+00
    0.11330E-08        -0.23283E-20         0.00000E+00
    0.11330E-08        -0.46566E-21         0.00000E+00
    0.11330E-08        -0.90804E-20         0.00000E+00
    0.11330E-08        -0.11874E-19         0.00000E+00
    0.11330E-08        -0.13504E-19         0.00000E+00
    0.11330E-08        -0.22585E-19         0.00000E+00
    0.11330E-08        -0.18626E-19         0.00000E+00
    0.11330E-08        -0.14668E-19         0.00000E+00
    0.11330E-08        -0.10943E-19         0.00000E+00
    0.11330E-08        -0.51223E-20         0.00000E+00
    0.11330E-08        -0.10245E-19         0.00000E+00
    0.11330E-08         0.10710E-19         0.00000E+00
    0.11330E-08        -0.60536E-20         0.00000E+00
    0.11330E-08         0.20955E-19         0.00000E+00
    0.11330E-08         0.83819E-20         0.00000E+00
    0.11330E-08         0.13271E-19         0.00000E+00
    0.11330E-08         0.12107E-19         0.00000E+00
    0.11330E-08        -0.13039E-19         0.00000E+00
    0.11330E-08        -0.17229E-19         0.00000E+00
    0.11330E-08        -0.13970E-19         0.00000E+00
    0.11330E-08        -0.30268E-19         0.00000E+00
    0.11330E-08        -0.27241E-19         0.00000E+00
    0.11330E-08        -0.79162E-20         0.00000E+00
    0.11330E-08        -0.12573E-19         0.00000E+00
    0.11330E-08         0.34925E-20         0.00000E+00
    0.11330E-08         0.16764E-19         0.00000E+00
    0.11330E-08         0.23283E-20         0.00000E+00
    0.11330E-08        -0.11642E-20         0.00000E+00
    0.11330E-08        -0.69849E-20         0.00000E+00
    0.11330E-08        -0.93132E-21         0.00000E+00
    0.11330E-08         0.30268E-20         0.00000E+00
    0.11330E-08         0.18626E-20         0.00000E+00
    0.11330E-08        -0.34925E-20         0.00000E+00
    0.11330E-08        -0.11409E-19         0.00000E+00
    0.11330E-08        -0.18626E-20         0.00000E+00
    0.11330E-08        -0.65193E-20         0.00000E+00
    0.11330E-08        -0.79162E-20         0.00000E+00
    0.11330E-08        -0.15832E-19         0.00000E+00
    0.11330E-08        -0.28405E-19         0.00000E+00
    0.11330E-08        -0.21188E-19         0.00000E+00
    0.11330E-08        -0.27008E-19         0.00000E+00
    0.11330E-08        -0.22352E-19         0.00000E+00
    0.11330E-08        -0.15600E-19         0.00000E+00
    0.11330E-08        -0.13970E-19         0.00000E+00
    0.11330E-08        -0.60536E-20         0.00000E+00
    0.11330E-08         0.46566E-21         0.00000E+00
    0.11330E-08         0.46566E-21         0.00000E+00
    0.11330E-08        -0.18626E-20         0.00000E+00
    0.42296E-08         0.74506E-20         0.00000E+00
    0.42296E-08        -0.93132E-21         0.00000E+00
    0.42296E-08        -0.18626E-20         0.00000E+00
    0.42296E-08         0.88476E-20         0.00000E+00
    0.42296E-08        -0.18626E-20         0.00000E+00
    0.42296E-08        -0.18859E-19         0.00000E+00
    0.42296E-08        -0.21653E-19         0.00000E+00
    0.42296E-08        -0.19791E-19         0.00000E+00
    0.42296E-08        -0.23050E-19         0.00000E+00
    0.42296E-08        -0.11409E-19         0.00000E+00
    0.42296E-08        -0.16997E-19         0.00000E+00
    0.42296E-08         0.46566E-21         0.00000E+00
    0.42296E-08        -0.25611E-20         0.00000E+00
    0.42296E-08         0.16298E-19         0.00000E+00
    0.42296E-08         0.48894E-20         0.00000E+00
    0.42296E-08         0.76834E-20         0.00000E+00
    0.42296E-08         0.67521E-20         0.00000E+00
    0.42296E-08         0.23516E-19         0.00000E+00
    0.42296E-08         0.97789E-20         0.00000E+00
    0.42296E-08        -0.12107E-19         0.00000E+00
    0.42296E-08        -0.24214E-19         0.00000E+00
    0.42296E-08        -0.17229E-19         0.00000E+00
    0.42296E-08        -0.23283E-19         0.00000E+00
    0.42296E-08        -0.26077E-19         0.00000E+00
    0.42296E-08        -0.16764E-19         0.00000E+00
    0.42296E-08        -0.13271E-19         0.00000E+00
    0.42296E-08         0.48894E-20         0.00000E+00
    0.42296E-08         0.14668E-19         0.00000E+00
    0.42296E-08         0.41910E-20         0.00000E+00
    0.42296E-08        -0.37253E-20         0.00000E+00
    0.42296E-08        -0.95461E-20         0.00000E+00
    0.42296E-08         0.25611E-20         0.00000E+00
    0.42296E-08        -0.23283E-21         0.00000E+00
    0.42296E-08         0.32596E-20         0.00000E+00
    0.42296E-08        -0.19558E-19         0.00000E+00
    0.42296E-08        -0.67521E-20         0.00000E+00
    0.42296E-08        -0.69849E-20         0.00000E+00
    0.42296E-08        -0.74506E-20         0.00000E+00
    0.42296E-08        -0.51223E-20         0.00000E+00
    0.42296E-08        -0.20722E-19         0.00000E+00
    0.42296E-08        -0.24680E-19         0.00000E+00
    0.42296E-08        -0.10710E-19         0.00000E+00
    0.42296E-08        -0.29337E-19         0.00000E+00
    0.42296E-08        -0.18626E-19         0.00000E+00
    0.42296E-08        -0.15367E-19         0.00000E+00
    0.42296E-08        -0.93132E-20         0.00000E+00
    0.42296E-08        -0.13970E-20         0.00000E+00
    0.42296E-08         0.18626E-20         0.00000E+00
    0.42296E-08         0.46566E-20         0.00000E+00
    0.42296E-08        -0.20955E-20         0.00000E+00
    0.14476E-07         0.37253E-20         0.00000E+00
    0.14476E-07         0.10710E-19         0.00000E+00
    0.14476E-07         0.23283E-21         0.00000E+00
    0.14476E-07         0.74506E-20         0.00000E+00
    0.14476E-07        -0.74506E-20         0.00000E+00
    0.14476E-07        -0.19325E-19         0.00000E+00
    0.14476E-07        -0.19092E-19         0.00000E+00
    0.14476E-07        -0.20256E-19         0.00000E+00
    0.14476E-07        -0.38417E-19         0.00000E+00
    0.14476E-07        -0.12107E-19         0.00000E+00
    0.14476E-07        -0.13970E-19         0.00000E+00
    0.14476E-07         0.41910E-20         0.00000E+00
    0.14476E-07         0.32596E-20         0.00000E+00
    0.14476E-07         0.11176E-19         0.00000E+00
    0.14476E-07         0.23283E-20         0.00000E+00
    0.14476E-07         0.97789E-20         0.00000E+00
    0.14476E-07         0.12806E-19         0.00000E+00
    0.14476E-07         0.22817E-19         0.00000E+00
    0.14476E-07         0.93132E-20         0.00000E+00
    0.14476E-07        -0.18626E-20         0.00000E+00
    0.14476E-07        -0.18161E-19         0.00000E+00
    0.14476E-07        -0.20489E-19         0.00000E+00
    0.14476E-07        -0.27707E-19         0.00000E+00
    0.14476E-07        -0.22585E-19         0.00000E+00
    0.14476E-07        -0.19092E-19         0.00000E+00
    0.14476E-07        -0.13039E-19         0.00000E+00
    0.14476E-07         0.46566E-20         0.00000E+00
    0.14476E-07         0.20023E-19         0.00000E+00
    0.14476E-07         0.69849E-20         0.00000E+00
    0.14476E-07         0.30268E-20         0.00000E+00
    0.14476E-07        -0.13271E-19         0.00000E+00
    0.14476E-07         0.37253E-20         0.00000E+00
    0.14476E-07        -0.90804E-20         0.00000E+00
    0.14476E-07        -0.32596E-20         0.00000E+00
    0.14476E-07        -0.11176E-19         0.00000E+00
    0.14476E-07        -0.51223E-20         0.00000E+00
    0.14476E-07        -0.93132E-20         0.00000E+00
    0.14476E-07        -0.11874E-19         0.00000E+00
    0.14476E-07        -0.20023E-19         0.00000E+00
    0.14476E-07        -0.21886E-19         0.00000E+00
    0.14476E-07        -0.31199E-19         0.00000E+00
    0.14476E-07        -0.13039E-19         0.00000E+00
    0.14476E-07        -0.26776E-19         0.00000E+00
    0.14476E-07        -0.26077E-19         0.00000E+00
    0.14476E-07        -0.24447E-19         0.00000E+00
    0.14476E-07        -0.11642E-20         0.00000E+00
    0.14476E-07         0.48894E-20         0.00000E+00
    0.14476E-07        -0.34925E-20         0.00000E+00
    0.14476E-07         0.55879E-20         0.00000E+00
    0.14476E-07         0.18626E-20         0.00000E+00
    0.44605E-07         0.62864E-20         0.00000E+00
    0.44605E-07         0.65193E-20         0.00000E+00
    0.44605E-07         0.74506E-20         0.00000E+00
    0.44605E-07         0.69849E-20         0.00000E+00
    0.44605E-07        -0.10245E-19         0.00000E+00
    0.44605E-07        -0.19325E-19         0.00000E+00
    0.44605E-07        -0.20023E-19         0.00000E+00
    0.44605E-07        -0.31898E-19         0.00000E+00
    0.44605E-07        -0.23749E-19         0.00000E+00
    0.44605E-07        -0.21420E-19         0.00000E+00
    0.44605E-07        -0.22585E-19         0.00000E+00
    0.44605E-07        -0.46566E-20         0.00000E+00
    0.44605E-07        -0.60536E-20         0.00000E+00
    0.44605E-07         0.10943E-19         0.00000E+00
    0.44605E-07         0.00000E+00         0.00000E+00
    0.44605E-07         0.86147E-20         0.00000E+00
    0.44605E-07         0.16531E-19         0.00000E+00
    0.44605E-07         0.23982E-19         0.00000E+00
    0.44605E-07         0.14901E-19         0.00000E+00
    0.44605E-07         0.23283E-20         0.00000E+00
    0.44605E-07        -0.21420E-19         0.00000E+00
    0.44605E-07        -0.13970E-19         0.00000E+00
    0.44605E-07        -0.27008E-19         0.00000E+00
    0.44605E-07        -0.22817E-19         0.00000E+00
    0.44605E-07        -0.90804E-20         0.00000E+00
    0.44605E-07        -0.46566E-21         0.00000E+00
    0.44605E-07         0.83819E-20         0.00000E+00
    0.44605E-07         0.19558E-19         0.00000E+00
    0.44605E-07         0.93132E-20         0.00000E+00
    0.44605E-07        -0.74506E-20         0.00000E+00
    0.44605E-07        -0.14203E-19         0.00000E+00
    0.44605E-07         0.23283E-20         0.00000E+00
    0.44605E-07        -0.39581E-20         0.00000E+00
    0.44605E-07        -0.23283E-20         0.00000E+00
    0.44605E-07         0.00000E+00         0.00000E+00
    0.44605E-07        -0.79162E-20         0.00000E+00
    0.44605E-07        -0.15367E-19         0.00000E+00
    0.44605E-07        -0.21653E-19         0.00000E+00
    0.44605E-07        -0.26776E-19         0.00000E+00
    0.44605E-07        -0.28871E-19         0.00000E+00
    0.44605E-07        -0.27008E-19         0.00000E+00
    0.44605E-07        -0.19092E-19         0.00000E+00
    0.44605E-07        -0.23749E-19         0.00000E+00
    0.44605E-07        -0.33528E-19         0.00000E+00
    0.44605E-07        -0.19092E-19         0.00000E+00
    0.44605E-07        -0.60536E-20         0.00000E+00
    0.44605E-07         0.27940E-20         0.00000E+00
    0.44605E-07        -0.16298E-20         0.00000E+00
    0.44605E-07         0.13970E-20         0.00000E+00
    0.44605E-07        -0.13970E-20         0.00000E+00
    0.12104E-06         0.00000E+00         0.00000E+00
    0.12104E-06         0.32596E-20         0.00000E+00
    0.12104E-06        -0.11642E-20         0.00000E+00
    0.12104E-06         0.74506E-20         0.00000E+00
    0.12104E-06        -0.11642E-20         0.00000E+00
    0.12104E-06        -0.18626E-19         0.00000E+00
    0.12104E-06        -0.33062E-19         0.00000E+00
    0.12104E-06        -0.25146E-19         0.00000E+00
    0.12104E-06        -0.31898E-19         0.00000E+00
    0.12104E-06        -0.22585E-19         0.00000E+00
    0.12104E-06        -0.27474E-19         0.00000E+00
    0.12104E-06         0.41910E-20         0.00000E+00
    0.12104E-06        -0.16298E-19         0.00000E+00
    0.12104E-06         0.55879E-20         0.00000E+00
    0.12104E-06         0.74506E-20         0.00000E+00
    0.12104E-06         0.12340E-19         0.00000E+00
    0.12104E-06         0.11642E-19         0.00000E+00
    0.12104E-06         0.20955E-19         0.00000E+00
    0.12104E-06         0.17229E-19         0.00000E+00
    0.12104E-06         0.65193E-20         0.00000E+00
    0.12104E-06        -0.12107E-19         0.00000E+00
    0.12104E-06        -0.18394E-19         0.00000E+00
    0.12104E-06        -0.28173E-19         0.00000E+00
    0.12104E-06        -0.13970E-19         0.00000E+00
    0.12104E-06        -0.53551E-20         0.00000E+00
    0.12104E-06        -0.32596E-20         0.00000E+00
    0.12104E-06         0.10477E-19         0.00000E+00
    0.12104E-06         0.13271E-19         0.00000E+00
    0.12104E-06        -0.74506E-20         0.00000E+00
    0.12104E-06        -0.13504E-19         0.00000E+00
    0.12104E-06        -0.11642E-19         0.00000E+00
    0.12104E-06        -0.32596E-20         0.00000E+00
    0.12104E-06         0.32596E-20         0.00000E+00
    0.12104E-06        -0.93132E-21         0.00000E+00
    0.12104E-06        -0.41910E-20         0.00000E+00
    0.12104E-06        -0.12107E-19         0.00000E+00
    0.12104E-06        -0.10477E-19         0.00000E+00
    0.12104E-06        -0.18859E-19         0.00000E+00
    0.12104E-06        -0.86147E-20         0.00000E+00
    0.12104E-06        -0.26310E-19         0.00000E+00
    0.12104E-06        -0.34459E-19         0.00000E+00
    0.12104E-06        -0.19092E-19         0.00000E+00
    0.12104E-06        -0.23516E-19         0.00000E+00
    0.12104E-06        -0.19092E-19         0.00000E+00
    0.12104E-06        -0.19325E-19         0.00000E+00
    0.12104E-06        -0.46566E-20         0.00000E+00
    0.12104E-06         0.44238E-20         0.00000E+00
    0.12104E-06         0.46566E-21         0.00000E+00
    0.12104E-06        -0.97789E-20         0.00000E+00
    0.12104E-06         0.46566E-21         0.00000E+00
    0.28208E-06         0.12107E-19         0.00000E+00
    0.28208E-06        -0.34925E-20         0.00000E+00
    0.28208E-06        -0.11642E-20         0.00000E+00
    0.28208E-06        -0.83819E-20         0.00000E+00
    0.28208E-06        -0.51223E-20         0.00000E+00
    0.28208E-06        -0.23050E-19         0.00000E+00
    0.28208E-06        -0.24913E-19         0.00000E+00
    0.28208E-06        -0.25611E-19         0.00000E+00
    0.28208E-06        -0.27474E-19         0.00000E+00
    0.28208E-06        -0.25611E-19         0.00000E+00
    0.28208E-06        -0.14435E-19         0.00000E+00
    0.28208E-06        -0.60536E-20         0.00000E+00
    0.28208E-06        -0.93132E-21         0.00000E+00
    0.28208E-06         0.83819E-20         0.00000E+00
    0.28208E-06         0.23283E-20         0.00000E+00
    0.28208E-06         0.18161E-19         0.00000E+00
    0.28208E-06         0.17229E-19         0.00000E+00
    0.28208E-06         0.20023E-19         0.00000E+00
    0.28208E-06         0.11176E-19         0.00000E+00
    0.28208E-06        -0.37253E-20         0.00000E+00
    0.28208E-06        -0.17928E-19         0.00000E+00
    0.28208E-06        -0.14435E-19         0.00000E+00
    0.28208E-06        -0.27474E-19         0.00000E+00
    0.28208E-06        -0.22817E-19         0.00000E+00
    0.28208E-06        -0.39581E-20         0.00000E+00
    0.28208E-06        -0.53551E-20         0.00000E+00
    0.28208E-06        -0.46566E-20         0.00000E+00
    0.28208E-06         0.11642E-19         0.00000E+00
    0.28208E-06         0.18626E-20         0.00000E+00
    0.28208E-06        -0.74506E-20         0.00000E+00
    0.28208E-06        -0.41910E-20         0.00000E+00
    0.28208E-06        -0.18626E-20         0.00000E+00
    0.28208E-06         0.27940E-20         0.00000E+00
    0.28208E-06        -0.67521E-20         0.00000E+00
    0.28208E-06         0.13970E-20         0.00000E+00
    0.28208E-06        -0.23283E-20         0.00000E+00
    0.28208E-06        -0.55879E-20         0.00000E+00
    0.28208E-06        -0.10710E-19         0.00000E+00
    0.28208E-06        -0.55879E-20         0.00000E+00
    0.28208E-06        -0.18394E-19         0.00000E+00
    0.28208E-06        -0.25146E-19         0.00000E+00
    0.28208E-06        -0.20722E-19         0.00000E+00
    0.28208E-06        -0.21420E-19         0.00000E+00
    0.28208E-06        -0.24913E-19         0.00000E+00
    0.28208E-06        -0.11642E-19         0.00000E+00
    0.28208E-06        -0.69849E-20         0.00000E+00
    0.28208E-06         0.00000E+00         0.00000E+00
    0.28208E-06        -0.58208E-20         0.00000E+00
    0.28208E-06         0.93132E-21         0.00000E+00
    0.28208E-06         0.69849E-21         0.00000E+00
    0.54985E-06         0.69849E-20         0.00000E+00
    0.54985E-06        -0.27940E-20         0.00000E+00
    0.54985E-06        -0.16764E-19         0.00000E+00
    0.54985E-06         0.32596E-20         0.00000E+00
    0.54985E-06        -0.88476E-20         0.00000E+00
    0.54985E-06        -0.20023E-19         0.00000E+00
    0.54985E-06        -0.32596E-19         0.00000E+00
    0.54985E-06        -0.22352E-19         0.00000E+00
    0.54985E-06        -0.22352E-19         0.00000E+00
    0.54985E-06        -0.19558E-19         0.00000E+00
    0.54985E-06        -0.12107E-19         0.00000E+00
    0.54985E-06        -0.48894E-20         0.00000E+00
    0.54985E-06        -0.97789E-20         0.00000E+00
    0.54985E-06         0.79162E-20         0.00000E+00
    0.54985E-06        -0.46566E-20         0.00000E+00
    0.54985E-06         0.23283E-20         0.00000E+00
    0.54985E-06         0.16298E-19         0.00000E+00
    0.54985E-06         0.27940E-19         0.00000E+00
    0.54985E-06         0.46566E-20         0.00000E+00
    0.54985E-06        -0.41910E-20         0.00000E+00
    0.54985E-06        -0.16764E-19         0.00000E+00
    0.54985E-06        -0.16764E-19         0.00000E+00
    0.54985E-06        -0.22817E-19         0.00000E+00
    0.54985E-06        -0.17695E-19         0.00000E+00
    0.54985E-06        -0.65193E-20         0.00000E+00
    0.54985E-06        -0.83819E-20         0.00000E+00
    0.54985E-06         0.51223E-20         0.00000E+00
    0.54985E-06         0.18626E-19         0.00000E+00
    0.54985E-06         0.46566E-21         0.00000E+00
    0.54985E-06         0.00000E+00         0.00000E+00
    0.54985E-06        -0.12573E-19         0.00000E+00
    0.54985E-06         0.10710E-19         0.00000E+00
    0.54985E-06         0.37253E-20         0.00000E+00
    0.54985E-06         0.72177E-20         0.00000E+00
    0.54985E-06        -0.51223E-20         0.00000E+00
    0.54985E-06        -0.32596E-20         0.00000E+00
    0.54985E-06        -0.41910E-20         0.00000E+00
    0.54985E-06        -0.60536E-20         0.00000E+00
    0.54985E-06        -0.12107E-19         0.00000E+00
    0.54985E-06        -0.29802E-19         0.00000E+00
    0.54985E-06        -0.21420E-19         0.00000E+00
    0.54985E-06        -0.13039E-19         0.00000E+00
    0.54985E-06        -0.17229E-19         0.00000E+00
    0.54985E-06        -0.18626E-19         0.00000E+00
    0.54985E-06        -0.15367E-19         0.00000E+00
    0.54985E-06        -0.79162E-20         0.00000E+00
    0.54985E-06        -0.46566E-21         0.00000E+00
    0.54985E-06        -0.46566E-20         0.00000E+00
    0.54985E-06        -0.93132E-21         0.00000E+00
    0.54985E-06        -0.32596E-20         0.00000E+00
    0.87380E-06        -0.93132E-21         0.00000E+00
    0.87380E-06         0.23283E-21         0.00000E+00
    0.87380E-06        -0.71013E-20         0.00000E+00
    0.87380E-06        -0.57044E-20         0.00000E+00
    0.87380E-06        -0.75670E-20         0.00000E+00
    0.87380E-06        -0.12573E-19         0.00000E+00
    0.87380E-06        -0.26543E-19         0.00000E+00
    0.87380E-06        -0.16880E-19         0.00000E+00
    0.87380E-06        -0.27707E-19         0.00000E+00
    0.87380E-06        -0.11176E-19         0.00000E+00
    0.87380E-06        -0.26310E-19         0.00000E+00
    0.87380E-06         0.00000E+00         0.00000E+00
    0.87380E-06        -0.79162E-20         0.00000E+00
    0.87380E-06         0.46566E-20         0.00000E+00
    0.87380E-06        -0.69849E-21         0.00000E+00
    0.87380E-06         0.48894E-20         0.00000E+00
    0.87380E-06         0.11642E-19         0.00000E+00
    0.87380E-06         0.10245E-19         0.00000E+00
    0.87380E-06         0.17462E-19         0.00000E+00
    0.87380E-06        -0.30268E-20         0.00000E+00
    0.87380E-06        -0.93132E-20         0.00000E+00
    0.87380E-06        -0.14901E-19         0.00000E+00
    0.87380E-06        -0.19325E-19         0.00000E+00
    0.87380E-06        -0.10710E-19         0.00000E+00
    0.87380E-06        -0.67521E-20         0.00000E+00
    0.87380E-06        -0.51223E-20         0.00000E+00
    0.87380E-06         0.48894E-20         0.00000E+00
    0.87380E-06         0.12107E-19         0.00000E+00
    0.87380E-06        -0.30268E-20         0.00000E+00
    0.87380E-06        -0.11642E-20         0.00000E+00
    0.87380E-06        -0.48894E-20         0.00000E+00
    0.87380E-06         0.93132E-20         0.00000E+00
    0.87380E-06         0.58208E-20         0.00000E+00
    0.87380E-06         0.81491E-21         0.00000E+00
    0.87380E-06         0.26776E-20         0.00000E+00
    0.87380E-06        -0.18626E-20         0.00000E+00
    0.87380E-06        -0.51223E-20         0.00000E+00
    0.87380E-06        -0.12456E-19         0.00000E+00
    0.87380E-06        -0.67521E-20         0.00000E+00
    0.87380E-06        -0.10245E-19         0.00000E+00
    0.87380E-06        -0.24796E-19         0.00000E+00
    0.87380E-06        -0.90804E-20         0.00000E+00
    0.87380E-06        -0.55879E-20         0.00000E+00
    0.87380E-06        -0.11642E-19         0.00000E+00
    0.87380E-06        -0.81491E-20         0.00000E+00
    0.87380E-06        -0.74506E-20         0.00000E+00
    0.87380E-06         0.86147E-20         0.00000E+00
    0.87380E-06        -0.83819E-20         0.00000E+00
    0.87380E-06         0.60536E-20         0.00000E+00
    0.87380E-06        -0.59372E-20         0.00000E+00
    0.11084E-05         0.00000E+00         0.00000E+00
    0.11084E-05         0.46566E-20         0.00000E+00
    0.11084E-05        -0.93132E-21         0.00000E+00
    0.11084E-05        -0.46566E-20         0.00000E+00
    0.11084E-05        -0.23283E-20         0.00000E+00
    0.11084E-05        -0.46566E-20         0.00000E+00
    0.11084E-05         0.16880E-19         0.00000E+00
    0.11084E-05        -0.79162E-20         0.00000E+00
    0.11084E-05        -0.16764E-19         0.00000E+00
    0.11084E-05        -0.38650E-19         0.00000E+00
    0.11084E-05         0.19674E-19         0.00000E+00
    0.11084E-05         0.37253E-20         0.00000E+00
    0.11084E-05         0.18626E-20         0.00000E+00
    0.11084E-05         0.46566E-20         0.00000E+00
    0.11084E-05         0.93132E-21         0.00000E+00
    0.11084E-05         0.55879E-20         0.00000E+00
    0.11084E-05         0.55879E-20         0.00000E+00
    0.11084E-05         0.38184E-19         0.00000E+00
    0.11084E-05        -0.25379E-19         0.00000E+00
    0.11084E-05        -0.55879E-20         0.00000E+00
    0.11084E-05        -0.46566E-20         0.00000E+00
    0.11084E-05        -0.46566E-20         0.00000E+00
    0.11084E-05        -0.74506E-20         0.00000E+00
    0.11084E-05        -0.46566E-20         0.00000E+00
    0.11084E-05        -0.23283E-20         0.00000E+00
    0.11084E-05        -0.93132E-21         0.00000E+00
    0.11084E-05         0.00000E+00         0.00000E+00
    0.11084E-05         0.51223E-20         0.00000E+00
    0.11084E-05        -0.93132E-21         0.00000E+00
    0.11084E-05        -0.13970E-20         0.00000E+00
    0.11084E-05        -0.13970E-20         0.00000E+00
    0.11084E-05        -0.22701E-19         0.00000E+00
    0.11084E-05         0.26892E-19         0.00000E+00
    0.11084E-05         0.00000E+00         0.00000E+00
    0.11084E-05         0.37253E-20         0.00000E+00
    0.11084E-05         0.00000E+00         0.00000E+00
    0.11084E-05        -0.13970E-20         0.00000E+00
    0.11084E-05        -0.55879E-20         0.00000E+00
    0.11084E-05        -0.46566E-20         0.00000E+00
    0.11084E-05        -0.38068E-19         0.00000E+00
    0.11084E-05        -0.97789E-20         0.00000E+00
    0.11084E-05         0.30966E-19         0.00000E+00
    0.11084E-05         0.00000E+00         0.00000E+00
    0.11084E-05        -0.23283E-20         0.00000E+00
    0.11084E-05        -0.23283E-20         0.00000E+00
    0.11084E-05         0.13970E-20         0.00000E+00
    0.11084E-05         0.69849E-20         0.00000E+00
    0.11084E-05         0.30035E-19         0.00000E+00
    0.11084E-05        -0.27474E-19         0.00000E+00
    0.11084E-05         0.31432E-19         0.00000E+00
POINT_DATA       5151
VECTORS vDarcyNodal double 
    0.73895E-06         0.00000E+00         0.00000E+00
    0.73895E-06         0.00000E+00         0.00000E+00
    0.73895E-06         0.00000E+00         0.00000E+00
    0.73895E-06         0.00000E+00         0.00000E+00
    0.73895E-06         0.00000E+00         0.00000E+00
    0.73895E-06         0.00000E+00         0.00000E+00
    0.73895E-06         0.00000E+00         0.00000E+00
    0.73895E-06         0.00000E+00         0.00000E+00
    0.73895E-06         0.00000E+00         0.00000E+00
    0.73895E-06         0.00000E+00         0.00000E+00
    0.73895E-06         0.00000E+00         0.00000E+00
    0.73895E-06         0.00000E+00         0.00000E+00
    0.73895E-06         0.00000E+00         0.00000E+00
    0.73895E-06         0.00000E+00         0.00000E+00
    0.73895E-06         0.00000E+00         0.00000E+00
    0.73895E-06         0.00000E+00         0.00000E+00
    0.73895E-06         0.00000E+00         0.00000E+00
    0.73895E-06         0.00000E+00         0.00000E+00
    0.73895E-06         0.00000E+00         0.00000E+00
    0.73895E-06         0.00000E+00         0.00000E+00
    0.73895E-06         0.00000E+00         0.00000E+00
    0.73895E-06         0.00000E+00         0.00000E+00
    0.73895E-06         0.00000E+00         0.00000E+00
    0.73895E-06         0.00000E+00         0.00000E+00
    0.73895E-06         0.00000E+00         0.00000E+00
    0.73895E-06         0.00000E+00         0.00000E+00
    0.73895E-06         0.00000E+00         0.00000E+00
    0.73895E-06         0.00000E+00         0.00000E+00
    0.73895E-06         0.00000E+00         0.00000E+00
    0.73895E-06         0.00000E+00         0.00000E+00
    0.73895E-06         0.00000E+00         0.00000E+00
    0.73895E-06         0.00000E+00         0.00000E+00
    0.73895E-06         0.00000E+00         0.00000E+00
    0.73895E-06         0.00000E+00         0.00000E+00
    0.73895E-06         0.00000E+00         0.00000E+00
    0.73895E-06         0.00000E+00         0.00000E+00
    0.73895E-06         0.00000E+00         0.00000E+00
    0.73895E-06         0.00000E+00         0.00000E+00
    0.73895E-06         0.00000E+00         0.00000E+00
    0.73895E-06         0.00000E+00         0.00000E+00
    0.73895E-06         0.00000E+00         0.00000E+00
    0.73895E-06         0.00000E+00         0.00000E+00
    0.73895E-06         0.00000E+00         0.00000E+00
    0.73895E-06         0.00000E+00         0.00000E+00
    0.73895E-06         0.00000E+00         0.00000E+00
    0.73895E-06         0.00000E+00         0.00000E+00
    0.73895E-06         0.00000E+00         0.00000E+00
    0.73895E-06         0.00000E+00         0.00000E+00
    0.73895E-06         0.00000E+00         0.00000E+00
    0.73895E-06         0.00000E+00         0.00000E+00
    0.73895E-06         0.00000E+00         0.00000E+00
    0.66074E-06         0.00000E+00         0.00000E+00
    0.66074E-06        -0.37253E-20         0.00000E+00
    0.66074E-06        -0.37253E-20         0.00000E+00
    0.66074E-06         0.31235E-20         0.00000E+00
    0.66074E-06         0.74506E-20         0.00000E+00
    0.66074E-06         0.86541E-20         0.00000E+00
    0.66074E-06         0.94040E-35         0.00000E+00
    0.66074E-06        -0.80523E-20         0.00000E+00
    0.66074E-06        -0.74506E-20         0.00000E+00
    0.66074E-06        -0.37253E-20         0.00000E+00
    0.66074E-06        -0.74506E-20         0.00000E+00
    0.66074E-06        -0.11778E-19         0.00000E+00
    0.66074E-06        -0.13039E-19         0.00000E+00
    0.66074E-06        -0.37253E-20         0.00000E+00
    0.66074E-06         0.55879E-20         0.00000E+00
    0.66074E-06         0.60176E-21         0.00000E+00
    0.66074E-06         0.00000E+00         0.00000E+00
    0.66074E-06         0.37253E-20         0.00000E+00
    0.66074E-06         0.37253E-20         0.00000E+00
    0.66074E-06        -0.18626E-20         0.00000E+00
    0.66074E-06         0.00000E+00         0.00000E+00
    0.66074E-06         0.18626E-20         0.00000E+00
    0.66074E-06         0.00000E+00         0.00000E+00
    0.66074E-06         0.49862E-20         0.00000E+00
    0.66074E-06         0.61897E-20         0.00000E+00
    0.66074E-06         0.27940E-20         0.00000E+00
    0.66074E-06         0.21922E-20         0.00000E+00
    0.66074E-06         0.43271E-20         0.00000E+00
    0.66074E-06         0.18626E-20         0.00000E+00
    0.66074E-06         0.00000E+00         0.00000E+00
    0.66074E-06        -0.37253E-20         0.00000E+00
    0.66074E-06         0.55879E-20         0.00000E+00
    0.66074E-06         0.16764E-19         0.00000E+00
    0.66074E-06         0.13039E-19         0.00000E+00
    0.66074E-06         0.93132E-20         0.00000E+00
    0.66074E-06         0.00000E+00         0.00000E+00
    0.66074E-06        -0.37253E-20         0.00000E+00
    0.66074E-06         0.00000E+00         0.00000E+00
    0.66074E-06        -0.55879E-20         0.00000E+00
    0.66074E-06        -0.18626E-20         0.00000E+00
    0.66074E-06         0.24644E-20         0.00000E+00
    0.66074E-06        -0.18626E-20         0.00000E+00
    0.66074E-06        -0.60176E-21         0.00000E+00
    0.66074E-06        -0.21922E-20         0.00000E+00
    0.66074E-06        -0.52584E-20         0.00000E+00
    0.66074E-06        -0.67915E-20         0.00000E+00
    0.66074E-06        -0.31235E-20         0.00000E+00
    0.66074E-06        -0.12609E-20         0.00000E+00
    0.66074E-06        -0.18626E-20         0.00000E+00
    0.66074E-06         0.52584E-20         0.00000E+00
    0.66074E-06         0.67915E-20         0.00000E+00
    0.47455E-06         0.11176E-19         0.00000E+00
    0.47455E-06         0.16764E-19         0.00000E+00
    0.47455E-06         0.00000E+00         0.00000E+00
    0.47455E-06        -0.16267E-19         0.00000E+00
    0.47455E-06        -0.93132E-20         0.00000E+00
    0.47455E-06        -0.11237E-19         0.00000E+00
    0.47455E-06        -0.74506E-20         0.00000E+00
    0.47455E-06        -0.11611E-19         0.00000E+00
    0.47455E-06        -0.74506E-20         0.00000E+00
    0.47455E-06        -0.74506E-20         0.00000E+00
    0.47455E-06        -0.11176E-19         0.00000E+00
    0.47455E-06        -0.43499E-21         0.00000E+00
    0.47455E-06         0.14901E-19         0.00000E+00
    0.47455E-06         0.14901E-19         0.00000E+00
    0.47455E-06         0.65193E-20         0.00000E+00
    0.47455E-06         0.32290E-20         0.00000E+00
    0.47455E-06         0.37253E-20         0.00000E+00
    0.47455E-06         0.18626E-20         0.00000E+00
    0.47455E-06         0.18626E-20         0.00000E+00
    0.47455E-06         0.14901E-19         0.00000E+00
    0.47455E-06         0.93132E-20         0.00000E+00
    0.47455E-06        -0.11176E-19         0.00000E+00
    0.47455E-06        -0.22352E-19         0.00000E+00
    0.47455E-06        -0.22787E-19         0.00000E+00
    0.47455E-06        -0.14466E-19         0.00000E+00
    0.47455E-06        -0.74506E-20         0.00000E+00
    0.47455E-06        -0.78856E-20         0.00000E+00
    0.47455E-06        -0.10741E-19         0.00000E+00
    0.47455E-06        -0.55879E-20         0.00000E+00
    0.47455E-06         0.14901E-19         0.00000E+00
    0.47455E-06         0.20489E-19         0.00000E+00
    0.47455E-06         0.24214E-19         0.00000E+00
    0.47455E-06         0.26077E-19         0.00000E+00
    0.47455E-06         0.74506E-20         0.00000E+00
    0.47455E-06        -0.18626E-20         0.00000E+00
    0.47455E-06        -0.37253E-20         0.00000E+00
    0.47455E-06        -0.18626E-20         0.00000E+00
    0.47455E-06         0.55879E-20         0.00000E+00
    0.47455E-06         0.55879E-20         0.00000E+00
    0.47455E-06         0.74506E-20         0.00000E+00
    0.47455E-06         0.97482E-20         0.00000E+00
    0.47455E-06         0.65193E-20         0.00000E+00
    0.47455E-06        -0.69542E-20         0.00000E+00
    0.47455E-06        -0.22848E-19         0.00000E+00
    0.47455E-06        -0.18130E-19         0.00000E+00
    0.47455E-06        -0.10183E-19         0.00000E+00
    0.47455E-06        -0.32903E-20         0.00000E+00
    0.47455E-06        -0.88782E-20         0.00000E+00
    0.47455E-06        -0.74506E-20         0.00000E+00
    0.47455E-06        -0.79469E-20         0.00000E+00
    0.47455E-06        -0.12169E-19         0.00000E+00
    0.27731E-06        -0.18626E-19         0.00000E+00
    0.27731E-06        -0.20076E-19         0.00000E+00
    0.27731E-06        -0.74506E-20         0.00000E+00
    0.27731E-06         0.70378E-20         0.00000E+00
    0.27731E-06        -0.55879E-20         0.00000E+00
    0.27731E-06        -0.14488E-19         0.00000E+00
    0.27731E-06        -0.22352E-19         0.00000E+00
    0.27731E-06        -0.14901E-19         0.00000E+00
    0.27731E-06         0.13039E-19         0.00000E+00
    0.27731E-06         0.33528E-19         0.00000E+00
    0.27731E-06         0.43254E-19         0.00000E+00
    0.27731E-06         0.21939E-19         0.00000E+00
    0.27731E-06         0.50694E-20         0.00000E+00
    0.27731E-06        -0.51850E-21         0.00000E+00
    0.27731E-06         0.28996E-20         0.00000E+00
    0.27731E-06         0.33125E-20         0.00000E+00
    0.27731E-06        -0.18626E-20         0.00000E+00
    0.27731E-06         0.98317E-20         0.00000E+00
    0.27731E-06         0.12107E-19         0.00000E+00
    0.27731E-06         0.78634E-20         0.00000E+00
    0.27731E-06        -0.33125E-20         0.00000E+00
    0.27731E-06        -0.12626E-19         0.00000E+00
    0.27731E-06        -0.69321E-20         0.00000E+00
    0.27731E-06        -0.46566E-20         0.00000E+00
    0.27731E-06        -0.93132E-20         0.00000E+00
    0.27731E-06         0.37253E-20         0.00000E+00
    0.27731E-06         0.15832E-19         0.00000E+00
    0.27731E-06         0.13970E-19         0.00000E+00
    0.27731E-06         0.15314E-19         0.00000E+00
    0.27731E-06         0.14488E-19         0.00000E+00
    0.27731E-06         0.33125E-20         0.00000E+00
    0.27731E-06         0.22755E-20         0.00000E+00
    0.27731E-06         0.37253E-20         0.00000E+00
    0.27731E-06        -0.41381E-20         0.00000E+00
    0.27731E-06         0.74506E-20         0.00000E+00
    0.27731E-06        -0.37253E-20         0.00000E+00
    0.27731E-06        -0.22870E-19         0.00000E+00
    0.27731E-06        -0.27008E-19         0.00000E+00
    0.27731E-06        -0.18626E-19         0.00000E+00
    0.27731E-06        -0.18214E-19         0.00000E+00
    0.27731E-06        -0.19039E-19         0.00000E+00
    0.27731E-06        -0.97260E-20         0.00000E+00
    0.27731E-06         0.18626E-20         0.00000E+00
    0.27731E-06         0.00000E+00         0.00000E+00
    0.27731E-06        -0.93132E-20         0.00000E+00
    0.27731E-06         0.41282E-21         0.00000E+00
    0.27731E-06         0.10245E-19         0.00000E+00
    0.27731E-06         0.14901E-19         0.00000E+00
    0.27731E-06         0.27940E-20         0.00000E+00
    0.27731E-06        -0.60008E-20         0.00000E+00
    0.27731E-06         0.00000E+00         0.00000E+00
    0.13437E-06         0.74506E-20         0.00000E+00
    0.13437E-06         0.55879E-20         0.00000E+00
    0.13437E-06        -0.37253E-20         0.00000E+00
    0.13437E-06        -0.48340E-20         0.00000E+00
    0.13437E-06         0.46566E-20         0.00000E+00
    0.13437E-06         0.59426E-20         0.00000E+00
    0.13437E-06         0.17695E-19         0.00000E+00
    0.13437E-06         0.26831E-19         0.00000E+00
    0.13437E-06         0.37253E-20         0.00000E+00
    0.13437E-06        -0.74506E-20         0.00000E+00
    0.13437E-06        -0.18626E-20         0.00000E+00
    0.13437E-06         0.10999E-19         0.00000E+00
    0.13437E-06         0.23283E-19         0.00000E+00
    0.13437E-06         0.27008E-19         0.00000E+00
    0.13437E-06         0.23283E-19         0.00000E+00
    0.13437E-06         0.17872E-19         0.00000E+00
    0.13437E-06         0.11176E-19         0.00000E+00
    0.13437E-06         0.00000E+00         0.00000E+00
    0.13437E-06         0.00000E+00         0.00000E+00
    0.13437E-06         0.00000E+00         0.00000E+00
    0.13437E-06        -0.14901E-19         0.00000E+00
    0.13437E-06        -0.14901E-19         0.00000E+00
    0.13437E-06         0.37253E-20         0.00000E+00
    0.13437E-06         0.35479E-20         0.00000E+00
    0.13437E-06         0.12285E-19         0.00000E+00
    0.13437E-06         0.20489E-19         0.00000E+00
    0.13437E-06         0.82046E-20         0.00000E+00
    0.13437E-06        -0.35479E-20         0.00000E+00
    0.13437E-06        -0.55879E-20         0.00000E+00
    0.13437E-06        -0.37253E-20         0.00000E+00
    0.13437E-06         0.00000E+00         0.00000E+00
    0.13437E-06         0.37253E-20         0.00000E+00
    0.13437E-06         0.55879E-20         0.00000E+00
    0.13437E-06        -0.74506E-20         0.00000E+00
    0.13437E-06        -0.11176E-19         0.00000E+00
    0.13437E-06        -0.74506E-20         0.00000E+00
    0.13437E-06         0.00000E+00         0.00000E+00
    0.13437E-06         0.55879E-20         0.00000E+00
    0.13437E-06         0.37253E-20         0.00000E+00
    0.13437E-06         0.18626E-20         0.00000E+00
    0.13437E-06        -0.10067E-19         0.00000E+00
    0.13437E-06        -0.93132E-20         0.00000E+00
    0.13437E-06        -0.29713E-20         0.00000E+00
    0.13437E-06        -0.72732E-20         0.00000E+00
    0.13437E-06        -0.76279E-20         0.00000E+00
    0.13437E-06        -0.11531E-19         0.00000E+00
    0.13437E-06        -0.16586E-19         0.00000E+00
    0.13437E-06        -0.10999E-19         0.00000E+00
    0.13437E-06         0.18626E-20         0.00000E+00
    0.13437E-06         0.12285E-19         0.00000E+00
    0.13437E-06         0.59426E-20         0.00000E+00
    0.55214E-07        -0.74506E-20         0.00000E+00
    0.55214E-07        -0.37253E-20         0.00000E+00
    0.55214E-07         0.95170E-20         0.00000E+00
    0.55214E-07         0.16764E-19         0.00000E+00
    0.55214E-07         0.10972E-19         0.00000E+00
    0.55214E-07         0.74506E-20         0.00000E+00
    0.55214E-07         0.00000E+00         0.00000E+00
    0.55214E-07         0.00000E+00         0.00000E+00
    0.55214E-07        -0.37253E-20         0.00000E+00
    0.55214E-07        -0.18626E-20         0.00000E+00
    0.55214E-07         0.14174E-19         0.00000E+00
    0.55214E-07         0.74506E-20         0.00000E+00
    0.55214E-07        -0.48604E-20         0.00000E+00
    0.55214E-07         0.13039E-19         0.00000E+00
    0.55214E-07         0.22352E-19         0.00000E+00
    0.55214E-07         0.16764E-19         0.00000E+00
    0.55214E-07         0.14901E-19         0.00000E+00
    0.55214E-07         0.11176E-19         0.00000E+00
    0.55214E-07         0.74506E-20         0.00000E+00
    0.55214E-07         0.37253E-20         0.00000E+00
    0.55214E-07         0.37253E-20         0.00000E+00
    0.55214E-07         0.11176E-19         0.00000E+00
    0.55214E-07         0.74506E-20         0.00000E+00
    0.55214E-07         0.37253E-20         0.00000E+00
    0.55214E-07         0.37253E-20         0.00000E+00
    0.55214E-07         0.37253E-20         0.00000E+00
    0.55214E-07         0.00000E+00         0.00000E+00
    0.55214E-07        -0.74506E-20         0.00000E+00
    0.55214E-07        -0.37253E-20         0.00000E+00
    0.55214E-07         0.93132E-20         0.00000E+00
    0.55214E-07         0.13039E-19         0.00000E+00
    0.55214E-07        -0.55879E-20         0.00000E+00
    0.55214E-07        -0.14901E-19         0.00000E+00
    0.55214E-07         0.00000E+00         0.00000E+00
    0.55214E-07        -0.37253E-20         0.00000E+00
    0.55214E-07        -0.74506E-20         0.00000E+00
    0.55214E-07         0.48604E-20         0.00000E+00
    0.55214E-07         0.10448E-19         0.00000E+00
    0.55214E-07         0.35215E-20         0.00000E+00
    0.55214E-07        -0.20664E-20         0.00000E+00
    0.55214E-07        -0.37253E-20         0.00000E+00
    0.55214E-07        -0.22352E-19         0.00000E+00
    0.55214E-07        -0.37253E-19         0.00000E+00
    0.55214E-07        -0.29802E-19         0.00000E+00
    0.55214E-07        -0.17491E-19         0.00000E+00
    0.55214E-07        -0.11903E-19         0.00000E+00
    0.55214E-07        -0.10448E-19         0.00000E+00
    0.55214E-07        -0.19762E-19         0.00000E+00
    0.55214E-07        -0.16764E-19         0.00000E+00
    0.55214E-07        -0.63155E-20         0.00000E+00
    0.55214E-07        -0.51804E-20         0.00000E+00
    0.19694E-07         0.00000E+00         0.00000E+00
    0.19694E-07         0.25816E-20         0.00000E+00
    0.19694E-07         0.55879E-20         0.00000E+00
    0.19694E-07         0.85942E-20         0.00000E+00
    0.19694E-07         0.13039E-19         0.00000E+00
    0.19694E-07        -0.39376E-20         0.00000E+00
    0.19694E-07        -0.16764E-19         0.00000E+00
    0.19694E-07        -0.16764E-19         0.00000E+00
    0.19694E-07        -0.93132E-20         0.00000E+00
    0.19694E-07        -0.93132E-21         0.00000E+00
    0.19694E-07        -0.11437E-20         0.00000E+00
    0.19694E-07         0.39376E-20         0.00000E+00
    0.19694E-07         0.12826E-19         0.00000E+00
    0.19694E-07         0.15620E-19         0.00000E+00
    0.19694E-07         0.10669E-19         0.00000E+00
    0.19694E-07         0.76629E-20         0.00000E+00
    0.19694E-07         0.13039E-19         0.00000E+00
    0.19694E-07         0.16045E-19         0.00000E+00
    0.19694E-07         0.55879E-20         0.00000E+00
    0.19694E-07         0.44443E-20         0.00000E+00
    0.19694E-07        -0.39376E-20         0.00000E+00
    0.19694E-07        -0.76629E-20         0.00000E+00
    0.19694E-07         0.11437E-20         0.00000E+00
    0.19694E-07        -0.46566E-20         0.00000E+00
    0.19694E-07        -0.27940E-20         0.00000E+00
    0.19694E-07         0.16764E-19         0.00000E+00
    0.19694E-07         0.12107E-19         0.00000E+00
    0.19694E-07         0.10245E-19         0.00000E+00
    0.19694E-07         0.11895E-19         0.00000E+00
    0.19694E-07        -0.25816E-20         0.00000E+00
    0.19694E-07        -0.25816E-20         0.00000E+00
    0.19694E-07        -0.11437E-20         0.00000E+00
    0.19694E-07         0.65193E-20         0.00000E+00
    0.19694E-07         0.11388E-19         0.00000E+00
    0.19694E-07         0.00000E+00         0.00000E+00
    0.19694E-07        -0.13039E-19         0.00000E+00
    0.19694E-07        -0.10457E-19         0.00000E+00
    0.19694E-07        -0.11176E-19         0.00000E+00
    0.19694E-07        -0.13039E-19         0.00000E+00
    0.19694E-07        -0.85942E-20         0.00000E+00
    0.19694E-07        -0.91009E-20         0.00000E+00
    0.19694E-07        -0.91009E-20         0.00000E+00
    0.19694E-07        -0.93132E-20         0.00000E+00
    0.19694E-07        -0.18626E-19         0.00000E+00
    0.19694E-07        -0.24214E-19         0.00000E+00
    0.19694E-07        -0.19770E-19         0.00000E+00
    0.19694E-07        -0.74506E-20         0.00000E+00
    0.19694E-07        -0.93132E-20         0.00000E+00
    0.19694E-07        -0.14901E-19         0.00000E+00
    0.19694E-07        -0.71899E-21         0.00000E+00
    0.19694E-07         0.00000E+00         0.00000E+00
    0.62354E-08         0.27220E-20         0.00000E+00
    0.62354E-08        -0.74506E-20         0.00000E+00
    0.62354E-08        -0.12537E-19         0.00000E+00
    0.62354E-08        -0.74506E-20         0.00000E+00
    0.62354E-08        -0.23643E-20         0.00000E+00
    0.62354E-08        -0.11678E-19         0.00000E+00
    0.62354E-08        -0.11606E-19         0.00000E+00
    0.62354E-08        -0.19056E-19         0.00000E+00
    0.62354E-08        -0.29802E-19         0.00000E+00
    0.62354E-08        -0.18626E-19         0.00000E+00
    0.62354E-08        -0.74506E-20         0.00000E+00
    0.62354E-08         0.00000E+00         0.00000E+00
    0.62354E-08         0.11176E-19         0.00000E+00
    0.62354E-08         0.22352E-19         0.00000E+00
    0.62354E-08         0.26077E-19         0.00000E+00
    0.62354E-08         0.93132E-20         0.00000E+00
    0.62354E-08         0.74506E-20         0.00000E+00
    0.62354E-08         0.93132E-20         0.00000E+00
    0.62354E-08        -0.37253E-20         0.00000E+00
    0.62354E-08        -0.14901E-19         0.00000E+00
    0.62354E-08        -0.14901E-19         0.00000E+00
    0.62354E-08        -0.37253E-20         0.00000E+00
    0.62354E-08         0.74506E-20         0.00000E+00
    0.62354E-08         0.11176E-19         0.00000E+00
    0.62354E-08         0.55879E-20         0.00000E+00
    0.62354E-08         0.11176E-19         0.00000E+00
    0.62354E-08         0.31665E-19         0.00000E+00
    0.62354E-08         0.44703E-19         0.00000E+00
    0.62354E-08         0.27940E-19         0.00000E+00
    0.62354E-08         0.18626E-20         0.00000E+00
    0.62354E-08        -0.18626E-20         0.00000E+00
    0.62354E-08        -0.93132E-20         0.00000E+00
    0.62354E-08        -0.29802E-19         0.00000E+00
    0.62354E-08        -0.29802E-19         0.00000E+00
    0.62354E-08        -0.18626E-19         0.00000E+00
    0.62354E-08        -0.37253E-20         0.00000E+00
    0.62354E-08         0.37253E-20         0.00000E+00
    0.62354E-08        -0.18626E-20         0.00000E+00
    0.62354E-08         0.37253E-20         0.00000E+00
    0.62354E-08         0.78802E-20         0.00000E+00
    0.62354E-08         0.74506E-20         0.00000E+00
    0.62354E-08         0.14330E-20         0.00000E+00
    0.62354E-08        -0.11176E-19         0.00000E+00
    0.62354E-08        -0.26077E-19         0.00000E+00
    0.62354E-08        -0.29802E-19         0.00000E+00
    0.62354E-08        -0.22352E-19         0.00000E+00
    0.62354E-08        -0.17265E-19         0.00000E+00
    0.62354E-08        -0.13039E-19         0.00000E+00
    0.62354E-08        -0.14400E-19         0.00000E+00
    0.62354E-08        -0.55879E-20         0.00000E+00
    0.62354E-08        -0.37253E-20         0.00000E+00
    0.17876E-08         0.00000E+00         0.00000E+00
    0.17876E-08         0.00000E+00         0.00000E+00
    0.17876E-08         0.00000E+00         0.00000E+00
    0.17876E-08        -0.50876E-20         0.00000E+00
    0.17876E-08        -0.37253E-20         0.00000E+00
    0.17876E-08        -0.13108E-19         0.00000E+00
    0.17876E-08        -0.23283E-19         0.00000E+00
    0.17876E-08        -0.88129E-20         0.00000E+00
    0.17876E-08        -0.37253E-20         0.00000E+00
    0.17876E-08        -0.93132E-20         0.00000E+00
    0.17876E-08        -0.37253E-20         0.00000E+00
    0.17876E-08        -0.10676E-19         0.00000E+00
    0.17876E-08        -0.18626E-19         0.00000E+00
    0.17876E-08        -0.13970E-19         0.00000E+00
    0.17876E-08        -0.10245E-19         0.00000E+00
    0.17876E-08        -0.42256E-20         0.00000E+00
    0.17876E-08         0.11176E-19         0.00000E+00
    0.17876E-08         0.93132E-20         0.00000E+00
    0.17876E-08        -0.37253E-20         0.00000E+00
    0.17876E-08        -0.93132E-20         0.00000E+00
    0.17876E-08        -0.55879E-20         0.00000E+00
    0.17876E-08        -0.18626E-20         0.00000E+00
    0.17876E-08         0.37253E-20         0.00000E+00
    0.17876E-08         0.98135E-20         0.00000E+00
    0.17876E-08         0.11607E-19         0.00000E+00
    0.17876E-08         0.22352E-19         0.00000E+00
    0.17876E-08         0.22852E-19         0.00000E+00
    0.17876E-08         0.20920E-19         0.00000E+00
    0.17876E-08         0.22352E-19         0.00000E+00
    0.17876E-08         0.37253E-20         0.00000E+00
    0.17876E-08        -0.11176E-19         0.00000E+00
    0.17876E-08        -0.11176E-19         0.00000E+00
    0.17876E-08        -0.11176E-19         0.00000E+00
    0.17876E-08        -0.37253E-20         0.00000E+00
    0.17876E-08         0.74506E-20         0.00000E+00
    0.17876E-08         0.55879E-20         0.00000E+00
    0.17876E-08         0.37253E-20         0.00000E+00
    0.17876E-08         0.93132E-20         0.00000E+00
    0.17876E-08         0.55879E-20         0.00000E+00
    0.17876E-08         0.00000E+00         0.00000E+00
    0.17876E-08        -0.11676E-19         0.00000E+00
    0.17876E-08        -0.23283E-19         0.00000E+00
    0.17876E-08        -0.17195E-19         0.00000E+00
    0.17876E-08        -0.20989E-19         0.00000E+00
    0.17876E-08        -0.22783E-19         0.00000E+00
    0.17876E-08        -0.18557E-19         0.00000E+00
    0.17876E-08        -0.13539E-19         0.00000E+00
    0.17876E-08        -0.13539E-19         0.00000E+00
    0.17876E-08        -0.93132E-20         0.00000E+00
    0.17876E-08        -0.50032E-21         0.00000E+00
    0.17876E-08        -0.10006E-20         0.00000E+00
    0.47182E-09        -0.27253E-20         0.00000E+00
    0.47182E-09         0.37253E-20         0.00000E+00
    0.47182E-09         0.93132E-20         0.00000E+00
    0.47182E-09         0.93132E-20         0.00000E+00
    0.47182E-09         0.00000E+00         0.00000E+00
    0.47182E-09        -0.93132E-20         0.00000E+00
    0.47182E-09        -0.13970E-19         0.00000E+00
    0.47182E-09        -0.20920E-19         0.00000E+00
    0.47182E-09        -0.26077E-19         0.00000E+00
    0.47182E-09        -0.20989E-19         0.00000E+00
    0.47182E-09        -0.24714E-19         0.00000E+00
    0.47182E-09        -0.20489E-19         0.00000E+00
    0.47182E-09        -0.13039E-19         0.00000E+00
    0.47182E-09        -0.37253E-20         0.00000E+00
    0.47182E-09         0.18626E-20         0.00000E+00
    0.47182E-09        -0.55879E-20         0.00000E+00
    0.47182E-09        -0.13039E-19         0.00000E+00
    0.47182E-09        -0.11176E-19         0.00000E+00
    0.47182E-09         0.18626E-20         0.00000E+00
    0.47182E-09         0.37253E-20         0.00000E+00
    0.47182E-09        -0.13039E-19         0.00000E+00
    0.47182E-09        -0.14901E-19         0.00000E+00
    0.47182E-09        -0.11176E-19         0.00000E+00
    0.47182E-09        -0.11176E-19         0.00000E+00
    0.47182E-09         0.16764E-19         0.00000E+00
    0.47182E-09         0.32165E-19         0.00000E+00
    0.47182E-09         0.13039E-19         0.00000E+00
    0.47182E-09         0.69506E-20         0.00000E+00
    0.47182E-09         0.14901E-19         0.00000E+00
    0.47182E-09         0.20489E-19         0.00000E+00
    0.47182E-09         0.11176E-19         0.00000E+00
    0.47182E-09        -0.32253E-20         0.00000E+00
    0.47182E-09        -0.46566E-20         0.00000E+00
    0.47182E-09        -0.88819E-20         0.00000E+00
    0.47182E-09        -0.74506E-20         0.00000E+00
    0.47182E-09         0.18626E-20         0.00000E+00
    0.47182E-09        -0.11176E-19         0.00000E+00
    0.47182E-09        -0.11176E-19         0.00000E+00
    0.47182E-09         0.74506E-20         0.00000E+00
    0.47182E-09         0.42253E-20         0.00000E+00
    0.47182E-09        -0.18626E-20         0.00000E+00
    0.47182E-09         0.27940E-20         0.00000E+00
    0.47182E-09        -0.83819E-20         0.00000E+00
    0.47182E-09        -0.20489E-19         0.00000E+00
    0.47182E-09        -0.22352E-19         0.00000E+00
    0.47182E-09        -0.20989E-19         0.00000E+00
    0.47182E-09         0.00000E+00         0.00000E+00
    0.47182E-09         0.37253E-20         0.00000E+00
    0.47182E-09        -0.74506E-20         0.00000E+00
    0.47182E-09         0.13627E-20         0.00000E+00
    0.47182E-09         0.64506E-20         0.00000E+00
    0.11624E-09         0.74506E-20         0.00000E+00
    0.11624E-09         0.37253E-20         0.00000E+00
    0.11624E-09        -0.49990E-21         0.00000E+00
    0.11624E-09         0.13039E-19         0.00000E+00
    0.11624E-09         0.79505E-20         0.00000E+00
    0.11624E-09        -0.11176E-19         0.00000E+00
    0.11624E-09        -0.24214E-19         0.00000E+00
    0.11624E-09        -0.26077E-19         0.00000E+00
    0.11624E-09        -0.29802E-19         0.00000E+00
    0.11624E-09        -0.37253E-19         0.00000E+00
    0.11624E-09        -0.23783E-19         0.00000E+00
    0.11624E-09        -0.27940E-20         0.00000E+00
    0.11624E-09        -0.88133E-20         0.00000E+00
    0.11624E-09        -0.11176E-19         0.00000E+00
    0.11624E-09        -0.13039E-19         0.00000E+00
    0.11624E-09        -0.16764E-19         0.00000E+00
    0.11624E-09         0.37253E-20         0.00000E+00
    0.11624E-09         0.16764E-19         0.00000E+00
    0.11624E-09         0.93132E-20         0.00000E+00
    0.11624E-09         0.00000E+00         0.00000E+00
    0.11624E-09        -0.14901E-19         0.00000E+00
    0.11624E-09        -0.22352E-19         0.00000E+00
    0.11624E-09        -0.20489E-19         0.00000E+00
    0.11624E-09        -0.13039E-19         0.00000E+00
    0.11624E-09         0.00000E+00         0.00000E+00
    0.11624E-09         0.13039E-19         0.00000E+00
    0.11624E-09         0.27940E-19         0.00000E+00
    0.11624E-09         0.26077E-19         0.00000E+00
    0.11624E-09         0.13039E-19         0.00000E+00
    0.11624E-09         0.00000E+00         0.00000E+00
    0.11624E-09        -0.55879E-20         0.00000E+00
    0.11624E-09        -0.37253E-20         0.00000E+00
    0.11624E-09        -0.74506E-20         0.00000E+00
    0.11624E-09        -0.11176E-19         0.00000E+00
    0.11624E-09        -0.18626E-19         0.00000E+00
    0.11624E-09        -0.11176E-19         0.00000E+00
    0.11624E-09         0.41567E-20         0.00000E+00
    0.11624E-09        -0.51565E-20         0.00000E+00
    0.11624E-09        -0.97446E-20         0.00000E+00
    0.11624E-09        -0.43142E-21         0.00000E+00
    0.11624E-09        -0.11176E-19         0.00000E+00
    0.11624E-09        -0.16764E-19         0.00000E+00
    0.11624E-09        -0.11176E-19         0.00000E+00
    0.11624E-09        -0.18626E-19         0.00000E+00
    0.11624E-09        -0.10744E-19         0.00000E+00
    0.11624E-09        -0.32939E-20         0.00000E+00
    0.11624E-09         0.42252E-20         0.00000E+00
    0.11624E-09        -0.13627E-20         0.00000E+00
    0.11624E-09        -0.74506E-20         0.00000E+00
    0.11624E-09        -0.23625E-20         0.00000E+00
    0.11624E-09        -0.84504E-20         0.00000E+00
    0.27022E-10         0.74506E-20         0.00000E+00
    0.27022E-10         0.11176E-19         0.00000E+00
    0.27022E-10         0.11176E-19         0.00000E+00
    0.27022E-10         0.11176E-19         0.00000E+00
    0.27022E-10         0.11676E-19         0.00000E+00
    0.27022E-10        -0.51565E-20         0.00000E+00
    0.27022E-10        -0.24283E-19         0.00000E+00
    0.27022E-10        -0.31165E-19         0.00000E+00
    0.27022E-10        -0.29302E-19         0.00000E+00
    0.27022E-10        -0.28440E-19         0.00000E+00
    0.27022E-10        -0.29802E-19         0.00000E+00
    0.27022E-10        -0.21852E-19         0.00000E+00
    0.27022E-10        -0.14901E-19         0.00000E+00
    0.27022E-10        -0.74506E-20         0.00000E+00
    0.27022E-10        -0.74506E-20         0.00000E+00
    0.27022E-10        -0.23625E-20         0.00000E+00
    0.27022E-10        -0.43144E-21         0.00000E+00
    0.27022E-10        -0.13628E-20         0.00000E+00
    0.27022E-10         0.92448E-20         0.00000E+00
    0.27022E-10        -0.69507E-20         0.00000E+00
    0.27022E-10        -0.88133E-20         0.00000E+00
    0.27022E-10        -0.79505E-20         0.00000E+00
    0.27022E-10        -0.14401E-19         0.00000E+00
    0.27022E-10        -0.10676E-19         0.00000E+00
    0.27022E-10         0.27255E-20         0.00000E+00
    0.27022E-10        -0.93132E-21         0.00000E+00
    0.27022E-10        -0.69507E-20         0.00000E+00
    0.27022E-10         0.43144E-21         0.00000E+00
    0.27022E-10         0.55879E-20         0.00000E+00
    0.27022E-10         0.69507E-20         0.00000E+00
    0.27022E-10         0.79505E-20         0.00000E+00
    0.27022E-10         0.99977E-21         0.00000E+00
    0.27022E-10        -0.23625E-20         0.00000E+00
    0.27022E-10        -0.60878E-20         0.00000E+00
    0.27022E-10        -0.41567E-20         0.00000E+00
    0.27022E-10        -0.37253E-20         0.00000E+00
    0.27022E-10        -0.55879E-20         0.00000E+00
    0.27022E-10        -0.93132E-20         0.00000E+00
    0.27022E-10        -0.46566E-20         0.00000E+00
    0.27022E-10        -0.32254E-20         0.00000E+00
    0.27022E-10        -0.16332E-19         0.00000E+00
    0.27022E-10        -0.16332E-19         0.00000E+00
    0.27022E-10        -0.12539E-19         0.00000E+00
    0.27022E-10        -0.20489E-19         0.00000E+00
    0.27022E-10        -0.24714E-19         0.00000E+00
    0.27022E-10        -0.18626E-19         0.00000E+00
    0.27022E-10        -0.93132E-20         0.00000E+00
    0.27022E-10        -0.37253E-20         0.00000E+00
    0.27022E-10        -0.22941E-20         0.00000E+00
    0.27022E-10        -0.42252E-20         0.00000E+00
    0.27022E-10         0.35884E-20         0.00000E+00
    0.59806E-11         0.11176E-19         0.00000E+00
    0.59806E-11         0.51565E-20         0.00000E+00
    0.59806E-11         0.46566E-20         0.00000E+00
    0.59806E-11         0.13628E-20         0.00000E+00
    0.59806E-11        -0.11176E-19         0.00000E+00
    0.59806E-11        -0.25577E-19         0.00000E+00
    0.59806E-11        -0.27940E-19         0.00000E+00
    0.59806E-11        -0.31665E-19         0.00000E+00
    0.59806E-11        -0.31665E-19         0.00000E+00
    0.59806E-11        -0.31665E-19         0.00000E+00
    0.59806E-11        -0.29302E-19         0.00000E+00
    0.59806E-11        -0.98131E-20         0.00000E+00
    0.59806E-11        -0.11607E-19         0.00000E+00
    0.59806E-11        -0.78820E-20         0.00000E+00
    0.59806E-11        -0.68441E-22         0.00000E+00
    0.59806E-11         0.43144E-21         0.00000E+00
    0.59806E-11         0.18626E-20         0.00000E+00
    0.59806E-11         0.10676E-19         0.00000E+00
    0.59806E-11         0.83819E-20         0.00000E+00
    0.59806E-11        -0.43144E-21         0.00000E+00
    0.59806E-11        -0.10676E-19         0.00000E+00
    0.59806E-11        -0.12539E-19         0.00000E+00
    0.59806E-11        -0.98131E-20         0.00000E+00
    0.59806E-11        -0.23283E-19         0.00000E+00
    0.59806E-11        -0.18626E-19         0.00000E+00
    0.59806E-11        -0.65193E-20         0.00000E+00
    0.59806E-11         0.18626E-20         0.00000E+00
    0.59806E-11         0.14901E-19         0.00000E+00
    0.59806E-11         0.19126E-19         0.00000E+00
    0.59806E-11         0.88133E-20         0.00000E+00
    0.59806E-11        -0.79505E-20         0.00000E+00
    0.59806E-11        -0.78820E-20         0.00000E+00
    0.59806E-11         0.93132E-21         0.00000E+00
    0.59806E-11         0.32254E-20         0.00000E+00
    0.59806E-11         0.55879E-20         0.00000E+00
    0.59806E-11        -0.37253E-20         0.00000E+00
    0.59806E-11        -0.17195E-19         0.00000E+00
    0.59806E-11        -0.14901E-19         0.00000E+00
    0.59806E-11        -0.27940E-20         0.00000E+00
    0.59806E-11        -0.19989E-19         0.00000E+00
    0.59806E-11        -0.29371E-19         0.00000E+00
    0.59806E-11        -0.18195E-19         0.00000E+00
    0.59806E-11        -0.18626E-19         0.00000E+00
    0.59806E-11        -0.26077E-19         0.00000E+00
    0.59806E-11        -0.24214E-19         0.00000E+00
    0.59806E-11        -0.12539E-19         0.00000E+00
    0.59806E-11        -0.13260E-34         0.00000E+00
    0.59806E-11        -0.37253E-20         0.00000E+00
    0.59806E-11         0.27940E-20         0.00000E+00
    0.59806E-11        -0.14312E-20         0.00000E+00
    0.59806E-11        -0.37253E-20         0.00000E+00
    0.12691E-11         0.37253E-20         0.00000E+00
    0.12691E-11         0.55879E-20         0.00000E+00
    0.12691E-11         0.74506E-20         0.00000E+00
    0.12691E-11         0.74506E-20         0.00000E+00
    0.12691E-11         0.00000E+00         0.00000E+00
    0.12691E-11        -0.14901E-19         0.00000E+00
    0.12691E-11        -0.26077E-19         0.00000E+00
    0.12691E-11        -0.29802E-19         0.00000E+00
    0.12691E-11        -0.29802E-19         0.00000E+00
    0.12691E-11        -0.22352E-19         0.00000E+00
    0.12691E-11        -0.14901E-19         0.00000E+00
    0.12691E-11        -0.11176E-19         0.00000E+00
    0.12691E-11        -0.93132E-20         0.00000E+00
    0.12691E-11        -0.18626E-20         0.00000E+00
    0.12691E-11        -0.37253E-20         0.00000E+00
    0.12691E-11        -0.93132E-20         0.00000E+00
    0.12691E-11         0.55879E-20         0.00000E+00
    0.12691E-11         0.11176E-19         0.00000E+00
    0.12691E-11         0.12039E-19         0.00000E+00
    0.12691E-11        -0.55879E-20         0.00000E+00
    0.12691E-11        -0.13901E-19         0.00000E+00
    0.12691E-11        -0.74506E-20         0.00000E+00
    0.12691E-11        -0.16764E-19         0.00000E+00
    0.12691E-11        -0.18626E-19         0.00000E+00
    0.12691E-11        -0.74506E-20         0.00000E+00
    0.12691E-11        -0.13039E-19         0.00000E+00
    0.12691E-11        -0.37253E-20         0.00000E+00
    0.12691E-11         0.13039E-19         0.00000E+00
    0.12691E-11         0.18626E-20         0.00000E+00
    0.12691E-11        -0.37253E-20         0.00000E+00
    0.12691E-11        -0.74506E-20         0.00000E+00
    0.12691E-11        -0.74506E-20         0.00000E+00
    0.12691E-11        -0.37253E-20         0.00000E+00
    0.12691E-11         0.00000E+00         0.00000E+00
    0.12691E-11         0.74506E-20         0.00000E+00
    0.12691E-11         0.18626E-20         0.00000E+00
    0.12691E-11        -0.93132E-20         0.00000E+00
    0.12691E-11        -0.16764E-19         0.00000E+00
    0.12691E-11        -0.22352E-19         0.00000E+00
    0.12691E-11        -0.18626E-19         0.00000E+00
    0.12691E-11        -0.20489E-19         0.00000E+00
    0.12691E-11        -0.20489E-19         0.00000E+00
    0.12691E-11        -0.16764E-19         0.00000E+00
    0.12691E-11        -0.20489E-19         0.00000E+00
    0.12691E-11        -0.16764E-19         0.00000E+00
    0.12691E-11        -0.11176E-19         0.00000E+00
    0.12691E-11        -0.74506E-20         0.00000E+00
    0.12691E-11        -0.11176E-19         0.00000E+00
    0.12691E-11        -0.74506E-20         0.00000E+00
    0.12691E-11         0.18626E-20         0.00000E+00
    0.12691E-11         0.37253E-20         0.00000E+00
    0.25973E-12         0.73137E-20         0.00000E+00
    0.25973E-12         0.37253E-20         0.00000E+00
    0.25973E-12        -0.17942E-20         0.00000E+00
    0.25973E-12        -0.37253E-20         0.00000E+00
    0.25973E-12        -0.37937E-20         0.00000E+00
    0.25973E-12        -0.11244E-19         0.00000E+00
    0.25973E-12        -0.24146E-19         0.00000E+00
    0.25973E-12        -0.31597E-19         0.00000E+00
    0.25973E-12        -0.29802E-19         0.00000E+00
    0.25973E-12        -0.22352E-19         0.00000E+00
    0.25973E-12        -0.18626E-19         0.00000E+00
    0.25973E-12        -0.93132E-20         0.00000E+00
    0.25973E-12        -0.37253E-20         0.00000E+00
    0.25973E-12        -0.37253E-20         0.00000E+00
    0.25973E-12         0.00000E+00         0.00000E+00
    0.25973E-12         0.37253E-20         0.00000E+00
    0.25973E-12         0.37253E-20         0.00000E+00
    0.25973E-12         0.14901E-19         0.00000E+00
    0.25973E-12         0.18626E-19         0.00000E+00
    0.25973E-12         0.00000E+00         0.00000E+00
    0.25973E-12        -0.13039E-19         0.00000E+00
    0.25973E-12        -0.18626E-19         0.00000E+00
    0.25973E-12        -0.24214E-19         0.00000E+00
    0.25973E-12        -0.26077E-19         0.00000E+00
    0.25973E-12        -0.13039E-19         0.00000E+00
    0.25973E-12        -0.55879E-20         0.00000E+00
    0.25973E-12        -0.18626E-20         0.00000E+00
    0.25973E-12         0.93132E-20         0.00000E+00
    0.25973E-12         0.74506E-20         0.00000E+00
    0.25973E-12        -0.74506E-20         0.00000E+00
    0.25973E-12        -0.14901E-19         0.00000E+00
    0.25973E-12        -0.13039E-19         0.00000E+00
    0.25973E-12        -0.37253E-20         0.00000E+00
    0.25973E-12         0.18626E-20         0.00000E+00
    0.25973E-12         0.00000E+00         0.00000E+00
    0.25973E-12        -0.18626E-20         0.00000E+00
    0.25973E-12         0.00000E+00         0.00000E+00
    0.25973E-12        -0.18626E-20         0.00000E+00
    0.25973E-12        -0.74506E-20         0.00000E+00
    0.25973E-12        -0.11244E-19         0.00000E+00
    0.25973E-12        -0.18626E-19         0.00000E+00
    0.25973E-12        -0.26009E-19         0.00000E+00
    0.25973E-12        -0.27940E-19         0.00000E+00
    0.25973E-12        -0.27940E-19         0.00000E+00
    0.25973E-12        -0.20489E-19         0.00000E+00
    0.25973E-12        -0.55879E-20         0.00000E+00
    0.25973E-12         0.17942E-20         0.00000E+00
    0.25973E-12         0.93132E-21         0.00000E+00
    0.25973E-12         0.99976E-21         0.00000E+00
    0.25973E-12         0.55879E-20         0.00000E+00
    0.25973E-12         0.37253E-20         0.00000E+00
    0.51504E-13         0.37253E-20         0.00000E+00
    0.51504E-13         0.19311E-20         0.00000E+00
    0.51504E-13         0.93132E-21         0.00000E+00
    0.51504E-13        -0.99976E-21         0.00000E+00
    0.51504E-13        -0.14901E-19         0.00000E+00
    0.51504E-13        -0.26940E-19         0.00000E+00
    0.51504E-13        -0.30665E-19         0.00000E+00
    0.51504E-13        -0.31665E-19         0.00000E+00
    0.51504E-13        -0.33596E-19         0.00000E+00
    0.51504E-13        -0.35459E-19         0.00000E+00
    0.51504E-13        -0.24146E-19         0.00000E+00
    0.51504E-13        -0.93132E-20         0.00000E+00
    0.51504E-13        -0.75190E-20         0.00000E+00
    0.51504E-13        -0.36569E-20         0.00000E+00
    0.51504E-13         0.00000E+00         0.00000E+00
    0.51504E-13         0.27940E-20         0.00000E+00
    0.51504E-13         0.10313E-19         0.00000E+00
    0.51504E-13         0.23215E-19         0.00000E+00
    0.51504E-13         0.17627E-19         0.00000E+00
    0.51504E-13         0.00000E+00         0.00000E+00
    0.51504E-13        -0.83135E-20         0.00000E+00
    0.51504E-13        -0.10176E-19         0.00000E+00
    0.51504E-13        -0.18626E-19         0.00000E+00
    0.51504E-13        -0.18626E-19         0.00000E+00
    0.51504E-13        -0.11244E-19         0.00000E+00
    0.51504E-13        -0.12107E-19         0.00000E+00
    0.51504E-13        -0.27255E-20         0.00000E+00
    0.51504E-13         0.93132E-20         0.00000E+00
    0.51504E-13         0.37253E-20         0.00000E+00
    0.51504E-13        -0.13107E-19         0.00000E+00
    0.51504E-13        -0.13039E-19         0.00000E+00
    0.51504E-13         0.37937E-20         0.00000E+00
    0.51504E-13         0.83135E-20         0.00000E+00
    0.51504E-13         0.27255E-20         0.00000E+00
    0.51504E-13         0.55879E-20         0.00000E+00
    0.51504E-13         0.00000E+00         0.00000E+00
    0.51504E-13        -0.74506E-20         0.00000E+00
    0.51504E-13        -0.73821E-20         0.00000E+00
    0.51504E-13        -0.55195E-20         0.00000E+00
    0.51504E-13        -0.14970E-19         0.00000E+00
    0.51504E-13        -0.31733E-19         0.00000E+00
    0.51504E-13        -0.29802E-19         0.00000E+00
    0.51504E-13        -0.26009E-19         0.00000E+00
    0.51504E-13        -0.26009E-19         0.00000E+00
    0.51504E-13        -0.26077E-19         0.00000E+00
    0.51504E-13        -0.22352E-19         0.00000E+00
    0.51504E-13        -0.75190E-20         0.00000E+00
    0.51504E-13        -0.19311E-20         0.00000E+00
    0.51504E-13         0.18626E-20         0.00000E+00
    0.51504E-13         0.37253E-20         0.00000E+00
    0.51504E-13         0.74506E-20         0.00000E+00
    0.99343E-14         0.37253E-20         0.00000E+00
    0.99343E-14         0.74506E-20         0.00000E+00
    0.99343E-14         0.00000E+00         0.00000E+00
    0.99343E-14        -0.12039E-19         0.00000E+00
    0.99343E-14        -0.16764E-19         0.00000E+00
    0.99343E-14        -0.17832E-19         0.00000E+00
    0.99343E-14        -0.26077E-19         0.00000E+00
    0.99343E-14        -0.29734E-19         0.00000E+00
    0.99343E-14        -0.27940E-19         0.00000E+00
    0.99343E-14        -0.22352E-19         0.00000E+00
    0.99343E-14        -0.20489E-19         0.00000E+00
    0.99343E-14        -0.13901E-19         0.00000E+00
    0.99343E-14        -0.14901E-19         0.00000E+00
    0.99343E-14        -0.65193E-20         0.00000E+00
    0.99343E-14         0.27940E-20         0.00000E+00
    0.99343E-14         0.45882E-20         0.00000E+00
    0.99343E-14         0.14901E-19         0.00000E+00
    0.99343E-14         0.24214E-19         0.00000E+00
    0.99343E-14         0.26077E-19         0.00000E+00
    0.99343E-14         0.14901E-19         0.00000E+00
    0.99343E-14        -0.18626E-20         0.00000E+00
    0.99343E-14        -0.14901E-19         0.00000E+00
    0.99343E-14        -0.20489E-19         0.00000E+00
    0.99343E-14        -0.26940E-19         0.00000E+00
    0.99343E-14        -0.20558E-19         0.00000E+00
    0.99343E-14        -0.13039E-19         0.00000E+00
    0.99343E-14         0.99976E-21         0.00000E+00
    0.99343E-14         0.73821E-20         0.00000E+00
    0.99343E-14         0.00000E+00         0.00000E+00
    0.99343E-14        -0.55879E-20         0.00000E+00
    0.99343E-14        -0.11176E-19         0.00000E+00
    0.99343E-14        -0.11176E-19         0.00000E+00
    0.99343E-14        -0.74506E-20         0.00000E+00
    0.99343E-14         0.00000E+00         0.00000E+00
    0.99343E-14         0.18626E-20         0.00000E+00
    0.99343E-14        -0.93132E-20         0.00000E+00
    0.99343E-14        -0.74506E-20         0.00000E+00
    0.99343E-14        -0.11176E-19         0.00000E+00
    0.99343E-14        -0.11176E-19         0.00000E+00
    0.99343E-14        -0.14901E-19         0.00000E+00
    0.99343E-14        -0.22420E-19         0.00000E+00
    0.99343E-14        -0.18626E-19         0.00000E+00
    0.99343E-14        -0.24146E-19         0.00000E+00
    0.99343E-14        -0.35459E-19         0.00000E+00
    0.99343E-14        -0.30665E-19         0.00000E+00
    0.99343E-14        -0.17558E-19         0.00000E+00
    0.99343E-14        -0.13107E-19         0.00000E+00
    0.99343E-14        -0.93817E-20         0.00000E+00
    0.99343E-14        -0.74506E-20         0.00000E+00
    0.99343E-14        -0.68439E-22         0.00000E+00
    0.99344E-14         0.35884E-20         0.00000E+00
    0.18700E-14         0.74506E-20         0.00000E+00
    0.18700E-14         0.64508E-20         0.00000E+00
    0.18700E-14        -0.27940E-20         0.00000E+00
    0.18700E-14         0.68439E-22         0.00000E+00
    0.18700E-14        -0.37253E-20         0.00000E+00
    0.18700E-14        -0.20489E-19         0.00000E+00
    0.18700E-14        -0.29802E-19         0.00000E+00
    0.18700E-14        -0.27940E-19         0.00000E+00
    0.18700E-14        -0.22420E-19         0.00000E+00
    0.18700E-14        -0.22352E-19         0.00000E+00
    0.18700E-14        -0.16695E-19         0.00000E+00
    0.18700E-14        -0.11176E-19         0.00000E+00
    0.18700E-14        -0.12176E-19         0.00000E+00
    0.18700E-14        -0.13039E-19         0.00000E+00
    0.18700E-14        -0.10176E-19         0.00000E+00
    0.18700E-14        -0.56564E-20         0.00000E+00
    0.18700E-14         0.10245E-19         0.00000E+00
    0.18700E-14         0.22352E-19         0.00000E+00
    0.18700E-14         0.19489E-19         0.00000E+00
    0.18700E-14         0.65877E-20         0.00000E+00
    0.18700E-14        -0.10245E-19         0.00000E+00
    0.18700E-14        -0.14901E-19         0.00000E+00
    0.18700E-14        -0.24214E-19         0.00000E+00
    0.18700E-14        -0.29871E-19         0.00000E+00
    0.18700E-14        -0.93132E-20         0.00000E+00
    0.18700E-14         0.00000E+00         0.00000E+00
    0.18700E-14         0.65877E-20         0.00000E+00
    0.18700E-14         0.19558E-19         0.00000E+00
    0.18700E-14         0.92448E-20         0.00000E+00
    0.18700E-14        -0.83135E-20         0.00000E+00
    0.18700E-14        -0.93132E-20         0.00000E+00
    0.18700E-14         0.93132E-21         0.00000E+00
    0.18700E-14         0.56564E-20         0.00000E+00
    0.18700E-14         0.17942E-20         0.00000E+00
    0.18700E-14        -0.18626E-20         0.00000E+00
    0.18700E-14        -0.55879E-20         0.00000E+00
    0.18700E-14        -0.75190E-20         0.00000E+00
    0.18700E-14        -0.93132E-20         0.00000E+00
    0.18700E-14        -0.24146E-19         0.00000E+00
    0.18700E-14        -0.31597E-19         0.00000E+00
    0.18700E-14        -0.37321E-19         0.00000E+00
    0.18700E-14        -0.37253E-19         0.00000E+00
    0.18700E-14        -0.35322E-19         0.00000E+00
    0.18700E-14        -0.40978E-19         0.00000E+00
    0.18700E-14        -0.31665E-19         0.00000E+00
    0.18700E-14        -0.22352E-19         0.00000E+00
    0.18700E-14        -0.14901E-19         0.00000E+00
    0.18700E-14        -0.75190E-20         0.00000E+00
    0.18700E-14        -0.27940E-20         0.00000E+00
    0.18700E-14        -0.46566E-20         0.00000E+00
    0.18700E-14        -0.75875E-20         0.00000E+00
    0.34445E-15         0.38622E-20         0.00000E+00
    0.34445E-15         0.55879E-20         0.00000E+00
    0.34444E-15         0.37253E-20         0.00000E+00
    0.34444E-15        -0.55879E-20         0.00000E+00
    0.34444E-15        -0.16764E-19         0.00000E+00
    0.34444E-15        -0.29802E-19         0.00000E+00
    0.34444E-15        -0.30734E-19         0.00000E+00
    0.34444E-15        -0.25077E-19         0.00000E+00
    0.34444E-15        -0.26077E-19         0.00000E+00
    0.34445E-15        -0.19626E-19         0.00000E+00
    0.34445E-15        -0.65877E-20         0.00000E+00
    0.34445E-15         0.55879E-20         0.00000E+00
    0.34445E-15         0.37253E-20         0.00000E+00
    0.34444E-15         0.18626E-20         0.00000E+00
    0.34444E-15         0.55879E-20         0.00000E+00
    0.34444E-15         0.74506E-20         0.00000E+00
    0.34444E-15         0.55879E-20         0.00000E+00
    0.34444E-15         0.00000E+00         0.00000E+00
    0.34444E-15         0.37253E-20         0.00000E+00
    0.34444E-15         0.00000E+00         0.00000E+00
    0.34444E-15        -0.74506E-20         0.00000E+00
    0.34444E-15        -0.14901E-19         0.00000E+00
    0.34444E-15        -0.18626E-19         0.00000E+00
    0.34444E-15        -0.14901E-19         0.00000E+00
    0.34444E-15        -0.11176E-19         0.00000E+00
    0.34444E-15        -0.12970E-19         0.00000E+00
    0.34444E-15        -0.37253E-20         0.00000E+00
    0.34444E-15         0.92448E-20         0.00000E+00
    0.34445E-15         0.74506E-20         0.00000E+00
    0.34445E-15         0.00000E+00         0.00000E+00
    0.34445E-15        -0.37253E-20         0.00000E+00
    0.34445E-15         0.68439E-22         0.00000E+00
    0.34445E-15         0.83819E-20         0.00000E+00
    0.34445E-15         0.27255E-20         0.00000E+00
    0.34445E-15         0.00000E+00         0.00000E+00
    0.34445E-15         0.00000E+00         0.00000E+00
    0.34445E-15        -0.13039E-19         0.00000E+00
    0.34445E-15        -0.26077E-19         0.00000E+00
    0.34445E-15        -0.16764E-19         0.00000E+00
    0.34445E-15        -0.18558E-19         0.00000E+00
    0.34445E-15        -0.29802E-19         0.00000E+00
    0.34444E-15        -0.26077E-19         0.00000E+00
    0.34444E-15        -0.29802E-19         0.00000E+00
    0.34444E-15        -0.37253E-19         0.00000E+00
    0.34444E-15        -0.39116E-19         0.00000E+00
    0.34444E-15        -0.33596E-19         0.00000E+00
    0.34444E-15        -0.20489E-19         0.00000E+00
    0.34444E-15        -0.16764E-19         0.00000E+00
    0.34444E-15        -0.11176E-19         0.00000E+00
    0.34444E-15        -0.19311E-20         0.00000E+00
    0.34444E-15        -0.13688E-21         0.00000E+00
    0.62229E-16         0.74506E-20         0.00000E+00
    0.62229E-16         0.11176E-19         0.00000E+00
    0.62230E-16         0.11176E-19         0.00000E+00
    0.62228E-16         0.74506E-20         0.00000E+00
    0.62226E-16        -0.83135E-20         0.00000E+00
    0.62223E-16        -0.25146E-19         0.00000E+00
    0.62221E-16        -0.26145E-19         0.00000E+00
    0.62221E-16        -0.24214E-19         0.00000E+00
    0.62220E-16        -0.29802E-19         0.00000E+00
    0.62221E-16        -0.35390E-19         0.00000E+00
    0.62222E-16        -0.29734E-19         0.00000E+00
    0.62223E-16        -0.10245E-19         0.00000E+00
    0.62226E-16        -0.99976E-21         0.00000E+00
    0.62227E-16         0.14970E-19         0.00000E+00
    0.62226E-16         0.19558E-19         0.00000E+00
    0.62225E-16         0.14764E-19         0.00000E+00
    0.62225E-16         0.23283E-19         0.00000E+00
    0.62224E-16         0.16832E-19         0.00000E+00
    0.62223E-16         0.93132E-20         0.00000E+00
    0.62221E-16        -0.37253E-20         0.00000E+00
    0.62222E-16        -0.20489E-19         0.00000E+00
    0.62224E-16        -0.22352E-19         0.00000E+00
    0.62225E-16        -0.18626E-19         0.00000E+00
    0.62227E-16        -0.26077E-19         0.00000E+00
    0.62226E-16        -0.20489E-19         0.00000E+00
    0.62226E-16        -0.11176E-19         0.00000E+00
    0.62227E-16        -0.13039E-19         0.00000E+00
    0.62228E-16        -0.55879E-20         0.00000E+00
    0.62228E-16         0.18626E-20         0.00000E+00
    0.62228E-16        -0.37253E-20         0.00000E+00
    0.62229E-16        -0.13039E-19         0.00000E+00
    0.62230E-16        -0.11176E-19         0.00000E+00
    0.62231E-16         0.00000E+00         0.00000E+00
    0.62233E-16         0.18626E-20         0.00000E+00
    0.62234E-16        -0.37253E-20         0.00000E+00
    0.62234E-16        -0.93817E-20         0.00000E+00
    0.62234E-16        -0.93132E-21         0.00000E+00
    0.62232E-16        -0.64508E-20         0.00000E+00
    0.62231E-16        -0.16764E-19         0.00000E+00
    0.62231E-16        -0.18626E-19         0.00000E+00
    0.62229E-16        -0.22283E-19         0.00000E+00
    0.62230E-16        -0.22352E-19         0.00000E+00
    0.62228E-16        -0.24283E-19         0.00000E+00
    0.62229E-16        -0.33528E-19         0.00000E+00
    0.62229E-16        -0.39116E-19         0.00000E+00
    0.62229E-16        -0.29802E-19         0.00000E+00
    0.62228E-16        -0.11107E-19         0.00000E+00
    0.62229E-16        -0.27940E-20         0.00000E+00
    0.62228E-16        -0.84503E-20         0.00000E+00
    0.62227E-16        -0.37937E-20         0.00000E+00
    0.62228E-16        -0.13688E-21         0.00000E+00
    0.11048E-16         0.37253E-20         0.00000E+00
    0.11048E-16         0.37253E-20         0.00000E+00
    0.11050E-16         0.92448E-20         0.00000E+00
    0.11050E-16         0.13039E-19         0.00000E+00
    0.11051E-16         0.93817E-20         0.00000E+00
    0.11049E-16        -0.55879E-20         0.00000E+00
    0.11047E-16        -0.22352E-19         0.00000E+00
    0.11046E-16        -0.22352E-19         0.00000E+00
    0.11045E-16        -0.24214E-19         0.00000E+00
    0.11044E-16        -0.22352E-19         0.00000E+00
    0.11041E-16        -0.23352E-19         0.00000E+00
    0.11041E-16        -0.17695E-19         0.00000E+00
    0.11041E-16        -0.11107E-19         0.00000E+00
    0.11044E-16         0.00000E+00         0.00000E+00
    0.11046E-16         0.11176E-19         0.00000E+00
    0.11047E-16         0.13039E-19         0.00000E+00
    0.11049E-16         0.11176E-19         0.00000E+00
    0.11050E-16         0.13039E-19         0.00000E+00
    0.11051E-16         0.18626E-19         0.00000E+00
    0.11050E-16         0.00000E+00         0.00000E+00
    0.11049E-16        -0.22352E-19         0.00000E+00
    0.11048E-16        -0.27940E-19         0.00000E+00
    0.11048E-16        -0.29802E-19         0.00000E+00
    0.11049E-16        -0.20489E-19         0.00000E+00
    0.11049E-16        -0.11176E-19         0.00000E+00
    0.11048E-16        -0.18626E-19         0.00000E+00
    0.11046E-16        -0.11176E-19         0.00000E+00
    0.11046E-16         0.74506E-20         0.00000E+00
    0.11045E-16         0.93132E-20         0.00000E+00
    0.11046E-16        -0.37253E-20         0.00000E+00
    0.11046E-16        -0.13039E-19         0.00000E+00
    0.11045E-16        -0.13039E-19         0.00000E+00
    0.11045E-16        -0.11176E-19         0.00000E+00
    0.11045E-16        -0.93132E-20         0.00000E+00
    0.11046E-16        -0.37253E-20         0.00000E+00
    0.11046E-16         0.00000E+00         0.00000E+00
    0.11045E-16        -0.56564E-20         0.00000E+00
    0.11046E-16        -0.75190E-20         0.00000E+00
    0.11045E-16        -0.92448E-20         0.00000E+00
    0.11045E-16        -0.14833E-19         0.00000E+00
    0.11045E-16        -0.26077E-19         0.00000E+00
    0.11046E-16        -0.22352E-19         0.00000E+00
    0.11046E-16        -0.22352E-19         0.00000E+00
    0.11046E-16        -0.37253E-19         0.00000E+00
    0.11046E-16        -0.41047E-19         0.00000E+00
    0.11045E-16        -0.31733E-19         0.00000E+00
    0.11045E-16        -0.18558E-19         0.00000E+00
    0.11045E-16        -0.12970E-19         0.00000E+00
    0.11048E-16        -0.37253E-20         0.00000E+00
    0.11047E-16        -0.37937E-20         0.00000E+00
    0.11046E-16        -0.75875E-20         0.00000E+00
    0.19311E-17         0.37253E-20         0.00000E+00
    0.19311E-17         0.47251E-20         0.00000E+00
    0.19306E-17         0.47251E-20         0.00000E+00
    0.19325E-17         0.36569E-20         0.00000E+00
    0.19334E-17        -0.37253E-20         0.00000E+00
    0.19358E-17        -0.92448E-20         0.00000E+00
    0.19362E-17        -0.93132E-20         0.00000E+00
    0.19363E-17        -0.14038E-19         0.00000E+00
    0.19358E-17        -0.19626E-19         0.00000E+00
    0.19339E-17        -0.15764E-19         0.00000E+00
    0.19339E-17        -0.14901E-19         0.00000E+00
    0.19325E-17        -0.15901E-19         0.00000E+00
    0.19316E-17        -0.11176E-19         0.00000E+00
    0.19330E-17        -0.92448E-20         0.00000E+00
    0.19348E-17        -0.18626E-20         0.00000E+00
    0.19360E-17         0.65193E-20         0.00000E+00
    0.19372E-17         0.10313E-19         0.00000E+00
    0.19367E-17         0.55879E-20         0.00000E+00
    0.19365E-17         0.63824E-20         0.00000E+00
    0.19344E-17         0.37253E-20         0.00000E+00
    0.19332E-17        -0.63824E-20         0.00000E+00
    0.19313E-17        -0.13039E-19         0.00000E+00
    0.19292E-17        -0.22420E-19         0.00000E+00
    0.19276E-17        -0.30734E-19         0.00000E+00
    0.19269E-17        -0.15764E-19         0.00000E+00
    0.19264E-17         0.00000E+00         0.00000E+00
    0.19255E-17        -0.37253E-20         0.00000E+00
    0.19253E-17         0.00000E+00         0.00000E+00
    0.19255E-17         0.37253E-20         0.00000E+00
    0.19267E-17        -0.12176E-19         0.00000E+00
    0.19274E-17        -0.12107E-19         0.00000E+00
    0.19269E-17        -0.36569E-20         0.00000E+00
    0.19264E-17         0.37253E-20         0.00000E+00
    0.19255E-17        -0.18626E-20         0.00000E+00
    0.19249E-17        -0.74506E-20         0.00000E+00
    0.19248E-17        -0.55879E-20         0.00000E+00
    0.19250E-17        -0.18626E-20         0.00000E+00
    0.19256E-17        -0.37253E-20         0.00000E+00
    0.19273E-17        -0.13107E-19         0.00000E+00
    0.19278E-17        -0.20489E-19         0.00000E+00
    0.19275E-17        -0.29734E-19         0.00000E+00
    0.19264E-17        -0.28008E-19         0.00000E+00
    0.19276E-17        -0.26077E-19         0.00000E+00
    0.19277E-17        -0.33459E-19         0.00000E+00
    0.19276E-17        -0.29871E-19         0.00000E+00
    0.19267E-17        -0.22420E-19         0.00000E+00
    0.19269E-17        -0.14901E-19         0.00000E+00
    0.19264E-17        -0.16764E-19         0.00000E+00
    0.19276E-17        -0.14901E-19         0.00000E+00
    0.19274E-17         0.00000E+00         0.00000E+00
    0.19264E-17         0.37253E-20         0.00000E+00
    0.33295E-18         0.37253E-20         0.00000E+00
    0.33295E-18         0.55879E-20         0.00000E+00
    0.33341E-18         0.37253E-20         0.00000E+00
    0.33434E-18         0.18626E-20         0.00000E+00
    0.33481E-18        -0.64508E-20         0.00000E+00
    0.33431E-18        -0.20558E-19         0.00000E+00
    0.33434E-18        -0.23420E-19         0.00000E+00
    0.33617E-18        -0.18558E-19         0.00000E+00
    0.33714E-18        -0.14833E-19         0.00000E+00
    0.33807E-18        -0.17764E-19         0.00000E+00
    0.33900E-18        -0.13039E-19         0.00000E+00
    0.33854E-18        -0.64508E-20         0.00000E+00
    0.33850E-18        -0.13039E-19         0.00000E+00
    0.33714E-18        -0.14901E-19         0.00000E+00
    0.33760E-18        -0.37253E-20         0.00000E+00
    0.33647E-18        -0.68439E-22         0.00000E+00
    0.33574E-18         0.93817E-20         0.00000E+00
    0.33501E-18         0.21489E-19         0.00000E+00
    0.33386E-18         0.25009E-19         0.00000E+00
    0.33434E-18         0.15901E-19         0.00000E+00
    0.33388E-18        -0.36569E-20         0.00000E+00
    0.33316E-18        -0.10313E-19         0.00000E+00
    0.33225E-18        -0.10176E-19         0.00000E+00
    0.33250E-18        -0.83135E-20         0.00000E+00
    0.33064E-18        -0.47935E-20         0.00000E+00
    0.33062E-18        -0.11176E-19         0.00000E+00
    0.33040E-18        -0.64508E-20         0.00000E+00
    0.32947E-18         0.73821E-20         0.00000E+00
    0.32969E-18         0.37253E-20         0.00000E+00
    0.32897E-18        -0.12176E-19         0.00000E+00
    0.32761E-18        -0.18558E-19         0.00000E+00
    0.32808E-18        -0.82450E-20         0.00000E+00
    0.32689E-18        -0.99976E-21         0.00000E+00
    0.32643E-18        -0.99976E-21         0.00000E+00
    0.32562E-18         0.68439E-22         0.00000E+00
    0.32492E-18        -0.37253E-20         0.00000E+00
    0.32503E-18        -0.11176E-19         0.00000E+00
    0.32632E-18        -0.18626E-19         0.00000E+00
    0.32643E-18        -0.18626E-19         0.00000E+00
    0.32759E-18        -0.14833E-19         0.00000E+00
    0.32655E-18        -0.22420E-19         0.00000E+00
    0.32596E-18        -0.22420E-19         0.00000E+00
    0.32741E-18        -0.24146E-19         0.00000E+00
    0.32829E-18        -0.37253E-19         0.00000E+00
    0.32788E-18        -0.41047E-19         0.00000E+00
    0.32876E-18        -0.29802E-19         0.00000E+00
    0.32806E-18        -0.14901E-19         0.00000E+00
    0.32992E-18        -0.13039E-19         0.00000E+00
    0.32871E-18        -0.92448E-20         0.00000E+00
    0.32852E-18        -0.28624E-20         0.00000E+00
    0.32783E-18         0.15889E-20         0.00000E+00
    0.48429E-19         0.38622E-20         0.00000E+00
    0.48463E-19         0.00000E+00         0.00000E+00
    0.48894E-19        -0.18626E-20         0.00000E+00
    0.49826E-19         0.00000E+00         0.00000E+00
    0.50757E-19        -0.27940E-20         0.00000E+00
    0.51223E-19        -0.75190E-20         0.00000E+00
    0.50791E-19        -0.20558E-19         0.00000E+00
    0.51688E-19        -0.24214E-19         0.00000E+00
    0.53051E-19        -0.30802E-19         0.00000E+00
    0.54482E-19        -0.27940E-19         0.00000E+00
    0.55414E-19        -0.18558E-19         0.00000E+00
    0.59105E-19        -0.11107E-19         0.00000E+00
    0.58242E-19        -0.37253E-20         0.00000E+00
    0.56811E-19        -0.36569E-20         0.00000E+00
    0.55879E-19         0.86288E-21         0.00000E+00
    0.55414E-19         0.12039E-19         0.00000E+00
    0.54948E-19         0.18626E-19         0.00000E+00
    0.55914E-19         0.14833E-19         0.00000E+00
    0.57061E-19         0.10313E-19         0.00000E+00
    0.57276E-19         0.84503E-20         0.00000E+00
    0.59139E-19        -0.86288E-21         0.00000E+00
    0.59622E-19        -0.64508E-20         0.00000E+00
    0.60320E-19        -0.19626E-19         0.00000E+00
    0.59588E-19        -0.20489E-19         0.00000E+00
    0.59389E-19        -0.93817E-20         0.00000E+00
    0.59139E-19         0.00000E+00         0.00000E+00
    0.58906E-19         0.99976E-21         0.00000E+00
    0.59139E-19         0.63824E-20         0.00000E+00
    0.58889E-19         0.93132E-20         0.00000E+00
    0.56828E-19        -0.37253E-20         0.00000E+00
    0.55397E-19        -0.65193E-20         0.00000E+00
    0.54232E-19         0.13688E-21         0.00000E+00
    0.52853E-19         0.11244E-19         0.00000E+00
    0.51223E-19         0.17942E-20         0.00000E+00
    0.50524E-19        -0.18626E-20         0.00000E+00
    0.50524E-19        -0.28624E-20         0.00000E+00
    0.50291E-19        -0.85188E-20         0.00000E+00
    0.49252E-19        -0.11107E-19         0.00000E+00
    0.48429E-19        -0.16764E-19         0.00000E+00
    0.48088E-19        -0.21420E-19         0.00000E+00
    0.47372E-19        -0.23283E-19         0.00000E+00
    0.48894E-19        -0.31665E-19         0.00000E+00
    0.49772E-19        -0.33528E-19         0.00000E+00
    0.51223E-19        -0.36253E-19         0.00000E+00
    0.50470E-19        -0.32528E-19         0.00000E+00
    0.50757E-19        -0.24283E-19         0.00000E+00
    0.50202E-19        -0.18626E-19         0.00000E+00
    0.49503E-19        -0.18626E-19         0.00000E+00
    0.48850E-19        -0.11176E-19         0.00000E+00
    0.48523E-19         0.17942E-20         0.00000E+00
    0.48894E-19         0.73137E-20         0.00000E+00
   -0.46566E-21         0.37253E-20         0.00000E+00
   -0.93132E-21         0.19311E-20         0.00000E+00
   -0.18626E-20        -0.55879E-20         0.00000E+00
   -0.23283E-20        -0.56564E-20         0.00000E+00
   -0.18626E-20        -0.11176E-19         0.00000E+00
   -0.89710E-21        -0.23215E-19         0.00000E+00
    0.13628E-20        -0.25146E-19         0.00000E+00
    0.27940E-20        -0.29802E-19         0.00000E+00
    0.42252E-20        -0.28871E-19         0.00000E+00
    0.46908E-20        -0.29802E-19         0.00000E+00
    0.55879E-20        -0.38116E-19         0.00000E+00
    0.65193E-20        -0.17764E-19         0.00000E+00
    0.65193E-20        -0.45882E-20         0.00000E+00
    0.83819E-20        -0.36569E-20         0.00000E+00
    0.83819E-20         0.35884E-20         0.00000E+00
    0.88133E-20         0.36569E-20         0.00000E+00
    0.97789E-20         0.74506E-20         0.00000E+00
    0.95118E-20         0.12039E-19         0.00000E+00
    0.95461E-20         0.16764E-19         0.00000E+00
    0.93132E-20         0.84503E-20         0.00000E+00
    0.10926E-19        -0.16695E-19         0.00000E+00
    0.11176E-19        -0.18558E-19         0.00000E+00
    0.11642E-19        -0.93817E-20         0.00000E+00
    0.10262E-19        -0.46566E-20         0.00000E+00
    0.95289E-20         0.18626E-20         0.00000E+00
    0.10710E-19        -0.93132E-20         0.00000E+00
    0.97618E-20        -0.93132E-20         0.00000E+00
    0.83819E-20         0.65193E-20         0.00000E+00
    0.81662E-20         0.18695E-19         0.00000E+00
    0.74335E-20         0.45882E-20         0.00000E+00
    0.83990E-20        -0.65877E-20         0.00000E+00
    0.83819E-20         0.47251E-20         0.00000E+00
    0.77005E-20         0.12107E-19         0.00000E+00
    0.83819E-20         0.11107E-19         0.00000E+00
    0.73256E-20         0.37253E-20         0.00000E+00
    0.66442E-20        -0.37253E-20         0.00000E+00
    0.60536E-20        -0.55195E-20         0.00000E+00
    0.63943E-20        -0.74506E-20         0.00000E+00
    0.60536E-20        -0.11176E-19         0.00000E+00
    0.61615E-20        -0.11107E-19         0.00000E+00
    0.73427E-20        -0.28008E-19         0.00000E+00
    0.74506E-20        -0.35459E-19         0.00000E+00
    0.64653E-20        -0.33528E-19         0.00000E+00
    0.51223E-20        -0.39116E-19         0.00000E+00
    0.46566E-20        -0.37253E-19         0.00000E+00
    0.41910E-20        -0.25077E-19         0.00000E+00
    0.33491E-20        -0.13039E-19         0.00000E+00
    0.34925E-20        -0.65193E-20         0.00000E+00
    0.40028E-20        -0.46566E-20         0.00000E+00
    0.33984E-20        -0.37937E-20         0.00000E+00
    0.32596E-20        -0.74506E-20         0.00000E+00
   -0.37253E-20         0.37253E-20         0.00000E+00
   -0.37253E-20         0.55195E-20         0.00000E+00
   -0.32596E-20         0.55879E-20         0.00000E+00
   -0.27940E-20         0.10682E-20         0.00000E+00
   -0.23625E-20        -0.83819E-20         0.00000E+00
   -0.32938E-20        -0.26145E-19         0.00000E+00
   -0.18626E-20        -0.35390E-19         0.00000E+00
   -0.13970E-20        -0.39116E-19         0.00000E+00
   -0.96554E-21        -0.40978E-19         0.00000E+00
   -0.14654E-20        -0.35322E-19         0.00000E+00
   -0.23283E-20        -0.26077E-19         0.00000E+00
   -0.32596E-20        -0.16832E-19         0.00000E+00
   -0.14312E-20        -0.16764E-19         0.00000E+00
   -0.43144E-21        -0.11176E-19         0.00000E+00
    0.96554E-21        -0.18626E-20         0.00000E+00
    0.14312E-20         0.47251E-20         0.00000E+00
    0.18284E-20         0.14038E-19         0.00000E+00
    0.18969E-20         0.14833E-19         0.00000E+00
    0.23112E-20         0.12970E-19         0.00000E+00
    0.27940E-20         0.18626E-20         0.00000E+00
    0.32596E-20        -0.93132E-20         0.00000E+00
    0.27940E-20        -0.92448E-20         0.00000E+00
    0.27940E-20        -0.12970E-19         0.00000E+00
    0.25440E-20        -0.14901E-19         0.00000E+00
    0.44238E-20        -0.65877E-20         0.00000E+00
    0.46566E-20        -0.99976E-21         0.00000E+00
    0.30439E-20         0.75190E-20         0.00000E+00
    0.32596E-20         0.14970E-19         0.00000E+00
    0.46566E-20         0.12970E-19         0.00000E+00
    0.60707E-20        -0.37937E-20         0.00000E+00
    0.69678E-20        -0.93132E-20         0.00000E+00
    0.72177E-20         0.55879E-20         0.00000E+00
    0.74506E-20         0.11244E-19         0.00000E+00
    0.65193E-20         0.19311E-20         0.00000E+00
    0.58208E-20         0.36569E-20         0.00000E+00
    0.51223E-20         0.36569E-20         0.00000E+00
    0.51223E-20        -0.37253E-20         0.00000E+00
    0.51223E-20        -0.11176E-19         0.00000E+00
    0.41910E-20        -0.16764E-19         0.00000E+00
    0.41910E-20        -0.26009E-19         0.00000E+00
    0.45316E-20        -0.31665E-19         0.00000E+00
    0.26861E-20        -0.26145E-19         0.00000E+00
    0.16837E-20        -0.22352E-19         0.00000E+00
    0.46566E-21        -0.26077E-19         0.00000E+00
    0.93132E-21        -0.26077E-19         0.00000E+00
    0.00000E+00        -0.18558E-19         0.00000E+00
   -0.10208E-20        -0.17695E-19         0.00000E+00
   -0.15404E-20        -0.24283E-19         0.00000E+00
   -0.74322E-21        -0.11176E-19         0.00000E+00
   -0.69849E-21         0.36569E-20         0.00000E+00
   -0.93132E-21         0.73137E-20         0.00000E+00
   -0.18626E-20         0.00000E+00         0.00000E+00
   -0.18626E-20        -0.18626E-20         0.00000E+00
   -0.14312E-20        -0.74506E-20         0.00000E+00
   -0.46566E-21        -0.93132E-20         0.00000E+00
    0.13970E-20        -0.11176E-19         0.00000E+00
    0.18626E-20        -0.22352E-19         0.00000E+00
    0.22941E-20        -0.33528E-19         0.00000E+00
    0.23283E-20        -0.35390E-19         0.00000E+00
    0.14312E-20        -0.29802E-19         0.00000E+00
    0.69849E-21        -0.24214E-19         0.00000E+00
    0.00000E+00        -0.26077E-19         0.00000E+00
    0.96554E-21        -0.22352E-19         0.00000E+00
    0.00000E+00        -0.18626E-19         0.00000E+00
   -0.49988E-21        -0.14901E-19         0.00000E+00
   -0.49988E-21        -0.74506E-20         0.00000E+00
    0.93132E-21         0.00000E+00         0.00000E+00
    0.28624E-20         0.37253E-20         0.00000E+00
    0.27940E-20         0.74506E-20         0.00000E+00
    0.37424E-20         0.13833E-19         0.00000E+00
    0.55879E-20         0.18626E-20         0.00000E+00
    0.55879E-20        -0.15696E-19         0.00000E+00
    0.55879E-20        -0.13039E-19         0.00000E+00
    0.69849E-20        -0.74506E-20         0.00000E+00
    0.69849E-20        -0.14901E-19         0.00000E+00
    0.63035E-20        -0.11176E-19         0.00000E+00
    0.65193E-20        -0.18626E-20         0.00000E+00
    0.78991E-20        -0.55879E-20         0.00000E+00
    0.69849E-20         0.18626E-20         0.00000E+00
    0.74506E-20         0.74506E-20         0.00000E+00
    0.62693E-20        -0.74506E-20         0.00000E+00
    0.69849E-20        -0.11176E-19         0.00000E+00
    0.69678E-20         0.00000E+00         0.00000E+00
    0.81491E-20         0.16764E-19         0.00000E+00
    0.65193E-20         0.18626E-19         0.00000E+00
    0.54801E-20         0.93132E-20         0.00000E+00
    0.55879E-20         0.18626E-20         0.00000E+00
    0.41910E-20        -0.37253E-20         0.00000E+00
    0.45488E-20        -0.55879E-20         0.00000E+00
    0.46566E-20        -0.74506E-20         0.00000E+00
    0.46566E-20        -0.93132E-20         0.00000E+00
    0.44238E-20        -0.22352E-19         0.00000E+00
    0.45316E-20        -0.24214E-19         0.00000E+00
    0.37253E-20        -0.20489E-19         0.00000E+00
    0.51223E-20        -0.33528E-19         0.00000E+00
    0.53551E-20        -0.33528E-19         0.00000E+00
    0.51223E-20        -0.18626E-19         0.00000E+00
    0.62864E-20        -0.55879E-20         0.00000E+00
    0.37253E-20        -0.74506E-20         0.00000E+00
    0.20955E-20        -0.74506E-20         0.00000E+00
    0.27940E-20        -0.37253E-20         0.00000E+00
    0.27940E-20        -0.74506E-20         0.00000E+00
    0.27940E-20         0.34515E-20         0.00000E+00
    0.22941E-20         0.27940E-20         0.00000E+00
    0.20955E-20        -0.79444E-21         0.00000E+00
    0.13970E-20        -0.13039E-19         0.00000E+00
    0.13970E-20        -0.20489E-19         0.00000E+00
    0.28282E-20        -0.29802E-19         0.00000E+00
    0.28624E-20        -0.37253E-19         0.00000E+00
    0.23625E-20        -0.33664E-19         0.00000E+00
    0.46566E-20        -0.34459E-19         0.00000E+00
    0.42252E-20        -0.28734E-19         0.00000E+00
    0.37253E-20        -0.26077E-19         0.00000E+00
    0.23283E-20        -0.14901E-19         0.00000E+00
    0.20955E-20        -0.11176E-19         0.00000E+00
    0.13970E-20        -0.11176E-19         0.00000E+00
    0.00000E+00        -0.74506E-20         0.00000E+00
   -0.34220E-22        -0.85188E-20         0.00000E+00
   -0.49988E-21         0.18626E-20         0.00000E+00
   -0.93132E-21         0.10381E-19         0.00000E+00
   -0.24994E-21        -0.18626E-20         0.00000E+00
   -0.46566E-21        -0.74506E-20         0.00000E+00
    0.00000E+00        -0.93132E-20         0.00000E+00
    0.13970E-20        -0.14901E-19         0.00000E+00
    0.23283E-20        -0.18626E-19         0.00000E+00
    0.44238E-20        -0.14901E-19         0.00000E+00
    0.32425E-20        -0.74506E-20         0.00000E+00
    0.46566E-20        -0.55879E-20         0.00000E+00
    0.49066E-20         0.55879E-20         0.00000E+00
    0.41910E-20         0.18626E-19         0.00000E+00
    0.34925E-20         0.16764E-19         0.00000E+00
    0.16298E-20        -0.18626E-20         0.00000E+00
   -0.93132E-21        -0.13039E-19         0.00000E+00
   -0.23112E-20         0.00000E+00         0.00000E+00
   -0.35096E-20         0.13039E-19         0.00000E+00
   -0.13970E-20         0.11176E-19         0.00000E+00
   -0.13970E-20         0.11176E-19         0.00000E+00
    0.23283E-21         0.13039E-19         0.00000E+00
    0.46566E-21         0.00000E+00         0.00000E+00
    0.57352E-21        -0.13039E-19         0.00000E+00
    0.17377E-20        -0.16764E-19         0.00000E+00
    0.37253E-20        -0.25283E-19         0.00000E+00
    0.52472E-20        -0.31665E-19         0.00000E+00
    0.65193E-20        -0.23146E-19         0.00000E+00
    0.65193E-20        -0.24214E-19         0.00000E+00
    0.72177E-20        -0.33528E-19         0.00000E+00
    0.63404E-20        -0.27940E-19         0.00000E+00
    0.60536E-20        -0.22352E-19         0.00000E+00
    0.45132E-20        -0.11176E-19         0.00000E+00
    0.60536E-20        -0.38622E-20         0.00000E+00
    0.60983E-20        -0.65193E-20         0.00000E+00
    0.65193E-20         0.10682E-20         0.00000E+00
    0.60536E-20         0.37253E-20         0.00000E+00
    0.12573E-19         0.15889E-20         0.00000E+00
    0.11676E-19         0.18626E-20         0.00000E+00
    0.10744E-19        -0.26571E-20         0.00000E+00
    0.97789E-20        -0.55879E-20         0.00000E+00
    0.56222E-20        -0.15969E-19         0.00000E+00
    0.41910E-20        -0.29008E-19         0.00000E+00
    0.32596E-20        -0.36185E-19         0.00000E+00
    0.27940E-20        -0.43635E-19         0.00000E+00
    0.13970E-20        -0.39116E-19         0.00000E+00
    0.13970E-20        -0.20489E-19         0.00000E+00
    0.13970E-20        -0.14901E-19         0.00000E+00
    0.93132E-21        -0.13039E-19         0.00000E+00
    0.34220E-22        -0.14901E-19         0.00000E+00
   -0.13970E-20        -0.55879E-20         0.00000E+00
   -0.18626E-20         0.00000E+00         0.00000E+00
   -0.32254E-20         0.18626E-20         0.00000E+00
   -0.37253E-20         0.93132E-20         0.00000E+00
   -0.28282E-20         0.93132E-20         0.00000E+00
   -0.27940E-20         0.11176E-19         0.00000E+00
   -0.51223E-20         0.00000E+00         0.00000E+00
   -0.53551E-20        -0.24214E-19         0.00000E+00
   -0.51223E-20        -0.26077E-19         0.00000E+00
   -0.46737E-20        -0.22352E-19         0.00000E+00
   -0.46395E-20        -0.18626E-19         0.00000E+00
   -0.34753E-20        -0.13039E-19         0.00000E+00
   -0.51223E-20        -0.13039E-19         0.00000E+00
   -0.55879E-20        -0.55879E-20         0.00000E+00
   -0.37253E-20         0.13039E-19         0.00000E+00
   -0.18798E-20         0.22352E-19         0.00000E+00
   -0.11470E-20         0.11176E-19         0.00000E+00
   -0.23283E-20         0.74506E-20         0.00000E+00
   -0.27940E-20         0.11176E-19         0.00000E+00
   -0.37253E-20         0.13039E-19         0.00000E+00
   -0.27940E-20         0.93132E-20         0.00000E+00
   -0.27940E-20         0.18626E-20         0.00000E+00
   -0.12891E-20        -0.55879E-20         0.00000E+00
    0.46566E-21        -0.74506E-20         0.00000E+00
    0.35780E-21        -0.13039E-19         0.00000E+00
    0.93132E-21        -0.22352E-19         0.00000E+00
    0.13970E-20        -0.29008E-19         0.00000E+00
   -0.46566E-21        -0.35390E-19         0.00000E+00
   -0.93132E-21        -0.28734E-19         0.00000E+00
    0.23283E-21        -0.24214E-19         0.00000E+00
   -0.51959E-21        -0.33528E-19         0.00000E+00
   -0.93132E-21        -0.29802E-19         0.00000E+00
   -0.46566E-21        -0.74506E-20         0.00000E+00
    0.93132E-21        -0.38622E-20         0.00000E+00
    0.24717E-20        -0.16764E-19         0.00000E+00
    0.37700E-20        -0.91763E-20         0.00000E+00
    0.38193E-20        -0.18626E-20         0.00000E+00
    0.41910E-20        -0.37253E-20         0.00000E+00
    0.69849E-20         0.58617E-20         0.00000E+00
    0.65193E-20         0.93132E-20         0.00000E+00
    0.55879E-20         0.11970E-19         0.00000E+00
    0.46566E-20         0.15038E-19         0.00000E+00
    0.32254E-20         0.83819E-20         0.00000E+00
    0.32596E-20        -0.17832E-19         0.00000E+00
    0.18284E-20        -0.32459E-19         0.00000E+00
   -0.26705E-21        -0.25009E-19         0.00000E+00
   -0.25611E-20        -0.29008E-19         0.00000E+00
   -0.16298E-20        -0.28871E-19         0.00000E+00
    0.00000E+00        -0.25146E-19         0.00000E+00
    0.89710E-21        -0.74506E-20         0.00000E+00
    0.19861E-21         0.37253E-20         0.00000E+00
    0.46566E-21         0.00000E+00         0.00000E+00
    0.23283E-21        -0.79444E-21         0.00000E+00
   -0.93132E-21        -0.29308E-20         0.00000E+00
    0.00000E+00         0.45197E-20         0.00000E+00
    0.14312E-20         0.55879E-20         0.00000E+00
    0.93132E-21         0.74506E-20         0.00000E+00
    0.18626E-20         0.29308E-20         0.00000E+00
    0.11813E-20        -0.63824E-20         0.00000E+00
   -0.93132E-21        -0.18626E-19         0.00000E+00
   -0.11470E-20        -0.22352E-19         0.00000E+00
   -0.23283E-20        -0.20489E-19         0.00000E+00
   -0.32938E-20        -0.37253E-20         0.00000E+00
   -0.41910E-20         0.55879E-20         0.00000E+00
   -0.44238E-20        -0.37253E-20         0.00000E+00
   -0.51223E-20         0.00000E+00         0.00000E+00
   -0.48723E-20         0.63824E-20         0.00000E+00
   -0.23283E-20        -0.13241E-33         0.00000E+00
    0.00000E+00        -0.45197E-20         0.00000E+00
    0.18626E-20         0.74506E-20         0.00000E+00
    0.20955E-20         0.13039E-19         0.00000E+00
    0.23283E-20         0.55879E-20         0.00000E+00
    0.25440E-20         0.18626E-20         0.00000E+00
    0.16298E-20        -0.29308E-20         0.00000E+00
    0.00000E+00        -0.93132E-20         0.00000E+00
    0.68138E-21        -0.15696E-19         0.00000E+00
   -0.46566E-21        -0.19695E-19         0.00000E+00
   -0.18626E-20        -0.15969E-19         0.00000E+00
   -0.27940E-20        -0.18626E-19         0.00000E+00
   -0.41910E-20        -0.26871E-19         0.00000E+00
   -0.70388E-20        -0.27940E-19         0.00000E+00
   -0.59997E-20        -0.29008E-19         0.00000E+00
   -0.46566E-20        -0.30597E-19         0.00000E+00
   -0.27940E-20        -0.28734E-19         0.00000E+00
   -0.55511E-21        -0.27145E-19         0.00000E+00
    0.00000E+00        -0.17695E-19         0.00000E+00
   -0.23283E-21        -0.11039E-19         0.00000E+00
   -0.42094E-21        -0.18626E-20         0.00000E+00
    0.78993E-35         0.00000E+00         0.00000E+00
   -0.55879E-20         0.74506E-20         0.00000E+00
   -0.46566E-20         0.66561E-20         0.00000E+00
   -0.41910E-20         0.74506E-20         0.00000E+00
   -0.23283E-20         0.63824E-20         0.00000E+00
    0.23283E-21        -0.74506E-20         0.00000E+00
    0.66427E-21        -0.21284E-19         0.00000E+00
    0.13970E-20        -0.17558E-19         0.00000E+00
    0.93132E-21        -0.22352E-19         0.00000E+00
    0.27597E-20        -0.34596E-19         0.00000E+00
    0.27597E-20        -0.32733E-19         0.00000E+00
    0.23283E-20        -0.26871E-19         0.00000E+00
    0.18969E-20        -0.16764E-19         0.00000E+00
    0.18969E-20        -0.85188E-20         0.00000E+00
    0.28282E-20        -0.45197E-20         0.00000E+00
    0.49988E-21         0.37253E-20         0.00000E+00
    0.13970E-20         0.18626E-20         0.00000E+00
    0.69849E-21         0.10682E-20         0.00000E+00
    0.43144E-21         0.45197E-20         0.00000E+00
    0.00000E+00         0.63824E-20         0.00000E+00
   -0.46566E-21        -0.18626E-20         0.00000E+00
   -0.23283E-21        -0.11970E-19         0.00000E+00
    0.93132E-21        -0.11970E-19         0.00000E+00
    0.93132E-21        -0.14901E-19         0.00000E+00
    0.11642E-20        -0.74506E-20         0.00000E+00
    0.11813E-20        -0.47935E-20         0.00000E+00
    0.23283E-20        -0.55879E-20         0.00000E+00
    0.23112E-20         0.10682E-20         0.00000E+00
    0.93132E-21         0.11176E-19         0.00000E+00
   -0.18626E-20         0.74506E-20         0.00000E+00
   -0.18626E-20        -0.12244E-19         0.00000E+00
   -0.13970E-20        -0.11176E-19         0.00000E+00
   -0.93132E-21         0.29308E-20         0.00000E+00
   -0.91421E-21         0.82450E-20         0.00000E+00
   -0.93132E-21         0.63824E-20         0.00000E+00
   -0.11470E-20         0.55879E-20         0.00000E+00
   -0.59063E-21         0.74506E-20         0.00000E+00
    0.00000E+00        -0.37253E-20         0.00000E+00
   -0.10786E-21        -0.11970E-19         0.00000E+00
    0.00000E+00        -0.82450E-20         0.00000E+00
    0.13970E-20        -0.15969E-19         0.00000E+00
    0.18626E-20        -0.19695E-19         0.00000E+00
    0.31518E-20        -0.11176E-19         0.00000E+00
    0.19166E-20        -0.19421E-19         0.00000E+00
   -0.51959E-21        -0.43635E-19         0.00000E+00
   -0.23283E-21        -0.44703E-19         0.00000E+00
   -0.46566E-21        -0.27940E-19         0.00000E+00
   -0.18626E-20        -0.19695E-19         0.00000E+00
   -0.25611E-20        -0.17832E-19         0.00000E+00
   -0.37700E-20        -0.93132E-20         0.00000E+00
   -0.38641E-20        -0.18626E-20         0.00000E+00
   -0.41910E-20        -0.37253E-20         0.00000E+00
   -0.65193E-20         0.37253E-20         0.00000E+00
   -0.55879E-20         0.37253E-20         0.00000E+00
   -0.37253E-20        -0.18626E-20         0.00000E+00
   -0.27940E-20        -0.74506E-20         0.00000E+00
   -0.27597E-20        -0.93132E-20         0.00000E+00
   -0.18626E-20        -0.21284E-19         0.00000E+00
    0.00000E+00        -0.30871E-19         0.00000E+00
    0.23283E-20        -0.36458E-19         0.00000E+00
    0.14312E-20        -0.37253E-19         0.00000E+00
    0.34220E-22        -0.25146E-19         0.00000E+00
   -0.93132E-21        -0.16627E-19         0.00000E+00
   -0.14312E-20        -0.74506E-20         0.00000E+00
   -0.18969E-20        -0.18626E-20         0.00000E+00
   -0.23625E-20         0.55879E-20         0.00000E+00
   -0.23625E-20         0.37253E-20         0.00000E+00
   -0.27940E-20         0.13688E-21         0.00000E+00
   -0.28282E-20         0.11313E-19         0.00000E+00
   -0.20613E-20         0.82450E-20         0.00000E+00
   -0.91421E-21         0.90395E-20         0.00000E+00
   -0.93132E-21         0.37253E-20         0.00000E+00
   -0.24994E-21        -0.11970E-19         0.00000E+00
    0.00000E+00        -0.23146E-19         0.00000E+00
   -0.93132E-21        -0.25009E-19         0.00000E+00
   -0.11813E-20        -0.23420E-19         0.00000E+00
    0.48277E-21        -0.66561E-20         0.00000E+00
   -0.24994E-21        -0.79444E-21         0.00000E+00
    0.46566E-21         0.47935E-20         0.00000E+00
   -0.23283E-21         0.17558E-19         0.00000E+00
   -0.11642E-20         0.19421E-19         0.00000E+00
   -0.32596E-20         0.00000E+00         0.00000E+00
   -0.46566E-20        -0.74506E-20         0.00000E+00
   -0.58037E-20         0.29308E-20         0.00000E+00
   -0.72177E-20         0.13039E-19         0.00000E+00
   -0.88476E-20         0.82450E-20         0.00000E+00
   -0.74506E-20         0.00000E+00         0.00000E+00
   -0.67521E-20        -0.74506E-20         0.00000E+00
   -0.69849E-20        -0.13039E-19         0.00000E+00
   -0.70928E-20        -0.18626E-19         0.00000E+00
   -0.59286E-20        -0.26077E-19         0.00000E+00
   -0.51223E-20        -0.24214E-19         0.00000E+00
   -0.51223E-20        -0.26077E-19         0.00000E+00
   -0.47816E-20        -0.24214E-19         0.00000E+00
   -0.22744E-20        -0.14901E-19         0.00000E+00
   -0.34385E-20        -0.23146E-19         0.00000E+00
   -0.46027E-20        -0.25009E-19         0.00000E+00
   -0.39581E-20        -0.18763E-19         0.00000E+00
   -0.24717E-20        -0.15832E-19         0.00000E+00
   -0.17732E-20        -0.10245E-19         0.00000E+00
   -0.16298E-20        -0.38622E-20         0.00000E+00
    0.46566E-21         0.00000E+00         0.00000E+00
   -0.46566E-21         0.00000E+00         0.00000E+00
   -0.55879E-20        -0.74506E-20         0.00000E+00
   -0.69849E-20        -0.74506E-20         0.00000E+00
   -0.55879E-20        -0.37253E-20         0.00000E+00
   -0.37595E-20         0.10682E-20         0.00000E+00
   -0.37253E-20        -0.15832E-19         0.00000E+00
   -0.32596E-20        -0.32870E-19         0.00000E+00
   -0.46224E-20        -0.38184E-19         0.00000E+00
   -0.37253E-20        -0.29665E-19         0.00000E+00
   -0.41910E-20        -0.22352E-19         0.00000E+00
   -0.37253E-20        -0.20489E-19         0.00000E+00
   -0.27597E-20        -0.18626E-19         0.00000E+00
   -0.18626E-20        -0.13833E-19         0.00000E+00
   -0.23283E-20        -0.74506E-20         0.00000E+00
   -0.13970E-20         0.00000E+00         0.00000E+00
    0.00000E+00         0.93132E-20         0.00000E+00
    0.93132E-21         0.26571E-20         0.00000E+00
    0.93132E-21        -0.37253E-20         0.00000E+00
    0.46566E-21        -0.37253E-20         0.00000E+00
    0.21572E-21         0.00000E+00         0.00000E+00
    0.93132E-21        -0.55879E-20         0.00000E+00
    0.00000E+00        -0.13039E-19         0.00000E+00
   -0.46566E-21        -0.93132E-20         0.00000E+00
   -0.27940E-20        -0.93132E-20         0.00000E+00
   -0.37253E-20        -0.15696E-19         0.00000E+00
   -0.46737E-20        -0.10381E-19         0.00000E+00
   -0.55879E-20        -0.55879E-20         0.00000E+00
   -0.48894E-20        -0.79444E-21         0.00000E+00
   -0.25782E-20         0.19421E-19         0.00000E+00
   -0.18798E-20         0.22352E-19         0.00000E+00
   -0.13970E-20         0.55879E-20         0.00000E+00
   -0.18626E-20         0.37253E-20         0.00000E+00
   -0.25782E-20         0.14901E-19         0.00000E+00
   -0.25782E-20         0.22352E-19         0.00000E+00
   -0.27940E-20         0.74506E-20         0.00000E+00
   -0.32596E-20        -0.18626E-20         0.00000E+00
   -0.41738E-20         0.37253E-20         0.00000E+00
   -0.60536E-20        -0.55879E-20         0.00000E+00
   -0.64114E-20        -0.14901E-19         0.00000E+00
   -0.81491E-20        -0.14901E-19         0.00000E+00
   -0.10245E-19        -0.18626E-19         0.00000E+00
   -0.10710E-19        -0.27145E-19         0.00000E+00
   -0.93132E-20        -0.26077E-19         0.00000E+00
   -0.87226E-20        -0.23146E-19         0.00000E+00
   -0.69849E-20        -0.34596E-19         0.00000E+00
   -0.58747E-20        -0.41773E-19         0.00000E+00
   -0.51762E-20        -0.38842E-19         0.00000E+00
   -0.40476E-20        -0.28077E-19         0.00000E+00
   -0.37253E-20        -0.24351E-19         0.00000E+00
   -0.22836E-20        -0.20489E-19         0.00000E+00
   -0.13970E-20        -0.85188E-20         0.00000E+00
   -0.23283E-20         0.15889E-20         0.00000E+00
    0.51223E-20         0.90395E-20         0.00000E+00
    0.41910E-20         0.46566E-20         0.00000E+00
    0.22941E-20        -0.12902E-19         0.00000E+00
    0.73271E-21        -0.16764E-19         0.00000E+00
    0.93132E-21        -0.13039E-19         0.00000E+00
   -0.46566E-21        -0.18626E-19         0.00000E+00
   -0.23625E-20        -0.29008E-19         0.00000E+00
   -0.32596E-20        -0.36458E-19         0.00000E+00
   -0.32596E-20        -0.39910E-19         0.00000E+00
   -0.27940E-20        -0.28734E-19         0.00000E+00
   -0.27940E-20        -0.25283E-19         0.00000E+00
   -0.13628E-20        -0.10245E-19         0.00000E+00
   -0.18626E-20        -0.54511E-20         0.00000E+00
   -0.93132E-21        -0.63824E-20         0.00000E+00
    0.00000E+00        -0.55879E-20         0.00000E+00
    0.23283E-20        -0.66561E-20         0.00000E+00
    0.14312E-20         0.11176E-19         0.00000E+00
    0.00000E+00         0.11970E-19         0.00000E+00
   -0.23283E-20         0.10108E-19         0.00000E+00
   -0.27940E-20         0.66561E-20         0.00000E+00
   -0.37253E-20        -0.45197E-20         0.00000E+00
   -0.32596E-20        -0.93132E-20         0.00000E+00
   -0.28111E-20        -0.11176E-19         0.00000E+00
   -0.20784E-20        -0.14764E-19         0.00000E+00
   -0.32767E-20        -0.13688E-21         0.00000E+00
   -0.39410E-20         0.18626E-20         0.00000E+00
   -0.46395E-20        -0.82450E-20         0.00000E+00
   -0.48723E-20         0.26571E-20         0.00000E+00
   -0.25440E-20         0.11176E-19         0.00000E+00
   -0.93132E-21         0.18626E-20         0.00000E+00
   -0.46566E-21        -0.37253E-20         0.00000E+00
    0.93132E-21         0.85188E-20         0.00000E+00
    0.23283E-20         0.14901E-19         0.00000E+00
    0.32596E-20         0.82450E-20         0.00000E+00
    0.18626E-20         0.74506E-20         0.00000E+00
    0.30268E-20         0.63824E-20         0.00000E+00
    0.32596E-20         0.00000E+00         0.00000E+00
    0.15048E-20        -0.45197E-20         0.00000E+00
    0.59063E-21        -0.85188E-20         0.00000E+00
    0.13970E-20        -0.13039E-19         0.00000E+00
    0.46566E-21        -0.30597E-19         0.00000E+00
    0.00000E+00        -0.36458E-19         0.00000E+00
   -0.46566E-21        -0.27145E-19         0.00000E+00
   -0.46566E-21        -0.36185E-19         0.00000E+00
   -0.23283E-21        -0.34322E-19         0.00000E+00
   -0.64456E-21        -0.27940E-19         0.00000E+00
   -0.16298E-20        -0.20626E-19         0.00000E+00
   -0.23283E-20        -0.20489E-19         0.00000E+00
   -0.35372E-20        -0.15832E-19         0.00000E+00
   -0.48894E-20        -0.10682E-20         0.00000E+00
   -0.37253E-20         0.37253E-20         0.00000E+00
    0.74506E-20         0.37253E-20         0.00000E+00
    0.88476E-20         0.63824E-20         0.00000E+00
    0.84161E-20         0.13039E-19         0.00000E+00
    0.60536E-20         0.85188E-20         0.00000E+00
    0.53209E-20        -0.74506E-20         0.00000E+00
    0.51223E-20        -0.20489E-19         0.00000E+00
    0.46566E-20        -0.26077E-19         0.00000E+00
    0.32596E-20        -0.24214E-19         0.00000E+00
    0.18626E-20        -0.23420E-19         0.00000E+00
    0.13970E-20        -0.20489E-19         0.00000E+00
    0.46566E-21        -0.25009E-19         0.00000E+00
   -0.96554E-21        -0.20489E-19         0.00000E+00
   -0.46566E-21        -0.10381E-19         0.00000E+00
   -0.93132E-21        -0.74506E-20         0.00000E+00
   -0.46566E-21        -0.82450E-20         0.00000E+00
   -0.13970E-20        -0.47935E-20         0.00000E+00
   -0.18626E-20         0.83819E-20         0.00000E+00
   -0.73271E-21         0.15832E-19         0.00000E+00
   -0.13970E-20         0.13833E-19         0.00000E+00
   -0.23283E-20         0.10682E-20         0.00000E+00
   -0.93132E-21        -0.93132E-20         0.00000E+00
   -0.46566E-21        -0.13039E-19         0.00000E+00
    0.24994E-21        -0.16764E-19         0.00000E+00
    0.93132E-21        -0.12244E-19         0.00000E+00
    0.49988E-21        -0.18626E-20         0.00000E+00
    0.23283E-20         0.00000E+00         0.00000E+00
    0.23283E-20         0.10682E-20         0.00000E+00
    0.46566E-21         0.93132E-20         0.00000E+00
    0.00000E+00         0.82450E-20         0.00000E+00
   -0.93132E-21        -0.45197E-20         0.00000E+00
   -0.69849E-21        -0.93132E-20         0.00000E+00
    0.00000E+00         0.11924E-33         0.00000E+00
    0.11813E-20         0.14107E-19         0.00000E+00
    0.00000E+00         0.63824E-20         0.00000E+00
   -0.93132E-21        -0.66204E-34         0.00000E+00
   -0.59063E-21        -0.11910E-33         0.00000E+00
    0.93132E-21         0.79444E-21         0.00000E+00
    0.24994E-21        -0.37253E-20         0.00000E+00
    0.11470E-20        -0.13833E-19         0.00000E+00
    0.18626E-20        -0.17558E-19         0.00000E+00
    0.13970E-20        -0.21557E-19         0.00000E+00
    0.00000E+00        -0.18626E-19         0.00000E+00
    0.69849E-21        -0.21284E-19         0.00000E+00
    0.46566E-21        -0.37253E-19         0.00000E+00
    0.64456E-21        -0.40978E-19         0.00000E+00
    0.93132E-21        -0.29802E-19         0.00000E+00
    0.12536E-20        -0.18626E-19         0.00000E+00
    0.10747E-20        -0.15038E-19         0.00000E+00
    0.69849E-21        -0.12107E-19         0.00000E+00
    0.60444E-21        -0.74506E-20         0.00000E+00
    0.93132E-21        -0.58617E-20         0.00000E+00
    0.88476E-20         0.00000E+00         0.00000E+00
    0.88476E-20        -0.18626E-20         0.00000E+00
    0.88476E-20        -0.29308E-20         0.00000E+00
    0.11176E-19        -0.10682E-20         0.00000E+00
    0.11210E-19        -0.91763E-20         0.00000E+00
    0.97789E-20        -0.14764E-19         0.00000E+00
    0.88476E-20        -0.19695E-19         0.00000E+00
    0.74506E-20        -0.23420E-19         0.00000E+00
    0.60194E-20        -0.29802E-19         0.00000E+00
    0.51223E-20        -0.25009E-19         0.00000E+00
    0.51223E-20        -0.13039E-19         0.00000E+00
    0.28282E-20        -0.66561E-20         0.00000E+00
    0.16640E-20        -0.55879E-20         0.00000E+00
    0.18626E-20        -0.45197E-20         0.00000E+00
   -0.13970E-20        -0.18626E-20         0.00000E+00
   -0.18626E-20        -0.25165E-33         0.00000E+00
   -0.23283E-20         0.83819E-20         0.00000E+00
   -0.20955E-20         0.11039E-19         0.00000E+00
   -0.18626E-20         0.18626E-19         0.00000E+00
   -0.23112E-20         0.55879E-20         0.00000E+00
   -0.46566E-21        -0.14901E-19         0.00000E+00
   -0.93132E-21        -0.16764E-19         0.00000E+00
   -0.46566E-21        -0.18626E-19         0.00000E+00
   -0.13970E-20        -0.16627E-19         0.00000E+00
   -0.96554E-21        -0.65193E-20         0.00000E+00
    0.46566E-21        -0.66561E-20         0.00000E+00
    0.11470E-20        -0.18626E-20         0.00000E+00
    0.13970E-20         0.14901E-19         0.00000E+00
    0.23283E-20         0.24214E-19         0.00000E+00
    0.13970E-20         0.38622E-20         0.00000E+00
    0.11470E-20        -0.12107E-19         0.00000E+00
    0.46566E-21         0.26571E-20         0.00000E+00
    0.46566E-21         0.16764E-19         0.00000E+00
    0.93132E-21         0.14107E-19         0.00000E+00
   -0.23283E-21         0.74506E-20         0.00000E+00
   -0.18626E-20         0.79444E-21         0.00000E+00
   -0.18626E-20        -0.18626E-20         0.00000E+00
   -0.18798E-20        -0.74506E-20         0.00000E+00
   -0.57352E-21        -0.14901E-19         0.00000E+00
   -0.46566E-21        -0.15696E-19         0.00000E+00
    0.00000E+00        -0.23146E-19         0.00000E+00
    0.18626E-20        -0.30871E-19         0.00000E+00
    0.16837E-20        -0.31665E-19         0.00000E+00
    0.18626E-20        -0.36185E-19         0.00000E+00
    0.13970E-20        -0.38321E-19         0.00000E+00
    0.13970E-20        -0.29008E-19         0.00000E+00
    0.00000E+00        -0.20489E-19         0.00000E+00
   -0.23283E-21        -0.19421E-19         0.00000E+00
    0.18811E-21        -0.10108E-19         0.00000E+00
   -0.60444E-21        -0.29308E-20         0.00000E+00
   -0.18626E-20         0.15889E-20         0.00000E+00
    0.13039E-19         0.21364E-20         0.00000E+00
    0.12107E-19         0.55879E-20         0.00000E+00
    0.10245E-19         0.00000E+00         0.00000E+00
    0.83819E-20        -0.18626E-20         0.00000E+00
    0.69849E-20         0.93132E-21         0.00000E+00
    0.60536E-20        -0.83819E-20         0.00000E+00
    0.56222E-20        -0.13970E-19         0.00000E+00
    0.60536E-20        -0.11039E-19         0.00000E+00
    0.56222E-20        -0.14901E-19         0.00000E+00
    0.41567E-20        -0.17832E-19         0.00000E+00
    0.32596E-20        -0.14107E-19         0.00000E+00
    0.46566E-20         0.00000E+00         0.00000E+00
    0.25269E-20        -0.37253E-20         0.00000E+00
    0.32596E-20         0.37253E-20         0.00000E+00
    0.18626E-20         0.93132E-20         0.00000E+00
    0.46566E-21         0.37253E-20         0.00000E+00
    0.46566E-21         0.93132E-20         0.00000E+00
    0.34220E-22         0.13039E-19         0.00000E+00
    0.00000E+00         0.14901E-19         0.00000E+00
    0.16127E-20        -0.18626E-20         0.00000E+00
    0.93132E-21        -0.14901E-19         0.00000E+00
   -0.46566E-21        -0.14901E-19         0.00000E+00
   -0.46566E-21        -0.14901E-19         0.00000E+00
   -0.18969E-20        -0.13039E-19         0.00000E+00
   -0.13628E-20        -0.11176E-19         0.00000E+00
   -0.13970E-20        -0.10108E-19         0.00000E+00
   -0.27769E-20        -0.55879E-20         0.00000E+00
   -0.13970E-20         0.45197E-20         0.00000E+00
   -0.13970E-20         0.93132E-20         0.00000E+00
   -0.23283E-21         0.00000E+00         0.00000E+00
   -0.68138E-21        -0.37253E-20         0.00000E+00
   -0.46566E-21         0.47935E-20         0.00000E+00
    0.00000E+00         0.11176E-19         0.00000E+00
    0.93132E-21         0.10108E-19         0.00000E+00
    0.12720E-20         0.11176E-19         0.00000E+00
    0.12720E-20         0.93132E-20         0.00000E+00
    0.46566E-21         0.00000E+00         0.00000E+00
    0.14141E-20        -0.93132E-20         0.00000E+00
    0.13970E-20        -0.18626E-19         0.00000E+00
    0.93132E-21        -0.23146E-19         0.00000E+00
    0.13970E-20        -0.29802E-19         0.00000E+00
    0.23283E-20        -0.29802E-19         0.00000E+00
    0.18626E-20        -0.26077E-19         0.00000E+00
    0.13970E-20        -0.31665E-19         0.00000E+00
    0.15048E-20        -0.35390E-19         0.00000E+00
    0.11642E-20        -0.23420E-19         0.00000E+00
    0.84187E-21        -0.13039E-19         0.00000E+00
   -0.46566E-21        -0.14901E-19         0.00000E+00
   -0.13523E-20        -0.74506E-20         0.00000E+00
   -0.93132E-21         0.79444E-21         0.00000E+00
   -0.13970E-20         0.53142E-20         0.00000E+00
   -0.32596E-20         0.74506E-20         0.00000E+00
   -0.32596E-20         0.85188E-20         0.00000E+00
   -0.32596E-20         0.14901E-19         0.00000E+00
   -0.46566E-20         0.17558E-19         0.00000E+00
   -0.41910E-20         0.38622E-20         0.00000E+00
   -0.23283E-20        -0.10245E-19         0.00000E+00
   -0.93132E-21        -0.19695E-19         0.00000E+00
    0.00000E+00        -0.22352E-19         0.00000E+00
    0.46566E-21        -0.22352E-19         0.00000E+00
    0.96554E-21        -0.14901E-19         0.00000E+00
   -0.93132E-21        -0.14901E-19         0.00000E+00
    0.43144E-21        -0.37253E-20         0.00000E+00
    0.18626E-20         0.37253E-20         0.00000E+00
    0.13970E-20         0.00000E+00         0.00000E+00
    0.32596E-20         0.74506E-20         0.00000E+00
    0.23283E-20         0.11176E-19         0.00000E+00
    0.23283E-20         0.11176E-19         0.00000E+00
    0.16298E-20         0.11176E-19         0.00000E+00
    0.13970E-20         0.11176E-19         0.00000E+00
    0.23283E-21         0.37253E-20         0.00000E+00
   -0.93132E-21        -0.55879E-20         0.00000E+00
   -0.93132E-21        -0.93132E-20         0.00000E+00
    0.46566E-21        -0.11176E-19         0.00000E+00
    0.14312E-20        -0.13833E-19         0.00000E+00
    0.25440E-20        -0.93132E-20         0.00000E+00
    0.93132E-21        -0.11905E-33         0.00000E+00
    0.69849E-21        -0.18626E-20         0.00000E+00
    0.46566E-21         0.82450E-20         0.00000E+00
   -0.93132E-21         0.16764E-19         0.00000E+00
   -0.17110E-22         0.18626E-20         0.00000E+00
   -0.94843E-21        -0.74506E-20         0.00000E+00
   -0.93132E-21        -0.18626E-20         0.00000E+00
   -0.13970E-20         0.93132E-20         0.00000E+00
   -0.13970E-20         0.93132E-20         0.00000E+00
   -0.19705E-20         0.55879E-20         0.00000E+00
   -0.13970E-20         0.37253E-20         0.00000E+00
   -0.93132E-21        -0.45197E-20         0.00000E+00
   -0.59063E-21        -0.10108E-19         0.00000E+00
   -0.15220E-20        -0.12244E-19         0.00000E+00
   -0.13970E-20        -0.15969E-19         0.00000E+00
   -0.13970E-20        -0.29802E-19         0.00000E+00
   -0.13970E-20        -0.33528E-19         0.00000E+00
   -0.18626E-20        -0.27940E-19         0.00000E+00
   -0.18626E-20        -0.33528E-19         0.00000E+00
   -0.12181E-20        -0.35390E-19         0.00000E+00
   -0.19166E-20        -0.26077E-19         0.00000E+00
    0.23283E-21        -0.14901E-19         0.00000E+00
    0.10208E-20        -0.82450E-20         0.00000E+00
    0.16745E-20        -0.63824E-20         0.00000E+00
    0.13970E-20        -0.39990E-20         0.00000E+00
    0.93132E-21        -0.54752E-21         0.00000E+00
   -0.12573E-19         0.37253E-20         0.00000E+00
   -0.11642E-19         0.55879E-20         0.00000E+00
   -0.12573E-19         0.55879E-20         0.00000E+00
   -0.11176E-19         0.18626E-20         0.00000E+00
   -0.10710E-19        -0.11039E-19         0.00000E+00
   -0.97789E-20        -0.25146E-19         0.00000E+00
   -0.79162E-20        -0.25283E-19         0.00000E+00
   -0.74164E-20        -0.18626E-19         0.00000E+00
   -0.60536E-20        -0.20489E-19         0.00000E+00
   -0.51223E-20        -0.11176E-19         0.00000E+00
   -0.28282E-20        -0.11970E-19         0.00000E+00
   -0.32596E-20        -0.14901E-19         0.00000E+00
   -0.27940E-20        -0.66561E-20         0.00000E+00
   -0.13970E-20        -0.79444E-21         0.00000E+00
    0.00000E+00         0.74506E-20         0.00000E+00
    0.13970E-20         0.62455E-20         0.00000E+00
    0.43144E-21         0.12107E-19         0.00000E+00
   -0.34220E-22         0.17832E-19         0.00000E+00
   -0.46566E-21         0.22352E-19         0.00000E+00
   -0.23112E-20         0.93132E-20         0.00000E+00
   -0.27940E-20        -0.11176E-19         0.00000E+00
   -0.23283E-20        -0.20489E-19         0.00000E+00
   -0.30268E-20        -0.26077E-19         0.00000E+00
   -0.28111E-20        -0.24214E-19         0.00000E+00
   -0.27940E-20        -0.93132E-20         0.00000E+00
   -0.27940E-20         0.00000E+00         0.00000E+00
   -0.71560E-21        -0.18626E-20         0.00000E+00
   -0.13970E-20         0.11176E-19         0.00000E+00
    0.00000E+00         0.11176E-19         0.00000E+00
   -0.68138E-21         0.18626E-20         0.00000E+00
    0.24994E-21         0.00000E+00         0.00000E+00
   -0.93132E-21         0.93132E-20         0.00000E+00
   -0.16298E-20         0.14901E-19         0.00000E+00
   -0.32596E-20         0.74506E-20         0.00000E+00
   -0.33846E-20         0.11176E-19         0.00000E+00
   -0.32596E-20         0.63824E-20         0.00000E+00
   -0.23283E-20        -0.37253E-20         0.00000E+00
   -0.23283E-20        -0.63824E-20         0.00000E+00
   -0.93132E-21        -0.14901E-19         0.00000E+00
   -0.46566E-21        -0.24214E-19         0.00000E+00
    0.46566E-21        -0.30597E-19         0.00000E+00
   -0.46566E-21        -0.26077E-19         0.00000E+00
   -0.93132E-21        -0.23420E-19         0.00000E+00
   -0.46566E-21        -0.35390E-19         0.00000E+00
   -0.23283E-21        -0.37253E-19         0.00000E+00
   -0.64456E-21        -0.29802E-19         0.00000E+00
   -0.17732E-20        -0.26871E-19         0.00000E+00
   -0.18626E-20        -0.21420E-19         0.00000E+00
   -0.21849E-20        -0.94501E-20         0.00000E+00
   -0.37253E-20         0.26571E-20         0.00000E+00
   -0.32596E-20         0.90395E-20         0.00000E+00
   -0.79162E-20         0.00000E+00         0.00000E+00
   -0.74506E-20         0.74506E-20         0.00000E+00
   -0.74506E-20         0.11176E-19         0.00000E+00
   -0.60536E-20         0.74506E-20         0.00000E+00
   -0.51223E-20        -0.18626E-20         0.00000E+00
   -0.60536E-20        -0.22352E-19         0.00000E+00
   -0.69849E-20        -0.31665E-19         0.00000E+00
   -0.55879E-20        -0.33528E-19         0.00000E+00
   -0.46566E-20        -0.34322E-19         0.00000E+00
   -0.25611E-20        -0.29802E-19         0.00000E+00
   -0.89710E-21        -0.25283E-19         0.00000E+00
    0.34220E-22        -0.37253E-20         0.00000E+00
    0.23283E-21        -0.47935E-20         0.00000E+00
    0.93132E-21        -0.14901E-19         0.00000E+00
    0.46566E-21        -0.45197E-20         0.00000E+00
    0.18626E-20         0.74506E-20         0.00000E+00
    0.96554E-21         0.16764E-19         0.00000E+00
    0.16640E-20         0.17558E-19         0.00000E+00
    0.27940E-20         0.22352E-19         0.00000E+00
    0.32425E-20         0.14107E-19         0.00000E+00
    0.23283E-20        -0.37253E-20         0.00000E+00
    0.23283E-20        -0.55879E-20         0.00000E+00
    0.11470E-20        -0.11176E-19         0.00000E+00
    0.17110E-22        -0.14901E-19         0.00000E+00
   -0.11642E-20        -0.93132E-20         0.00000E+00
   -0.93132E-21        -0.11176E-19         0.00000E+00
   -0.68138E-21        -0.93132E-20         0.00000E+00
   -0.93132E-21         0.37253E-20         0.00000E+00
   -0.18626E-20         0.14901E-19         0.00000E+00
   -0.30268E-20         0.00000E+00         0.00000E+00
   -0.37253E-20        -0.74506E-20         0.00000E+00
   -0.37253E-20         0.93132E-20         0.00000E+00
   -0.42081E-20         0.22352E-19         0.00000E+00
   -0.41910E-20         0.15696E-19         0.00000E+00
   -0.36003E-20         0.55879E-20         0.00000E+00
   -0.46566E-21        -0.25146E-33         0.00000E+00
    0.46566E-21        -0.93132E-20         0.00000E+00
    0.13970E-20        -0.17558E-19         0.00000E+00
    0.32596E-20        -0.20489E-19         0.00000E+00
    0.37253E-20        -0.26077E-19         0.00000E+00
    0.25611E-20        -0.29802E-19         0.00000E+00
    0.32596E-20        -0.24214E-19         0.00000E+00
    0.30268E-20        -0.27940E-19         0.00000E+00
    0.27940E-20        -0.37253E-19         0.00000E+00
    0.18087E-20        -0.33528E-19         0.00000E+00
    0.46566E-21        -0.20489E-19         0.00000E+00
   -0.78794E-21        -0.11176E-19         0.00000E+00
   -0.40476E-20        -0.37253E-20         0.00000E+00
   -0.48447E-20         0.26571E-20         0.00000E+00
   -0.38193E-20         0.26571E-20         0.00000E+00
   -0.27940E-20        -0.37253E-20         0.00000E+00
   -0.13970E-20         0.00000E+00         0.00000E+00
   -0.16298E-20         0.00000E+00         0.00000E+00
   -0.18626E-20        -0.47935E-20         0.00000E+00
   -0.13970E-20        -0.66561E-20         0.00000E+00
   -0.49988E-21        -0.91763E-20         0.00000E+00
    0.89710E-21        -0.14764E-19         0.00000E+00
    0.17942E-20        -0.27940E-19         0.00000E+00
    0.27255E-20        -0.33528E-19         0.00000E+00
    0.18626E-20        -0.33528E-19         0.00000E+00
    0.11299E-20        -0.27940E-19         0.00000E+00
    0.89710E-21        -0.27145E-19         0.00000E+00
   -0.34220E-22        -0.19695E-19         0.00000E+00
    0.34220E-22        -0.11176E-19         0.00000E+00
   -0.13970E-20        -0.45197E-20         0.00000E+00
   -0.23283E-20        -0.15889E-20         0.00000E+00
   -0.32938E-20         0.55879E-20         0.00000E+00
   -0.28282E-20         0.15696E-19         0.00000E+00
   -0.28282E-20         0.10108E-19         0.00000E+00
   -0.27940E-20         0.15696E-19         0.00000E+00
    0.00000E+00         0.11176E-19         0.00000E+00
    0.18626E-20        -0.82450E-20         0.00000E+00
    0.27940E-20        -0.13833E-19         0.00000E+00
    0.34753E-20        -0.15969E-19         0.00000E+00
    0.37082E-20        -0.13039E-19         0.00000E+00
    0.48723E-20        -0.18626E-20         0.00000E+00
    0.46566E-20        -0.45197E-20         0.00000E+00
    0.25269E-20        -0.18626E-20         0.00000E+00
    0.23283E-20         0.20215E-19         0.00000E+00
    0.23283E-21         0.21557E-19         0.00000E+00
   -0.24994E-21         0.85188E-20         0.00000E+00
   -0.69849E-21         0.79444E-21         0.00000E+00
   -0.11813E-20         0.11176E-19         0.00000E+00
   -0.93132E-21         0.18900E-19         0.00000E+00
    0.23283E-20         0.66561E-20         0.00000E+00
    0.27769E-20        -0.77243E-20         0.00000E+00
    0.23283E-20        -0.11450E-19         0.00000E+00
    0.18626E-20        -0.14901E-19         0.00000E+00
    0.10786E-21        -0.20489E-19         0.00000E+00
   -0.46566E-21        -0.25009E-19         0.00000E+00
   -0.23283E-20        -0.21284E-19         0.00000E+00
   -0.40831E-20        -0.27940E-19         0.00000E+00
   -0.23283E-20        -0.27145E-19         0.00000E+00
   -0.30807E-20        -0.22352E-19         0.00000E+00
   -0.32596E-20        -0.28734E-19         0.00000E+00
   -0.25072E-20        -0.27145E-19         0.00000E+00
   -0.46566E-21        -0.15969E-19         0.00000E+00
    0.93132E-21        -0.45197E-20         0.00000E+00
    0.23283E-20        -0.45197E-20         0.00000E+00
    0.39134E-20        -0.11176E-19         0.00000E+00
    0.54492E-20        -0.66561E-20         0.00000E+00
    0.51223E-20        -0.21364E-20         0.00000E+00
    0.23283E-20         0.74506E-20         0.00000E+00
    0.25269E-20         0.11970E-19         0.00000E+00
    0.27940E-20         0.55879E-20         0.00000E+00
    0.23283E-20         0.27940E-20         0.00000E+00
    0.11642E-20        -0.11176E-19         0.00000E+00
    0.13970E-20        -0.36322E-19         0.00000E+00
    0.99976E-21        -0.40047E-19         0.00000E+00
    0.49988E-21        -0.35390E-19         0.00000E+00
   -0.34220E-22        -0.28871E-19         0.00000E+00
    0.93132E-21        -0.21284E-19         0.00000E+00
    0.93132E-21        -0.18626E-19         0.00000E+00
    0.00000E+00        -0.18626E-20         0.00000E+00
   -0.14312E-20         0.37253E-20         0.00000E+00
   -0.13970E-20        -0.18626E-20         0.00000E+00
   -0.23283E-20         0.79444E-21         0.00000E+00
   -0.23283E-20         0.11970E-19         0.00000E+00
   -0.89710E-21         0.16764E-19         0.00000E+00
   -0.27940E-20         0.16764E-19         0.00000E+00
   -0.39581E-20         0.74506E-20         0.00000E+00
   -0.32596E-20        -0.93132E-20         0.00000E+00
   -0.41910E-20        -0.18626E-19         0.00000E+00
   -0.27940E-20        -0.14901E-19         0.00000E+00
   -0.32254E-20        -0.13039E-19         0.00000E+00
   -0.68138E-21        -0.18490E-19         0.00000E+00
   -0.11642E-20        -0.13970E-19         0.00000E+00
    0.93132E-21        -0.47935E-20         0.00000E+00
    0.24994E-21         0.18626E-20         0.00000E+00
    0.00000E+00         0.18626E-19         0.00000E+00
    0.13799E-20         0.26077E-19         0.00000E+00
    0.13970E-20         0.37253E-20         0.00000E+00
    0.16127E-20        -0.26571E-20         0.00000E+00
    0.20955E-20         0.85188E-20         0.00000E+00
    0.23283E-20         0.63824E-20         0.00000E+00
    0.23283E-20         0.26571E-20         0.00000E+00
    0.24994E-21         0.37253E-20         0.00000E+00
   -0.93132E-21         0.47935E-20         0.00000E+00
   -0.18626E-20         0.47935E-20         0.00000E+00
   -0.16298E-20        -0.74506E-20         0.00000E+00
   -0.39581E-20        -0.10381E-19         0.00000E+00
   -0.46566E-20        -0.11176E-19         0.00000E+00
   -0.52301E-20        -0.29802E-19         0.00000E+00
   -0.58208E-20        -0.29802E-19         0.00000E+00
   -0.53551E-20        -0.24214E-19         0.00000E+00
   -0.20955E-20        -0.37253E-19         0.00000E+00
   -0.69849E-21        -0.46566E-19         0.00000E+00
    0.93132E-21        -0.37253E-19         0.00000E+00
    0.69849E-21        -0.26077E-19         0.00000E+00
    0.30268E-20        -0.17832E-19         0.00000E+00
    0.30268E-20        -0.11039E-19         0.00000E+00
    0.23283E-20        -0.46566E-20         0.00000E+00
    0.23283E-20         0.15889E-20         0.00000E+00
   -0.13970E-20         0.00000E+00         0.00000E+00
   -0.89710E-21        -0.79444E-21         0.00000E+00
   -0.46566E-21         0.10682E-20         0.00000E+00
    0.00000E+00         0.79444E-21         0.00000E+00
   -0.43144E-21        -0.37253E-20         0.00000E+00
   -0.10957E-20        -0.16764E-19         0.00000E+00
   -0.37253E-20        -0.23420E-19         0.00000E+00
   -0.41567E-20        -0.27940E-19         0.00000E+00
   -0.45882E-20        -0.35390E-19         0.00000E+00
   -0.50881E-20        -0.31665E-19         0.00000E+00
   -0.69507E-20        -0.22352E-19         0.00000E+00
   -0.55537E-20        -0.93132E-20         0.00000E+00
   -0.46224E-20        -0.37253E-20         0.00000E+00
   -0.41910E-20         0.29308E-20         0.00000E+00
   -0.36911E-20         0.18626E-20         0.00000E+00
   -0.22941E-20         0.79444E-21         0.00000E+00
   -0.32596E-20         0.15969E-19         0.00000E+00
   -0.15956E-20         0.23420E-19         0.00000E+00
   -0.44855E-21         0.15696E-19         0.00000E+00
   -0.32596E-20         0.11176E-19         0.00000E+00
   -0.41910E-20        -0.74506E-20         0.00000E+00
   -0.41910E-20        -0.17832E-19         0.00000E+00
   -0.41910E-20        -0.26077E-19         0.00000E+00
   -0.39581E-20        -0.23146E-19         0.00000E+00
   -0.48552E-20        -0.11176E-19         0.00000E+00
   -0.51223E-20        -0.66561E-20         0.00000E+00
   -0.34753E-20         0.18626E-20         0.00000E+00
   -0.41738E-20         0.11176E-19         0.00000E+00
   -0.34753E-20         0.13039E-19         0.00000E+00
   -0.30097E-20         0.55879E-20         0.00000E+00
   -0.41567E-20         0.00000E+00         0.00000E+00
   -0.30097E-20         0.77243E-20         0.00000E+00
   -0.18626E-20         0.18626E-19         0.00000E+00
   -0.23283E-20         0.16490E-19         0.00000E+00
   -0.27940E-20         0.74506E-20         0.00000E+00
   -0.25440E-20         0.00000E+00         0.00000E+00
   -0.32596E-20        -0.74506E-20         0.00000E+00
   -0.27769E-20        -0.74506E-20         0.00000E+00
   -0.25440E-20        -0.11176E-19         0.00000E+00
   -0.93132E-21        -0.19421E-19         0.00000E+00
   -0.23283E-20        -0.21284E-19         0.00000E+00
   -0.31347E-20        -0.27145E-19         0.00000E+00
   -0.29729E-20        -0.39116E-19         0.00000E+00
   -0.28479E-20        -0.49223E-19         0.00000E+00
   -0.30807E-20        -0.43909E-19         0.00000E+00
   -0.46566E-20        -0.27145E-19         0.00000E+00
   -0.50328E-20        -0.14901E-19         0.00000E+00
   -0.66626E-20        -0.14901E-19         0.00000E+00
   -0.64298E-20        -0.74506E-20         0.00000E+00
   -0.80103E-20        -0.10682E-20         0.00000E+00
   -0.88476E-20         0.15889E-20         0.00000E+00
   -0.13970E-20         0.37253E-20         0.00000E+00
   -0.23283E-20         0.55879E-20         0.00000E+00
   -0.27940E-20         0.47935E-20         0.00000E+00
   -0.27940E-20         0.18626E-20         0.00000E+00
   -0.20955E-20        -0.66561E-20         0.00000E+00
   -0.23283E-20        -0.18626E-19         0.00000E+00
   -0.28282E-20        -0.26077E-19         0.00000E+00
   -0.42252E-20        -0.29802E-19         0.00000E+00
   -0.56222E-20        -0.23146E-19         0.00000E+00
   -0.74506E-20        -0.10108E-19         0.00000E+00
   -0.79505E-20        -0.17832E-19         0.00000E+00
   -0.74848E-20        -0.13039E-19         0.00000E+00
   -0.74848E-20        -0.37253E-20         0.00000E+00
   -0.69849E-20        -0.55879E-20         0.00000E+00
   -0.56222E-20        -0.45197E-20         0.00000E+00
   -0.60536E-20         0.93132E-20         0.00000E+00
   -0.65535E-20         0.10108E-19         0.00000E+00
   -0.56222E-20         0.37253E-20         0.00000E+00
   -0.49066E-20         0.15696E-19         0.00000E+00
   -0.37253E-20         0.93132E-20         0.00000E+00
   -0.37253E-20        -0.12765E-19         0.00000E+00
   -0.46566E-20        -0.16764E-19         0.00000E+00
   -0.41910E-20        -0.17832E-19         0.00000E+00
   -0.42081E-20        -0.14901E-19         0.00000E+00
   -0.44409E-20        -0.74506E-20         0.00000E+00
   -0.60707E-20        -0.74506E-20         0.00000E+00
   -0.69849E-20        -0.37253E-20         0.00000E+00
   -0.67692E-20         0.17558E-19         0.00000E+00
   -0.69849E-20         0.20489E-19         0.00000E+00
   -0.65364E-20         0.47935E-20         0.00000E+00
   -0.58208E-20         0.79444E-21         0.00000E+00
   -0.46566E-20         0.25146E-33         0.00000E+00
   -0.44238E-20         0.21364E-20         0.00000E+00
   -0.41910E-20         0.26571E-20         0.00000E+00
   -0.13970E-20         0.63824E-20         0.00000E+00
   -0.94843E-21         0.74506E-20         0.00000E+00
    0.00000E+00         0.37253E-20         0.00000E+00
   -0.82346E-21        -0.10108E-19         0.00000E+00
   -0.82346E-21        -0.16764E-19         0.00000E+00
   -0.93132E-21        -0.12244E-19         0.00000E+00
    0.46566E-21        -0.20489E-19         0.00000E+00
    0.34069E-21        -0.26871E-19         0.00000E+00
    0.69849E-21        -0.25009E-19         0.00000E+00
   -0.64456E-21        -0.37527E-19         0.00000E+00
   -0.18626E-20        -0.38321E-19         0.00000E+00
   -0.37253E-20        -0.25009E-19         0.00000E+00
   -0.38147E-20        -0.14901E-19         0.00000E+00
   -0.47461E-20        -0.11176E-19         0.00000E+00
   -0.51670E-20        -0.45197E-20         0.00000E+00
   -0.45626E-20         0.74506E-20         0.00000E+00
   -0.55879E-20         0.90395E-20         0.00000E+00
   -0.93132E-21         0.74506E-20         0.00000E+00
   -0.93132E-21         0.74506E-20         0.00000E+00
    0.00000E+00         0.37253E-20         0.00000E+00
   -0.18626E-20        -0.37253E-20         0.00000E+00
   -0.42252E-20        -0.82450E-20         0.00000E+00
   -0.56222E-20        -0.13039E-19         0.00000E+00
   -0.60536E-20        -0.14107E-19         0.00000E+00
   -0.51223E-20        -0.13833E-19         0.00000E+00
   -0.51223E-20        -0.18626E-19         0.00000E+00
   -0.32596E-20        -0.19695E-19         0.00000E+00
   -0.32254E-20        -0.23146E-19         0.00000E+00
   -0.41567E-20        -0.10381E-19         0.00000E+00
   -0.37253E-20        -0.66561E-20         0.00000E+00
   -0.37253E-20        -0.71768E-20         0.00000E+00
   -0.60536E-20        -0.79444E-21         0.00000E+00
   -0.79162E-20         0.53142E-20         0.00000E+00
   -0.60194E-20         0.14901E-19         0.00000E+00
   -0.78820E-20         0.13039E-19         0.00000E+00
   -0.79162E-20         0.90395E-20         0.00000E+00
   -0.55879E-20         0.47935E-20         0.00000E+00
   -0.41910E-20        -0.45197E-20         0.00000E+00
   -0.37253E-20        -0.18626E-19         0.00000E+00
   -0.27940E-20        -0.26871E-19         0.00000E+00
   -0.16298E-20        -0.17558E-19         0.00000E+00
   -0.11642E-20        -0.39990E-20         0.00000E+00
   -0.21572E-21         0.55879E-20         0.00000E+00
   -0.69849E-21         0.66561E-20         0.00000E+00
    0.93132E-21         0.10108E-19         0.00000E+00
    0.93132E-21         0.82450E-20         0.00000E+00
    0.14141E-20         0.10682E-20         0.00000E+00
    0.23112E-20        -0.53142E-20         0.00000E+00
    0.27940E-20         0.37253E-20         0.00000E+00
    0.16469E-20         0.14627E-19         0.00000E+00
    0.23283E-20         0.00000E+00         0.00000E+00
    0.27940E-20        -0.11970E-19         0.00000E+00
    0.37424E-20        -0.58617E-20         0.00000E+00
    0.41910E-20        -0.74506E-20         0.00000E+00
    0.46566E-20        -0.45197E-20         0.00000E+00
    0.52301E-20        -0.11176E-19         0.00000E+00
    0.51223E-20        -0.27145E-19         0.00000E+00
    0.51223E-20        -0.29802E-19         0.00000E+00
    0.41910E-20        -0.26871E-19         0.00000E+00
    0.29729E-20        -0.32733E-19         0.00000E+00
    0.27940E-20        -0.33528E-19         0.00000E+00
    0.20955E-20        -0.26871E-19         0.00000E+00
    0.32596E-20        -0.20626E-19         0.00000E+00
    0.38147E-20        -0.11313E-19         0.00000E+00
    0.41910E-20        -0.81081E-20         0.00000E+00
    0.37700E-20        -0.26571E-20         0.00000E+00
    0.41910E-20         0.65756E-21         0.00000E+00
    0.46566E-20         0.53142E-20         0.00000E+00
   -0.32596E-20         0.37253E-20         0.00000E+00
   -0.37253E-20         0.37253E-20         0.00000E+00
   -0.32596E-20         0.10108E-19         0.00000E+00
   -0.27940E-20         0.19421E-19         0.00000E+00
   -0.36911E-20         0.11450E-19         0.00000E+00
   -0.27597E-20        -0.71768E-20         0.00000E+00
   -0.27940E-20        -0.29008E-19         0.00000E+00
   -0.18626E-20        -0.32733E-19         0.00000E+00
   -0.93132E-21        -0.29802E-19         0.00000E+00
   -0.49988E-21        -0.23420E-19         0.00000E+00
   -0.14312E-20        -0.14107E-19         0.00000E+00
   -0.18969E-20        -0.10108E-19         0.00000E+00
   -0.93132E-21        -0.26571E-20         0.00000E+00
   -0.18626E-20         0.55879E-20         0.00000E+00
   -0.23283E-20         0.14107E-19         0.00000E+00
   -0.18626E-20         0.93132E-20         0.00000E+00
   -0.27940E-20         0.11833E-19         0.00000E+00
   -0.96554E-21         0.11039E-19         0.00000E+00
   -0.46566E-21         0.47935E-20         0.00000E+00
   -0.46566E-21        -0.11176E-19         0.00000E+00
    0.13970E-20        -0.21557E-19         0.00000E+00
    0.23283E-20        -0.22352E-19         0.00000E+00
    0.32596E-20        -0.26871E-19         0.00000E+00
    0.18798E-20        -0.22078E-19         0.00000E+00
    0.35096E-20        -0.14107E-19         0.00000E+00
    0.37253E-20        -0.11176E-19         0.00000E+00
    0.55708E-20        -0.74506E-20         0.00000E+00
    0.46566E-20         0.63824E-20         0.00000E+00
    0.41910E-20         0.17038E-19         0.00000E+00
    0.51223E-20        -0.79444E-21         0.00000E+00
    0.60707E-20        -0.66561E-20         0.00000E+00
    0.79162E-20         0.18626E-20         0.00000E+00
    0.69849E-20         0.79444E-21         0.00000E+00
    0.79162E-20        -0.27376E-21         0.00000E+00
    0.62864E-20         0.10682E-20         0.00000E+00
    0.59286E-20         0.37253E-20         0.00000E+00
    0.65193E-20        -0.79444E-21         0.00000E+00
    0.59457E-20        -0.16490E-19         0.00000E+00
    0.51223E-20        -0.21557E-19         0.00000E+00
    0.32596E-20        -0.13312E-19         0.00000E+00
    0.23283E-20        -0.15969E-19         0.00000E+00
    0.16298E-20        -0.13039E-19         0.00000E+00
    0.11642E-20        -0.17558E-19         0.00000E+00
    0.46566E-21        -0.34322E-19         0.00000E+00
    0.53930E-22        -0.40978E-19         0.00000E+00
   -0.46566E-21        -0.33391E-19         0.00000E+00
   -0.46566E-21        -0.20489E-19         0.00000E+00
   -0.46566E-21        -0.11313E-19         0.00000E+00
   -0.44725E-22        -0.29308E-20         0.00000E+00
    0.13970E-20         0.45197E-20         0.00000E+00
    0.23283E-20         0.37253E-20         0.00000E+00
   -0.27940E-20         0.58617E-20         0.00000E+00
   -0.27940E-20         0.55879E-20         0.00000E+00
   -0.32596E-20         0.18626E-20         0.00000E+00
   -0.13970E-20        -0.18626E-20         0.00000E+00
    0.00000E+00        -0.66561E-20         0.00000E+00
    0.18626E-20        -0.16901E-19         0.00000E+00
    0.18626E-20        -0.21420E-19         0.00000E+00
    0.93132E-21        -0.22352E-19         0.00000E+00
    0.13970E-20        -0.24214E-19         0.00000E+00
    0.16640E-20        -0.18626E-19         0.00000E+00
    0.23625E-20        -0.15832E-19         0.00000E+00
    0.46566E-20        -0.11039E-19         0.00000E+00
    0.41910E-20        -0.55879E-20         0.00000E+00
    0.41910E-20        -0.26571E-20         0.00000E+00
    0.41910E-20        -0.79444E-21         0.00000E+00
    0.60536E-20         0.63824E-20         0.00000E+00
    0.60536E-20         0.93132E-20         0.00000E+00
    0.79505E-20         0.26571E-20         0.00000E+00
    0.86147E-20         0.71768E-20         0.00000E+00
    0.79162E-20        -0.37253E-20         0.00000E+00
    0.60536E-20        -0.19421E-19         0.00000E+00
    0.60536E-20        -0.25009E-19         0.00000E+00
    0.51223E-20        -0.26077E-19         0.00000E+00
    0.37253E-20        -0.22215E-19         0.00000E+00
    0.29926E-20        -0.11313E-19         0.00000E+00
    0.23283E-20        -0.18626E-20         0.00000E+00
    0.11813E-20         0.37253E-20         0.00000E+00
    0.13970E-20         0.14901E-19         0.00000E+00
    0.23283E-20         0.66561E-20         0.00000E+00
    0.23283E-20        -0.93132E-20         0.00000E+00
    0.13799E-20        -0.18626E-19         0.00000E+00
    0.37253E-20        -0.29308E-20         0.00000E+00
    0.27940E-20         0.11176E-19         0.00000E+00
    0.32596E-20         0.26571E-20         0.00000E+00
    0.38332E-20         0.59527E-34         0.00000E+00
    0.41910E-20        -0.37253E-20         0.00000E+00
    0.51223E-20        -0.74506E-20         0.00000E+00
    0.58037E-20         0.00000E+00         0.00000E+00
    0.55879E-20         0.37253E-20         0.00000E+00
    0.60536E-20        -0.11176E-19         0.00000E+00
    0.55879E-20        -0.22352E-19         0.00000E+00
    0.57129E-20        -0.22352E-19         0.00000E+00
    0.58747E-20        -0.25283E-19         0.00000E+00
    0.46566E-20        -0.26077E-19         0.00000E+00
    0.41370E-20        -0.25803E-19         0.00000E+00
    0.18626E-20        -0.19421E-19         0.00000E+00
    0.13075E-20        -0.10381E-19         0.00000E+00
    0.23283E-21        -0.11176E-19         0.00000E+00
    0.13970E-20        -0.11176E-19         0.00000E+00
    0.18626E-20        -0.10381E-19         0.00000E+00
    0.18626E-20        -0.21364E-20         0.00000E+00
    0.13970E-20        -0.21364E-20         0.00000E+00
    0.13970E-20         0.37253E-20         0.00000E+00
    0.13970E-20         0.66561E-20         0.00000E+00
    0.13970E-20         0.37253E-20         0.00000E+00
    0.13970E-20        -0.37253E-20         0.00000E+00
    0.89710E-21        -0.15969E-19         0.00000E+00
    0.49988E-21        -0.29008E-19         0.00000E+00
    0.00000E+00        -0.32459E-19         0.00000E+00
    0.93132E-21        -0.31665E-19         0.00000E+00
    0.20955E-20        -0.25283E-19         0.00000E+00
    0.36911E-20        -0.26871E-19         0.00000E+00
    0.49237E-20        -0.19421E-19         0.00000E+00
    0.51223E-20        -0.47935E-20         0.00000E+00
    0.69849E-20         0.37253E-20         0.00000E+00
    0.79162E-20         0.77243E-20         0.00000E+00
    0.65193E-20         0.10682E-20         0.00000E+00
    0.88476E-20         0.79444E-21         0.00000E+00
    0.74506E-20        -0.21364E-20         0.00000E+00
    0.65364E-20         0.63824E-20         0.00000E+00
    0.65193E-20         0.18626E-20         0.00000E+00
    0.65193E-20        -0.13039E-19         0.00000E+00
    0.60536E-20        -0.16764E-19         0.00000E+00
    0.37253E-20        -0.15696E-19         0.00000E+00
    0.37253E-20        -0.10108E-19         0.00000E+00
    0.25782E-20        -0.85188E-20         0.00000E+00
    0.25611E-20        -0.37253E-20         0.00000E+00
    0.27769E-20        -0.26571E-20         0.00000E+00
    0.37253E-20         0.26571E-20         0.00000E+00
    0.32596E-20         0.13833E-19         0.00000E+00
    0.27940E-20         0.21364E-20         0.00000E+00
    0.37424E-20        -0.11039E-19         0.00000E+00
    0.25440E-20        -0.46566E-20         0.00000E+00
    0.32596E-20         0.25146E-33         0.00000E+00
    0.32596E-20        -0.29308E-20         0.00000E+00
    0.37253E-20        -0.55879E-20         0.00000E+00
    0.27940E-20        -0.47935E-20         0.00000E+00
    0.23283E-20        -0.85188E-20         0.00000E+00
    0.19876E-20        -0.19421E-19         0.00000E+00
    0.44238E-20        -0.20489E-19         0.00000E+00
    0.51223E-20        -0.14107E-19         0.00000E+00
    0.41910E-20        -0.16764E-19         0.00000E+00
    0.55879E-20        -0.11176E-19         0.00000E+00
    0.55879E-20        -0.11970E-19         0.00000E+00
    0.51223E-20        -0.28734E-19         0.00000E+00
    0.75584E-20        -0.29008E-19         0.00000E+00
    0.79162E-20        -0.16764E-19         0.00000E+00
    0.81491E-20        -0.10108E-19         0.00000E+00
    0.80057E-20        -0.14107E-19         0.00000E+00
    0.70296E-20        -0.85188E-20         0.00000E+00
    0.37253E-20         0.18626E-20         0.00000E+00
    0.46566E-20         0.37253E-20         0.00000E+00
    0.97789E-20         0.74506E-20         0.00000E+00
    0.93132E-20         0.47935E-20         0.00000E+00
    0.88476E-20         0.18626E-20         0.00000E+00
    0.88476E-20         0.79444E-21         0.00000E+00
    0.83819E-20        -0.45197E-20         0.00000E+00
    0.84161E-20        -0.10108E-19         0.00000E+00
    0.88476E-20        -0.18763E-19         0.00000E+00
    0.74506E-20        -0.27008E-19         0.00000E+00
    0.65193E-20        -0.32596E-19         0.00000E+00
    0.46224E-20        -0.33664E-19         0.00000E+00
    0.51565E-20        -0.29802E-19         0.00000E+00
    0.46224E-20        -0.19421E-19         0.00000E+00
    0.60536E-20        -0.15696E-19         0.00000E+00
    0.69849E-20        -0.15969E-19         0.00000E+00
    0.93132E-20         0.29308E-20         0.00000E+00
    0.10710E-19         0.37253E-20         0.00000E+00
    0.10012E-19         0.34515E-20         0.00000E+00
    0.64850E-20         0.13039E-19         0.00000E+00
    0.51052E-20         0.11176E-19         0.00000E+00
    0.46566E-20        -0.37253E-20         0.00000E+00
    0.46566E-20        -0.15696E-19         0.00000E+00
    0.37253E-20        -0.13833E-19         0.00000E+00
    0.32596E-20        -0.15969E-19         0.00000E+00
    0.53380E-20        -0.13039E-19         0.00000E+00
    0.58379E-20        -0.55879E-20         0.00000E+00
    0.44067E-20        -0.29308E-20         0.00000E+00
    0.39752E-20        -0.18626E-20         0.00000E+00
    0.37253E-20         0.10381E-19         0.00000E+00
    0.41910E-20         0.11176E-19         0.00000E+00
    0.55879E-20        -0.10381E-19         0.00000E+00
    0.67350E-20        -0.16764E-19         0.00000E+00
    0.56050E-20        -0.18626E-20         0.00000E+00
    0.46566E-20         0.93132E-20         0.00000E+00
    0.27940E-20         0.18626E-20         0.00000E+00
    0.12497E-21         0.00000E+00         0.00000E+00
    0.46566E-21         0.37253E-20         0.00000E+00
    0.93132E-21        -0.37253E-20         0.00000E+00
   -0.57352E-21        -0.11176E-19         0.00000E+00
   -0.12720E-20        -0.10902E-19         0.00000E+00
   -0.18626E-20        -0.11176E-19         0.00000E+00
   -0.46566E-21        -0.24488E-19         0.00000E+00
   -0.59063E-21        -0.30597E-19         0.00000E+00
    0.69849E-21        -0.24214E-19         0.00000E+00
    0.23283E-20        -0.31665E-19         0.00000E+00
    0.15759E-20        -0.39116E-19         0.00000E+00
    0.18626E-20        -0.23420E-19         0.00000E+00
    0.17193E-20        -0.13039E-19         0.00000E+00
    0.10747E-20        -0.54511E-20         0.00000E+00
    0.65377E-21         0.83819E-20         0.00000E+00
    0.46566E-21         0.45197E-20         0.00000E+00
    0.00000E+00        -0.74506E-20         0.00000E+00
    0.12573E-19        -0.15889E-20         0.00000E+00
    0.13039E-19         0.74506E-20         0.00000E+00
    0.11642E-19         0.11970E-19         0.00000E+00
    0.11176E-19         0.47935E-20         0.00000E+00
    0.10245E-19        -0.26571E-20         0.00000E+00
    0.10245E-19        -0.17832E-19         0.00000E+00
    0.11642E-19        -0.21557E-19         0.00000E+00
    0.11176E-19        -0.22352E-19         0.00000E+00
    0.97789E-20        -0.21557E-19         0.00000E+00
    0.79505E-20        -0.17695E-19         0.00000E+00
    0.74164E-20        -0.24078E-19         0.00000E+00
    0.69849E-20        -0.22352E-19         0.00000E+00
    0.69849E-20        -0.16764E-19         0.00000E+00
    0.60536E-20        -0.11176E-19         0.00000E+00
    0.55879E-20        -0.13039E-19         0.00000E+00
    0.60194E-20        -0.18626E-20         0.00000E+00
    0.50881E-20         0.22352E-19         0.00000E+00
    0.65193E-20         0.20489E-19         0.00000E+00
    0.65193E-20         0.14901E-19         0.00000E+00
    0.60536E-20         0.55879E-20         0.00000E+00
    0.55879E-20        -0.74506E-20         0.00000E+00
    0.55879E-20        -0.11176E-19         0.00000E+00
    0.51223E-20        -0.22352E-19         0.00000E+00
    0.39581E-20        -0.24214E-19         0.00000E+00
    0.30097E-20        -0.37253E-20         0.00000E+00
    0.30268E-20         0.74506E-20         0.00000E+00
    0.32596E-20         0.00000E+00         0.00000E+00
    0.32596E-20         0.00000E+00         0.00000E+00
    0.23283E-20         0.37253E-20         0.00000E+00
    0.18626E-20        -0.74506E-20         0.00000E+00
   -0.44855E-21        -0.11176E-19         0.00000E+00
   -0.18626E-20         0.29308E-20         0.00000E+00
   -0.32596E-20         0.14901E-19         0.00000E+00
   -0.46566E-20         0.14901E-19         0.00000E+00
   -0.55879E-20         0.55879E-20         0.00000E+00
   -0.55879E-20        -0.29308E-20         0.00000E+00
   -0.51223E-20        -0.37253E-20         0.00000E+00
   -0.33846E-20        -0.82450E-20         0.00000E+00
   -0.31518E-20        -0.13039E-19         0.00000E+00
   -0.13970E-20        -0.17832E-19         0.00000E+00
   -0.46566E-21        -0.23146E-19         0.00000E+00
   -0.13970E-20        -0.20489E-19         0.00000E+00
   -0.12181E-20        -0.25283E-19         0.00000E+00
   -0.93132E-21        -0.31665E-19         0.00000E+00
   -0.16298E-20        -0.26077E-19         0.00000E+00
   -0.41910E-20        -0.17558E-19         0.00000E+00
   -0.42804E-20        -0.74506E-20         0.00000E+00
   -0.48894E-20        -0.85188E-20         0.00000E+00
   -0.37253E-20        -0.82450E-20         0.00000E+00
   -0.18626E-20         0.63824E-20         0.00000E+00
   -0.23283E-20         0.10628E-19         0.00000E+00
    0.93132E-21         0.37253E-20         0.00000E+00
    0.18626E-20         0.82450E-20         0.00000E+00
    0.27940E-20         0.11176E-19         0.00000E+00
    0.27940E-20         0.85188E-20         0.00000E+00
    0.32596E-20         0.13688E-21         0.00000E+00
    0.36911E-20        -0.17695E-19         0.00000E+00
    0.36911E-20        -0.21557E-19         0.00000E+00
    0.46566E-20        -0.18626E-19         0.00000E+00
    0.37253E-20        -0.18626E-19         0.00000E+00
    0.51223E-20        -0.20489E-19         0.00000E+00
    0.42252E-20        -0.24214E-19         0.00000E+00
    0.37595E-20        -0.14901E-19         0.00000E+00
    0.23283E-20        -0.11176E-19         0.00000E+00
    0.18626E-20        -0.11970E-19         0.00000E+00
    0.13970E-20         0.18626E-20         0.00000E+00
   -0.43144E-21         0.63824E-20         0.00000E+00
    0.34220E-22         0.37253E-20         0.00000E+00
    0.73271E-21         0.74506E-20         0.00000E+00
    0.13970E-20         0.11970E-19         0.00000E+00
   -0.23283E-21         0.00000E+00         0.00000E+00
   -0.16298E-20        -0.10108E-19         0.00000E+00
   -0.69849E-21        -0.11970E-19         0.00000E+00
   -0.46566E-21        -0.74506E-20         0.00000E+00
   -0.44855E-21        -0.37253E-20         0.00000E+00
   -0.93132E-21        -0.18626E-20         0.00000E+00
   -0.21572E-21        -0.29308E-20         0.00000E+00
    0.13970E-20        -0.18626E-20         0.00000E+00
    0.46566E-21         0.14107E-19         0.00000E+00
   -0.13970E-20         0.18626E-19         0.00000E+00
   -0.32596E-20         0.45197E-20         0.00000E+00
   -0.46737E-20         0.00000E+00         0.00000E+00
   -0.62864E-20         0.11176E-19         0.00000E+00
   -0.60536E-20         0.22352E-19         0.00000E+00
   -0.55879E-20         0.11176E-19         0.00000E+00
   -0.41910E-20         0.37253E-20         0.00000E+00
   -0.53551E-20         0.18626E-20         0.00000E+00
   -0.62864E-20        -0.11176E-19         0.00000E+00
   -0.55879E-20        -0.20489E-19         0.00000E+00
   -0.51223E-20        -0.22352E-19         0.00000E+00
   -0.41910E-20        -0.22352E-19         0.00000E+00
   -0.51223E-20        -0.26077E-19         0.00000E+00
   -0.46566E-20        -0.26077E-19         0.00000E+00
   -0.46566E-20        -0.26077E-19         0.00000E+00
   -0.46566E-20        -0.31665E-19         0.00000E+00
   -0.30807E-20        -0.22352E-19         0.00000E+00
   -0.13970E-20        -0.93132E-20         0.00000E+00
    0.23283E-21        -0.93132E-20         0.00000E+00
    0.69849E-21        -0.93132E-20         0.00000E+00
    0.69849E-21        -0.74506E-20         0.00000E+00
   -0.46566E-21        -0.47935E-20         0.00000E+00
    0.13970E-20         0.15889E-20         0.00000E+00
   -0.69849E-20        -0.37253E-20         0.00000E+00
   -0.74506E-20        -0.18626E-20         0.00000E+00
   -0.65193E-20         0.10682E-20         0.00000E+00
   -0.51223E-20         0.37253E-20         0.00000E+00
   -0.46566E-20        -0.55879E-20         0.00000E+00
   -0.36911E-20        -0.18626E-19         0.00000E+00
   -0.32254E-20        -0.25283E-19         0.00000E+00
   -0.29926E-20        -0.22352E-19         0.00000E+00
   -0.22941E-20        -0.23146E-19         0.00000E+00
   -0.18284E-20        -0.21420E-19         0.00000E+00
   -0.27940E-20        -0.18763E-19         0.00000E+00
   -0.32596E-20        -0.12244E-19         0.00000E+00
   -0.36911E-20        -0.65193E-20         0.00000E+00
   -0.46566E-20        -0.73137E-20         0.00000E+00
   -0.46566E-20        -0.18626E-20         0.00000E+00
   -0.41567E-20         0.54511E-20         0.00000E+00
   -0.37253E-20         0.15832E-19         0.00000E+00
   -0.55879E-20         0.16764E-19         0.00000E+00
   -0.64850E-20         0.16764E-19         0.00000E+00
   -0.72006E-20         0.21557E-19         0.00000E+00
   -0.85976E-20        -0.18626E-20         0.00000E+00
   -0.83648E-20        -0.18626E-19         0.00000E+00
   -0.83819E-20        -0.26077E-19         0.00000E+00
   -0.60536E-20        -0.21284E-19         0.00000E+00
   -0.37253E-20        -0.55879E-20         0.00000E+00
   -0.37253E-20        -0.47935E-20         0.00000E+00
   -0.37253E-20        -0.18626E-20         0.00000E+00
   -0.32596E-20         0.14901E-19         0.00000E+00
   -0.23283E-20         0.20489E-19         0.00000E+00
   -0.18626E-20         0.74506E-20         0.00000E+00
   -0.16127E-20         0.55879E-20         0.00000E+00
   -0.91421E-21         0.11176E-19         0.00000E+00
    0.46566E-21         0.11176E-19         0.00000E+00
    0.93132E-21         0.63824E-20         0.00000E+00
    0.23283E-21         0.37253E-20         0.00000E+00
    0.35780E-21         0.45197E-20         0.00000E+00
   -0.12720E-20        -0.18626E-20         0.00000E+00
   -0.34925E-20        -0.12765E-19         0.00000E+00
   -0.49973E-20        -0.19421E-19         0.00000E+00
   -0.60536E-20        -0.16764E-19         0.00000E+00
   -0.55879E-20        -0.21557E-19         0.00000E+00
   -0.42988E-20        -0.24214E-19         0.00000E+00
   -0.39581E-20        -0.26871E-19         0.00000E+00
   -0.37253E-20        -0.37253E-19         0.00000E+00
   -0.32596E-20        -0.40978E-19         0.00000E+00
   -0.13970E-20        -0.34459E-19         0.00000E+00
    0.89450E-22        -0.19558E-19         0.00000E+00
    0.55511E-21        -0.11176E-19         0.00000E+00
   -0.18811E-21        -0.29308E-20         0.00000E+00
   -0.10254E-20         0.79444E-21         0.00000E+00
   -0.18626E-20        -0.21364E-20         0.00000E+00
   -0.93132E-20         0.74506E-20         0.00000E+00
   -0.97789E-20         0.55879E-20         0.00000E+00
   -0.10710E-19         0.00000E+00         0.00000E+00
   -0.93132E-20        -0.18626E-20         0.00000E+00
   -0.83819E-20        -0.74506E-20         0.00000E+00
   -0.88476E-20        -0.22352E-19         0.00000E+00
   -0.79505E-20        -0.26077E-19         0.00000E+00
   -0.83819E-20        -0.24214E-19         0.00000E+00
   -0.60878E-20        -0.24214E-19         0.00000E+00
   -0.56222E-20        -0.18626E-19         0.00000E+00
   -0.50881E-20        -0.16764E-19         0.00000E+00
   -0.37253E-20        -0.93132E-20         0.00000E+00
   -0.51223E-20        -0.37253E-20         0.00000E+00
   -0.46566E-20        -0.37253E-20         0.00000E+00
   -0.51223E-20        -0.37253E-20         0.00000E+00
   -0.46908E-20         0.00000E+00         0.00000E+00
   -0.46566E-20         0.11176E-19         0.00000E+00
   -0.46566E-20         0.20489E-19         0.00000E+00
   -0.42252E-20         0.22352E-19         0.00000E+00
   -0.32596E-20         0.93132E-20         0.00000E+00
   -0.13970E-20        -0.74506E-20         0.00000E+00
   -0.18798E-20        -0.11176E-19         0.00000E+00
   -0.23283E-20        -0.18626E-19         0.00000E+00
   -0.41910E-20        -0.24214E-19         0.00000E+00
   -0.34753E-20        -0.13039E-19         0.00000E+00
   -0.37253E-20        -0.55879E-20         0.00000E+00
   -0.37253E-20        -0.55879E-20         0.00000E+00
   -0.32596E-20         0.55879E-20         0.00000E+00
   -0.23283E-20         0.11176E-19         0.00000E+00
   -0.46566E-21         0.34515E-20         0.00000E+00
   -0.46566E-21        -0.39990E-20         0.00000E+00
    0.44855E-21         0.54752E-21         0.00000E+00
    0.46566E-21         0.13312E-19         0.00000E+00
   -0.46566E-21         0.14627E-19         0.00000E+00
   -0.59063E-21         0.55879E-20         0.00000E+00
   -0.35780E-21         0.55879E-20         0.00000E+00
    0.46566E-21         0.74506E-20         0.00000E+00
    0.17548E-20         0.00000E+00         0.00000E+00
    0.16298E-20        -0.93132E-20         0.00000E+00
    0.18626E-20        -0.20489E-19         0.00000E+00
    0.27940E-20        -0.35390E-19         0.00000E+00
    0.27940E-20        -0.33528E-19         0.00000E+00
    0.26151E-20        -0.27940E-19         0.00000E+00
    0.11642E-20        -0.35664E-19         0.00000E+00
    0.46566E-21        -0.33528E-19         0.00000E+00
   -0.13970E-20        -0.23941E-19         0.00000E+00
   -0.36358E-20        -0.18626E-19         0.00000E+00
   -0.44238E-20        -0.11176E-19         0.00000E+00
   -0.51223E-20         0.00000E+00         0.00000E+00
   -0.50282E-20         0.37253E-20         0.00000E+00
   -0.60536E-20         0.37253E-20         0.00000E+00
   -0.88476E-20         0.00000E+00         0.00000E+00
   -0.79162E-20         0.37253E-20         0.00000E+00
   -0.83819E-20         0.18626E-20         0.00000E+00
   -0.93132E-20        -0.55879E-20         0.00000E+00
   -0.10245E-19        -0.93132E-20         0.00000E+00
   -0.88476E-20        -0.20489E-19         0.00000E+00
   -0.90462E-20        -0.29802E-19         0.00000E+00
   -0.79162E-20        -0.33528E-19         0.00000E+00
   -0.55879E-20        -0.37253E-19         0.00000E+00
   -0.46224E-20        -0.26351E-19         0.00000E+00
   -0.37595E-20        -0.26077E-19         0.00000E+00
   -0.23283E-20        -0.10902E-19         0.00000E+00
   -0.93132E-21        -0.21364E-20         0.00000E+00
   -0.46566E-21        -0.71768E-20         0.00000E+00
   -0.93132E-21        -0.34515E-20         0.00000E+00
   -0.13628E-20         0.34515E-20         0.00000E+00
   -0.18626E-20         0.14901E-19         0.00000E+00
   -0.93132E-21         0.11176E-19         0.00000E+00
    0.11642E-20         0.12765E-19         0.00000E+00
    0.20784E-20         0.71768E-20         0.00000E+00
    0.23283E-20        -0.90395E-20         0.00000E+00
    0.27940E-20        -0.14627E-19         0.00000E+00
    0.27940E-20        -0.14901E-19         0.00000E+00
    0.23283E-20        -0.13039E-19         0.00000E+00
    0.16298E-20        -0.74506E-20         0.00000E+00
   -0.46566E-21        -0.55879E-20         0.00000E+00
   -0.46566E-21        -0.37253E-20         0.00000E+00
   -0.13970E-20         0.74506E-20         0.00000E+00
   -0.18626E-20         0.74506E-20         0.00000E+00
   -0.23283E-21        -0.27376E-21         0.00000E+00
    0.69849E-21        -0.27376E-21         0.00000E+00
    0.00000E+00         0.42728E-20         0.00000E+00
    0.00000E+00         0.16764E-19         0.00000E+00
    0.93132E-21         0.14627E-19         0.00000E+00
    0.59063E-21         0.21364E-20         0.00000E+00
   -0.23283E-21        -0.39990E-20         0.00000E+00
    0.46566E-21        -0.11176E-19         0.00000E+00
    0.25611E-20        -0.14627E-19         0.00000E+00
    0.40831E-20        -0.22352E-19         0.00000E+00
    0.51223E-20        -0.26077E-19         0.00000E+00
    0.53551E-20        -0.26077E-19         0.00000E+00
    0.39581E-20        -0.22625E-19         0.00000E+00
    0.32057E-20        -0.18626E-19         0.00000E+00
    0.27400E-20        -0.25803E-19         0.00000E+00
    0.27940E-20        -0.26077E-19         0.00000E+00
    0.18626E-20        -0.14901E-19         0.00000E+00
    0.14338E-21        -0.37253E-20         0.00000E+00
   -0.12536E-20        -0.37253E-20         0.00000E+00
   -0.11642E-20         0.00000E+00         0.00000E+00
   -0.19567E-20         0.37253E-20         0.00000E+00
   -0.18626E-20         0.00000E+00         0.00000E+00
    0.93132E-21         0.31778E-20         0.00000E+00
    0.93132E-21         0.55879E-20         0.00000E+00
   -0.34220E-22         0.58617E-20         0.00000E+00
   -0.49988E-21         0.55879E-20         0.00000E+00
   -0.16298E-20        -0.95870E-20         0.00000E+00
   -0.23283E-20        -0.27940E-19         0.00000E+00
   -0.21297E-20        -0.33254E-19         0.00000E+00
   -0.14654E-20        -0.40978E-19         0.00000E+00
   -0.93132E-21        -0.39116E-19         0.00000E+00
   -0.14654E-20        -0.29802E-19         0.00000E+00
   -0.96554E-21        -0.27940E-19         0.00000E+00
   -0.28282E-20        -0.20489E-19         0.00000E+00
   -0.14312E-20        -0.13039E-19         0.00000E+00
   -0.18626E-20        -0.55879E-20         0.00000E+00
   -0.46566E-21         0.18626E-20         0.00000E+00
   -0.96554E-21         0.74506E-20         0.00000E+00
    0.43144E-21         0.74506E-20         0.00000E+00
    0.18284E-20         0.53142E-20         0.00000E+00
    0.14141E-20         0.71768E-20         0.00000E+00
    0.23283E-20         0.21364E-20         0.00000E+00
    0.29926E-20        -0.90395E-20         0.00000E+00
    0.25611E-20        -0.14901E-19         0.00000E+00
    0.13970E-20        -0.16764E-19         0.00000E+00
    0.16127E-20        -0.16764E-19         0.00000E+00
    0.13799E-20         0.00000E+00         0.00000E+00
    0.18284E-20         0.37253E-20         0.00000E+00
    0.11642E-20         0.00000E+00         0.00000E+00
    0.18626E-20         0.13039E-19         0.00000E+00
    0.23283E-20         0.74506E-20         0.00000E+00
    0.21572E-21        -0.93132E-20         0.00000E+00
    0.16127E-20        -0.74506E-20         0.00000E+00
    0.13970E-20         0.37253E-20         0.00000E+00
    0.91421E-21         0.93132E-20         0.00000E+00
    0.18626E-20         0.93132E-20         0.00000E+00
    0.11642E-20         0.13039E-19         0.00000E+00
    0.17377E-20         0.74506E-20         0.00000E+00
    0.24362E-20        -0.55879E-20         0.00000E+00
    0.19705E-20        -0.18626E-19         0.00000E+00
    0.25440E-20        -0.24214E-19         0.00000E+00
    0.13970E-20        -0.24214E-19         0.00000E+00
    0.10392E-20        -0.29802E-19         0.00000E+00
    0.11470E-20        -0.24488E-19         0.00000E+00
    0.19705E-20        -0.22352E-19         0.00000E+00
    0.30807E-20        -0.33254E-19         0.00000E+00
    0.25611E-20        -0.28213E-19         0.00000E+00
    0.23283E-20        -0.11176E-19         0.00000E+00
    0.13075E-20        -0.34515E-20         0.00000E+00
    0.13970E-20        -0.18626E-20         0.00000E+00
    0.37621E-21         0.34515E-20         0.00000E+00
    0.79254E-21         0.37253E-20         0.00000E+00
    0.00000E+00         0.54752E-21         0.00000E+00
    0.41910E-20         0.74506E-20         0.00000E+00
    0.41910E-20         0.93132E-20         0.00000E+00
    0.37595E-20         0.55879E-20         0.00000E+00
    0.42252E-20         0.00000E+00         0.00000E+00
    0.60194E-20        -0.27376E-21         0.00000E+00
    0.74506E-20        -0.14901E-19         0.00000E+00
    0.78820E-20        -0.36979E-19         0.00000E+00
    0.74506E-20        -0.40978E-19         0.00000E+00
    0.69507E-20        -0.33528E-19         0.00000E+00
    0.65193E-20        -0.26077E-19         0.00000E+00
    0.60536E-20        -0.18626E-19         0.00000E+00
    0.69849E-20        -0.74506E-20         0.00000E+00
    0.60536E-20        -0.74506E-20         0.00000E+00
    0.69849E-20        -0.13039E-19         0.00000E+00
    0.51223E-20        -0.74506E-20         0.00000E+00
    0.51223E-20         0.18626E-20         0.00000E+00
    0.46908E-20         0.37253E-20         0.00000E+00
    0.27940E-20         0.37253E-20         0.00000E+00
    0.20784E-20         0.74506E-20         0.00000E+00
    0.46566E-21         0.00000E+00         0.00000E+00
    0.48277E-21        -0.93132E-20         0.00000E+00
    0.44855E-21        -0.74506E-20         0.00000E+00
    0.89710E-21        -0.11176E-19         0.00000E+00
    0.93132E-21        -0.11176E-19         0.00000E+00
    0.13799E-20        -0.55879E-20         0.00000E+00
    0.21126E-20        -0.37253E-20         0.00000E+00
    0.16127E-20        -0.55879E-20         0.00000E+00
    0.23283E-20         0.00000E+00         0.00000E+00
    0.32596E-20         0.13039E-19         0.00000E+00
    0.23283E-20         0.37253E-20         0.00000E+00
    0.13970E-20        -0.37253E-20         0.00000E+00
    0.93132E-21         0.74506E-20         0.00000E+00
    0.48277E-21         0.14901E-19         0.00000E+00
   -0.93132E-21         0.11176E-19         0.00000E+00
   -0.94843E-21         0.37253E-20         0.00000E+00
    0.93132E-21        -0.74506E-20         0.00000E+00
    0.46566E-21        -0.11176E-19         0.00000E+00
   -0.15220E-20        -0.14901E-19         0.00000E+00
   -0.27940E-20        -0.22352E-19         0.00000E+00
   -0.27940E-20        -0.20489E-19         0.00000E+00
   -0.31347E-20        -0.24214E-19         0.00000E+00
   -0.40660E-20        -0.26077E-19         0.00000E+00
   -0.48894E-20        -0.27940E-19         0.00000E+00
   -0.74506E-20        -0.31939E-19         0.00000E+00
   -0.90265E-20        -0.22352E-19         0.00000E+00
   -0.69849E-20        -0.71768E-20         0.00000E+00
   -0.60536E-20        -0.27376E-21         0.00000E+00
   -0.55879E-20         0.15889E-20         0.00000E+00
   -0.34925E-20         0.37253E-20         0.00000E+00
   -0.34925E-20         0.39990E-20         0.00000E+00
   -0.27940E-20         0.42728E-20         0.00000E+00
    0.37253E-20         0.69031E-20         0.00000E+00
    0.41910E-20         0.74506E-20         0.00000E+00
    0.60536E-20         0.39990E-20         0.00000E+00
    0.60536E-20        -0.74506E-20         0.00000E+00
    0.56222E-20        -0.26351E-19         0.00000E+00
    0.60194E-20        -0.37253E-19         0.00000E+00
    0.55879E-20        -0.33528E-19         0.00000E+00
    0.37595E-20        -0.33528E-19         0.00000E+00
    0.37253E-20        -0.33528E-19         0.00000E+00
    0.51565E-20        -0.26077E-19         0.00000E+00
    0.55879E-20        -0.29802E-19         0.00000E+00
    0.55879E-20        -0.22352E-19         0.00000E+00
    0.65193E-20        -0.14627E-19         0.00000E+00
    0.65193E-20         0.00000E+00         0.00000E+00
    0.55879E-20         0.13039E-19         0.00000E+00
    0.60536E-20         0.11176E-19         0.00000E+00
    0.48552E-20         0.16764E-19         0.00000E+00
    0.37253E-20         0.18626E-19         0.00000E+00
    0.23283E-20         0.18353E-19         0.00000E+00
    0.93132E-21         0.74506E-20         0.00000E+00
   -0.93132E-21        -0.71768E-20         0.00000E+00
    0.24994E-21        -0.14901E-19         0.00000E+00
    0.13970E-20        -0.18626E-19         0.00000E+00
    0.30268E-20        -0.18626E-19         0.00000E+00
    0.32596E-20        -0.74506E-20         0.00000E+00
    0.39581E-20         0.00000E+00         0.00000E+00
    0.51223E-20         0.00000E+00         0.00000E+00
    0.41910E-20         0.74506E-20         0.00000E+00
    0.23283E-20         0.74506E-20         0.00000E+00
    0.93132E-21         0.00000E+00         0.00000E+00
   -0.93132E-21         0.00000E+00         0.00000E+00
   -0.14141E-20         0.55879E-20         0.00000E+00
   -0.18798E-20         0.18626E-19         0.00000E+00
   -0.18626E-20         0.16764E-19         0.00000E+00
   -0.18626E-20         0.37253E-20         0.00000E+00
   -0.27940E-20         0.18626E-20         0.00000E+00
   -0.41910E-20         0.55879E-20         0.00000E+00
   -0.44238E-20        -0.18626E-20         0.00000E+00
   -0.69849E-20        -0.16764E-19         0.00000E+00
   -0.93132E-20        -0.22352E-19         0.00000E+00
   -0.93132E-20        -0.26077E-19         0.00000E+00
   -0.97789E-20        -0.16764E-19         0.00000E+00
   -0.10298E-19        -0.58617E-20         0.00000E+00
   -0.10710E-19        -0.13039E-19         0.00000E+00
   -0.10012E-19        -0.25803E-19         0.00000E+00
   -0.93132E-20        -0.24214E-19         0.00000E+00
   -0.79162E-20        -0.13312E-19         0.00000E+00
   -0.65193E-20        -0.14901E-19         0.00000E+00
   -0.41910E-20        -0.71768E-20         0.00000E+00
   -0.33984E-20        -0.18626E-20         0.00000E+00
   -0.32596E-20        -0.74506E-20         0.00000E+00
   -0.13970E-20        -0.54752E-21         0.00000E+00
   -0.18626E-20        -0.21364E-20         0.00000E+00
   -0.13970E-20        -0.18626E-20         0.00000E+00
   -0.13970E-20         0.39990E-20         0.00000E+00
   -0.23283E-20         0.00000E+00         0.00000E+00
   -0.50881E-20        -0.16764E-19         0.00000E+00
   -0.60194E-20        -0.26077E-19         0.00000E+00
   -0.51223E-20        -0.31939E-19         0.00000E+00
   -0.60194E-20        -0.40704E-19         0.00000E+00
   -0.55879E-20        -0.35116E-19         0.00000E+00
   -0.46224E-20        -0.22352E-19         0.00000E+00
   -0.60536E-20        -0.13312E-19         0.00000E+00
   -0.65193E-20        -0.11176E-19         0.00000E+00
   -0.65193E-20        -0.71768E-20         0.00000E+00
   -0.37253E-20        -0.37253E-20         0.00000E+00
   -0.37253E-20         0.34515E-20         0.00000E+00
   -0.22941E-20         0.14901E-19         0.00000E+00
   -0.15956E-20         0.18626E-19         0.00000E+00
   -0.93132E-21         0.22078E-19         0.00000E+00
   -0.46566E-21         0.15175E-19         0.00000E+00
    0.00000E+00        -0.71768E-20         0.00000E+00
    0.46566E-21        -0.18626E-19         0.00000E+00
    0.23625E-20        -0.22352E-19         0.00000E+00
    0.28111E-20        -0.20489E-19         0.00000E+00
    0.28282E-20        -0.11176E-19         0.00000E+00
    0.25782E-20        -0.13039E-19         0.00000E+00
    0.25611E-20        -0.74506E-20         0.00000E+00
    0.46566E-21         0.13039E-19         0.00000E+00
    0.00000E+00         0.29529E-19         0.00000E+00
   -0.46566E-21         0.20489E-19         0.00000E+00
    0.23283E-21         0.74506E-20         0.00000E+00
    0.24994E-21         0.13039E-19         0.00000E+00
   -0.68138E-21         0.16764E-19         0.00000E+00
    0.00000E+00         0.11176E-19         0.00000E+00
   -0.91421E-21         0.95870E-20         0.00000E+00
   -0.12720E-20         0.34515E-20         0.00000E+00
   -0.13970E-20        -0.39990E-20         0.00000E+00
   -0.20784E-20        -0.18626E-20         0.00000E+00
   -0.32596E-20         0.21364E-20         0.00000E+00
   -0.37253E-20        -0.71768E-20         0.00000E+00
   -0.37253E-20        -0.22352E-19         0.00000E+00
   -0.37253E-20        -0.22352E-19         0.00000E+00
   -0.26151E-20        -0.24214E-19         0.00000E+00
    0.00000E+00        -0.33528E-19         0.00000E+00
    0.18087E-20        -0.27940E-19         0.00000E+00
    0.00000E+00        -0.16106E-19         0.00000E+00
    0.55511E-21        -0.13039E-19         0.00000E+00
    0.00000E+00        -0.16764E-19         0.00000E+00
   -0.15404E-20        -0.12381E-19         0.00000E+00
   -0.21895E-20        -0.15889E-20         0.00000E+00
   -0.27940E-20         0.42728E-20         0.00000E+00
    0.46566E-21         0.79981E-20         0.00000E+00
    0.00000E+00         0.74506E-20         0.00000E+00
   -0.13970E-20         0.34515E-20         0.00000E+00
   -0.13970E-20        -0.34515E-20         0.00000E+00
   -0.18626E-20        -0.74506E-20         0.00000E+00
   -0.46566E-21        -0.18900E-19         0.00000E+00
   -0.89710E-21        -0.35390E-19         0.00000E+00
   -0.13970E-20        -0.33528E-19         0.00000E+00
   -0.23283E-20        -0.29529E-19         0.00000E+00
   -0.51223E-20        -0.33254E-19         0.00000E+00
   -0.70191E-20        -0.30076E-19         0.00000E+00
   -0.60194E-20        -0.11176E-19         0.00000E+00
   -0.65193E-20        -0.93132E-20         0.00000E+00
   -0.79162E-20        -0.13039E-19         0.00000E+00
   -0.88476E-20        -0.34515E-20         0.00000E+00
   -0.97789E-20         0.00000E+00         0.00000E+00
   -0.97789E-20         0.74506E-20         0.00000E+00
   -0.74506E-20         0.12765E-19         0.00000E+00
   -0.65193E-20         0.14627E-19         0.00000E+00
   -0.41910E-20         0.37253E-20         0.00000E+00
   -0.27940E-20        -0.14627E-19         0.00000E+00
   -0.37253E-20        -0.25803E-19         0.00000E+00
   -0.41910E-20        -0.29802E-19         0.00000E+00
   -0.37424E-20        -0.22352E-19         0.00000E+00
   -0.37424E-20        -0.77243E-20         0.00000E+00
   -0.51223E-20         0.37253E-20         0.00000E+00
   -0.53380E-20         0.11450E-19         0.00000E+00
   -0.55879E-20         0.18626E-19         0.00000E+00
   -0.55879E-20         0.11176E-19         0.00000E+00
   -0.39581E-20        -0.37253E-20         0.00000E+00
   -0.44067E-20        -0.37253E-20         0.00000E+00
   -0.46566E-20         0.13039E-19         0.00000E+00
   -0.32596E-20         0.22352E-19         0.00000E+00
   -0.18626E-20         0.16490E-19         0.00000E+00
   -0.93132E-21         0.74506E-20         0.00000E+00
    0.00000E+00         0.58617E-20         0.00000E+00
    0.00000E+00         0.12765E-19         0.00000E+00
   -0.12497E-21         0.55879E-20         0.00000E+00
   -0.46566E-21        -0.93132E-20         0.00000E+00
    0.46566E-21        -0.18626E-19         0.00000E+00
    0.00000E+00        -0.26077E-19         0.00000E+00
    0.93132E-21        -0.24214E-19         0.00000E+00
    0.93132E-21        -0.23941E-19         0.00000E+00
    0.23283E-21        -0.31939E-19         0.00000E+00
    0.75242E-21        -0.27940E-19         0.00000E+00
    0.18626E-20        -0.20215E-19         0.00000E+00
    0.17732E-20        -0.11450E-19         0.00000E+00
    0.20955E-20        -0.18626E-20         0.00000E+00
    0.65377E-21         0.39990E-20         0.00000E+00
   -0.46566E-21         0.34515E-20         0.00000E+00
    0.00000E+00        -0.54752E-21         0.00000E+00
    0.37253E-20         0.37253E-20         0.00000E+00
    0.46566E-20         0.77243E-20         0.00000E+00
    0.50881E-20         0.55879E-20         0.00000E+00
    0.51223E-20         0.34515E-20         0.00000E+00
    0.46566E-20        -0.55879E-20         0.00000E+00
    0.27940E-20        -0.20489E-19         0.00000E+00
    0.18626E-20        -0.20489E-19         0.00000E+00
    0.00000E+00        -0.23941E-19         0.00000E+00
   -0.93132E-21        -0.22352E-19         0.00000E+00
   -0.93132E-21        -0.13039E-19         0.00000E+00
   -0.27597E-20        -0.18353E-19         0.00000E+00
   -0.32938E-20        -0.13039E-19         0.00000E+00
   -0.36911E-20        -0.18626E-20         0.00000E+00
   -0.55879E-20         0.37253E-20         0.00000E+00
   -0.74506E-20         0.53142E-20         0.00000E+00
   -0.79162E-20         0.55879E-20         0.00000E+00
   -0.93132E-20         0.37253E-20         0.00000E+00
   -0.88818E-20         0.34515E-20         0.00000E+00
   -0.83648E-20         0.55879E-20         0.00000E+00
   -0.83819E-20        -0.18626E-20         0.00000E+00
   -0.74506E-20        -0.90395E-20         0.00000E+00
   -0.65193E-20        -0.10902E-19         0.00000E+00
   -0.69849E-20        -0.22352E-19         0.00000E+00
   -0.74335E-20        -0.24214E-19         0.00000E+00
   -0.60536E-20        -0.58617E-20         0.00000E+00
   -0.55879E-20        -0.55879E-20         0.00000E+00
   -0.55879E-20        -0.34515E-20         0.00000E+00
   -0.27940E-20         0.14627E-19         0.00000E+00
   -0.32596E-20         0.20489E-19         0.00000E+00
   -0.37082E-20         0.14901E-19         0.00000E+00
   -0.35096E-20         0.11176E-19         0.00000E+00
   -0.23283E-20         0.77243E-20         0.00000E+00
   -0.13970E-20         0.34515E-20         0.00000E+00
   -0.18626E-20        -0.18626E-20         0.00000E+00
   -0.16298E-20         0.27376E-21         0.00000E+00
   -0.27940E-20        -0.27376E-21         0.00000E+00
   -0.33675E-20        -0.37253E-20         0.00000E+00
   -0.20955E-20        -0.18626E-20         0.00000E+00
   -0.18626E-20        -0.27376E-21         0.00000E+00
   -0.18626E-20        -0.71768E-20         0.00000E+00
   -0.18626E-20        -0.24214E-19         0.00000E+00
   -0.93132E-21        -0.26351E-19         0.00000E+00
   -0.17890E-21        -0.22352E-19         0.00000E+00
    0.64456E-21        -0.31391E-19         0.00000E+00
    0.16298E-20        -0.35116E-19         0.00000E+00
    0.27940E-20        -0.22352E-19         0.00000E+00
    0.37253E-20        -0.15175E-19         0.00000E+00
    0.46566E-20        -0.11176E-19         0.00000E+00
    0.74059E-20        -0.13166E-34         0.00000E+00
    0.83819E-20         0.15889E-20         0.00000E+00
    0.74506E-20         0.00000E+00         0.00000E+00
   -0.32596E-20         0.00000E+00         0.00000E+00
   -0.32596E-20         0.00000E+00         0.00000E+00
   -0.27597E-20         0.27376E-21         0.00000E+00
   -0.27940E-20         0.00000E+00         0.00000E+00
   -0.23283E-20         0.34515E-20         0.00000E+00
   -0.32596E-20        -0.37253E-20         0.00000E+00
   -0.27940E-20        -0.20489E-19         0.00000E+00
   -0.22941E-20        -0.24214E-19         0.00000E+00
   -0.27940E-20        -0.24214E-19         0.00000E+00
   -0.23283E-20        -0.20489E-19         0.00000E+00
   -0.93132E-21        -0.18353E-19         0.00000E+00
   -0.13970E-20        -0.74506E-20         0.00000E+00
   -0.13970E-20        -0.27376E-21         0.00000E+00
   -0.93132E-21         0.39990E-20         0.00000E+00
    0.00000E+00         0.11176E-19         0.00000E+00
    0.00000E+00         0.11176E-19         0.00000E+00
   -0.46566E-21         0.13312E-19         0.00000E+00
   -0.22941E-20         0.71768E-20         0.00000E+00
   -0.30268E-20         0.90395E-20         0.00000E+00
   -0.41910E-20         0.00000E+00         0.00000E+00
   -0.37253E-20        -0.22352E-19         0.00000E+00
   -0.23283E-20        -0.29529E-19         0.00000E+00
   -0.11642E-20        -0.25803E-19         0.00000E+00
   -0.14141E-20        -0.24214E-19         0.00000E+00
   -0.13799E-20        -0.17038E-19         0.00000E+00
   -0.93132E-21         0.00000E+00         0.00000E+00
   -0.18626E-20        -0.15889E-20         0.00000E+00
   -0.13970E-20         0.55879E-20         0.00000E+00
    0.00000E+00         0.13039E-19         0.00000E+00
    0.91421E-21        -0.21364E-20         0.00000E+00
    0.32596E-20        -0.95870E-20         0.00000E+00
    0.51223E-20         0.21364E-20         0.00000E+00
    0.39581E-20         0.18626E-19         0.00000E+00
    0.18626E-20         0.18626E-19         0.00000E+00
    0.17377E-20         0.14901E-19         0.00000E+00
    0.13970E-20         0.14627E-19         0.00000E+00
    0.80635E-21         0.74506E-20         0.00000E+00
    0.12891E-20        -0.34515E-20         0.00000E+00
    0.13970E-20        -0.10902E-19         0.00000E+00
    0.18626E-20        -0.18900E-19         0.00000E+00
    0.18626E-20        -0.30076E-19         0.00000E+00
    0.18626E-20        -0.29529E-19         0.00000E+00
    0.20955E-20        -0.29529E-19         0.00000E+00
    0.33136E-20        -0.40978E-19         0.00000E+00
    0.47105E-20        -0.39389E-19         0.00000E+00
    0.46566E-20        -0.30076E-19         0.00000E+00
    0.60536E-20        -0.20489E-19         0.00000E+00
    0.53551E-20        -0.22352E-19         0.00000E+00
    0.56327E-20        -0.14901E-19         0.00000E+00
    0.55879E-20         0.18626E-20         0.00000E+00
    0.51223E-20         0.37253E-20         0.00000E+00
   -0.23283E-20         0.37253E-20         0.00000E+00
   -0.27940E-20         0.39990E-20         0.00000E+00
   -0.37253E-20         0.39990E-20         0.00000E+00
   -0.46566E-20         0.34515E-20         0.00000E+00
   -0.55879E-20        -0.39990E-20         0.00000E+00
   -0.37253E-20        -0.16490E-19         0.00000E+00
   -0.33281E-20        -0.25803E-19         0.00000E+00
   -0.32938E-20        -0.28213E-19         0.00000E+00
   -0.18626E-20        -0.22625E-19         0.00000E+00
   -0.93132E-21        -0.20489E-19         0.00000E+00
   -0.13970E-20        -0.22352E-19         0.00000E+00
   -0.18284E-20        -0.11176E-19         0.00000E+00
   -0.96554E-21        -0.55879E-20         0.00000E+00
    0.00000E+00        -0.37253E-20         0.00000E+00
    0.13970E-20         0.18626E-20         0.00000E+00
    0.23283E-20         0.74506E-20         0.00000E+00
    0.18626E-20         0.16764E-19         0.00000E+00
    0.27597E-20         0.16764E-19         0.00000E+00
    0.18455E-20         0.12765E-19         0.00000E+00
    0.93132E-21         0.18626E-20         0.00000E+00
    0.00000E+00        -0.18353E-19         0.00000E+00
   -0.93132E-21        -0.26077E-19         0.00000E+00
   -0.30439E-20        -0.26077E-19         0.00000E+00
   -0.39410E-20        -0.20215E-19         0.00000E+00
   -0.51394E-20        -0.74506E-20         0.00000E+00
   -0.55879E-20        -0.58617E-20         0.00000E+00
   -0.51223E-20        -0.37253E-20         0.00000E+00
   -0.51223E-20         0.74506E-20         0.00000E+00
   -0.37253E-20         0.93132E-20         0.00000E+00
   -0.16127E-20        -0.18626E-20         0.00000E+00
    0.00000E+00        -0.93132E-20         0.00000E+00
    0.00000E+00         0.18626E-20         0.00000E+00
   -0.24994E-21         0.18626E-19         0.00000E+00
    0.00000E+00         0.11176E-19         0.00000E+00
    0.10563E-20         0.37253E-20         0.00000E+00
    0.19876E-20         0.53142E-20         0.00000E+00
    0.27940E-20        -0.18626E-20         0.00000E+00
    0.26690E-20        -0.53142E-20         0.00000E+00
    0.30268E-20        -0.55879E-20         0.00000E+00
    0.37253E-20        -0.93132E-20         0.00000E+00
    0.37253E-20        -0.22625E-19         0.00000E+00
    0.34925E-20        -0.26077E-19         0.00000E+00
    0.25072E-20        -0.29255E-19         0.00000E+00
    0.11642E-20        -0.44703E-19         0.00000E+00
   -0.34069E-21        -0.41252E-19         0.00000E+00
   -0.46566E-21        -0.29802E-19         0.00000E+00
   -0.30268E-20        -0.18353E-19         0.00000E+00
   -0.27940E-20        -0.93132E-20         0.00000E+00
   -0.44238E-20        -0.21364E-20         0.00000E+00
   -0.41910E-20         0.37253E-20         0.00000E+00
   -0.37253E-20         0.37253E-20         0.00000E+00
   -0.46566E-20         0.37253E-20         0.00000E+00
   -0.46566E-20         0.74506E-20         0.00000E+00
   -0.55879E-20         0.93132E-20         0.00000E+00
   -0.55879E-20         0.95870E-20         0.00000E+00
   -0.69849E-20         0.18626E-20         0.00000E+00
   -0.60536E-20        -0.15175E-19         0.00000E+00
   -0.46224E-20        -0.24488E-19         0.00000E+00
   -0.36911E-20        -0.31665E-19         0.00000E+00
   -0.32596E-20        -0.36979E-19         0.00000E+00
   -0.27940E-20        -0.24214E-19         0.00000E+00
   -0.32596E-20        -0.14901E-19         0.00000E+00
   -0.37253E-20        -0.93132E-20         0.00000E+00
   -0.32254E-20        -0.74506E-20         0.00000E+00
   -0.34582E-20        -0.53142E-20         0.00000E+00
   -0.27597E-20        -0.18626E-20         0.00000E+00
   -0.37253E-20         0.71768E-20         0.00000E+00
   -0.23283E-20         0.13039E-19         0.00000E+00
   -0.43144E-21         0.93132E-20         0.00000E+00
   -0.16127E-20         0.18626E-19         0.00000E+00
   -0.46566E-21         0.74506E-20         0.00000E+00
   -0.93132E-21        -0.14901E-19         0.00000E+00
   -0.18626E-20        -0.12765E-19         0.00000E+00
   -0.25440E-20        -0.11176E-19         0.00000E+00
   -0.23283E-20        -0.16764E-19         0.00000E+00
   -0.20955E-20        -0.74506E-20         0.00000E+00
   -0.93132E-21        -0.23825E-33         0.00000E+00
   -0.46566E-21        -0.53142E-20         0.00000E+00
   -0.93132E-21        -0.27376E-21         0.00000E+00
   -0.46566E-21        -0.21364E-20         0.00000E+00
   -0.13970E-20        -0.20489E-19         0.00000E+00
   -0.13970E-20        -0.16764E-19         0.00000E+00
   -0.25611E-20         0.39990E-20         0.00000E+00
   -0.20784E-20         0.17038E-19         0.00000E+00
   -0.46566E-21         0.12765E-19         0.00000E+00
   -0.13970E-20         0.34515E-20         0.00000E+00
   -0.13970E-20         0.37253E-20         0.00000E+00
   -0.93132E-21         0.37253E-20         0.00000E+00
   -0.93132E-21        -0.37253E-20         0.00000E+00
   -0.57352E-21        -0.16764E-19         0.00000E+00
   -0.13970E-20        -0.22352E-19         0.00000E+00
   -0.93132E-21        -0.24214E-19         0.00000E+00
    0.35780E-21        -0.24214E-19         0.00000E+00
    0.00000E+00        -0.22625E-19         0.00000E+00
   -0.14509E-20        -0.29529E-19         0.00000E+00
   -0.37253E-20        -0.31391E-19         0.00000E+00
   -0.37253E-20        -0.13312E-19         0.00000E+00
   -0.44777E-20        -0.81081E-20         0.00000E+00
   -0.48000E-20        -0.13970E-19         0.00000E+00
   -0.48447E-20        -0.95870E-20         0.00000E+00
   -0.32596E-20        -0.18626E-20         0.00000E+00
   -0.27940E-20         0.00000E+00         0.00000E+00
   -0.41910E-20         0.74506E-20         0.00000E+00
   -0.37253E-20         0.93132E-20         0.00000E+00
   -0.37253E-20         0.74506E-20         0.00000E+00
   -0.27940E-20         0.93132E-20         0.00000E+00
   -0.93132E-21        -0.18626E-20         0.00000E+00
   -0.13970E-20        -0.26077E-19         0.00000E+00
   -0.19861E-21        -0.37253E-19         0.00000E+00
   -0.34220E-22        -0.35664E-19         0.00000E+00
   -0.43144E-21        -0.27940E-19         0.00000E+00
   -0.93132E-21        -0.21804E-19         0.00000E+00
    0.00000E+00        -0.18353E-19         0.00000E+00
    0.00000E+00        -0.11450E-19         0.00000E+00
    0.00000E+00        -0.58617E-20         0.00000E+00
   -0.93132E-21        -0.37253E-20         0.00000E+00
   -0.14312E-20         0.37253E-20         0.00000E+00
   -0.93132E-21         0.37253E-20         0.00000E+00
    0.00000E+00         0.00000E+00         0.00000E+00
    0.00000E+00         0.11176E-19         0.00000E+00
    0.23283E-21         0.14901E-19         0.00000E+00
    0.25611E-20         0.00000E+00         0.00000E+00
    0.23283E-20        -0.13039E-19         0.00000E+00
    0.14141E-20        -0.18626E-19         0.00000E+00
    0.37253E-20        -0.24214E-19         0.00000E+00
    0.37253E-20        -0.22352E-19         0.00000E+00
    0.37424E-20        -0.15175E-19         0.00000E+00
    0.41910E-20        -0.11176E-19         0.00000E+00
    0.51223E-20        -0.34515E-20         0.00000E+00
    0.37253E-20         0.74506E-20         0.00000E+00
    0.13970E-20         0.13039E-19         0.00000E+00
   -0.13970E-20         0.18626E-20         0.00000E+00
   -0.44067E-20        -0.18626E-20         0.00000E+00
   -0.41738E-20         0.58617E-20         0.00000E+00
   -0.32596E-20         0.74506E-20         0.00000E+00
   -0.23283E-20         0.71768E-20         0.00000E+00
   -0.23283E-20         0.74506E-20         0.00000E+00
   -0.13970E-20         0.18626E-20         0.00000E+00
   -0.13970E-20        -0.55879E-20         0.00000E+00
   -0.24362E-20        -0.55879E-20         0.00000E+00
   -0.22033E-20        -0.18626E-20         0.00000E+00
   -0.23283E-20        -0.74506E-20         0.00000E+00
   -0.27940E-20        -0.29802E-19         0.00000E+00
   -0.36174E-20        -0.33801E-19         0.00000E+00
   -0.46566E-20        -0.22352E-19         0.00000E+00
   -0.39042E-20        -0.27666E-19         0.00000E+00
   -0.27940E-20        -0.29802E-19         0.00000E+00
   -0.20955E-20        -0.22352E-19         0.00000E+00
   -0.11102E-20        -0.13039E-19         0.00000E+00
   -0.14864E-20        -0.93132E-20         0.00000E+00
   -0.93132E-21        -0.93132E-20         0.00000E+00
    0.00000E+00        -0.39990E-20         0.00000E+00
    0.00000E+00        -0.54752E-21         0.00000E+00
    0.27940E-20         0.00000E+00         0.00000E+00
    0.23283E-20         0.37253E-20         0.00000E+00
    0.23283E-20         0.37253E-20         0.00000E+00
    0.93132E-21        -0.37253E-20         0.00000E+00
    0.93132E-21        -0.77243E-20         0.00000E+00
   -0.13970E-20        -0.18626E-19         0.00000E+00
   -0.27940E-20        -0.29529E-19         0.00000E+00
   -0.36911E-20        -0.29529E-19         0.00000E+00
   -0.41910E-20        -0.33528E-19         0.00000E+00
   -0.46566E-20        -0.26077E-19         0.00000E+00
   -0.39923E-20        -0.18626E-19         0.00000E+00
   -0.27940E-20        -0.11450E-19         0.00000E+00
   -0.23625E-20        -0.37253E-20         0.00000E+00
   -0.13970E-20         0.00000E+00         0.00000E+00
   -0.18284E-20         0.00000E+00         0.00000E+00
    0.46566E-21         0.15889E-20         0.00000E+00
   -0.43144E-21         0.74506E-20         0.00000E+00
   -0.23283E-20         0.55879E-20         0.00000E+00
   -0.16127E-20         0.55879E-20         0.00000E+00
   -0.27769E-20         0.27376E-21         0.00000E+00
   -0.18626E-20        -0.93132E-20         0.00000E+00
   -0.24994E-21        -0.20489E-19         0.00000E+00
   -0.46566E-21        -0.22352E-19         0.00000E+00
   -0.93132E-21        -0.16764E-19         0.00000E+00
   -0.94843E-21        -0.95870E-20         0.00000E+00
   -0.93132E-21        -0.71768E-20         0.00000E+00
   -0.23283E-20        -0.71768E-20         0.00000E+00
   -0.32596E-20         0.18353E-19         0.00000E+00
   -0.32596E-20         0.26077E-19         0.00000E+00
   -0.23283E-20         0.74506E-20         0.00000E+00
   -0.18626E-20        -0.37253E-20         0.00000E+00
   -0.11642E-20         0.00000E+00         0.00000E+00
   -0.13970E-20         0.93132E-20         0.00000E+00
   -0.93132E-21         0.71768E-20         0.00000E+00
    0.46566E-21        -0.18626E-20         0.00000E+00
    0.69849E-21         0.27376E-21         0.00000E+00
    0.13970E-20         0.74506E-20         0.00000E+00
    0.15048E-20        -0.18626E-20         0.00000E+00
    0.16298E-20        -0.14901E-19         0.00000E+00
    0.13970E-20        -0.16764E-19         0.00000E+00
    0.23283E-20        -0.18626E-19         0.00000E+00
    0.12497E-21        -0.16764E-19         0.00000E+00
    0.93132E-21        -0.22352E-19         0.00000E+00
    0.13431E-20        -0.39389E-19         0.00000E+00
    0.13970E-20        -0.37253E-19         0.00000E+00
    0.13431E-20        -0.22736E-19         0.00000E+00
    0.24178E-20        -0.10245E-19         0.00000E+00
    0.33491E-20        -0.15175E-19         0.00000E+00
    0.37253E-20        -0.16764E-19         0.00000E+00
    0.27940E-20        -0.39990E-20         0.00000E+00
    0.32596E-20         0.31778E-20         0.00000E+00
    0.37253E-20         0.11176E-19         0.00000E+00
    0.37253E-20         0.11176E-19         0.00000E+00
    0.37253E-20         0.12765E-19         0.00000E+00
    0.37253E-20         0.16490E-19         0.00000E+00
    0.27940E-20         0.11176E-19         0.00000E+00
    0.32596E-20        -0.93132E-20         0.00000E+00
    0.46566E-21        -0.25803E-19         0.00000E+00
   -0.93132E-21        -0.25530E-19         0.00000E+00
   -0.18969E-20        -0.22078E-19         0.00000E+00
   -0.37253E-20        -0.26351E-19         0.00000E+00
   -0.46224E-20        -0.28213E-19         0.00000E+00
   -0.51565E-20        -0.18626E-19         0.00000E+00
   -0.50881E-20        -0.14901E-19         0.00000E+00
   -0.51565E-20        -0.71768E-20         0.00000E+00
   -0.46566E-20        -0.37253E-20         0.00000E+00
   -0.51223E-20        -0.27376E-21         0.00000E+00
   -0.56222E-20         0.14901E-19         0.00000E+00
   -0.41910E-20         0.18353E-19         0.00000E+00
   -0.35096E-20         0.14901E-19         0.00000E+00
   -0.44409E-20         0.27376E-21         0.00000E+00
   -0.44067E-20        -0.22352E-19         0.00000E+00
   -0.41910E-20        -0.26077E-19         0.00000E+00
   -0.55708E-20        -0.24488E-19         0.00000E+00
   -0.46566E-20        -0.22352E-19         0.00000E+00
   -0.39410E-20        -0.13039E-19         0.00000E+00
   -0.41910E-20        -0.34515E-20         0.00000E+00
   -0.41910E-20         0.39990E-20         0.00000E+00
   -0.39581E-20         0.10628E-19         0.00000E+00
   -0.13970E-20         0.11176E-19         0.00000E+00
   -0.17110E-22        -0.34515E-20         0.00000E+00
    0.23283E-20        -0.74506E-20         0.00000E+00
    0.20784E-20         0.37253E-20         0.00000E+00
    0.13970E-20         0.37253E-20         0.00000E+00
    0.13970E-20        -0.18626E-20         0.00000E+00
    0.13970E-20         0.00000E+00         0.00000E+00
    0.44855E-21        -0.18626E-20         0.00000E+00
    0.18626E-20        -0.93132E-20         0.00000E+00
    0.36174E-20        -0.74506E-20         0.00000E+00
    0.32425E-20        -0.18626E-20         0.00000E+00
    0.23283E-20        -0.11176E-19         0.00000E+00
    0.27940E-20        -0.26077E-19         0.00000E+00
    0.37253E-20        -0.25803E-19         0.00000E+00
    0.41910E-20        -0.26077E-19         0.00000E+00
    0.35464E-20        -0.31939E-19         0.00000E+00
    0.32596E-20        -0.30076E-19         0.00000E+00
    0.44777E-20        -0.26351E-19         0.00000E+00
    0.46566E-20        -0.22352E-19         0.00000E+00
    0.48894E-20        -0.16490E-19         0.00000E+00
    0.23283E-20        -0.71768E-20         0.00000E+00
    0.18626E-20        -0.21364E-20         0.00000E+00
    0.93132E-21        -0.42728E-20         0.00000E+00
   -0.13970E-20        -0.54752E-21         0.00000E+00
   -0.46566E-21         0.37253E-20         0.00000E+00
    0.00000E+00         0.39990E-20         0.00000E+00
    0.13970E-20         0.00000E+00         0.00000E+00
    0.32596E-20        -0.39990E-20         0.00000E+00
    0.46566E-20        -0.74506E-20         0.00000E+00
    0.36911E-20        -0.90395E-20         0.00000E+00
    0.29926E-20        -0.14901E-19         0.00000E+00
    0.39923E-20        -0.20763E-19         0.00000E+00
    0.51565E-20        -0.14901E-19         0.00000E+00
    0.46224E-20        -0.11176E-19         0.00000E+00
    0.42252E-20        -0.74506E-20         0.00000E+00
    0.23283E-20        -0.34515E-20         0.00000E+00
    0.28282E-20        -0.37253E-20         0.00000E+00
    0.89710E-21         0.00000E+00         0.00000E+00
   -0.46566E-21         0.74506E-20         0.00000E+00
    0.00000E+00         0.18626E-20         0.00000E+00
    0.13970E-20        -0.37253E-20         0.00000E+00
    0.32596E-20         0.71768E-20         0.00000E+00
    0.32767E-20         0.37253E-20         0.00000E+00
    0.18626E-20        -0.90395E-20         0.00000E+00
    0.46566E-21        -0.14901E-19         0.00000E+00
   -0.17110E-22        -0.22352E-19         0.00000E+00
   -0.18626E-20        -0.23941E-19         0.00000E+00
   -0.32596E-20        -0.95870E-20         0.00000E+00
   -0.41910E-20        -0.55879E-20         0.00000E+00
   -0.93132E-21        -0.71768E-20         0.00000E+00
    0.18798E-20         0.34515E-20         0.00000E+00
    0.23283E-20         0.55879E-20         0.00000E+00
    0.14141E-20        -0.11176E-19         0.00000E+00
   -0.93132E-21        -0.14901E-19         0.00000E+00
   -0.69849E-21         0.37253E-20         0.00000E+00
    0.00000E+00         0.13039E-19         0.00000E+00
   -0.46566E-21         0.74506E-20         0.00000E+00
   -0.93132E-21         0.18626E-20         0.00000E+00
    0.93132E-21        -0.21364E-20         0.00000E+00
    0.46566E-21        -0.55879E-20         0.00000E+00
   -0.46566E-21        -0.90395E-20         0.00000E+00
    0.35780E-21        -0.11450E-19         0.00000E+00
    0.25611E-20        -0.13039E-19         0.00000E+00
    0.23283E-20        -0.24214E-19         0.00000E+00
    0.30268E-20        -0.24214E-19         0.00000E+00
    0.27940E-20        -0.18353E-19         0.00000E+00
    0.25611E-20        -0.37253E-19         0.00000E+00
    0.20955E-20        -0.44977E-19         0.00000E+00
    0.15759E-20        -0.26077E-19         0.00000E+00
    0.37621E-21        -0.10902E-19         0.00000E+00
   -0.10208E-20        -0.37253E-20         0.00000E+00
   -0.13970E-20        -0.21364E-20         0.00000E+00
   -0.93132E-21         0.15889E-20         0.00000E+00
   -0.13970E-20         0.74506E-20         0.00000E+00
    0.18626E-20         0.11176E-19         0.00000E+00
    0.13970E-20         0.74506E-20         0.00000E+00
    0.46566E-21         0.15889E-20         0.00000E+00
    0.00000E+00        -0.27376E-21         0.00000E+00
    0.00000E+00        -0.37253E-20         0.00000E+00
    0.00000E+00        -0.10902E-19         0.00000E+00
    0.13970E-20        -0.18626E-19         0.00000E+00
    0.28282E-20        -0.26077E-19         0.00000E+00
    0.36911E-20        -0.33254E-19         0.00000E+00
    0.27597E-20        -0.29802E-19         0.00000E+00
    0.28282E-20        -0.22352E-19         0.00000E+00
    0.37253E-20        -0.74506E-20         0.00000E+00
    0.41567E-20        -0.74506E-20         0.00000E+00
    0.41910E-20        -0.18626E-20         0.00000E+00
    0.60536E-20         0.11176E-19         0.00000E+00
    0.65193E-20         0.55879E-20         0.00000E+00
    0.55879E-20         0.55879E-20         0.00000E+00
    0.32254E-20         0.34515E-20         0.00000E+00
    0.23283E-20         0.53142E-20         0.00000E+00
    0.11470E-20         0.58617E-20         0.00000E+00
    0.23283E-21        -0.74506E-20         0.00000E+00
    0.46566E-21        -0.17038E-19         0.00000E+00
    0.46566E-21        -0.13039E-19         0.00000E+00
    0.00000E+00        -0.50404E-20         0.00000E+00
    0.46566E-21        -0.18626E-20         0.00000E+00
    0.13970E-20        -0.15175E-19         0.00000E+00
    0.46566E-21        -0.22352E-19         0.00000E+00
   -0.71560E-21        -0.58617E-20         0.00000E+00
   -0.13970E-20         0.11450E-19         0.00000E+00
   -0.13970E-20         0.11450E-19         0.00000E+00
   -0.13970E-20         0.37253E-20         0.00000E+00
   -0.18455E-20         0.00000E+00         0.00000E+00
   -0.46566E-21         0.37253E-20         0.00000E+00
   -0.46566E-21         0.37253E-20         0.00000E+00
   -0.46566E-21        -0.74506E-20         0.00000E+00
   -0.15048E-20        -0.11450E-19         0.00000E+00
   -0.26690E-20        -0.37253E-20         0.00000E+00
   -0.18626E-20        -0.53142E-20         0.00000E+00
   -0.82346E-21        -0.18626E-19         0.00000E+00
   -0.57352E-21        -0.20489E-19         0.00000E+00
   -0.46566E-21        -0.24214E-19         0.00000E+00
   -0.82346E-21        -0.29802E-19         0.00000E+00
    0.69849E-21        -0.24488E-19         0.00000E+00
    0.29729E-20        -0.26077E-19         0.00000E+00
    0.23822E-20        -0.27940E-19         0.00000E+00
    0.18626E-20        -0.18900E-19         0.00000E+00
    0.17193E-20        -0.93132E-20         0.00000E+00
    0.14864E-20        -0.71768E-20         0.00000E+00
    0.23283E-20        -0.34515E-20         0.00000E+00
    0.27940E-20        -0.21364E-20         0.00000E+00
    0.32596E-20        -0.42728E-20         0.00000E+00
    0.41910E-20         0.74506E-20         0.00000E+00
    0.55879E-20         0.10902E-19         0.00000E+00
    0.60878E-20         0.93132E-20         0.00000E+00
    0.51223E-20         0.21364E-20         0.00000E+00
    0.46224E-20        -0.39990E-20         0.00000E+00
    0.41910E-20        -0.15175E-19         0.00000E+00
    0.46908E-20        -0.23941E-19         0.00000E+00
    0.27597E-20        -0.26077E-19         0.00000E+00
    0.16640E-20        -0.18900E-19         0.00000E+00
   -0.93132E-21        -0.10902E-19         0.00000E+00
   -0.18969E-20        -0.16764E-19         0.00000E+00
   -0.23283E-20        -0.13312E-19         0.00000E+00
   -0.43144E-21        -0.71768E-20         0.00000E+00
   -0.96554E-21        -0.12765E-19         0.00000E+00
    0.69849E-21        -0.11176E-19         0.00000E+00
    0.13970E-20         0.71768E-20         0.00000E+00
    0.27940E-20         0.18353E-19         0.00000E+00
    0.18969E-20         0.14901E-19         0.00000E+00
    0.93132E-21         0.18626E-19         0.00000E+00
    0.93132E-21         0.15175E-19         0.00000E+00
    0.68138E-21        -0.55879E-20         0.00000E+00
    0.13970E-20        -0.18626E-19         0.00000E+00
    0.46566E-21        -0.20489E-19         0.00000E+00
    0.23283E-20        -0.22625E-19         0.00000E+00
    0.37253E-20        -0.18626E-19         0.00000E+00
    0.41910E-20        -0.74506E-20         0.00000E+00
    0.23283E-20         0.37253E-20         0.00000E+00
    0.13970E-20         0.14901E-19         0.00000E+00
    0.13970E-20         0.11176E-19         0.00000E+00
    0.23283E-20        -0.10902E-19         0.00000E+00
    0.23283E-20        -0.14901E-19         0.00000E+00
    0.34925E-20         0.00000E+00         0.00000E+00
    0.41910E-20         0.74506E-20         0.00000E+00
    0.37253E-20         0.71768E-20         0.00000E+00
    0.37253E-20         0.77243E-20         0.00000E+00
    0.12891E-20         0.74506E-20         0.00000E+00
   -0.23283E-21        -0.37253E-20         0.00000E+00
    0.00000E+00        -0.16764E-19         0.00000E+00
   -0.10392E-20        -0.17038E-19         0.00000E+00
   -0.22204E-20        -0.16490E-19         0.00000E+00
   -0.13970E-20        -0.24214E-19         0.00000E+00
   -0.17377E-20        -0.30076E-19         0.00000E+00
   -0.29729E-20        -0.36979E-19         0.00000E+00
   -0.20415E-20        -0.44430E-19         0.00000E+00
    0.17890E-21        -0.39389E-19         0.00000E+00
    0.98525E-21        -0.23283E-19         0.00000E+00
    0.13970E-20        -0.81081E-20         0.00000E+00
    0.13970E-20        -0.77243E-20         0.00000E+00
    0.16298E-20        -0.74506E-20         0.00000E+00
    0.13970E-20        -0.37253E-20         0.00000E+00
    0.93132E-21        -0.54752E-21         0.00000E+00
    0.37253E-20        -0.42728E-20         0.00000E+00
    0.32596E-20        -0.18626E-20         0.00000E+00
    0.36911E-20         0.39990E-20         0.00000E+00
    0.37253E-20         0.71768E-20         0.00000E+00
    0.37595E-20        -0.27376E-21         0.00000E+00
    0.23283E-20        -0.11176E-19         0.00000E+00
    0.18626E-20        -0.10902E-19         0.00000E+00
    0.18969E-20        -0.93132E-20         0.00000E+00
    0.15956E-20        -0.14901E-19         0.00000E+00
    0.41910E-20        -0.14627E-19         0.00000E+00
    0.56222E-20        -0.14901E-19         0.00000E+00
    0.65193E-20        -0.13312E-19         0.00000E+00
    0.69849E-20        -0.13312E-19         0.00000E+00
    0.58550E-20        -0.71768E-20         0.00000E+00
    0.28282E-20        -0.15889E-20         0.00000E+00
    0.13970E-20        -0.77243E-20         0.00000E+00
    0.27940E-20         0.34515E-20         0.00000E+00
    0.27940E-20         0.14901E-19         0.00000E+00
    0.23283E-20         0.11176E-19         0.00000E+00
    0.32767E-20         0.37253E-20         0.00000E+00
    0.37253E-20        -0.11176E-19         0.00000E+00
    0.34925E-20        -0.16764E-19         0.00000E+00
    0.18626E-20        -0.16764E-19         0.00000E+00
    0.23283E-20        -0.18353E-19         0.00000E+00
    0.18626E-20        -0.11176E-19         0.00000E+00
    0.18626E-20        -0.93132E-20         0.00000E+00
    0.23283E-20        -0.93132E-20         0.00000E+00
    0.27940E-20        -0.27376E-21         0.00000E+00
    0.27940E-20         0.74506E-20         0.00000E+00
    0.23283E-20         0.77243E-20         0.00000E+00
    0.46566E-21        -0.37253E-20         0.00000E+00
   -0.17110E-22        -0.93132E-20         0.00000E+00
   -0.93132E-21         0.37253E-20         0.00000E+00
   -0.13970E-20         0.53142E-20         0.00000E+00
   -0.18626E-20         0.37253E-20         0.00000E+00
   -0.13970E-20         0.93132E-20         0.00000E+00
   -0.12497E-21         0.37253E-20         0.00000E+00
   -0.25611E-20        -0.37253E-20         0.00000E+00
   -0.22204E-20        -0.71768E-20         0.00000E+00
   -0.17377E-20        -0.18353E-19         0.00000E+00
   -0.93132E-21        -0.26077E-19         0.00000E+00
    0.34069E-21        -0.20763E-19         0.00000E+00
    0.23283E-21        -0.24214E-19         0.00000E+00
   -0.98525E-21        -0.44430E-19         0.00000E+00
   -0.18626E-20        -0.41252E-19         0.00000E+00
   -0.51959E-21        -0.20763E-19         0.00000E+00
    0.21849E-20        -0.12765E-19         0.00000E+00
    0.28834E-20        -0.90395E-20         0.00000E+00
    0.34030E-20        -0.39990E-20         0.00000E+00
    0.27940E-20        -0.27376E-21         0.00000E+00
    0.32596E-20         0.00000E+00         0.00000E+00
    0.46566E-21         0.11723E-19         0.00000E+00
   -0.93132E-21         0.11450E-19         0.00000E+00
   -0.13970E-20         0.71768E-20         0.00000E+00
    0.00000E+00         0.15889E-20         0.00000E+00
    0.18626E-20         0.18626E-20         0.00000E+00
    0.32596E-20        -0.37253E-20         0.00000E+00
    0.48894E-20        -0.20215E-19         0.00000E+00
    0.60194E-20        -0.29802E-19         0.00000E+00
    0.69849E-20        -0.31939E-19         0.00000E+00
    0.67521E-20        -0.27666E-19         0.00000E+00
    0.74164E-20        -0.25803E-19         0.00000E+00
    0.88476E-20        -0.18626E-19         0.00000E+00
    0.88476E-20        -0.39990E-20         0.00000E+00
    0.74164E-20         0.55879E-20         0.00000E+00
    0.78820E-20         0.93132E-20         0.00000E+00
    0.69849E-20         0.90395E-20         0.00000E+00
    0.46566E-20         0.11450E-19         0.00000E+00
    0.41567E-20         0.16764E-19         0.00000E+00
    0.37253E-20         0.18353E-19         0.00000E+00
    0.23454E-20         0.55879E-20         0.00000E+00
    0.27940E-20        -0.74506E-20         0.00000E+00
    0.18798E-20        -0.93132E-20         0.00000E+00
    0.27940E-20        -0.14901E-19         0.00000E+00
    0.27769E-20        -0.20215E-19         0.00000E+00
    0.20784E-20        -0.14901E-19         0.00000E+00
    0.18626E-20        -0.95870E-20         0.00000E+00
    0.23283E-20        -0.37253E-20         0.00000E+00
    0.93132E-21         0.11176E-19         0.00000E+00
    0.00000E+00         0.14901E-19         0.00000E+00
   -0.11642E-20         0.00000E+00         0.00000E+00
   -0.13970E-20        -0.37253E-20         0.00000E+00
   -0.37082E-20         0.77243E-20         0.00000E+00
   -0.60707E-20         0.14901E-19         0.00000E+00
   -0.69849E-20         0.14901E-19         0.00000E+00
   -0.65193E-20         0.74506E-20         0.00000E+00
   -0.60536E-20        -0.21364E-20         0.00000E+00
   -0.46566E-20        -0.15889E-20         0.00000E+00
   -0.36174E-20        -0.71768E-20         0.00000E+00
   -0.33675E-20        -0.18626E-19         0.00000E+00
   -0.23283E-20        -0.24214E-19         0.00000E+00
    0.00000E+00        -0.33801E-19         0.00000E+00
    0.18626E-20        -0.33801E-19         0.00000E+00
    0.32057E-20        -0.29802E-19         0.00000E+00
    0.40121E-20        -0.35390E-19         0.00000E+00
    0.32596E-20        -0.42841E-19         0.00000E+00
    0.23822E-20        -0.40978E-19         0.00000E+00
    0.28479E-20        -0.26077E-19         0.00000E+00
    0.36358E-20        -0.14627E-19         0.00000E+00
    0.44685E-20        -0.71768E-20         0.00000E+00
    0.51223E-20        -0.21364E-20         0.00000E+00
    0.65193E-20        -0.54752E-21         0.00000E+00
   -0.37253E-20         0.11176E-19         0.00000E+00
   -0.25611E-20         0.74506E-20         0.00000E+00
   -0.28282E-20        -0.15889E-20         0.00000E+00
   -0.23283E-20        -0.93132E-20         0.00000E+00
   -0.18626E-20        -0.15175E-19         0.00000E+00
   -0.46566E-21        -0.26077E-19         0.00000E+00
    0.13628E-20        -0.26077E-19         0.00000E+00
    0.13970E-20        -0.20489E-19         0.00000E+00
    0.96554E-21        -0.18626E-19         0.00000E+00
    0.34220E-22        -0.16764E-19         0.00000E+00
    0.34220E-22        -0.26077E-19         0.00000E+00
   -0.13970E-20        -0.18353E-19         0.00000E+00
   -0.93132E-21        -0.71768E-20         0.00000E+00
    0.46566E-21        -0.37253E-20         0.00000E+00
    0.93132E-21         0.34515E-20         0.00000E+00
    0.23283E-20         0.90395E-20         0.00000E+00
    0.23283E-20         0.13039E-19         0.00000E+00
    0.14312E-20         0.18626E-19         0.00000E+00
    0.23283E-20         0.24214E-19         0.00000E+00
    0.27769E-20         0.93132E-20         0.00000E+00
    0.27940E-20        -0.93132E-20         0.00000E+00
    0.39410E-20        -0.16764E-19         0.00000E+00
    0.51223E-20        -0.22352E-19         0.00000E+00
    0.44409E-20        -0.16764E-19         0.00000E+00
    0.32767E-20        -0.55879E-20         0.00000E+00
    0.32596E-20        -0.93132E-20         0.00000E+00
    0.23283E-20        -0.55879E-20         0.00000E+00
    0.37253E-20         0.11176E-19         0.00000E+00
    0.37253E-20         0.18626E-19         0.00000E+00
    0.32425E-20         0.14901E-19         0.00000E+00
    0.32596E-20         0.93132E-20         0.00000E+00
    0.27769E-20         0.13312E-19         0.00000E+00
    0.28111E-20         0.18626E-19         0.00000E+00
    0.23283E-20         0.90395E-20         0.00000E+00
    0.27940E-20         0.00000E+00         0.00000E+00
    0.23283E-20        -0.18626E-20         0.00000E+00
    0.23283E-20        -0.74506E-20         0.00000E+00
    0.45488E-20        -0.93132E-20         0.00000E+00
    0.54801E-20        -0.14901E-19         0.00000E+00
    0.62864E-20        -0.35116E-19         0.00000E+00
    0.60536E-20        -0.46566E-19         0.00000E+00
    0.60536E-20        -0.37253E-19         0.00000E+00
    0.58747E-20        -0.35116E-19         0.00000E+00
    0.60536E-20        -0.44703E-19         0.00000E+00
    0.46566E-20        -0.33801E-19         0.00000E+00
    0.46027E-20        -0.18900E-19         0.00000E+00
    0.45132E-20        -0.18353E-19         0.00000E+00
    0.51223E-20        -0.16764E-19         0.00000E+00
    0.62864E-20        -0.13312E-19         0.00000E+00
    0.65193E-20        -0.95870E-20         0.00000E+00
    0.55879E-20        -0.79981E-20         0.00000E+00
   -0.23283E-20         0.37253E-20         0.00000E+00
   -0.22941E-20         0.55879E-20         0.00000E+00
   -0.32254E-20         0.37253E-20         0.00000E+00
   -0.27940E-20        -0.18626E-20         0.00000E+00
   -0.41910E-20        -0.74506E-20         0.00000E+00
   -0.51223E-20        -0.20215E-19         0.00000E+00
   -0.55537E-20        -0.29802E-19         0.00000E+00
   -0.46224E-20        -0.26077E-19         0.00000E+00
   -0.27940E-20        -0.26077E-19         0.00000E+00
   -0.46566E-21        -0.22625E-19         0.00000E+00
    0.46566E-21        -0.18626E-19         0.00000E+00
   -0.46566E-21        -0.14901E-19         0.00000E+00
   -0.49988E-21        -0.11176E-19         0.00000E+00
   -0.13628E-20        -0.34515E-20         0.00000E+00
   -0.27940E-20        -0.10190E-32         0.00000E+00
   -0.18626E-20         0.15889E-20         0.00000E+00
   -0.18626E-20         0.13312E-19         0.00000E+00
   -0.37253E-20         0.16764E-19         0.00000E+00
   -0.32596E-20         0.12765E-19         0.00000E+00
   -0.27769E-20         0.37253E-20         0.00000E+00
   -0.23283E-20        -0.13039E-19         0.00000E+00
   -0.13970E-20        -0.20489E-19         0.00000E+00
   -0.32596E-20        -0.14901E-19         0.00000E+00
   -0.27940E-20        -0.13039E-19         0.00000E+00
   -0.18798E-20        -0.11176E-19         0.00000E+00
   -0.93132E-21        -0.34515E-20         0.00000E+00
   -0.93132E-21        -0.55879E-20         0.00000E+00
   -0.44855E-21         0.34515E-20         0.00000E+00
   -0.46566E-21         0.16764E-19         0.00000E+00
    0.14141E-20         0.37253E-20         0.00000E+00
    0.37253E-20         0.00000E+00         0.00000E+00
    0.51223E-20         0.93132E-20         0.00000E+00
    0.46566E-20         0.16764E-19         0.00000E+00
    0.51223E-20         0.13039E-19         0.00000E+00
    0.55879E-20         0.74506E-20         0.00000E+00
    0.58208E-20         0.00000E+00         0.00000E+00
    0.59457E-20        -0.14901E-19         0.00000E+00
    0.70928E-20        -0.22352E-19         0.00000E+00
    0.84898E-20        -0.26077E-19         0.00000E+00
    0.80241E-20        -0.26077E-19         0.00000E+00
    0.55879E-20        -0.33254E-19         0.00000E+00
    0.30268E-20        -0.31391E-19         0.00000E+00
    0.11102E-20        -0.28213E-19         0.00000E+00
   -0.14509E-20        -0.31665E-19         0.00000E+00
   -0.18626E-20        -0.35390E-19         0.00000E+00
    0.00000E+00        -0.37253E-19         0.00000E+00
   -0.14338E-21        -0.28871E-19         0.00000E+00
    0.00000E+00        -0.25419E-19         0.00000E+00
   -0.15851E-20        -0.16764E-19         0.00000E+00
   -0.24224E-20        -0.27376E-21         0.00000E+00
   -0.23283E-20         0.69031E-20         0.00000E+00
   -0.27940E-20         0.79981E-20         0.00000E+00
   -0.28282E-20         0.11176E-19         0.00000E+00
   -0.93132E-21         0.34515E-20         0.00000E+00
   -0.46566E-21        -0.37253E-20         0.00000E+00
   -0.49988E-21        -0.37253E-20         0.00000E+00
   -0.46566E-21        -0.18626E-19         0.00000E+00
   -0.13970E-20        -0.29802E-19         0.00000E+00
   -0.14312E-20        -0.35390E-19         0.00000E+00
   -0.93132E-21        -0.39116E-19         0.00000E+00
   -0.46566E-21        -0.31665E-19         0.00000E+00
    0.00000E+00        -0.24214E-19         0.00000E+00
    0.20955E-20        -0.14901E-19         0.00000E+00
    0.14312E-20        -0.37253E-20         0.00000E+00
    0.13628E-20         0.74506E-20         0.00000E+00
    0.49988E-21         0.55879E-20         0.00000E+00
    0.34220E-22         0.55879E-20         0.00000E+00
   -0.16298E-20         0.20489E-19         0.00000E+00
   -0.18626E-20         0.24214E-19         0.00000E+00
   -0.18626E-20         0.20489E-19         0.00000E+00
   -0.23454E-20         0.55879E-20         0.00000E+00
   -0.25440E-20        -0.14901E-19         0.00000E+00
   -0.37253E-20        -0.13039E-19         0.00000E+00
   -0.32596E-20        -0.14901E-19         0.00000E+00
   -0.18626E-20        -0.22078E-19         0.00000E+00
   -0.30097E-20        -0.16764E-19         0.00000E+00
   -0.32596E-20        -0.14901E-19         0.00000E+00
   -0.13970E-20        -0.74506E-20         0.00000E+00
   -0.16298E-20         0.10902E-19         0.00000E+00
    0.93132E-21         0.93132E-20         0.00000E+00
    0.13970E-20        -0.74506E-20         0.00000E+00
    0.13970E-20        -0.93132E-20         0.00000E+00
    0.16298E-20         0.77243E-20         0.00000E+00
    0.18626E-20         0.18626E-19         0.00000E+00
    0.41910E-20         0.53142E-20         0.00000E+00
    0.51223E-20        -0.18626E-20         0.00000E+00
    0.52301E-20        -0.37253E-20         0.00000E+00
    0.45316E-20        -0.13039E-19         0.00000E+00
    0.29189E-20        -0.20489E-19         0.00000E+00
    0.31518E-20        -0.22352E-19         0.00000E+00
    0.16298E-20        -0.22352E-19         0.00000E+00
    0.93132E-21        -0.22352E-19         0.00000E+00
   -0.80635E-21        -0.14901E-19         0.00000E+00
   -0.13970E-20        -0.11176E-19         0.00000E+00
   -0.20415E-20        -0.27940E-19         0.00000E+00
    0.00000E+00        -0.39116E-19         0.00000E+00
   -0.20955E-20        -0.27666E-19         0.00000E+00
   -0.36714E-20        -0.19558E-19         0.00000E+00
   -0.69849E-20        -0.10518E-19         0.00000E+00
   -0.90804E-20        -0.37253E-20         0.00000E+00
   -0.96848E-20        -0.58617E-20         0.00000E+00
   -0.93132E-20        -0.79981E-20         0.00000E+00
    0.69849E-20         0.00000E+00         0.00000E+00
    0.65193E-20        -0.34515E-20         0.00000E+00
    0.69849E-20        -0.37253E-20         0.00000E+00
    0.55879E-20        -0.37253E-20         0.00000E+00
    0.46566E-20        -0.74506E-20         0.00000E+00
    0.41910E-20        -0.15175E-19         0.00000E+00
    0.41910E-20        -0.26077E-19         0.00000E+00
    0.32938E-20        -0.29802E-19         0.00000E+00
    0.13628E-20        -0.29802E-19         0.00000E+00
    0.43144E-21        -0.26077E-19         0.00000E+00
    0.46566E-21        -0.29802E-19         0.00000E+00
   -0.34220E-22        -0.22078E-19         0.00000E+00
   -0.49988E-21        -0.95870E-20         0.00000E+00
   -0.89710E-21        -0.27376E-21         0.00000E+00
   -0.93132E-21         0.77243E-20         0.00000E+00
   -0.13970E-20         0.14901E-19         0.00000E+00
   -0.13628E-20         0.20489E-19         0.00000E+00
    0.93132E-21         0.14901E-19         0.00000E+00
    0.23454E-20         0.16764E-19         0.00000E+00
    0.32767E-20         0.74506E-20         0.00000E+00
    0.41910E-20        -0.74506E-20         0.00000E+00
    0.37253E-20        -0.14901E-19         0.00000E+00
    0.58208E-20        -0.22352E-19         0.00000E+00
    0.51223E-20        -0.14627E-19         0.00000E+00
    0.46566E-20        -0.37253E-20         0.00000E+00
    0.48894E-20        -0.11176E-19         0.00000E+00
    0.32596E-20        -0.14901E-19         0.00000E+00
    0.27769E-20        -0.77243E-20         0.00000E+00
    0.18626E-20         0.18626E-20         0.00000E+00
    0.18626E-20         0.00000E+00         0.00000E+00
    0.13970E-20        -0.18626E-20         0.00000E+00
    0.23454E-20         0.37253E-20         0.00000E+00
    0.41910E-20         0.37253E-20         0.00000E+00
    0.46566E-20         0.00000E+00         0.00000E+00
    0.37253E-20         0.37253E-20         0.00000E+00
    0.44238E-20         0.34515E-20         0.00000E+00
    0.20955E-20        -0.55879E-20         0.00000E+00
    0.00000E+00        -0.16490E-19         0.00000E+00
   -0.15220E-20        -0.18626E-19         0.00000E+00
   -0.19705E-20        -0.13039E-19         0.00000E+00
   -0.37253E-20        -0.20215E-19         0.00000E+00
   -0.38503E-20        -0.22352E-19         0.00000E+00
   -0.32596E-20        -0.22625E-19         0.00000E+00
   -0.23283E-20        -0.35116E-19         0.00000E+00
   -0.32596E-20        -0.33528E-19         0.00000E+00
   -0.39042E-20        -0.20763E-19         0.00000E+00
   -0.34030E-20        -0.49304E-20         0.00000E+00
   -0.33491E-20         0.12051E-20         0.00000E+00
   -0.28387E-20        -0.50404E-20         0.00000E+00
   -0.27940E-20         0.50404E-20         0.00000E+00
   -0.32596E-20         0.63555E-20         0.00000E+00
    0.12107E-19         0.74506E-20         0.00000E+00
    0.12107E-19         0.74506E-20         0.00000E+00
    0.10245E-19         0.90395E-20         0.00000E+00
    0.11642E-19         0.11176E-19         0.00000E+00
    0.10744E-19         0.21364E-20         0.00000E+00
    0.10710E-19        -0.16764E-19         0.00000E+00
    0.93132E-20        -0.22078E-19         0.00000E+00
    0.97789E-20        -0.20489E-19         0.00000E+00
    0.95461E-20        -0.26351E-19         0.00000E+00
    0.74506E-20        -0.29802E-19         0.00000E+00
    0.41910E-20        -0.22352E-19         0.00000E+00
    0.73271E-21        -0.74506E-20         0.00000E+00
   -0.13970E-20         0.18626E-20         0.00000E+00
   -0.37253E-20         0.77243E-20         0.00000E+00
   -0.37595E-20         0.55879E-20         0.00000E+00
   -0.28282E-20         0.74506E-20         0.00000E+00
   -0.14312E-20         0.93132E-20         0.00000E+00
   -0.46566E-21         0.71768E-20         0.00000E+00
   -0.17110E-22         0.93132E-20         0.00000E+00
    0.16127E-20        -0.37253E-20         0.00000E+00
    0.30097E-20        -0.18626E-19         0.00000E+00
    0.46566E-20        -0.18626E-19         0.00000E+00
    0.46395E-20        -0.20489E-19         0.00000E+00
    0.60365E-20        -0.20489E-19         0.00000E+00
    0.74506E-20        -0.13039E-19         0.00000E+00
    0.74677E-20        -0.55879E-20         0.00000E+00
    0.67521E-20         0.18626E-20         0.00000E+00
    0.46566E-20         0.14901E-19         0.00000E+00
    0.25611E-20         0.13039E-19         0.00000E+00
    0.27940E-20        -0.37253E-20         0.00000E+00
    0.27940E-20        -0.11176E-19         0.00000E+00
    0.37253E-20        -0.74506E-20         0.00000E+00
    0.37253E-20         0.74506E-20         0.00000E+00
    0.37253E-20         0.93132E-20         0.00000E+00
    0.37253E-20         0.00000E+00         0.00000E+00
    0.36174E-20         0.37253E-20         0.00000E+00
    0.36174E-20         0.77243E-20         0.00000E+00
    0.27940E-20        -0.15889E-20         0.00000E+00
    0.17548E-20        -0.11450E-19         0.00000E+00
    0.16298E-20        -0.11450E-19         0.00000E+00
    0.18626E-20        -0.14901E-19         0.00000E+00
    0.93132E-21        -0.18626E-19         0.00000E+00
    0.00000E+00        -0.18626E-19         0.00000E+00
   -0.23283E-21        -0.26077E-19         0.00000E+00
   -0.93132E-21        -0.31665E-19         0.00000E+00
   -0.69849E-21        -0.26077E-19         0.00000E+00
   -0.46566E-21        -0.20489E-19         0.00000E+00
    0.15759E-20        -0.14901E-19         0.00000E+00
    0.23730E-20        -0.55879E-20         0.00000E+00
    0.23283E-20        -0.39990E-20         0.00000E+00
    0.27940E-20        -0.42728E-20         0.00000E+00
    0.22352E-19         0.37253E-20         0.00000E+00
    0.23516E-19         0.55879E-20         0.00000E+00
    0.23749E-19        -0.15889E-20         0.00000E+00
    0.23749E-19        -0.37253E-20         0.00000E+00
    0.24214E-19        -0.39990E-20         0.00000E+00
    0.23749E-19        -0.11176E-19         0.00000E+00
    0.20921E-19        -0.20489E-19         0.00000E+00
    0.17695E-19        -0.27940E-19         0.00000E+00
    0.16798E-19        -0.18353E-19         0.00000E+00
    0.13970E-19        -0.18626E-20         0.00000E+00
    0.12107E-19         0.15889E-20         0.00000E+00
    0.11176E-19         0.71768E-20         0.00000E+00
    0.98131E-20         0.13039E-19         0.00000E+00
    0.10676E-19         0.11450E-19         0.00000E+00
    0.11176E-19         0.37253E-20         0.00000E+00
    0.10744E-19         0.37253E-20         0.00000E+00
    0.97789E-20         0.93132E-20         0.00000E+00
    0.88476E-20         0.74506E-20         0.00000E+00
    0.74506E-20         0.74506E-20         0.00000E+00
    0.76834E-20        -0.74506E-20         0.00000E+00
    0.72177E-20        -0.24214E-19         0.00000E+00
    0.74506E-20        -0.24214E-19         0.00000E+00
    0.84161E-20        -0.29802E-19         0.00000E+00
    0.95461E-20        -0.27940E-19         0.00000E+00
    0.10245E-19        -0.11176E-19         0.00000E+00
    0.99946E-20        -0.74506E-20         0.00000E+00
    0.10693E-19        -0.18626E-20         0.00000E+00
    0.11874E-19         0.11176E-19         0.00000E+00
    0.13987E-19         0.13039E-19         0.00000E+00
    0.14435E-19         0.18626E-20         0.00000E+00
    0.16298E-19        -0.74506E-20         0.00000E+00
    0.16281E-19        -0.18626E-20         0.00000E+00
    0.16048E-19         0.37253E-20         0.00000E+00
    0.15367E-19        -0.27376E-21         0.00000E+00
    0.15367E-19         0.37253E-20         0.00000E+00
    0.14901E-19         0.39990E-20         0.00000E+00
    0.15940E-19         0.00000E+00         0.00000E+00
    0.16531E-19        -0.74506E-20         0.00000E+00
    0.15940E-19        -0.13039E-19         0.00000E+00
    0.15242E-19        -0.13039E-19         0.00000E+00
    0.15832E-19        -0.16764E-19         0.00000E+00
    0.16298E-19        -0.13039E-19         0.00000E+00
    0.16065E-19        -0.16490E-19         0.00000E+00
    0.16011E-19        -0.29802E-19         0.00000E+00
    0.16764E-19        -0.31939E-19         0.00000E+00
    0.15546E-19        -0.22352E-19         0.00000E+00
    0.16531E-19        -0.12765E-19         0.00000E+00
    0.16209E-19        -0.14901E-19         0.00000E+00
    0.16021E-19        -0.95870E-20         0.00000E+00
    0.16298E-19        -0.27376E-21         0.00000E+00
    0.15367E-19        -0.54752E-21         0.00000E+00
    0.81025E-19         0.00000E+00         0.00000E+00
    0.80128E-19         0.37253E-20         0.00000E+00
    0.81025E-19         0.93132E-20         0.00000E+00
    0.80559E-19         0.55879E-20         0.00000E+00
    0.81025E-19         0.18626E-20         0.00000E+00
    0.80559E-19         0.00000E+00         0.00000E+00
    0.81991E-19         0.53142E-20         0.00000E+00
    0.82388E-19         0.18626E-20         0.00000E+00
    0.81689E-19        -0.71768E-20         0.00000E+00
    0.82456E-19        -0.55879E-20         0.00000E+00
    0.83353E-19        -0.74506E-20         0.00000E+00
    0.84285E-19         0.18626E-20         0.00000E+00
    0.83819E-19         0.37253E-20         0.00000E+00
    0.85250E-19         0.21364E-20         0.00000E+00
    0.85216E-19         0.74506E-20         0.00000E+00
    0.82422E-19         0.14627E-19         0.00000E+00
    0.81491E-19         0.18626E-19         0.00000E+00
    0.81491E-19         0.18626E-19         0.00000E+00
    0.81491E-19         0.14901E-19         0.00000E+00
    0.80577E-19        -0.18626E-20         0.00000E+00
    0.79878E-19        -0.16764E-19         0.00000E+00
    0.81042E-19        -0.26077E-19         0.00000E+00
    0.81008E-19        -0.31665E-19         0.00000E+00
    0.80111E-19        -0.27940E-19         0.00000E+00
    0.79611E-19        -0.18626E-19         0.00000E+00
    0.79162E-19        -0.93132E-20         0.00000E+00
    0.79645E-19        -0.74506E-20         0.00000E+00
    0.81973E-19         0.00000E+00         0.00000E+00
    0.81939E-19         0.37253E-20         0.00000E+00
    0.81956E-19        -0.16764E-19         0.00000E+00
    0.81956E-19        -0.22352E-19         0.00000E+00
    0.83353E-19        -0.37253E-20         0.00000E+00
    0.85449E-19         0.13039E-19         0.00000E+00
    0.85216E-19         0.11176E-19         0.00000E+00
    0.85216E-19         0.18626E-20         0.00000E+00
    0.85682E-19         0.00000E+00         0.00000E+00
    0.84642E-19         0.00000E+00         0.00000E+00
    0.84393E-19         0.00000E+00         0.00000E+00
    0.83461E-19        -0.37253E-20         0.00000E+00
    0.83121E-19        -0.11176E-19         0.00000E+00
    0.81956E-19        -0.22352E-19         0.00000E+00
    0.83353E-19        -0.22352E-19         0.00000E+00
    0.83407E-19        -0.18900E-19         0.00000E+00
    0.84285E-19        -0.27940E-19         0.00000E+00
    0.84052E-19        -0.27666E-19         0.00000E+00
    0.84339E-19        -0.23941E-19         0.00000E+00
    0.84195E-19        -0.23283E-19         0.00000E+00
    0.83819E-19        -0.14244E-19         0.00000E+00
    0.82655E-19        -0.74506E-20         0.00000E+00
    0.82794E-19        -0.27376E-21         0.00000E+00
    0.83353E-19         0.31778E-20         0.00000E+00
    0.48522E-18         0.74506E-20         0.00000E+00
    0.48518E-18         0.37253E-20         0.00000E+00
    0.48479E-18        -0.18626E-20         0.00000E+00
    0.48522E-18        -0.37253E-20         0.00000E+00
    0.48475E-18        -0.39990E-20         0.00000E+00
    0.48755E-18        -0.14901E-19         0.00000E+00
    0.49170E-18        -0.31391E-19         0.00000E+00
    0.49639E-18        -0.26351E-19         0.00000E+00
    0.49829E-18        -0.18626E-19         0.00000E+00
    0.50009E-18        -0.10902E-19         0.00000E+00
    0.50059E-18        -0.55879E-20         0.00000E+00
    0.50059E-18         0.55879E-20         0.00000E+00
    0.50105E-18         0.93132E-20         0.00000E+00
    0.50009E-18         0.55879E-20         0.00000E+00
    0.50035E-18         0.14901E-19         0.00000E+00
    0.50055E-18         0.20489E-19         0.00000E+00
    0.50059E-18         0.14901E-19         0.00000E+00
    0.50059E-18         0.93132E-20         0.00000E+00
    0.50175E-18         0.11176E-19         0.00000E+00
    0.50290E-18        -0.37253E-20         0.00000E+00
    0.50245E-18        -0.26077E-19         0.00000E+00
    0.50266E-18        -0.27940E-19         0.00000E+00
    0.50198E-18        -0.24214E-19         0.00000E+00
    0.50152E-18        -0.20489E-19         0.00000E+00
    0.50060E-18        -0.74506E-20         0.00000E+00
    0.50012E-18        -0.74506E-20         0.00000E+00
    0.49964E-18        -0.13039E-19         0.00000E+00
    0.49708E-18         0.00000E+00         0.00000E+00
    0.49639E-18         0.11176E-19         0.00000E+00
    0.49593E-18         0.00000E+00         0.00000E+00
    0.49546E-18        -0.14901E-19         0.00000E+00
    0.49546E-18        -0.14901E-19         0.00000E+00
    0.49571E-18        -0.37253E-20         0.00000E+00
    0.49733E-18         0.00000E+00         0.00000E+00
    0.49779E-18         0.00000E+00         0.00000E+00
    0.49639E-18         0.34515E-20         0.00000E+00
    0.49720E-18         0.74506E-20         0.00000E+00
    0.49745E-18         0.27376E-21         0.00000E+00
    0.49815E-18        -0.58617E-20         0.00000E+00
    0.49862E-18        -0.74506E-20         0.00000E+00
    0.49965E-18        -0.20215E-19         0.00000E+00
    0.49919E-18        -0.18900E-19         0.00000E+00
    0.49937E-18        -0.20763E-19         0.00000E+00
    0.49989E-18        -0.33254E-19         0.00000E+00
    0.49924E-18        -0.31391E-19         0.00000E+00
    0.49867E-18        -0.23557E-19         0.00000E+00
    0.49718E-18        -0.10245E-19         0.00000E+00
    0.49500E-18        -0.71768E-20         0.00000E+00
    0.49504E-18        -0.58617E-20         0.00000E+00
    0.49439E-18        -0.39990E-20         0.00000E+00
    0.49546E-18        -0.37253E-20         0.00000E+00
    0.28899E-17        -0.54752E-21         0.00000E+00
    0.28904E-17         0.55879E-20         0.00000E+00
    0.28901E-17         0.95870E-20         0.00000E+00
    0.28894E-17         0.58617E-20         0.00000E+00
    0.28885E-17        -0.95870E-20         0.00000E+00
    0.28894E-17        -0.34075E-19         0.00000E+00
    0.28909E-17        -0.36979E-19         0.00000E+00
    0.28890E-17        -0.31391E-19         0.00000E+00
    0.28913E-17        -0.26077E-19         0.00000E+00
    0.28927E-17        -0.18626E-19         0.00000E+00
    0.28946E-17        -0.11176E-19         0.00000E+00
    0.28959E-17         0.00000E+00         0.00000E+00
    0.28987E-17         0.74506E-20         0.00000E+00
    0.28985E-17         0.74506E-20         0.00000E+00
    0.28974E-17         0.39990E-20         0.00000E+00
    0.28992E-17         0.12765E-19         0.00000E+00
    0.29006E-17         0.18079E-19         0.00000E+00
    0.29020E-17         0.14901E-19         0.00000E+00
    0.29020E-17         0.58617E-20         0.00000E+00
    0.29015E-17        -0.71768E-20         0.00000E+00
    0.29011E-17        -0.16764E-19         0.00000E+00
    0.28994E-17        -0.24214E-19         0.00000E+00
    0.28983E-17        -0.26077E-19         0.00000E+00
    0.28969E-17        -0.20489E-19         0.00000E+00
    0.28978E-17        -0.11176E-19         0.00000E+00
    0.28973E-17        -0.37253E-20         0.00000E+00
    0.28964E-17         0.55879E-20         0.00000E+00
    0.28955E-17         0.14901E-19         0.00000E+00
    0.28950E-17         0.93132E-20         0.00000E+00
    0.28950E-17        -0.11176E-19         0.00000E+00
    0.28946E-17        -0.18626E-19         0.00000E+00
    0.28932E-17        -0.55879E-20         0.00000E+00
    0.28922E-17         0.37253E-20         0.00000E+00
    0.28913E-17         0.18626E-20         0.00000E+00
    0.28908E-17         0.55879E-20         0.00000E+00
    0.28897E-17         0.34515E-20         0.00000E+00
    0.28898E-17        -0.58617E-20         0.00000E+00
    0.28899E-17        -0.55879E-20         0.00000E+00
    0.28913E-17        -0.10902E-19         0.00000E+00
    0.28920E-17        -0.20489E-19         0.00000E+00
    0.28941E-17        -0.22352E-19         0.00000E+00
    0.28957E-17        -0.18353E-19         0.00000E+00
    0.28980E-17        -0.20489E-19         0.00000E+00
    0.28969E-17        -0.27940E-19         0.00000E+00
    0.28959E-17        -0.24488E-19         0.00000E+00
    0.28958E-17        -0.13039E-19         0.00000E+00
    0.28970E-17        -0.46566E-20         0.00000E+00
    0.28973E-17        -0.30677E-20         0.00000E+00
    0.28977E-17        -0.50404E-20         0.00000E+00
    0.28979E-17        -0.18626E-20         0.00000E+00
    0.28978E-17        -0.85456E-20         0.00000E+00
    0.16567E-16         0.37253E-20         0.00000E+00
    0.16565E-16         0.37253E-20         0.00000E+00
    0.16565E-16         0.34515E-20         0.00000E+00
    0.16565E-16         0.34515E-20         0.00000E+00
    0.16566E-16        -0.55879E-20         0.00000E+00
    0.16563E-16        -0.22078E-19         0.00000E+00
    0.16561E-16        -0.27666E-19         0.00000E+00
    0.16561E-16        -0.29802E-19         0.00000E+00
    0.16562E-16        -0.35390E-19         0.00000E+00
    0.16563E-16        -0.29802E-19         0.00000E+00
    0.16565E-16        -0.24214E-19         0.00000E+00
    0.16567E-16        -0.14901E-19         0.00000E+00
    0.16569E-16        -0.58617E-20         0.00000E+00
    0.16571E-16         0.11176E-19         0.00000E+00
    0.16573E-16         0.15449E-19         0.00000E+00
    0.16574E-16         0.37253E-20         0.00000E+00
    0.16575E-16        -0.27376E-21         0.00000E+00
    0.16576E-16         0.37253E-20         0.00000E+00
    0.16575E-16         0.14627E-19         0.00000E+00
    0.16573E-16         0.18626E-20         0.00000E+00
    0.16571E-16        -0.14627E-19         0.00000E+00
    0.16570E-16        -0.13039E-19         0.00000E+00
    0.16570E-16        -0.14901E-19         0.00000E+00
    0.16571E-16        -0.18626E-19         0.00000E+00
    0.16571E-16        -0.74506E-20         0.00000E+00
    0.16569E-16        -0.18626E-20         0.00000E+00
    0.16569E-16        -0.55879E-20         0.00000E+00
    0.16569E-16         0.74506E-20         0.00000E+00
    0.16569E-16         0.13039E-19         0.00000E+00
    0.16568E-16         0.18626E-20         0.00000E+00
    0.16568E-16        -0.37253E-20         0.00000E+00
    0.16567E-16        -0.37253E-20         0.00000E+00
    0.16567E-16         0.37253E-20         0.00000E+00
    0.16568E-16         0.74506E-20         0.00000E+00
    0.16568E-16         0.74506E-20         0.00000E+00
    0.16569E-16         0.74506E-20         0.00000E+00
    0.16570E-16         0.74506E-20         0.00000E+00
    0.16570E-16        -0.37253E-20         0.00000E+00
    0.16570E-16        -0.16764E-19         0.00000E+00
    0.16569E-16        -0.22625E-19         0.00000E+00
    0.16570E-16        -0.39389E-19         0.00000E+00
    0.16570E-16        -0.38842E-19         0.00000E+00
    0.16570E-16        -0.22078E-19         0.00000E+00
    0.16571E-16        -0.24488E-19         0.00000E+00
    0.16571E-16        -0.26351E-19         0.00000E+00
    0.16572E-16        -0.26077E-19         0.00000E+00
    0.16571E-16        -0.23009E-19         0.00000E+00
    0.16571E-16        -0.99708E-20         0.00000E+00
    0.16572E-16        -0.55879E-20         0.00000E+00
    0.16572E-16        -0.39990E-20         0.00000E+00
    0.16571E-16        -0.42728E-20         0.00000E+00
    0.93333E-16         0.69031E-20         0.00000E+00
    0.93332E-16         0.11176E-19         0.00000E+00
    0.93333E-16         0.11450E-19         0.00000E+00
    0.93332E-16         0.37253E-20         0.00000E+00
    0.93332E-16        -0.27376E-21         0.00000E+00
    0.93332E-16        -0.93132E-20         0.00000E+00
    0.93332E-16        -0.26077E-19         0.00000E+00
    0.93334E-16        -0.33528E-19         0.00000E+00
    0.93332E-16        -0.36979E-19         0.00000E+00
    0.93332E-16        -0.35390E-19         0.00000E+00
    0.93333E-16        -0.30076E-19         0.00000E+00
    0.93333E-16        -0.18900E-19         0.00000E+00
    0.93333E-16        -0.10902E-19         0.00000E+00
    0.93334E-16        -0.14627E-19         0.00000E+00
    0.93337E-16        -0.11176E-19         0.00000E+00
    0.93337E-16         0.18626E-20         0.00000E+00
    0.93336E-16         0.93132E-20         0.00000E+00
    0.93335E-16         0.13039E-19         0.00000E+00
    0.93335E-16         0.16490E-19         0.00000E+00
    0.93336E-16         0.11176E-19         0.00000E+00
    0.93335E-16         0.27376E-21         0.00000E+00
    0.93335E-16        -0.14901E-19         0.00000E+00
    0.93337E-16        -0.29802E-19         0.00000E+00
    0.93339E-16        -0.26077E-19         0.00000E+00
    0.93339E-16        -0.37253E-20         0.00000E+00
    0.93339E-16         0.74506E-20         0.00000E+00
    0.93339E-16         0.74506E-20         0.00000E+00
    0.93337E-16         0.14901E-19         0.00000E+00
    0.93336E-16         0.14901E-19         0.00000E+00
    0.93337E-16        -0.74506E-20         0.00000E+00
    0.93337E-16        -0.15175E-19         0.00000E+00
    0.93336E-16        -0.37253E-20         0.00000E+00
    0.93336E-16         0.27376E-21         0.00000E+00
    0.93337E-16        -0.27376E-21         0.00000E+00
    0.93339E-16         0.00000E+00         0.00000E+00
    0.93338E-16        -0.37253E-20         0.00000E+00
    0.93338E-16        -0.11176E-19         0.00000E+00
    0.93338E-16        -0.71768E-20         0.00000E+00
    0.93337E-16        -0.74506E-20         0.00000E+00
    0.93336E-16        -0.18900E-19         0.00000E+00
    0.93334E-16        -0.24488E-19         0.00000E+00
    0.93333E-16        -0.22078E-19         0.00000E+00
    0.93332E-16        -0.25803E-19         0.00000E+00
    0.93332E-16        -0.31665E-19         0.00000E+00
    0.93332E-16        -0.28213E-19         0.00000E+00
    0.93332E-16        -0.17695E-19         0.00000E+00
    0.93330E-16        -0.37253E-20         0.00000E+00
    0.93331E-16        -0.27940E-20         0.00000E+00
    0.93331E-16        -0.71768E-20         0.00000E+00
    0.93333E-16        -0.21364E-20         0.00000E+00
    0.93331E-16         0.31778E-20         0.00000E+00
    0.51666E-15         0.69031E-20         0.00000E+00
    0.51666E-15         0.34515E-20         0.00000E+00
    0.51666E-15         0.55879E-20         0.00000E+00
    0.51666E-15         0.11176E-19         0.00000E+00
    0.51667E-15        -0.37253E-20         0.00000E+00
    0.51667E-15        -0.25803E-19         0.00000E+00
    0.51667E-15        -0.37253E-19         0.00000E+00
    0.51667E-15        -0.27940E-19         0.00000E+00
    0.51667E-15        -0.26077E-19         0.00000E+00
    0.51666E-15        -0.37253E-19         0.00000E+00
    0.51666E-15        -0.31665E-19         0.00000E+00
    0.51666E-15        -0.14901E-19         0.00000E+00
    0.51666E-15        -0.90395E-20         0.00000E+00
    0.51666E-15        -0.74506E-20         0.00000E+00
    0.51666E-15         0.00000E+00         0.00000E+00
    0.51666E-15         0.10902E-19         0.00000E+00
    0.51666E-15         0.93132E-20         0.00000E+00
    0.51666E-15         0.74506E-20         0.00000E+00
    0.51666E-15         0.13039E-19         0.00000E+00
    0.51666E-15         0.21364E-20         0.00000E+00
    0.51666E-15        -0.13039E-19         0.00000E+00
    0.51666E-15        -0.22352E-19         0.00000E+00
    0.51666E-15        -0.29802E-19         0.00000E+00
    0.51666E-15        -0.27940E-19         0.00000E+00
    0.51666E-15        -0.13039E-19         0.00000E+00
    0.51666E-15        -0.55879E-20         0.00000E+00
    0.51666E-15         0.74506E-20         0.00000E+00
    0.51666E-15         0.24214E-19         0.00000E+00
    0.51666E-15         0.14901E-19         0.00000E+00
    0.51666E-15         0.00000E+00         0.00000E+00
    0.51666E-15        -0.37253E-20         0.00000E+00
    0.51666E-15        -0.37253E-20         0.00000E+00
    0.51666E-15         0.34515E-20         0.00000E+00
    0.51666E-15        -0.37253E-20         0.00000E+00
    0.51666E-15        -0.15889E-20         0.00000E+00
    0.51666E-15         0.93132E-20         0.00000E+00
    0.51666E-15         0.74506E-20         0.00000E+00
    0.51666E-15         0.34515E-20         0.00000E+00
    0.51666E-15        -0.55879E-20         0.00000E+00
    0.51666E-15        -0.11176E-19         0.00000E+00
    0.51666E-15        -0.26077E-19         0.00000E+00
    0.51666E-15        -0.27940E-19         0.00000E+00
    0.51666E-15        -0.14901E-19         0.00000E+00
    0.51666E-15        -0.22352E-19         0.00000E+00
    0.51666E-15        -0.26351E-19         0.00000E+00
    0.51666E-15        -0.19284E-19         0.00000E+00
    0.51666E-15        -0.15832E-19         0.00000E+00
    0.51666E-15        -0.19558E-19         0.00000E+00
    0.51666E-15        -0.11833E-19         0.00000E+00
    0.51666E-15         0.15889E-20         0.00000E+00
    0.51666E-15         0.10628E-19         0.00000E+00
    0.28050E-14        -0.31778E-20         0.00000E+00
    0.28050E-14        -0.51618E-33         0.00000E+00
    0.28050E-14        -0.95870E-20         0.00000E+00
    0.28050E-14        -0.18353E-19         0.00000E+00
    0.28050E-14        -0.74506E-20         0.00000E+00
    0.28050E-14        -0.11450E-19         0.00000E+00
    0.28050E-14        -0.27666E-19         0.00000E+00
    0.28050E-14        -0.33254E-19         0.00000E+00
    0.28050E-14        -0.33801E-19         0.00000E+00
    0.28050E-14        -0.26077E-19         0.00000E+00
    0.28050E-14        -0.16490E-19         0.00000E+00
    0.28050E-14        -0.11450E-19         0.00000E+00
    0.28050E-14        -0.74506E-20         0.00000E+00
    0.28050E-14         0.27376E-21         0.00000E+00
    0.28050E-14         0.37253E-20         0.00000E+00
    0.28050E-14         0.34515E-20         0.00000E+00
    0.28050E-14         0.13039E-19         0.00000E+00
    0.28050E-14         0.18626E-19         0.00000E+00
    0.28050E-14         0.16764E-19         0.00000E+00
    0.28050E-14         0.39990E-20         0.00000E+00
    0.28050E-14        -0.11176E-19         0.00000E+00
    0.28050E-14        -0.22352E-19         0.00000E+00
    0.28050E-14        -0.27940E-19         0.00000E+00
    0.28050E-14        -0.16764E-19         0.00000E+00
    0.28050E-14        -0.95870E-20         0.00000E+00
    0.28050E-14        -0.93132E-20         0.00000E+00
    0.28050E-14        -0.34515E-20         0.00000E+00
    0.28050E-14         0.74506E-20         0.00000E+00
    0.28050E-14         0.74506E-20         0.00000E+00
    0.28050E-14        -0.93132E-20         0.00000E+00
    0.28050E-14        -0.93132E-20         0.00000E+00
    0.28050E-14         0.55879E-20         0.00000E+00
    0.28050E-14         0.71768E-20         0.00000E+00
    0.28050E-14         0.37253E-20         0.00000E+00
    0.28050E-14         0.55879E-20         0.00000E+00
    0.28050E-14        -0.24102E-20         0.00000E+00
    0.28050E-14        -0.14627E-19         0.00000E+00
    0.28050E-14        -0.14627E-19         0.00000E+00
    0.28050E-14         0.15889E-20         0.00000E+00
    0.28050E-14         0.55879E-20         0.00000E+00
    0.28050E-14        -0.93132E-20         0.00000E+00
    0.28050E-14        -0.16764E-19         0.00000E+00
    0.28050E-14        -0.24214E-19         0.00000E+00
    0.28050E-14        -0.33528E-19         0.00000E+00
    0.28050E-14        -0.24214E-19         0.00000E+00
    0.28050E-14        -0.14901E-19         0.00000E+00
    0.28050E-14        -0.11176E-19         0.00000E+00
    0.28050E-14        -0.14901E-19         0.00000E+00
    0.28050E-14        -0.14901E-19         0.00000E+00
    0.28050E-14        -0.37253E-20         0.00000E+00
    0.28050E-14         0.00000E+00         0.00000E+00
    0.14902E-13         0.14901E-19         0.00000E+00
    0.14902E-13         0.11450E-19         0.00000E+00
    0.14902E-13         0.95870E-20         0.00000E+00
    0.14902E-13         0.74506E-20         0.00000E+00
    0.14902E-13        -0.58617E-20         0.00000E+00
    0.14902E-13        -0.24488E-19         0.00000E+00
    0.14902E-13        -0.29529E-19         0.00000E+00
    0.14902E-13        -0.27940E-19         0.00000E+00
    0.14902E-13        -0.37253E-19         0.00000E+00
    0.14902E-13        -0.35117E-19         0.00000E+00
    0.14902E-13        -0.26351E-19         0.00000E+00
    0.14902E-13        -0.18626E-19         0.00000E+00
    0.14902E-13        -0.10902E-19         0.00000E+00
    0.14902E-13         0.21364E-20         0.00000E+00
    0.14902E-13         0.55879E-20         0.00000E+00
    0.14902E-13        -0.54751E-21         0.00000E+00
    0.14902E-13         0.90395E-20         0.00000E+00
    0.14902E-13         0.18626E-19         0.00000E+00
    0.14902E-13         0.20215E-19         0.00000E+00
    0.14902E-13         0.19832E-19         0.00000E+00
    0.14902E-13         0.67930E-20         0.00000E+00
    0.14902E-13        -0.93132E-20         0.00000E+00
    0.14902E-13        -0.20489E-19         0.00000E+00
    0.14902E-13        -0.29802E-19         0.00000E+00
    0.14902E-13        -0.22352E-19         0.00000E+00
    0.14902E-13        -0.11176E-19         0.00000E+00
    0.14902E-13        -0.53142E-20         0.00000E+00
    0.14902E-13         0.00000E+00         0.00000E+00
    0.14902E-13         0.55879E-20         0.00000E+00
    0.14902E-13        -0.37253E-20         0.00000E+00
    0.14902E-13        -0.17038E-19         0.00000E+00
    0.14902E-13        -0.37253E-20         0.00000E+00
    0.14902E-13         0.13312E-19         0.00000E+00
    0.14902E-13         0.74506E-20         0.00000E+00
    0.14902E-13         0.34515E-20         0.00000E+00
    0.14902E-13         0.71768E-20         0.00000E+00
    0.14902E-13         0.58617E-20         0.00000E+00
    0.14902E-13         0.11924E-33         0.00000E+00
    0.14902E-13        -0.58617E-20         0.00000E+00
    0.14902E-13        -0.14901E-19         0.00000E+00
    0.14902E-13        -0.22078E-19         0.00000E+00
    0.14902E-13        -0.18626E-19         0.00000E+00
    0.14902E-13        -0.14901E-19         0.00000E+00
    0.14902E-13        -0.22078E-19         0.00000E+00
    0.14902E-13        -0.26351E-19         0.00000E+00
    0.14902E-13        -0.22625E-19         0.00000E+00
    0.14902E-13        -0.15559E-19         0.00000E+00
    0.14902E-13        -0.10245E-19         0.00000E+00
    0.14902E-13        -0.15175E-19         0.00000E+00
    0.14902E-13        -0.39990E-20         0.00000E+00
    0.14902E-13         0.69031E-20         0.00000E+00
    0.77256E-13         0.00000E+00         0.00000E+00
    0.77256E-13         0.21364E-20         0.00000E+00
    0.77256E-13         0.37253E-20         0.00000E+00
    0.77256E-13         0.12765E-19         0.00000E+00
    0.77256E-13         0.11176E-19         0.00000E+00
    0.77256E-13        -0.10902E-19         0.00000E+00
    0.77256E-13        -0.29529E-19         0.00000E+00
    0.77256E-13        -0.33801E-19         0.00000E+00
    0.77256E-13        -0.30076E-19         0.00000E+00
    0.77256E-13        -0.29529E-19         0.00000E+00
    0.77256E-13        -0.25803E-19         0.00000E+00
    0.77256E-13        -0.15175E-19         0.00000E+00
    0.77256E-13        -0.77243E-20         0.00000E+00
    0.77256E-13         0.00000E+00         0.00000E+00
    0.77256E-13         0.27376E-21         0.00000E+00
    0.77256E-13         0.77243E-20         0.00000E+00
    0.77256E-13         0.22352E-19         0.00000E+00
    0.77256E-13         0.29529E-19         0.00000E+00
    0.77256E-13         0.29529E-19         0.00000E+00
    0.77256E-13         0.17038E-19         0.00000E+00
    0.77256E-13         0.25165E-33         0.00000E+00
    0.77256E-13        -0.13312E-19         0.00000E+00
    0.77256E-13        -0.25803E-19         0.00000E+00
    0.77256E-13        -0.29529E-19         0.00000E+00
    0.77256E-13        -0.15175E-19         0.00000E+00
    0.77256E-13        -0.11176E-19         0.00000E+00
    0.77256E-13         0.27376E-21         0.00000E+00
    0.77255E-13         0.13039E-19         0.00000E+00
    0.77255E-13         0.71768E-20         0.00000E+00
    0.77255E-13        -0.55879E-20         0.00000E+00
    0.77255E-13        -0.14627E-19         0.00000E+00
    0.77255E-13        -0.11176E-19         0.00000E+00
    0.77255E-13        -0.74506E-20         0.00000E+00
    0.77255E-13        -0.27376E-21         0.00000E+00
    0.77255E-13         0.34515E-20         0.00000E+00
    0.77255E-13         0.00000E+00         0.00000E+00
    0.77255E-13        -0.34515E-20         0.00000E+00
    0.77255E-13         0.39990E-20         0.00000E+00
    0.77255E-13         0.11176E-19         0.00000E+00
    0.77255E-13        -0.39990E-20         0.00000E+00
    0.77255E-13        -0.16764E-19         0.00000E+00
    0.77255E-13        -0.20489E-19         0.00000E+00
    0.77255E-13        -0.24488E-19         0.00000E+00
    0.77255E-13        -0.35390E-19         0.00000E+00
    0.77255E-13        -0.33528E-19         0.00000E+00
    0.77255E-13        -0.11833E-19         0.00000E+00
    0.77255E-13        -0.62455E-20         0.00000E+00
    0.77255E-13        -0.74506E-20         0.00000E+00
    0.77255E-13         0.34515E-20         0.00000E+00
    0.77255E-13         0.87657E-20         0.00000E+00
    0.77255E-13         0.10628E-19         0.00000E+00
    0.38960E-12         0.37253E-20         0.00000E+00
    0.38960E-12         0.37253E-20         0.00000E+00
    0.38960E-12         0.27375E-21         0.00000E+00
    0.38960E-12        -0.18626E-20         0.00000E+00
    0.38960E-12        -0.21364E-20         0.00000E+00
    0.38960E-12        -0.74506E-20         0.00000E+00
    0.38960E-12        -0.18626E-19         0.00000E+00
    0.38960E-12        -0.22352E-19         0.00000E+00
    0.38960E-12        -0.27666E-19         0.00000E+00
    0.38960E-12        -0.22078E-19         0.00000E+00
    0.38960E-12        -0.22625E-19         0.00000E+00
    0.38960E-12        -0.22352E-19         0.00000E+00
    0.38960E-12        -0.74506E-20         0.00000E+00
    0.38960E-12        -0.37253E-20         0.00000E+00
    0.38960E-12         0.27375E-21         0.00000E+00
    0.38960E-12         0.74506E-20         0.00000E+00
    0.38960E-12         0.14627E-19         0.00000E+00
    0.38960E-12         0.16764E-19         0.00000E+00
    0.38960E-12         0.22078E-19         0.00000E+00
    0.38960E-12         0.14901E-19         0.00000E+00
    0.38960E-12         0.79981E-20         0.00000E+00
    0.38960E-12        -0.55879E-20         0.00000E+00
    0.38960E-12        -0.22625E-19         0.00000E+00
    0.38960E-12        -0.24214E-19         0.00000E+00
    0.38960E-12        -0.20489E-19         0.00000E+00
    0.38960E-12        -0.93132E-20         0.00000E+00
    0.38960E-12         0.18626E-20         0.00000E+00
    0.38960E-12         0.20215E-19         0.00000E+00
    0.38960E-12         0.27940E-19         0.00000E+00
    0.38960E-12         0.20763E-19         0.00000E+00
    0.38960E-12         0.71768E-20         0.00000E+00
    0.38960E-12        -0.37253E-20         0.00000E+00
    0.38960E-12        -0.69031E-20         0.00000E+00
    0.38960E-12        -0.95870E-20         0.00000E+00
    0.38960E-12         0.53142E-20         0.00000E+00
    0.38960E-12         0.55879E-20         0.00000E+00
    0.38960E-12        -0.18626E-20         0.00000E+00
    0.38960E-12        -0.10902E-19         0.00000E+00
    0.38960E-12        -0.20489E-19         0.00000E+00
    0.38960E-12        -0.20763E-19         0.00000E+00
    0.38960E-12        -0.27940E-19         0.00000E+00
    0.38960E-12        -0.16490E-19         0.00000E+00
    0.38960E-12        -0.16490E-19         0.00000E+00
    0.38960E-12        -0.21037E-19         0.00000E+00
    0.38960E-12        -0.22625E-19         0.00000E+00
    0.38960E-12        -0.25803E-19         0.00000E+00
    0.38960E-12        -0.13039E-19         0.00000E+00
    0.38960E-12        -0.55879E-20         0.00000E+00
    0.38960E-12        -0.15889E-20         0.00000E+00
    0.38960E-12         0.37253E-20         0.00000E+00
    0.38960E-12         0.31778E-20         0.00000E+00
    0.19037E-11         0.00000E+00         0.00000E+00
    0.19037E-11        -0.37253E-20         0.00000E+00
    0.19037E-11         0.37253E-20         0.00000E+00
    0.19037E-11         0.13039E-19         0.00000E+00
    0.19037E-11         0.11176E-19         0.00000E+00
    0.19037E-11        -0.18626E-20         0.00000E+00
    0.19037E-11        -0.22352E-19         0.00000E+00
    0.19037E-11        -0.29529E-19         0.00000E+00
    0.19037E-11        -0.29802E-19         0.00000E+00
    0.19037E-11        -0.26351E-19         0.00000E+00
    0.19037E-11        -0.18900E-19         0.00000E+00
    0.19037E-11        -0.14901E-19         0.00000E+00
    0.19037E-11        -0.16764E-19         0.00000E+00
    0.19037E-11        -0.43829E-20         0.00000E+00
    0.19037E-11         0.89293E-20         0.00000E+00
    0.19037E-11         0.16490E-19         0.00000E+00
    0.19037E-11         0.16764E-19         0.00000E+00
    0.19037E-11         0.22078E-19         0.00000E+00
    0.19037E-11         0.23941E-19         0.00000E+00
    0.19037E-11         0.42727E-20         0.00000E+00
    0.19037E-11        -0.71769E-20         0.00000E+00
    0.19037E-11        -0.11450E-19         0.00000E+00
    0.19037E-11        -0.26351E-19         0.00000E+00
    0.19037E-11        -0.26077E-19         0.00000E+00
    0.19037E-11        -0.11176E-19         0.00000E+00
    0.19037E-11        -0.71769E-20         0.00000E+00
    0.19037E-11         0.37253E-20         0.00000E+00
    0.19037E-11         0.22352E-19         0.00000E+00
    0.19037E-11         0.22625E-19         0.00000E+00
    0.19037E-11         0.37253E-20         0.00000E+00
    0.19037E-11        -0.11450E-19         0.00000E+00
    0.19037E-11        -0.74506E-20         0.00000E+00
    0.19037E-11         0.25146E-33         0.00000E+00
    0.19037E-11         0.37253E-20         0.00000E+00
    0.19037E-11         0.37253E-20         0.00000E+00
    0.19037E-11        -0.27370E-21         0.00000E+00
    0.19037E-11        -0.37253E-20         0.00000E+00
    0.19037E-11        -0.39990E-20         0.00000E+00
    0.19037E-11        -0.18626E-20         0.00000E+00
    0.19037E-11        -0.10902E-19         0.00000E+00
    0.19037E-11        -0.23941E-19         0.00000E+00
    0.19037E-11        -0.26077E-19         0.00000E+00
    0.19037E-11        -0.18626E-19         0.00000E+00
    0.19037E-11        -0.24214E-19         0.00000E+00
    0.19037E-11        -0.28213E-19         0.00000E+00
    0.19037E-11        -0.16764E-19         0.00000E+00
    0.19037E-11        -0.93132E-20         0.00000E+00
    0.19037E-11        -0.55879E-20         0.00000E+00
    0.19037E-11         0.00000E+00         0.00000E+00
    0.19037E-11         0.74506E-20         0.00000E+00
    0.19037E-11         0.11176E-19         0.00000E+00
    0.89709E-11         0.37253E-20         0.00000E+00
    0.89709E-11         0.74506E-20         0.00000E+00
    0.89709E-11         0.00000E+00         0.00000E+00
    0.89709E-11        -0.55879E-20         0.00000E+00
    0.89709E-11        -0.34518E-20         0.00000E+00
    0.89709E-11        -0.74506E-20         0.00000E+00
    0.89709E-11        -0.95867E-20         0.00000E+00
    0.89709E-11        -0.10902E-19         0.00000E+00
    0.89709E-11        -0.16764E-19         0.00000E+00
    0.89709E-11        -0.22625E-19         0.00000E+00
    0.89709E-11        -0.25804E-19         0.00000E+00
    0.89709E-11        -0.13312E-19         0.00000E+00
    0.89709E-11        -0.95867E-20         0.00000E+00
    0.89709E-11        -0.69036E-20         0.00000E+00
    0.89709E-11         0.21361E-20         0.00000E+00
    0.89709E-11        -0.24096E-20         0.00000E+00
    0.89709E-11        -0.37253E-20         0.00000E+00
    0.89709E-11         0.11176E-19         0.00000E+00
    0.89709E-11         0.14354E-19         0.00000E+00
    0.89709E-11         0.39988E-20         0.00000E+00
    0.89709E-11        -0.90397E-20         0.00000E+00
    0.89709E-11        -0.11176E-19         0.00000E+00
    0.89709E-11        -0.12765E-19         0.00000E+00
    0.89709E-11        -0.16490E-19         0.00000E+00
    0.89709E-11        -0.98602E-20         0.00000E+00
    0.89709E-11        -0.93132E-20         0.00000E+00
    0.89709E-11        -0.53144E-20         0.00000E+00
    0.89709E-11         0.71771E-20         0.00000E+00
    0.89709E-11         0.53144E-20         0.00000E+00
    0.89709E-11         0.27349E-21         0.00000E+00
    0.89709E-11         0.54698E-21         0.00000E+00
    0.89709E-11         0.74506E-20         0.00000E+00
    0.89709E-11         0.18079E-19         0.00000E+00
    0.89709E-11         0.74506E-20         0.00000E+00
    0.89709E-11         0.27349E-21         0.00000E+00
    0.89709E-11         0.69036E-20         0.00000E+00
    0.89709E-11         0.18626E-20         0.00000E+00
    0.89709E-11        -0.90397E-20         0.00000E+00
    0.89709E-11        -0.13039E-19         0.00000E+00
    0.89709E-11        -0.15175E-19         0.00000E+00
    0.89709E-11        -0.20489E-19         0.00000E+00
    0.89709E-11        -0.22078E-19         0.00000E+00
    0.89709E-11        -0.20763E-19         0.00000E+00
    0.89709E-11        -0.22352E-19         0.00000E+00
    0.89709E-11        -0.20216E-19         0.00000E+00
    0.89709E-11        -0.17969E-19         0.00000E+00
    0.89709E-11        -0.86554E-20         0.00000E+00
    0.89709E-11        -0.50410E-20         0.00000E+00
    0.89709E-11        -0.34518E-20         0.00000E+00
    0.89709E-11        -0.24096E-20         0.00000E+00
    0.89709E-11        -0.42723E-20         0.00000E+00
    0.40533E-10         0.11176E-19         0.00000E+00
    0.40533E-10         0.13039E-19         0.00000E+00
    0.40533E-10         0.55879E-20         0.00000E+00
    0.40533E-10         0.00000E+00         0.00000E+00
    0.40533E-10         0.21352E-20         0.00000E+00
    0.40533E-10        -0.21352E-20         0.00000E+00
    0.40533E-10        -0.17309E-19         0.00000E+00
    0.40533E-10        -0.25804E-19         0.00000E+00
    0.40533E-10        -0.25804E-19         0.00000E+00
    0.40533E-10        -0.22352E-19         0.00000E+00
    0.40533E-10        -0.18626E-19         0.00000E+00
    0.40533E-10        -0.14629E-19         0.00000E+00
    0.40533E-10        -0.10903E-19         0.00000E+00
    0.40533E-10        -0.74506E-20         0.00000E+00
    0.40533E-10        -0.93132E-20         0.00000E+00
    0.40533E-10        -0.55879E-20         0.00000E+00
    0.40533E-10         0.71780E-20         0.00000E+00
    0.40533E-10         0.50428E-20         0.00000E+00
    0.40533E-10         0.34527E-20         0.00000E+00
    0.40533E-10         0.37253E-20         0.00000E+00
    0.40533E-10        -0.13175E-20         0.00000E+00
    0.40533E-10        -0.12766E-19         0.00000E+00
    0.40533E-10        -0.17036E-19         0.00000E+00
    0.40533E-10        -0.90407E-20         0.00000E+00
    0.40533E-10         0.15901E-20         0.00000E+00
    0.40533E-10        -0.21352E-20         0.00000E+00
    0.40533E-10         0.58605E-20         0.00000E+00
    0.40533E-10         0.22352E-19         0.00000E+00
    0.40533E-10         0.95858E-20         0.00000E+00
    0.40533E-10        -0.71780E-20         0.00000E+00
    0.40533E-10        -0.93132E-20         0.00000E+00
    0.40533E-10         0.37253E-20         0.00000E+00
    0.40533E-10         0.13039E-19         0.00000E+00
    0.40533E-10        -0.27255E-21         0.00000E+00
    0.40533E-10        -0.21352E-20         0.00000E+00
    0.40533E-10        -0.27255E-21         0.00000E+00
    0.40533E-10        -0.18626E-20         0.00000E+00
    0.40533E-10         0.27255E-21         0.00000E+00
    0.40533E-10        -0.13311E-19         0.00000E+00
    0.40533E-10        -0.18899E-19         0.00000E+00
    0.40533E-10        -0.90407E-20         0.00000E+00
    0.40533E-10        -0.10631E-19         0.00000E+00
    0.40533E-10        -0.16764E-19         0.00000E+00
    0.40533E-10        -0.22624E-19         0.00000E+00
    0.40533E-10        -0.20489E-19         0.00000E+00
    0.40533E-10        -0.11176E-19         0.00000E+00
    0.40533E-10        -0.37253E-20         0.00000E+00
    0.40533E-10        -0.74506E-20         0.00000E+00
    0.40533E-10        -0.11176E-19         0.00000E+00
    0.40533E-10        -0.27255E-21         0.00000E+00
    0.40533E-10         0.69055E-20         0.00000E+00
    0.17435E-09         0.37253E-20         0.00000E+00
    0.17435E-09         0.00000E+00         0.00000E+00
    0.17435E-09         0.34568E-20         0.00000E+00
    0.17435E-09         0.53194E-20         0.00000E+00
    0.17435E-09         0.53707E-21         0.00000E+00
    0.17435E-09        -0.12501E-19         0.00000E+00
    0.17435E-09        -0.22620E-19         0.00000E+00
    0.17435E-09        -0.24483E-19         0.00000E+00
    0.17435E-09        -0.29802E-19         0.00000E+00
    0.17435E-09        -0.22620E-19         0.00000E+00
    0.17435E-09        -0.77191E-20         0.00000E+00
    0.17435E-09        -0.15941E-20         0.00000E+00
    0.17435E-09        -0.15941E-20         0.00000E+00
    0.17435E-09         0.13039E-19         0.00000E+00
    0.17435E-09         0.17032E-19         0.00000E+00
    0.17435E-09        -0.18626E-20         0.00000E+00
    0.17435E-09        -0.61250E-20         0.00000E+00
    0.17435E-09         0.10907E-19         0.00000E+00
    0.17435E-09         0.20758E-19         0.00000E+00
    0.17435E-09         0.74506E-20         0.00000E+00
    0.17435E-09        -0.58565E-20         0.00000E+00
    0.17435E-09        -0.11176E-19         0.00000E+00
    0.17435E-09        -0.16495E-19         0.00000E+00
    0.17435E-09        -0.18089E-19         0.00000E+00
    0.17435E-09        -0.15170E-19         0.00000E+00
    0.17435E-09        -0.22352E-19         0.00000E+00
    0.17435E-09        -0.13039E-19         0.00000E+00
    0.17435E-09         0.34568E-20         0.00000E+00
    0.17435E-09         0.61250E-20         0.00000E+00
    0.17435E-09        -0.71820E-20         0.00000E+00
    0.17435E-09        -0.13307E-19         0.00000E+00
    0.17435E-09        -0.37253E-20         0.00000E+00
    0.17435E-09         0.53194E-20         0.00000E+00
    0.17435E-09         0.50509E-20         0.00000E+00
    0.17435E-09         0.58565E-20         0.00000E+00
    0.17435E-09         0.55879E-20         0.00000E+00
    0.17435E-09        -0.15941E-20         0.00000E+00
    0.17435E-09        -0.13256E-20         0.00000E+00
    0.17435E-09         0.71820E-20         0.00000E+00
    0.17435E-09        -0.79877E-20         0.00000E+00
    0.17435E-09        -0.26346E-19         0.00000E+00
    0.17435E-09        -0.22352E-19         0.00000E+00
    0.17435E-09        -0.22083E-19         0.00000E+00
    0.17435E-09        -0.33259E-19         0.00000E+00
    0.17435E-09        -0.26077E-19         0.00000E+00
    0.17435E-09        -0.14633E-19         0.00000E+00
    0.17435E-09        -0.65193E-20         0.00000E+00
    0.17435E-09         0.43881E-20         0.00000E+00
    0.17435E-09         0.53194E-20         0.00000E+00
    0.17435E-09        -0.26854E-21         0.00000E+00
    0.17435E-09        -0.74506E-20         0.00000E+00
    0.70773E-09         0.69457E-20         0.00000E+00
    0.70773E-09         0.74506E-20         0.00000E+00
    0.70773E-09         0.55879E-20         0.00000E+00
    0.70773E-09         0.18626E-20         0.00000E+00
    0.70773E-09        -0.50831E-20         0.00000E+00
    0.70773E-09        -0.74506E-20         0.00000E+00
    0.70773E-09        -0.95657E-20         0.00000E+00
    0.70773E-09        -0.17016E-19         0.00000E+00
    0.70773E-09        -0.21168E-19         0.00000E+00
    0.70773E-09        -0.19558E-19         0.00000E+00
    0.70773E-09        -0.13291E-19         0.00000E+00
    0.70773E-09         0.25243E-21         0.00000E+00
    0.70773E-09        -0.37253E-20         0.00000E+00
    0.70773E-09        -0.77030E-20         0.00000E+00
    0.70773E-09        -0.71981E-20         0.00000E+00
    0.70773E-09         0.42302E-20         0.00000E+00
    0.70773E-09         0.27435E-19         0.00000E+00
    0.70773E-09         0.14649E-19         0.00000E+00
    0.70773E-09         0.93132E-20         0.00000E+00
    0.70773E-09         0.16102E-20         0.00000E+00
    0.70773E-09        -0.12786E-19         0.00000E+00
    0.70773E-09        -0.14649E-19         0.00000E+00
    0.70773E-09        -0.26077E-19         0.00000E+00
    0.70773E-09        -0.29550E-19         0.00000E+00
    0.70773E-09        -0.95657E-20         0.00000E+00
    0.70773E-09        -0.74506E-20         0.00000E+00
    0.70773E-09        -0.71981E-20         0.00000E+00
    0.70773E-09         0.10923E-19         0.00000E+00
    0.70773E-09         0.90608E-20         0.00000E+00
    0.70773E-09        -0.16102E-20         0.00000E+00
    0.70773E-09        -0.74506E-20         0.00000E+00
    0.70773E-09        -0.18626E-20         0.00000E+00
    0.70773E-09         0.39777E-20         0.00000E+00
    0.70773E-09         0.18626E-20         0.00000E+00
    0.70773E-09         0.18626E-20         0.00000E+00
    0.70773E-09        -0.60928E-20         0.00000E+00
    0.70773E-09        -0.74506E-20         0.00000E+00
    0.70773E-09        -0.18626E-20         0.00000E+00
    0.70773E-09        -0.74506E-20         0.00000E+00
    0.70773E-09        -0.93132E-20         0.00000E+00
    0.70773E-09        -0.20489E-19         0.00000E+00
    0.70773E-09        -0.31413E-19         0.00000E+00
    0.70773E-09        -0.27940E-19         0.00000E+00
    0.70773E-09        -0.26077E-19         0.00000E+00
    0.70773E-09        -0.22099E-19         0.00000E+00
    0.70773E-09        -0.13291E-19         0.00000E+00
    0.70773E-09        -0.67717E-20         0.00000E+00
    0.70773E-09        -0.62668E-20         0.00000E+00
    0.70773E-09        -0.74506E-20         0.00000E+00
    0.70773E-09        -0.21151E-20         0.00000E+00
    0.70773E-09         0.32204E-20         0.00000E+00
    0.26813E-08         0.15286E-19         0.00000E+00
    0.26813E-08         0.11176E-19         0.00000E+00
    0.26813E-08         0.00000E+00         0.00000E+00
    0.26813E-08        -0.37253E-20         0.00000E+00
    0.26813E-08        -0.20550E-20         0.00000E+00
    0.26813E-08        -0.11368E-19         0.00000E+00
    0.26813E-08        -0.18626E-19         0.00000E+00
    0.26813E-08        -0.18626E-19         0.00000E+00
    0.26813E-08        -0.16764E-19         0.00000E+00
    0.26813E-08        -0.13039E-19         0.00000E+00
    0.26813E-08        -0.14901E-19         0.00000E+00
    0.26813E-08        -0.14709E-19         0.00000E+00
    0.26813E-08        -0.93132E-20         0.00000E+00
    0.26813E-08         0.57803E-20         0.00000E+00
    0.26813E-08         0.13231E-19         0.00000E+00
    0.26813E-08         0.10984E-19         0.00000E+00
    0.26813E-08         0.37253E-20         0.00000E+00
    0.26813E-08         0.91209E-20         0.00000E+00
    0.26813E-08         0.14517E-19         0.00000E+00
    0.26813E-08        -0.37253E-20         0.00000E+00
    0.26813E-08        -0.20297E-19         0.00000E+00
    0.26813E-08        -0.18434E-19         0.00000E+00
    0.26813E-08        -0.16764E-19         0.00000E+00
    0.26813E-08        -0.27747E-19         0.00000E+00
    0.26813E-08        -0.20681E-19         0.00000E+00
    0.26813E-08        -0.13039E-19         0.00000E+00
    0.26813E-08        -0.37253E-20         0.00000E+00
    0.26813E-08         0.11176E-19         0.00000E+00
    0.26813E-08         0.95056E-20         0.00000E+00
    0.26813E-08         0.37253E-20         0.00000E+00
    0.26813E-08        -0.37253E-20         0.00000E+00
    0.26813E-08        -0.76429E-20         0.00000E+00
    0.26813E-08        -0.37253E-20         0.00000E+00
    0.26813E-08         0.35330E-20         0.00000E+00
    0.26813E-08        -0.18626E-20         0.00000E+00
    0.26813E-08        -0.93132E-20         0.00000E+00
    0.26813E-08        -0.93132E-20         0.00000E+00
    0.26813E-08        -0.93132E-20         0.00000E+00
    0.26813E-08        -0.74506E-20         0.00000E+00
    0.26813E-08        -0.14901E-19         0.00000E+00
    0.26813E-08        -0.24214E-19         0.00000E+00
    0.26813E-08        -0.18626E-19         0.00000E+00
    0.26813E-08        -0.18819E-19         0.00000E+00
    0.26813E-08        -0.22352E-19         0.00000E+00
    0.26813E-08        -0.16379E-19         0.00000E+00
    0.26813E-08        -0.18434E-19         0.00000E+00
    0.26813E-08        -0.10437E-19         0.00000E+00
    0.26813E-08         0.00000E+00         0.00000E+00
    0.26813E-08         0.37253E-20         0.00000E+00
    0.26813E-08        -0.20550E-20         0.00000E+00
    0.26813E-08        -0.78352E-20         0.00000E+00
    0.93531E-08         0.00000E+00         0.00000E+00
    0.93531E-08        -0.37119E-20         0.00000E+00
    0.93531E-08        -0.37253E-20         0.00000E+00
    0.93531E-08         0.74372E-20         0.00000E+00
    0.93531E-08         0.74506E-20         0.00000E+00
    0.93531E-08        -0.11176E-19         0.00000E+00
    0.93531E-08        -0.22338E-19         0.00000E+00
    0.93531E-08        -0.22338E-19         0.00000E+00
    0.93531E-08        -0.26077E-19         0.00000E+00
    0.93531E-08        -0.22352E-19         0.00000E+00
    0.93531E-08        -0.14901E-19         0.00000E+00
    0.93531E-08        -0.18894E-20         0.00000E+00
    0.93531E-08         0.83819E-20         0.00000E+00
    0.93531E-08         0.84087E-20         0.00000E+00
    0.93531E-08         0.74238E-20         0.00000E+00
    0.93531E-08         0.18626E-20         0.00000E+00
    0.93531E-08         0.11189E-19         0.00000E+00
    0.93531E-08         0.20489E-19         0.00000E+00
    0.93531E-08         0.14915E-19         0.00000E+00
    0.93531E-08         0.00000E+00         0.00000E+00
    0.93531E-08        -0.14915E-19         0.00000E+00
    0.93531E-08        -0.22365E-19         0.00000E+00
    0.93531E-08        -0.22338E-19         0.00000E+00
    0.93531E-08        -0.22352E-19         0.00000E+00
    0.93531E-08        -0.22352E-19         0.00000E+00
    0.93531E-08        -0.18626E-19         0.00000E+00
    0.93531E-08        -0.74640E-20         0.00000E+00
    0.93531E-08         0.74640E-20         0.00000E+00
    0.93531E-08         0.93266E-20         0.00000E+00
    0.93531E-08        -0.37521E-20         0.00000E+00
    0.93531E-08        -0.93132E-20         0.00000E+00
    0.93531E-08         0.18760E-20         0.00000E+00
    0.93531E-08         0.55879E-20         0.00000E+00
    0.93531E-08        -0.18626E-20         0.00000E+00
    0.93531E-08        -0.13052E-19         0.00000E+00
    0.93531E-08        -0.14888E-19         0.00000E+00
    0.93531E-08        -0.37119E-20         0.00000E+00
    0.93531E-08        -0.37387E-20         0.00000E+00
    0.93531E-08        -0.37387E-20         0.00000E+00
    0.93531E-08        -0.74372E-20         0.00000E+00
    0.93531E-08        -0.20489E-19         0.00000E+00
    0.93531E-08        -0.18626E-19         0.00000E+00
    0.93531E-08        -0.20476E-19         0.00000E+00
    0.93531E-08        -0.24214E-19         0.00000E+00
    0.93531E-08        -0.18626E-19         0.00000E+00
    0.93531E-08        -0.93132E-20         0.00000E+00
    0.93531E-08        -0.13395E-22         0.00000E+00
    0.93531E-08        -0.13395E-22         0.00000E+00
    0.93531E-08         0.37253E-20         0.00000E+00
    0.93531E-08         0.56013E-20         0.00000E+00
    0.93531E-08         0.37521E-20         0.00000E+00
    0.29541E-07         0.12470E-19         0.00000E+00
    0.29541E-07         0.20489E-19         0.00000E+00
    0.29541E-07         0.14254E-19         0.00000E+00
    0.29541E-07         0.00000E+00         0.00000E+00
    0.29541E-07        -0.74506E-20         0.00000E+00
    0.29541E-07        -0.15185E-19         0.00000E+00
    0.29541E-07        -0.15185E-19         0.00000E+00
    0.29541E-07        -0.18342E-19         0.00000E+00
    0.29541E-07        -0.33528E-19         0.00000E+00
    0.29541E-07        -0.24498E-19         0.00000E+00
    0.29541E-07        -0.13686E-19         0.00000E+00
    0.29541E-07        -0.80978E-20         0.00000E+00
    0.29541E-07         0.53039E-20         0.00000E+00
    0.29541E-07         0.37253E-20         0.00000E+00
    0.29541E-07         0.52247E-20         0.00000E+00
    0.29541E-07         0.86660E-20         0.00000E+00
    0.29541E-07         0.11823E-19         0.00000E+00
    0.29541E-07         0.16196E-19         0.00000E+00
    0.29541E-07         0.19274E-19         0.00000E+00
    0.29541E-07         0.74506E-20         0.00000E+00
    0.29541E-07        -0.74506E-20         0.00000E+00
    0.29541E-07        -0.16764E-19         0.00000E+00
    0.29541E-07        -0.27656E-19         0.00000E+00
    0.29541E-07        -0.27656E-19         0.00000E+00
    0.29541E-07        -0.17048E-19         0.00000E+00
    0.29541E-07        -0.12107E-19         0.00000E+00
    0.29541E-07        -0.64727E-21         0.00000E+00
    0.29541E-07         0.15548E-19         0.00000E+00
    0.29541E-07         0.19274E-19         0.00000E+00
    0.29541E-07         0.16401E-19         0.00000E+00
    0.29541E-07        -0.25099E-20         0.00000E+00
    0.29541E-07        -0.74506E-20         0.00000E+00
    0.29541E-07        -0.83819E-20         0.00000E+00
    0.29541E-07        -0.68033E-20         0.00000E+00
    0.29541E-07         0.00000E+00         0.00000E+00
    0.29541E-07        -0.12154E-20         0.00000E+00
    0.29541E-07        -0.10529E-19         0.00000E+00
    0.29541E-07        -0.17411E-19         0.00000E+00
    0.29541E-07        -0.26077E-19         0.00000E+00
    0.29541E-07        -0.32880E-19         0.00000E+00
    0.29541E-07        -0.29802E-19         0.00000E+00
    0.29541E-07        -0.22352E-19         0.00000E+00
    0.29541E-07        -0.21136E-19         0.00000E+00
    0.29541E-07        -0.30450E-19         0.00000E+00
    0.29541E-07        -0.29155E-19         0.00000E+00
    0.29541E-07        -0.14901E-19         0.00000E+00
    0.29541E-07         0.30780E-20         0.00000E+00
    0.29541E-07         0.43726E-20         0.00000E+00
    0.29541E-07        -0.12154E-20         0.00000E+00
    0.29541E-07         0.00000E+00         0.00000E+00
    0.29541E-07         0.00000E+00         0.00000E+00
    0.82820E-07        -0.37253E-20         0.00000E+00
    0.82820E-07        -0.69459E-20         0.00000E+00
    0.82820E-07         0.23673E-20         0.00000E+00
    0.82820E-07         0.14901E-19         0.00000E+00
    0.82820E-07         0.50833E-20         0.00000E+00
    0.82820E-07        -0.13039E-19         0.00000E+00
    0.82820E-07        -0.22352E-19         0.00000E+00
    0.82820E-07        -0.34032E-19         0.00000E+00
    0.82820E-07        -0.26077E-19         0.00000E+00
    0.82820E-07        -0.18122E-19         0.00000E+00
    0.82820E-07        -0.27435E-19         0.00000E+00
    0.82820E-07        -0.16764E-19         0.00000E+00
    0.82820E-07        -0.11176E-19         0.00000E+00
    0.82820E-07        -0.77970E-22         0.00000E+00
    0.82820E-07         0.55100E-20         0.00000E+00
    0.82820E-07         0.56659E-20         0.00000E+00
    0.82820E-07         0.14979E-19         0.00000E+00
    0.82820E-07         0.22352E-19         0.00000E+00
    0.82820E-07         0.18626E-19         0.00000E+00
    0.82820E-07         0.93132E-20         0.00000E+00
    0.82820E-07        -0.11176E-19         0.00000E+00
    0.82820E-07        -0.19131E-19         0.00000E+00
    0.82820E-07        -0.13543E-19         0.00000E+00
    0.82820E-07        -0.18626E-19         0.00000E+00
    0.82820E-07        -0.12534E-19         0.00000E+00
    0.82820E-07         0.37253E-20         0.00000E+00
    0.82820E-07         0.11176E-19         0.00000E+00
    0.82820E-07         0.11176E-19         0.00000E+00
    0.82820E-07         0.27160E-20         0.00000E+00
    0.82820E-07        -0.11603E-19         0.00000E+00
    0.82820E-07        -0.18548E-19         0.00000E+00
    0.82820E-07        -0.60926E-20         0.00000E+00
    0.82820E-07         0.55879E-20         0.00000E+00
    0.82820E-07         0.23673E-20         0.00000E+00
    0.82820E-07        -0.18626E-20         0.00000E+00
    0.82820E-07        -0.98179E-20         0.00000E+00
    0.82820E-07        -0.14901E-19         0.00000E+00
    0.82820E-07        -0.18122E-19         0.00000E+00
    0.82820E-07        -0.22352E-19         0.00000E+00
    0.82820E-07        -0.22352E-19         0.00000E+00
    0.82820E-07        -0.26077E-19         0.00000E+00
    0.82820E-07        -0.26582E-19         0.00000E+00
    0.82820E-07        -0.22856E-19         0.00000E+00
    0.82820E-07        -0.23710E-19         0.00000E+00
    0.82820E-07        -0.21847E-19         0.00000E+00
    0.82820E-07        -0.10749E-19         0.00000E+00
    0.82820E-07        -0.27940E-20         0.00000E+00
    0.82820E-07        -0.50833E-20         0.00000E+00
    0.82820E-07        -0.42299E-20         0.00000E+00
    0.82820E-07         0.00000E+00         0.00000E+00
    0.82820E-07         0.10093E-20         0.00000E+00
    0.20156E-06         0.00000E+00         0.00000E+00
    0.20156E-06         0.57312E-20         0.00000E+00
    0.20156E-06         0.18626E-20         0.00000E+00
    0.20156E-06        -0.38686E-20         0.00000E+00
    0.20156E-06         0.14330E-21         0.00000E+00
    0.20156E-06        -0.91699E-20         0.00000E+00
    0.20156E-06        -0.28083E-19         0.00000E+00
    0.20156E-06        -0.24214E-19         0.00000E+00
    0.20156E-06        -0.31665E-19         0.00000E+00
    0.20156E-06        -0.35534E-19         0.00000E+00
    0.20156E-06        -0.24214E-19         0.00000E+00
    0.20156E-06        -0.91699E-20         0.00000E+00
    0.20156E-06        -0.17193E-20         0.00000E+00
    0.20156E-06        -0.57312E-20         0.00000E+00
    0.20156E-06         0.57312E-20         0.00000E+00
    0.20156E-06         0.13039E-19         0.00000E+00
    0.20156E-06         0.10889E-19         0.00000E+00
    0.20156E-06         0.13039E-19         0.00000E+00
    0.20156E-06         0.22352E-19         0.00000E+00
    0.20156E-06         0.14901E-19         0.00000E+00
    0.20156E-06         0.20059E-20         0.00000E+00
    0.20156E-06        -0.91699E-20         0.00000E+00
    0.20156E-06        -0.26220E-19         0.00000E+00
    0.20156E-06        -0.24214E-19         0.00000E+00
    0.20156E-06        -0.93132E-20         0.00000E+00
    0.20156E-06        -0.11319E-19         0.00000E+00
    0.20156E-06        -0.55879E-20         0.00000E+00
    0.20156E-06         0.75939E-20         0.00000E+00
    0.20156E-06         0.18626E-20         0.00000E+00
    0.20156E-06        -0.11319E-19         0.00000E+00
    0.20156E-06        -0.11176E-19         0.00000E+00
    0.20156E-06        -0.55879E-20         0.00000E+00
    0.20156E-06        -0.37253E-20         0.00000E+00
    0.20156E-06        -0.18626E-20         0.00000E+00
    0.20156E-06        -0.37253E-20         0.00000E+00
    0.20156E-06        -0.37253E-20         0.00000E+00
    0.20156E-06        -0.55879E-20         0.00000E+00
    0.20156E-06        -0.11176E-19         0.00000E+00
    0.20156E-06        -0.62327E-20         0.00000E+00
    0.20156E-06        -0.11176E-19         0.00000E+00
    0.20156E-06        -0.32883E-19         0.00000E+00
    0.20156E-06        -0.27796E-19         0.00000E+00
    0.20156E-06        -0.18626E-19         0.00000E+00
    0.20156E-06        -0.19558E-19         0.00000E+00
    0.20156E-06        -0.19558E-19         0.00000E+00
    0.20156E-06        -0.11319E-19         0.00000E+00
    0.20156E-06         0.37253E-20         0.00000E+00
    0.20156E-06         0.57312E-20         0.00000E+00
    0.20156E-06        -0.37253E-20         0.00000E+00
    0.20156E-06        -0.75939E-20         0.00000E+00
    0.20156E-06        -0.37253E-20         0.00000E+00
    0.41597E-06         0.14461E-19         0.00000E+00
    0.41597E-06         0.37253E-20         0.00000E+00
    0.41597E-06        -0.37253E-20         0.00000E+00
    0.41597E-06        -0.74506E-20         0.00000E+00
    0.41597E-06        -0.11176E-19         0.00000E+00
    0.41597E-06        -0.14901E-19         0.00000E+00
    0.41597E-06        -0.22352E-19         0.00000E+00
    0.41597E-06        -0.27940E-19         0.00000E+00
    0.41597E-06        -0.22352E-19         0.00000E+00
    0.41597E-06        -0.20489E-19         0.00000E+00
    0.41597E-06        -0.16764E-19         0.00000E+00
    0.41597E-06        -0.93132E-20         0.00000E+00
    0.41597E-06        -0.37253E-20         0.00000E+00
    0.41597E-06         0.53680E-20         0.00000E+00
    0.41597E-06         0.55879E-20         0.00000E+00
    0.41597E-06         0.21993E-21         0.00000E+00
    0.41597E-06         0.11176E-19         0.00000E+00
    0.41597E-06         0.27008E-19         0.00000E+00
    0.41597E-06         0.10464E-19         0.00000E+00
    0.41597E-06        -0.74506E-20         0.00000E+00
    0.41597E-06        -0.18626E-19         0.00000E+00
    0.41597E-06        -0.18626E-19         0.00000E+00
    0.41597E-06        -0.20489E-19         0.00000E+00
    0.41597E-06        -0.26077E-19         0.00000E+00
    0.41597E-06        -0.16764E-19         0.00000E+00
    0.41597E-06        -0.48765E-20         0.00000E+00
    0.41597E-06        -0.27940E-20         0.00000E+00
    0.41597E-06         0.58079E-20         0.00000E+00
    0.41597E-06         0.11176E-19         0.00000E+00
    0.41597E-06         0.18626E-20         0.00000E+00
    0.41597E-06        -0.30139E-20         0.00000E+00
    0.41597E-06        -0.48765E-20         0.00000E+00
    0.41597E-06         0.37253E-20         0.00000E+00
    0.41597E-06        -0.71139E-21         0.00000E+00
    0.41597E-06         0.30139E-20         0.00000E+00
    0.41597E-06         0.37253E-20         0.00000E+00
    0.41597E-06        -0.37253E-20         0.00000E+00
    0.41597E-06        -0.74506E-20         0.00000E+00
    0.41597E-06        -0.58079E-20         0.00000E+00
    0.41597E-06        -0.22352E-19         0.00000E+00
    0.41597E-06        -0.27940E-19         0.00000E+00
    0.41597E-06        -0.16764E-19         0.00000E+00
    0.41597E-06        -0.22132E-19         0.00000E+00
    0.41597E-06        -0.26077E-19         0.00000E+00
    0.41597E-06        -0.18626E-19         0.00000E+00
    0.41597E-06        -0.11176E-19         0.00000E+00
    0.41597E-06        -0.93132E-20         0.00000E+00
    0.41597E-06        -0.55879E-20         0.00000E+00
    0.41597E-06        -0.18626E-20         0.00000E+00
    0.41597E-06         0.16052E-19         0.00000E+00
    0.41597E-06         0.24654E-19         0.00000E+00
    0.71182E-06         0.82529E-20         0.00000E+00
    0.71182E-06         0.18626E-20         0.00000E+00
    0.71182E-06        -0.13440E-19         0.00000E+00
    0.71182E-06        -0.70494E-20         0.00000E+00
    0.71182E-06         0.41265E-20         0.00000E+00
    0.71182E-06        -0.13440E-19         0.00000E+00
    0.71182E-06        -0.30203E-19         0.00000E+00
    0.71182E-06        -0.27940E-19         0.00000E+00
    0.71182E-06        -0.22638E-20         0.00000E+00
    0.71182E-06        -0.22352E-19         0.00000E+00
    0.71182E-06        -0.38714E-19         0.00000E+00
    0.71182E-06        -0.11176E-19         0.00000E+00
    0.71182E-06        -0.13039E-19         0.00000E+00
    0.71182E-06        -0.37253E-20         0.00000E+00
    0.71182E-06        -0.18626E-20         0.00000E+00
    0.71182E-06        -0.74506E-20         0.00000E+00
    0.71182E-06         0.55879E-20         0.00000E+00
    0.71182E-06         0.16764E-19         0.00000E+00
    0.71182E-06         0.16764E-19         0.00000E+00
    0.71182E-06         0.74506E-20         0.00000E+00
    0.71182E-06        -0.37253E-20         0.00000E+00
    0.71182E-06        -0.14901E-19         0.00000E+00
    0.71182E-06        -0.20489E-19         0.00000E+00
    0.71182E-06        -0.16764E-19         0.00000E+00
    0.71182E-06        -0.93132E-20         0.00000E+00
    0.71182E-06        -0.74506E-20         0.00000E+00
    0.71182E-06         0.00000E+00         0.00000E+00
    0.71182E-06         0.13039E-19         0.00000E+00
    0.71182E-06         0.74506E-20         0.00000E+00
    0.71182E-06        -0.18626E-20         0.00000E+00
    0.71182E-06        -0.37253E-20         0.00000E+00
    0.71182E-06         0.59891E-20         0.00000E+00
    0.71182E-06         0.11176E-19         0.00000E+00
    0.71182E-06         0.83819E-20         0.00000E+00
    0.71182E-06        -0.37253E-20         0.00000E+00
    0.71182E-06        -0.87831E-20         0.00000E+00
    0.71182E-06        -0.55879E-20         0.00000E+00
    0.71182E-06        -0.42554E-20         0.00000E+00
    0.71182E-06        -0.83819E-20         0.00000E+00
    0.71182E-06        -0.17165E-19         0.00000E+00
    0.71182E-06        -0.21019E-19         0.00000E+00
    0.71182E-06        -0.18626E-19         0.00000E+00
    0.71182E-06        -0.10646E-19         0.00000E+00
    0.71182E-06        -0.93132E-20         0.00000E+00
    0.71182E-06        -0.14901E-19         0.00000E+00
    0.71182E-06        -0.13569E-19         0.00000E+00
    0.71182E-06        -0.18626E-20         0.00000E+00
    0.71182E-06         0.42554E-20         0.00000E+00
    0.71182E-06        -0.61181E-20         0.00000E+00
    0.71182E-06         0.14500E-19         0.00000E+00
    0.71182E-06         0.33786E-19         0.00000E+00
    0.99111E-06         0.00000E+00         0.00000E+00
    0.99111E-06        -0.23267E-19         0.00000E+00
    0.99111E-06         0.32596E-20         0.00000E+00
    0.99111E-06         0.22801E-19         0.00000E+00
    0.99111E-06        -0.34908E-19         0.00000E+00
    0.99111E-06        -0.34908E-19         0.00000E+00
    0.99111E-06         0.55552E-20         0.00000E+00
    0.99111E-06         0.51059E-20         0.00000E+00
    0.99111E-06        -0.20938E-19         0.00000E+00
    0.99111E-06        -0.16764E-19         0.00000E+00
    0.99111E-06        -0.18626E-19         0.00000E+00
    0.99111E-06        -0.14901E-19         0.00000E+00
    0.99111E-06         0.55879E-20         0.00000E+00
    0.99111E-06        -0.21870E-19         0.00000E+00
    0.99111E-06         0.51223E-20         0.00000E+00
    0.99111E-06         0.35374E-19         0.00000E+00
    0.99111E-06         0.11176E-19         0.00000E+00
    0.99111E-06         0.55879E-20         0.00000E+00
    0.99111E-06         0.13039E-19         0.00000E+00
    0.99111E-06         0.74506E-20         0.00000E+00
    0.99111E-06        -0.10245E-19         0.00000E+00
    0.99111E-06        -0.93132E-20         0.00000E+00
    0.99111E-06        -0.12107E-19         0.00000E+00
    0.99111E-06        -0.13039E-19         0.00000E+00
    0.99111E-06        -0.74506E-20         0.00000E+00
    0.99111E-06        -0.37253E-20         0.00000E+00
    0.99111E-06        -0.93132E-21         0.00000E+00
    0.99111E-06         0.55879E-20         0.00000E+00
    0.99111E-06         0.37253E-20         0.00000E+00
    0.99111E-06        -0.18626E-20         0.00000E+00
    0.99111E-06        -0.27940E-20         0.00000E+00
    0.99111E-06        -0.17662E-19         0.00000E+00
    0.99111E-06         0.37253E-20         0.00000E+00
    0.99111E-06         0.19525E-19         0.00000E+00
    0.99111E-06         0.37253E-20         0.00000E+00
    0.99111E-06         0.37253E-20         0.00000E+00
    0.99111E-06        -0.18626E-20         0.00000E+00
    0.99111E-06        -0.74506E-20         0.00000E+00
    0.99111E-06        -0.11176E-19         0.00000E+00
    0.99111E-06        -0.55879E-20         0.00000E+00
    0.99111E-06        -0.93132E-20         0.00000E+00
    0.99111E-06        -0.16764E-19         0.00000E+00
    0.99111E-06        -0.74506E-20         0.00000E+00
    0.99111E-06        -0.30717E-19         0.00000E+00
    0.99111E-06        -0.32596E-20         0.00000E+00
    0.99111E-06         0.28389E-19         0.00000E+00
    0.99111E-06        -0.19541E-19         0.00000E+00
    0.99111E-06        -0.30717E-19         0.00000E+00
    0.99111E-06         0.30717E-19         0.00000E+00
    0.99111E-06         0.27907E-19         0.00000E+00
    0.99111E-06        -0.22384E-19         0.00000E+00
    0.11084E-05         0.00000E+00         0.00000E+00
    0.11084E-05         0.00000E+00         0.00000E+00
    0.11084E-05         0.00000E+00         0.00000E+00
    0.11084E-05         0.00000E+00         0.00000E+00
    0.11084E-05         0.00000E+00         0.00000E+00
    0.11084E-05         0.00000E+00         0.00000E+00
    0.11084E-05         0.00000E+00         0.00000E+00
    0.11084E-05         0.00000E+00         0.00000E+00
    0.11084E-05         0.00000E+00         0.00000E+00
    0.11084E-05        -0.31665E-19         0.00000E+00
    0.11084E-05         0.00000E+00         0.00000E+00
    0.11084E-05         0.31665E-19         0.00000E+00
    0.11084E-05         0.00000E+00         0.00000E+00
    0.11084E-05         0.00000E+00         0.00000E+00
    0.11084E-05         0.00000E+00         0.00000E+00
    0.11084E-05         0.00000E+00         0.00000E+00
    0.11084E-05         0.00000E+00         0.00000E+00
    0.11084E-05         0.31665E-19         0.00000E+00
    0.11084E-05         0.00000E+00         0.00000E+00
    0.11084E-05        -0.31665E-19         0.00000E+00
    0.11084E-05         0.00000E+00         0.00000E+00
    0.11084E-05         0.00000E+00         0.00000E+00
    0.11084E-05         0.00000E+00         0.00000E+00
    0.11084E-05         0.00000E+00         0.00000E+00
    0.11084E-05         0.00000E+00         0.00000E+00
    0.11084E-05         0.00000E+00         0.00000E+00
    0.11084E-05         0.00000E+00         0.00000E+00
    0.11084E-05         0.00000E+00         0.00000E+00
    0.11084E-05         0.00000E+00         0.00000E+00
    0.11084E-05         0.00000E+00         0.00000E+00
    0.11084E-05         0.00000E+00         0.00000E+00
    0.11084E-05         0.00000E+00         0.00000E+00
    0.11084E-05         0.00000E+00         0.00000E+00
    0.11084E-05         0.00000E+00         0.00000E+00
    0.11084E-05         0.00000E+00         0.00000E+00
    0.11084E-05         0.00000E+00         0.00000E+00
    0.11084E-05         0.00000E+00         0.00000E+00
    0.11084E-05         0.00000E+00         0.00000E+00
    0.11084E-05         0.00000E+00         0.00000E+00
    0.11084E-05        -0.32596E-19         0.00000E+00
    0.11084E-05        -0.31665E-19         0.00000E+00
    0.11084E-05         0.31665E-19         0.00000E+00
    0.11084E-05         0.31665E-19         0.00000E+00
    0.11084E-05         0.00000E+00         0.00000E+00
    0.11084E-05         0.00000E+00         0.00000E+00
    0.11084E-05         0.00000E+00         0.00000E+00
    0.11084E-05         0.00000E+00         0.00000E+00
    0.11084E-05         0.31665E-19         0.00000E+00
    0.11084E-05         0.93132E-21         0.00000E+00
    0.11084E-05         0.00000E+00         0.00000E+00
    0.11084E-05         0.63330E-19         0.00000E+00
CELL_DATA       5000
TENSORS stressef double 
    0.21814E+08        -0.60658E+06         0.00000E+00
   -0.60658E+06         0.16612E+08         0.00000E+00
    0.00000E+00         0.00000E+00         0.11404E+08
 
    0.20910E+08        -0.84098E+06         0.00000E+00
   -0.84098E+06         0.16332E+08         0.00000E+00
    0.00000E+00         0.00000E+00         0.10207E+08
 
    0.20082E+08        -0.99245E+06         0.00000E+00
   -0.99245E+06         0.16019E+08         0.00000E+00
    0.00000E+00         0.00000E+00         0.91207E+07
 
    0.19359E+08        -0.10897E+07         0.00000E+00
   -0.10897E+07         0.15678E+08         0.00000E+00
    0.00000E+00         0.00000E+00         0.81566E+07
 
    0.18734E+08        -0.11560E+07         0.00000E+00
   -0.11560E+07         0.15314E+08         0.00000E+00
    0.00000E+00         0.00000E+00         0.73245E+07
 
    0.18054E+08        -0.11960E+07         0.00000E+00
   -0.11960E+07         0.14905E+08         0.00000E+00
    0.00000E+00         0.00000E+00         0.67372E+07
 
    0.17379E+08        -0.11902E+07         0.00000E+00
   -0.11902E+07         0.14487E+08         0.00000E+00
    0.00000E+00         0.00000E+00         0.63732E+07
 
    0.16748E+08        -0.11402E+07         0.00000E+00
   -0.11402E+07         0.14085E+08         0.00000E+00
    0.00000E+00         0.00000E+00         0.61666E+07
 
    0.16241E+08        -0.10787E+07         0.00000E+00
   -0.10787E+07         0.13696E+08         0.00000E+00
    0.00000E+00         0.00000E+00         0.59875E+07
 
    0.15827E+08        -0.10139E+07         0.00000E+00
   -0.10139E+07         0.13324E+08         0.00000E+00
    0.00000E+00         0.00000E+00         0.58302E+07
 
    0.15483E+08        -0.94973E+06         0.00000E+00
   -0.94973E+06         0.12970E+08         0.00000E+00
    0.00000E+00         0.00000E+00         0.56908E+07
 
    0.15195E+08        -0.88811E+06         0.00000E+00
   -0.88811E+06         0.12636E+08         0.00000E+00
    0.00000E+00         0.00000E+00         0.55662E+07
 
    0.14951E+08        -0.82990E+06         0.00000E+00
   -0.82990E+06         0.12319E+08         0.00000E+00
    0.00000E+00         0.00000E+00         0.54542E+07
 
    0.14742E+08        -0.77540E+06         0.00000E+00
   -0.77540E+06         0.12022E+08         0.00000E+00
    0.00000E+00         0.00000E+00         0.53528E+07
 
    0.14561E+08        -0.72462E+06         0.00000E+00
   -0.72462E+06         0.11742E+08         0.00000E+00
    0.00000E+00         0.00000E+00         0.52605E+07
 
    0.14402E+08        -0.67739E+06         0.00000E+00
   -0.67739E+06         0.11478E+08         0.00000E+00
    0.00000E+00         0.00000E+00         0.51760E+07
 
    0.14261E+08        -0.63352E+06         0.00000E+00
   -0.63352E+06         0.11231E+08         0.00000E+00
    0.00000E+00         0.00000E+00         0.50984E+07
 
    0.14135E+08        -0.59273E+06         0.00000E+00
   -0.59273E+06         0.10998E+08         0.00000E+00
    0.00000E+00         0.00000E+00         0.50267E+07
 
    0.14021E+08        -0.55479E+06         0.00000E+00
   -0.55479E+06         0.10780E+08         0.00000E+00
    0.00000E+00         0.00000E+00         0.49602E+07
 
    0.13916E+08        -0.51943E+06         0.00000E+00
   -0.51943E+06         0.10575E+08         0.00000E+00
    0.00000E+00         0.00000E+00         0.48982E+07
 
    0.13818E+08        -0.48641E+06         0.00000E+00
   -0.48641E+06         0.10382E+08         0.00000E+00
    0.00000E+00         0.00000E+00         0.48401E+07
 
    0.13725E+08        -0.45549E+06         0.00000E+00
   -0.45549E+06         0.10202E+08         0.00000E+00
    0.00000E+00         0.00000E+00         0.47854E+07
 
    0.13636E+08        -0.42646E+06         0.00000E+00
   -0.42646E+06         0.10032E+08         0.00000E+00
    0.00000E+00         0.00000E+00         0.47337E+07
 
    0.13550E+08        -0.39910E+06         0.00000E+00
   -0.39910E+06         0.98733E+07         0.00000E+00
    0.00000E+00         0.00000E+00         0.46846E+07
 
    0.13464E+08        -0.37320E+06         0.00000E+00
   -0.37320E+06         0.97245E+07         0.00000E+00
    0.00000E+00         0.00000E+00         0.46376E+07
 
    0.13377E+08        -0.34857E+06         0.00000E+00
   -0.34857E+06         0.95853E+07         0.00000E+00
    0.00000E+00         0.00000E+00         0.45925E+07
 
    0.13289E+08        -0.32500E+06         0.00000E+00
   -0.32500E+06         0.94552E+07         0.00000E+00
    0.00000E+00         0.00000E+00         0.45489E+07
 
    0.13199E+08        -0.30230E+06         0.00000E+00
   -0.30230E+06         0.93341E+07         0.00000E+00
    0.00000E+00         0.00000E+00         0.45066E+07
 
    0.13104E+08        -0.28026E+06         0.00000E+00
   -0.28026E+06         0.92216E+07         0.00000E+00
    0.00000E+00         0.00000E+00         0.44652E+07
 
    0.13004E+08        -0.25865E+06         0.00000E+00
   -0.25865E+06         0.91176E+07         0.00000E+00
    0.00000E+00         0.00000E+00         0.44244E+07
 
    0.12897E+08        -0.23724E+06         0.00000E+00
   -0.23724E+06         0.90220E+07         0.00000E+00
    0.00000E+00         0.00000E+00         0.43839E+07
 
    0.12783E+08        -0.21575E+06         0.00000E+00
   -0.21575E+06         0.89347E+07         0.00000E+00
    0.00000E+00         0.00000E+00         0.43435E+07
 
    0.12658E+08        -0.19387E+06         0.00000E+00
   -0.19387E+06         0.88559E+07         0.00000E+00
    0.00000E+00         0.00000E+00         0.43028E+07
 
    0.12521E+08        -0.17125E+06         0.00000E+00
   -0.17125E+06         0.87859E+07         0.00000E+00
    0.00000E+00         0.00000E+00         0.42614E+07
 
    0.12371E+08        -0.14745E+06         0.00000E+00
   -0.14745E+06         0.87250E+07         0.00000E+00
    0.00000E+00         0.00000E+00         0.42192E+07
 
    0.12204E+08        -0.12194E+06         0.00000E+00
   -0.12194E+06         0.86738E+07         0.00000E+00
    0.00000E+00         0.00000E+00         0.41755E+07
 
    0.12017E+08        -0.94073E+05         0.00000E+00
   -0.94073E+05         0.86331E+07         0.00000E+00
    0.00000E+00         0.00000E+00         0.41300E+07
 
    0.11807E+08        -0.63015E+05         0.00000E+00
   -0.63015E+05         0.86040E+07         0.00000E+00
    0.00000E+00         0.00000E+00         0.40822E+07
 
    0.11570E+08        -0.27709E+05         0.00000E+00
   -0.27709E+05         0.85878E+07         0.00000E+00
    0.00000E+00         0.00000E+00         0.40315E+07
 
    0.11300E+08         0.13223E+05         0.00000E+00
    0.13223E+05         0.85864E+07         0.00000E+00
    0.00000E+00         0.00000E+00         0.39772E+07
 
    0.10990E+08         0.61604E+05         0.00000E+00
    0.61604E+05         0.86023E+07         0.00000E+00
    0.00000E+00         0.00000E+00         0.39185E+07
 
    0.10633E+08         0.11989E+06         0.00000E+00
    0.11989E+06         0.86385E+07         0.00000E+00
    0.00000E+00         0.00000E+00         0.38542E+07
 
    0.10217E+08         0.19143E+06         0.00000E+00
    0.19143E+06         0.86992E+07         0.00000E+00
    0.00000E+00         0.00000E+00         0.37832E+07
 
    0.97298E+07         0.28092E+06         0.00000E+00
    0.28092E+06         0.87899E+07         0.00000E+00
    0.00000E+00         0.00000E+00         0.37039E+07
 
    0.91532E+07         0.39507E+06         0.00000E+00
    0.39507E+06         0.89176E+07         0.00000E+00
    0.00000E+00         0.00000E+00         0.36142E+07
 
    0.84637E+07         0.54378E+06         0.00000E+00
    0.54378E+06         0.90922E+07         0.00000E+00
    0.00000E+00         0.00000E+00         0.35112E+07
 
    0.76287E+07         0.74205E+06         0.00000E+00
    0.74205E+06         0.93265E+07         0.00000E+00
    0.00000E+00         0.00000E+00         0.33911E+07
 
    0.66022E+07         0.10137E+07         0.00000E+00
    0.10137E+07         0.96387E+07         0.00000E+00
    0.00000E+00         0.00000E+00         0.32482E+07
 
    0.53158E+07         0.13980E+07         0.00000E+00
    0.13980E+07         0.10054E+08         0.00000E+00
    0.00000E+00         0.00000E+00         0.30739E+07
 
    0.36640E+07         0.19637E+07         0.00000E+00
    0.19637E+07         0.10606E+08         0.00000E+00
    0.00000E+00         0.00000E+00         0.28540E+07
 
    0.12434E+08        -0.34773E+06         0.00000E+00
   -0.34773E+06         0.94514E+07         0.00000E+00
    0.00000E+00         0.00000E+00         0.43771E+07
 
    0.12346E+08        -0.97721E+06         0.00000E+00
   -0.97721E+06         0.96352E+07         0.00000E+00
    0.00000E+00         0.00000E+00         0.43963E+07
 
    0.12088E+08        -0.14320E+07         0.00000E+00
   -0.14320E+07         0.97343E+07         0.00000E+00
    0.00000E+00         0.00000E+00         0.43645E+07
 
    0.11753E+08        -0.17589E+07         0.00000E+00
   -0.17589E+07         0.97733E+07         0.00000E+00
    0.00000E+00         0.00000E+00         0.43053E+07
 
    0.11382E+08        -0.19927E+07         0.00000E+00
   -0.19927E+07         0.97711E+07         0.00000E+00
    0.00000E+00         0.00000E+00         0.42306E+07
 
    0.10997E+08        -0.21552E+07         0.00000E+00
   -0.21552E+07         0.97739E+07         0.00000E+00
    0.00000E+00         0.00000E+00         0.41541E+07
 
    0.10601E+08        -0.22459E+07         0.00000E+00
   -0.22459E+07         0.97503E+07         0.00000E+00
    0.00000E+00         0.00000E+00         0.40702E+07
 
    0.10210E+08        -0.22740E+07         0.00000E+00
   -0.22740E+07         0.96875E+07         0.00000E+00
    0.00000E+00         0.00000E+00         0.39796E+07
 
    0.98449E+07        -0.22552E+07         0.00000E+00
   -0.22552E+07         0.96007E+07         0.00000E+00
    0.00000E+00         0.00000E+00         0.38891E+07
 
    0.95122E+07        -0.22054E+07         0.00000E+00
   -0.22054E+07         0.94956E+07         0.00000E+00
    0.00000E+00         0.00000E+00         0.38016E+07
 
    0.92134E+07        -0.21358E+07         0.00000E+00
   -0.21358E+07         0.93769E+07         0.00000E+00
    0.00000E+00         0.00000E+00         0.37181E+07
 
    0.89467E+07        -0.20540E+07         0.00000E+00
   -0.20540E+07         0.92488E+07         0.00000E+00
    0.00000E+00         0.00000E+00         0.36391E+07
 
    0.87090E+07        -0.19654E+07         0.00000E+00
   -0.19654E+07         0.91146E+07         0.00000E+00
    0.00000E+00         0.00000E+00         0.35647E+07
 
    0.84969E+07        -0.18736E+07         0.00000E+00
   -0.18736E+07         0.89770E+07         0.00000E+00
    0.00000E+00         0.00000E+00         0.34948E+07
 
    0.83071E+07        -0.17812E+07         0.00000E+00
   -0.17812E+07         0.88383E+07         0.00000E+00
    0.00000E+00         0.00000E+00         0.34291E+07
 
    0.81365E+07        -0.16898E+07         0.00000E+00
   -0.16898E+07         0.87000E+07         0.00000E+00
    0.00000E+00         0.00000E+00         0.33673E+07
 
    0.79822E+07        -0.16004E+07         0.00000E+00
   -0.16004E+07         0.85636E+07         0.00000E+00
    0.00000E+00         0.00000E+00         0.33092E+07
 
    0.78417E+07        -0.15137E+07         0.00000E+00
   -0.15137E+07         0.84300E+07         0.00000E+00
    0.00000E+00         0.00000E+00         0.32543E+07
 
    0.77128E+07        -0.14301E+07         0.00000E+00
   -0.14301E+07         0.83000E+07         0.00000E+00
    0.00000E+00         0.00000E+00         0.32026E+07
 
    0.75935E+07        -0.13497E+07         0.00000E+00
   -0.13497E+07         0.81742E+07         0.00000E+00
    0.00000E+00         0.00000E+00         0.31535E+07
 
    0.74819E+07        -0.12725E+07         0.00000E+00
   -0.12725E+07         0.80531E+07         0.00000E+00
    0.00000E+00         0.00000E+00         0.31070E+07
 
    0.73765E+07        -0.11984E+07         0.00000E+00
   -0.11984E+07         0.79369E+07         0.00000E+00
    0.00000E+00         0.00000E+00         0.30627E+07
 
    0.72759E+07        -0.11272E+07         0.00000E+00
   -0.11272E+07         0.78261E+07         0.00000E+00
    0.00000E+00         0.00000E+00         0.30204E+07
 
    0.71787E+07        -0.10588E+07         0.00000E+00
   -0.10588E+07         0.77207E+07         0.00000E+00
    0.00000E+00         0.00000E+00         0.29799E+07
 
    0.70836E+07        -0.99278E+06         0.00000E+00
   -0.99278E+06         0.76209E+07         0.00000E+00
    0.00000E+00         0.00000E+00         0.29409E+07
 
    0.69896E+07        -0.92885E+06         0.00000E+00
   -0.92885E+06         0.75269E+07         0.00000E+00
    0.00000E+00         0.00000E+00         0.29033E+07
 
    0.68956E+07        -0.86664E+06         0.00000E+00
   -0.86664E+06         0.74388E+07         0.00000E+00
    0.00000E+00         0.00000E+00         0.28669E+07
 
    0.68004E+07        -0.80573E+06         0.00000E+00
   -0.80573E+06         0.73567E+07         0.00000E+00
    0.00000E+00         0.00000E+00         0.28314E+07
 
    0.67030E+07        -0.74565E+06         0.00000E+00
   -0.74565E+06         0.72808E+07         0.00000E+00
    0.00000E+00         0.00000E+00         0.27968E+07
 
    0.66023E+07        -0.68589E+06         0.00000E+00
   -0.68589E+06         0.72113E+07         0.00000E+00
    0.00000E+00         0.00000E+00         0.27627E+07
 
    0.64972E+07        -0.62584E+06         0.00000E+00
   -0.62584E+06         0.71484E+07         0.00000E+00
    0.00000E+00         0.00000E+00         0.27291E+07
 
    0.63866E+07        -0.56481E+06         0.00000E+00
   -0.56481E+06         0.70923E+07         0.00000E+00
    0.00000E+00         0.00000E+00         0.26958E+07
 
    0.62693E+07        -0.50201E+06         0.00000E+00
   -0.50201E+06         0.70434E+07         0.00000E+00
    0.00000E+00         0.00000E+00         0.26625E+07
 
    0.61439E+07        -0.43648E+06         0.00000E+00
   -0.43648E+06         0.70022E+07         0.00000E+00
    0.00000E+00         0.00000E+00         0.26292E+07
 
    0.60090E+07        -0.36708E+06         0.00000E+00
   -0.36708E+06         0.69690E+07         0.00000E+00
    0.00000E+00         0.00000E+00         0.25956E+07
 
    0.58632E+07        -0.29244E+06         0.00000E+00
   -0.29244E+06         0.69446E+07         0.00000E+00
    0.00000E+00         0.00000E+00         0.25615E+07
 
    0.57046E+07        -0.21087E+06         0.00000E+00
   -0.21087E+06         0.69295E+07         0.00000E+00
    0.00000E+00         0.00000E+00         0.25268E+07
 
    0.55315E+07        -0.12031E+06         0.00000E+00
   -0.12031E+06         0.69248E+07         0.00000E+00
    0.00000E+00         0.00000E+00         0.24913E+07
 
    0.53418E+07        -0.18140E+05         0.00000E+00
   -0.18140E+05         0.69315E+07         0.00000E+00
    0.00000E+00         0.00000E+00         0.24547E+07
 
    0.51335E+07         0.98898E+05         0.00000E+00
    0.98898E+05         0.69507E+07         0.00000E+00
    0.00000E+00         0.00000E+00         0.24168E+07
 
    0.49041E+07         0.23497E+06         0.00000E+00
    0.23497E+06         0.69838E+07         0.00000E+00
    0.00000E+00         0.00000E+00         0.23776E+07
 
    0.46513E+07         0.39542E+06         0.00000E+00
    0.39542E+06         0.70326E+07         0.00000E+00
    0.00000E+00         0.00000E+00         0.23368E+07
 
    0.43731E+07         0.58718E+06         0.00000E+00
    0.58718E+06         0.70988E+07         0.00000E+00
    0.00000E+00         0.00000E+00         0.22944E+07
 
    0.40679E+07         0.81929E+06         0.00000E+00
    0.81929E+06         0.71844E+07         0.00000E+00
    0.00000E+00         0.00000E+00         0.22505E+07
 
    0.37353E+07         0.11037E+07         0.00000E+00
    0.11037E+07         0.72914E+07         0.00000E+00
    0.00000E+00         0.00000E+00         0.22053E+07
 
    0.33779E+07         0.14562E+07         0.00000E+00
    0.14562E+07         0.74216E+07         0.00000E+00
    0.00000E+00         0.00000E+00         0.21599E+07
 
    0.30037E+07         0.18982E+07         0.00000E+00
    0.18982E+07         0.75761E+07         0.00000E+00
    0.00000E+00         0.00000E+00         0.21160E+07
 
    0.26321E+07         0.24579E+07         0.00000E+00
    0.24579E+07         0.77548E+07         0.00000E+00
    0.00000E+00         0.00000E+00         0.20774E+07
 
    0.23054E+07         0.31732E+07         0.00000E+00
    0.31732E+07         0.79546E+07         0.00000E+00
    0.00000E+00         0.00000E+00         0.20520E+07
 
    0.21150E+07         0.40928E+07         0.00000E+00
    0.40928E+07         0.81682E+07         0.00000E+00
    0.00000E+00         0.00000E+00         0.20566E+07
 
    0.50469E+07        -0.30313E+06         0.00000E+00
   -0.30313E+06         0.49628E+07         0.00000E+00
    0.00000E+00         0.00000E+00         0.20020E+07
 
    0.53040E+07        -0.70302E+06         0.00000E+00
   -0.70302E+06         0.49701E+07         0.00000E+00
    0.00000E+00         0.00000E+00         0.20548E+07
 
    0.54706E+07        -0.10725E+07         0.00000E+00
   -0.10725E+07         0.50388E+07         0.00000E+00
    0.00000E+00         0.00000E+00         0.21019E+07
 
    0.55396E+07        -0.13911E+07         0.00000E+00
   -0.13911E+07         0.51390E+07         0.00000E+00
    0.00000E+00         0.00000E+00         0.21357E+07
 
    0.55276E+07        -0.16522E+07         0.00000E+00
   -0.16522E+07         0.52530E+07         0.00000E+00
    0.00000E+00         0.00000E+00         0.21561E+07
 
    0.54532E+07        -0.18576E+07         0.00000E+00
   -0.18576E+07         0.53617E+07         0.00000E+00
    0.00000E+00         0.00000E+00         0.21630E+07
 
    0.53354E+07        -0.20151E+07         0.00000E+00
   -0.20151E+07         0.54683E+07         0.00000E+00
    0.00000E+00         0.00000E+00         0.21607E+07
 
    0.51862E+07        -0.21285E+07         0.00000E+00
   -0.21285E+07         0.55705E+07         0.00000E+00
    0.00000E+00         0.00000E+00         0.21513E+07
 
    0.50155E+07        -0.22017E+07         0.00000E+00
   -0.22017E+07         0.56606E+07         0.00000E+00
    0.00000E+00         0.00000E+00         0.21352E+07
 
    0.48328E+07        -0.22396E+07         0.00000E+00
   -0.22396E+07         0.57359E+07         0.00000E+00
    0.00000E+00         0.00000E+00         0.21137E+07
 
    0.46461E+07        -0.22482E+07         0.00000E+00
   -0.22482E+07         0.57957E+07         0.00000E+00
    0.00000E+00         0.00000E+00         0.20884E+07
 
    0.44609E+07        -0.22331E+07         0.00000E+00
   -0.22331E+07         0.58404E+07         0.00000E+00
    0.00000E+00         0.00000E+00         0.20603E+07
 
    0.42808E+07        -0.21994E+07         0.00000E+00
   -0.21994E+07         0.58713E+07         0.00000E+00
    0.00000E+00         0.00000E+00         0.20304E+07
 
    0.41080E+07        -0.21514E+07         0.00000E+00
   -0.21514E+07         0.58897E+07         0.00000E+00
    0.00000E+00         0.00000E+00         0.19995E+07
 
    0.39436E+07        -0.20926E+07         0.00000E+00
   -0.20926E+07         0.58973E+07         0.00000E+00
    0.00000E+00         0.00000E+00         0.19682E+07
 
    0.37880E+07        -0.20259E+07         0.00000E+00
   -0.20259E+07         0.58956E+07         0.00000E+00
    0.00000E+00         0.00000E+00         0.19367E+07
 
    0.36412E+07        -0.19535E+07         0.00000E+00
   -0.19535E+07         0.58861E+07         0.00000E+00
    0.00000E+00         0.00000E+00         0.19055E+07
 
    0.35027E+07        -0.18772E+07         0.00000E+00
   -0.18772E+07         0.58703E+07         0.00000E+00
    0.00000E+00         0.00000E+00         0.18746E+07
 
    0.33719E+07        -0.17982E+07         0.00000E+00
   -0.17982E+07         0.58494E+07         0.00000E+00
    0.00000E+00         0.00000E+00         0.18442E+07
 
    0.32481E+07        -0.17177E+07         0.00000E+00
   -0.17177E+07         0.58246E+07         0.00000E+00
    0.00000E+00         0.00000E+00         0.18145E+07
 
    0.31305E+07        -0.16363E+07         0.00000E+00
   -0.16363E+07         0.57971E+07         0.00000E+00
    0.00000E+00         0.00000E+00         0.17855E+07
 
    0.30183E+07        -0.15546E+07         0.00000E+00
   -0.15546E+07         0.57677E+07         0.00000E+00
    0.00000E+00         0.00000E+00         0.17572E+07
 
    0.29107E+07        -0.14729E+07         0.00000E+00
   -0.14729E+07         0.57372E+07         0.00000E+00
    0.00000E+00         0.00000E+00         0.17296E+07
 
    0.28069E+07        -0.13912E+07         0.00000E+00
   -0.13912E+07         0.57065E+07         0.00000E+00
    0.00000E+00         0.00000E+00         0.17027E+07
 
    0.27062E+07        -0.13097E+07         0.00000E+00
   -0.13097E+07         0.56763E+07         0.00000E+00
    0.00000E+00         0.00000E+00         0.16765E+07
 
    0.26079E+07        -0.12282E+07         0.00000E+00
   -0.12282E+07         0.56470E+07         0.00000E+00
    0.00000E+00         0.00000E+00         0.16510E+07
 
    0.25111E+07        -0.11466E+07         0.00000E+00
   -0.11466E+07         0.56194E+07         0.00000E+00
    0.00000E+00         0.00000E+00         0.16261E+07
 
    0.24152E+07        -0.10644E+07         0.00000E+00
   -0.10644E+07         0.55939E+07         0.00000E+00
    0.00000E+00         0.00000E+00         0.16018E+07
 
    0.23197E+07        -0.98128E+06         0.00000E+00
   -0.98128E+06         0.55711E+07         0.00000E+00
    0.00000E+00         0.00000E+00         0.15782E+07
 
    0.22238E+07        -0.89667E+06         0.00000E+00
   -0.89667E+06         0.55513E+07         0.00000E+00
    0.00000E+00         0.00000E+00         0.15550E+07
 
    0.21271E+07        -0.80992E+06         0.00000E+00
   -0.80992E+06         0.55351E+07         0.00000E+00
    0.00000E+00         0.00000E+00         0.15324E+07
 
    0.20290E+07        -0.72022E+06         0.00000E+00
   -0.72022E+06         0.55229E+07         0.00000E+00
    0.00000E+00         0.00000E+00         0.15104E+07
 
    0.19290E+07        -0.62664E+06         0.00000E+00
   -0.62664E+06         0.55151E+07         0.00000E+00
    0.00000E+00         0.00000E+00         0.14888E+07
 
    0.18269E+07        -0.52804E+06         0.00000E+00
   -0.52804E+06         0.55120E+07         0.00000E+00
    0.00000E+00         0.00000E+00         0.14678E+07
 
    0.17222E+07        -0.42309E+06         0.00000E+00
   -0.42309E+06         0.55142E+07         0.00000E+00
    0.00000E+00         0.00000E+00         0.14473E+07
 
    0.16150E+07        -0.31022E+06         0.00000E+00
   -0.31022E+06         0.55219E+07         0.00000E+00
    0.00000E+00         0.00000E+00         0.14274E+07
 
    0.15052E+07        -0.18756E+06         0.00000E+00
   -0.18756E+06         0.55354E+07         0.00000E+00
    0.00000E+00         0.00000E+00         0.14081E+07
 
    0.13932E+07        -0.52874E+05         0.00000E+00
   -0.52874E+05         0.55551E+07         0.00000E+00
    0.00000E+00         0.00000E+00         0.13897E+07
 
    0.12797E+07         0.96452E+05         0.00000E+00
    0.96452E+05         0.55810E+07         0.00000E+00
    0.00000E+00         0.00000E+00         0.13721E+07
 
    0.11659E+07         0.26353E+06         0.00000E+00
    0.26353E+06         0.56132E+07         0.00000E+00
    0.00000E+00         0.00000E+00         0.13558E+07
 
    0.10537E+07         0.45202E+06         0.00000E+00
    0.45202E+06         0.56513E+07         0.00000E+00
    0.00000E+00         0.00000E+00         0.13410E+07
 
    0.94597E+06         0.66620E+06         0.00000E+00
    0.66620E+06         0.56948E+07         0.00000E+00
    0.00000E+00         0.00000E+00         0.13282E+07
 
    0.84707E+06         0.91104E+06         0.00000E+00
    0.91104E+06         0.57423E+07         0.00000E+00
    0.00000E+00         0.00000E+00         0.13179E+07
 
    0.76310E+06         0.11921E+07         0.00000E+00
    0.11921E+07         0.57919E+07         0.00000E+00
    0.00000E+00         0.00000E+00         0.13110E+07
 
    0.70268E+06         0.15156E+07         0.00000E+00
    0.15156E+07         0.58404E+07         0.00000E+00
    0.00000E+00         0.00000E+00         0.13086E+07
 
    0.67765E+06         0.18877E+07         0.00000E+00
    0.18877E+07         0.58827E+07         0.00000E+00
    0.00000E+00         0.00000E+00         0.13121E+07
 
    0.70356E+06         0.23139E+07         0.00000E+00
    0.23139E+07         0.59112E+07         0.00000E+00
    0.00000E+00         0.00000E+00         0.13230E+07
 
    0.79933E+06         0.27970E+07         0.00000E+00
    0.27970E+07         0.59147E+07         0.00000E+00
    0.00000E+00         0.00000E+00         0.13428E+07
 
    0.98360E+06         0.33339E+07         0.00000E+00
    0.33339E+07         0.58759E+07         0.00000E+00
    0.00000E+00         0.00000E+00         0.13719E+07
 
    0.12617E+07         0.39086E+07         0.00000E+00
    0.39086E+07         0.57685E+07         0.00000E+00
    0.00000E+00         0.00000E+00         0.14060E+07
 
    0.48090E+06        -0.12493E+06         0.00000E+00
   -0.12493E+06         0.21376E+07         0.00000E+00
    0.00000E+00         0.00000E+00         0.52371E+06
 
    0.92399E+06        -0.39351E+06         0.00000E+00
   -0.39351E+06         0.21978E+07         0.00000E+00
    0.00000E+00         0.00000E+00         0.62437E+06
 
    0.12576E+07        -0.63950E+06         0.00000E+00
   -0.63950E+06         0.22730E+07         0.00000E+00
    0.00000E+00         0.00000E+00         0.70612E+06
 
    0.15058E+07        -0.86634E+06         0.00000E+00
   -0.86634E+06         0.23664E+07         0.00000E+00
    0.00000E+00         0.00000E+00         0.77445E+06
 
    0.16812E+07        -0.10725E+07         0.00000E+00
   -0.10725E+07         0.24749E+07         0.00000E+00
    0.00000E+00         0.00000E+00         0.83123E+06
 
    0.17943E+07        -0.12551E+07         0.00000E+00
   -0.12551E+07         0.25960E+07         0.00000E+00
    0.00000E+00         0.00000E+00         0.87806E+06
 
    0.18546E+07        -0.14119E+07         0.00000E+00
   -0.14119E+07         0.27226E+07         0.00000E+00
    0.00000E+00         0.00000E+00         0.91544E+06
 
    0.18718E+07        -0.15429E+07         0.00000E+00
   -0.15429E+07         0.28505E+07         0.00000E+00
    0.00000E+00         0.00000E+00         0.94447E+06
 
    0.18544E+07        -0.16492E+07         0.00000E+00
   -0.16492E+07         0.29779E+07         0.00000E+00
    0.00000E+00         0.00000E+00         0.96645E+06
 
    0.18094E+07        -0.17317E+07         0.00000E+00
   -0.17317E+07         0.31020E+07         0.00000E+00
    0.00000E+00         0.00000E+00         0.98228E+06
 
    0.17430E+07        -0.17918E+07         0.00000E+00
   -0.17918E+07         0.32207E+07         0.00000E+00
    0.00000E+00         0.00000E+00         0.99274E+06
 
    0.16606E+07        -0.18313E+07         0.00000E+00
   -0.18313E+07         0.33325E+07         0.00000E+00
    0.00000E+00         0.00000E+00         0.99860E+06
 
    0.15668E+07        -0.18523E+07         0.00000E+00
   -0.18523E+07         0.34361E+07         0.00000E+00
    0.00000E+00         0.00000E+00         0.10006E+07
 
    0.14653E+07        -0.18570E+07         0.00000E+00
   -0.18570E+07         0.35313E+07         0.00000E+00
    0.00000E+00         0.00000E+00         0.99931E+06
 
    0.13591E+07        -0.18473E+07         0.00000E+00
   -0.18473E+07         0.36178E+07         0.00000E+00
    0.00000E+00         0.00000E+00         0.99537E+06
 
    0.12505E+07        -0.18254E+07         0.00000E+00
   -0.18254E+07         0.36958E+07         0.00000E+00
    0.00000E+00         0.00000E+00         0.98925E+06
 
    0.11412E+07        -0.17930E+07         0.00000E+00
   -0.17930E+07         0.37657E+07         0.00000E+00
    0.00000E+00         0.00000E+00         0.98138E+06
 
    0.10325E+07        -0.17517E+07         0.00000E+00
   -0.17517E+07         0.38280E+07         0.00000E+00
    0.00000E+00         0.00000E+00         0.97211E+06
 
    0.92523E+06        -0.17029E+07         0.00000E+00
   -0.17029E+07         0.38835E+07         0.00000E+00
    0.00000E+00         0.00000E+00         0.96174E+06
 
    0.81998E+06        -0.16477E+07         0.00000E+00
   -0.16477E+07         0.39328E+07         0.00000E+00
    0.00000E+00         0.00000E+00         0.95055E+06
 
    0.71712E+06        -0.15872E+07         0.00000E+00
   -0.15872E+07         0.39765E+07         0.00000E+00
    0.00000E+00         0.00000E+00         0.93873E+06
 
    0.61683E+06        -0.15220E+07         0.00000E+00
   -0.15220E+07         0.40155E+07         0.00000E+00
    0.00000E+00         0.00000E+00         0.92647E+06
 
    0.51920E+06        -0.14528E+07         0.00000E+00
   -0.14528E+07         0.40505E+07         0.00000E+00
    0.00000E+00         0.00000E+00         0.91394E+06
 
    0.42421E+06        -0.13801E+07         0.00000E+00
   -0.13801E+07         0.40820E+07         0.00000E+00
    0.00000E+00         0.00000E+00         0.90125E+06
 
    0.33179E+06        -0.13040E+07         0.00000E+00
   -0.13040E+07         0.41109E+07         0.00000E+00
    0.00000E+00         0.00000E+00         0.88853E+06
 
    0.24184E+06        -0.12248E+07         0.00000E+00
   -0.12248E+07         0.41375E+07         0.00000E+00
    0.00000E+00         0.00000E+00         0.87588E+06
 
    0.15426E+06        -0.11424E+07         0.00000E+00
   -0.11424E+07         0.41627E+07         0.00000E+00
    0.00000E+00         0.00000E+00         0.86338E+06
 
    0.68944E+05        -0.10569E+07         0.00000E+00
   -0.10569E+07         0.41868E+07         0.00000E+00
    0.00000E+00         0.00000E+00         0.85114E+06
 
   -0.14155E+05        -0.96791E+06         0.00000E+00
   -0.96791E+06         0.42103E+07         0.00000E+00
    0.00000E+00         0.00000E+00         0.83923E+06
 
   -0.95051E+05        -0.87516E+06         0.00000E+00
   -0.87516E+06         0.42337E+07         0.00000E+00
    0.00000E+00         0.00000E+00         0.82773E+06
 
   -0.17368E+06        -0.77818E+06         0.00000E+00
   -0.77818E+06         0.42573E+07         0.00000E+00
    0.00000E+00         0.00000E+00         0.81673E+06
 
   -0.24988E+06        -0.67641E+06         0.00000E+00
   -0.67641E+06         0.42816E+07         0.00000E+00
    0.00000E+00         0.00000E+00         0.80634E+06
 
   -0.32338E+06        -0.56916E+06         0.00000E+00
   -0.56916E+06         0.43066E+07         0.00000E+00
    0.00000E+00         0.00000E+00         0.79664E+06
 
   -0.39372E+06        -0.45561E+06         0.00000E+00
   -0.45561E+06         0.43326E+07         0.00000E+00
    0.00000E+00         0.00000E+00         0.78777E+06
 
   -0.46029E+06        -0.33482E+06         0.00000E+00
   -0.33482E+06         0.43596E+07         0.00000E+00
    0.00000E+00         0.00000E+00         0.77986E+06
 
   -0.52220E+06        -0.20571E+06         0.00000E+00
   -0.20571E+06         0.43876E+07         0.00000E+00
    0.00000E+00         0.00000E+00         0.77307E+06
 
   -0.57828E+06        -0.67075E+05         0.00000E+00
   -0.67075E+05         0.44163E+07         0.00000E+00
    0.00000E+00         0.00000E+00         0.76760E+06
 
   -0.62698E+06         0.82408E+05         0.00000E+00
    0.82408E+05         0.44453E+07         0.00000E+00
    0.00000E+00         0.00000E+00         0.76367E+06
 
   -0.66632E+06         0.24417E+06         0.00000E+00
    0.24417E+06         0.44740E+07         0.00000E+00
    0.00000E+00         0.00000E+00         0.76155E+06
 
   -0.69374E+06         0.41972E+06         0.00000E+00
    0.41972E+06         0.45015E+07         0.00000E+00
    0.00000E+00         0.00000E+00         0.76155E+06
 
   -0.70604E+06         0.61056E+06         0.00000E+00
    0.61056E+06         0.45263E+07         0.00000E+00
    0.00000E+00         0.00000E+00         0.76404E+06
 
   -0.69928E+06         0.81814E+06         0.00000E+00
    0.81814E+06         0.45466E+07         0.00000E+00
    0.00000E+00         0.00000E+00         0.76947E+06
 
   -0.66864E+06         0.10437E+07         0.00000E+00
    0.10437E+07         0.45601E+07         0.00000E+00
    0.00000E+00         0.00000E+00         0.77829E+06
 
   -0.60837E+06         0.12880E+07         0.00000E+00
    0.12880E+07         0.45637E+07         0.00000E+00
    0.00000E+00         0.00000E+00         0.79106E+06
 
   -0.51185E+06         0.15513E+07         0.00000E+00
    0.15513E+07         0.45534E+07         0.00000E+00
    0.00000E+00         0.00000E+00         0.80831E+06
 
   -0.37172E+06         0.18326E+07         0.00000E+00
    0.18326E+07         0.45246E+07         0.00000E+00
    0.00000E+00         0.00000E+00         0.83059E+06
 
   -0.18025E+06         0.21299E+07         0.00000E+00
    0.21299E+07         0.44719E+07         0.00000E+00
    0.00000E+00         0.00000E+00         0.85833E+06
 
    0.70320E+05         0.24397E+07         0.00000E+00
    0.24397E+07         0.43894E+07         0.00000E+00
    0.00000E+00         0.00000E+00         0.89194E+06
 
    0.38820E+06         0.27579E+07         0.00000E+00
    0.27579E+07         0.42722E+07         0.00000E+00
    0.00000E+00         0.00000E+00         0.93209E+06
 
    0.78683E+06         0.30834E+07         0.00000E+00
    0.30834E+07         0.41194E+07         0.00000E+00
    0.00000E+00         0.00000E+00         0.98125E+06
 
   -0.17672E+07        -0.36720E+05         0.00000E+00
   -0.36720E+05         0.82010E+06         0.00000E+00
    0.00000E+00         0.00000E+00        -0.18942E+06
 
   -0.13552E+07        -0.15891E+06         0.00000E+00
   -0.15891E+06         0.84077E+06         0.00000E+00
    0.00000E+00         0.00000E+00        -0.10289E+06
 
   -0.10041E+07        -0.29476E+06         0.00000E+00
   -0.29476E+06         0.88656E+06         0.00000E+00
    0.00000E+00         0.00000E+00        -0.23518E+05
 
   -0.71274E+06        -0.43425E+06         0.00000E+00
   -0.43425E+06         0.95075E+06         0.00000E+00
    0.00000E+00         0.00000E+00         0.47603E+05
 
   -0.47555E+06        -0.57171E+06         0.00000E+00
   -0.57171E+06         0.10299E+07         0.00000E+00
    0.00000E+00         0.00000E+00         0.11087E+06
 
   -0.28698E+06        -0.70341E+06         0.00000E+00
   -0.70341E+06         0.11207E+07         0.00000E+00
    0.00000E+00         0.00000E+00         0.16675E+06
 
   -0.14167E+06        -0.82668E+06         0.00000E+00
   -0.82668E+06         0.12213E+07         0.00000E+00
    0.00000E+00         0.00000E+00         0.21592E+06
 
   -0.34669E+05        -0.93913E+06         0.00000E+00
   -0.93913E+06         0.13291E+07         0.00000E+00
    0.00000E+00         0.00000E+00         0.25888E+06
 
    0.38877E+05        -0.10392E+07         0.00000E+00
   -0.10392E+07         0.14415E+07         0.00000E+00
    0.00000E+00         0.00000E+00         0.29608E+06
 
    0.83621E+05        -0.11261E+07         0.00000E+00
   -0.11261E+07         0.15566E+07         0.00000E+00
    0.00000E+00         0.00000E+00         0.32804E+06
 
    0.10381E+06        -0.11994E+07         0.00000E+00
   -0.11994E+07         0.16726E+07         0.00000E+00
    0.00000E+00         0.00000E+00         0.35528E+06
 
    0.10331E+06        -0.12591E+07         0.00000E+00
   -0.12591E+07         0.17880E+07         0.00000E+00
    0.00000E+00         0.00000E+00         0.37826E+06
 
    0.85589E+05        -0.13054E+07         0.00000E+00
   -0.13054E+07         0.19015E+07         0.00000E+00
    0.00000E+00         0.00000E+00         0.39742E+06
 
    0.53773E+05        -0.13389E+07         0.00000E+00
   -0.13389E+07         0.20122E+07         0.00000E+00
    0.00000E+00         0.00000E+00         0.41319E+06
 
    0.10612E+05        -0.13601E+07         0.00000E+00
   -0.13601E+07         0.21192E+07         0.00000E+00
    0.00000E+00         0.00000E+00         0.42596E+06
 
   -0.41495E+05        -0.13699E+07         0.00000E+00
   -0.13699E+07         0.22219E+07         0.00000E+00
    0.00000E+00         0.00000E+00         0.43609E+06
 
   -0.10049E+06        -0.13691E+07         0.00000E+00
   -0.13691E+07         0.23201E+07         0.00000E+00
    0.00000E+00         0.00000E+00         0.44392E+06
 
   -0.16462E+06        -0.13584E+07         0.00000E+00
   -0.13584E+07         0.24134E+07         0.00000E+00
    0.00000E+00         0.00000E+00         0.44976E+06
 
   -0.23243E+06        -0.13388E+07         0.00000E+00
   -0.13388E+07         0.25019E+07         0.00000E+00
    0.00000E+00         0.00000E+00         0.45390E+06
 
   -0.30267E+06        -0.13109E+07         0.00000E+00
   -0.13109E+07         0.25856E+07         0.00000E+00
    0.00000E+00         0.00000E+00         0.45659E+06
 
   -0.37433E+06        -0.12754E+07         0.00000E+00
   -0.12754E+07         0.26647E+07         0.00000E+00
    0.00000E+00         0.00000E+00         0.45807E+06
 
   -0.44658E+06        -0.12330E+07         0.00000E+00
   -0.12330E+07         0.27393E+07         0.00000E+00
    0.00000E+00         0.00000E+00         0.45854E+06
 
   -0.51869E+06        -0.11842E+07         0.00000E+00
   -0.11842E+07         0.28097E+07         0.00000E+00
    0.00000E+00         0.00000E+00         0.45819E+06
 
   -0.59009E+06        -0.11294E+07         0.00000E+00
   -0.11294E+07         0.28761E+07         0.00000E+00
    0.00000E+00         0.00000E+00         0.45721E+06
 
   -0.66025E+06        -0.10689E+07         0.00000E+00
   -0.10689E+07         0.29390E+07         0.00000E+00
    0.00000E+00         0.00000E+00         0.45575E+06
 
   -0.72871E+06        -0.10031E+07         0.00000E+00
   -0.10031E+07         0.29986E+07         0.00000E+00
    0.00000E+00         0.00000E+00         0.45397E+06
 
   -0.79506E+06        -0.93206E+06         0.00000E+00
   -0.93206E+06         0.30551E+07         0.00000E+00
    0.00000E+00         0.00000E+00         0.45200E+06
 
   -0.85887E+06        -0.85591E+06         0.00000E+00
   -0.85591E+06         0.31088E+07         0.00000E+00
    0.00000E+00         0.00000E+00         0.44998E+06
 
   -0.91972E+06        -0.77464E+06         0.00000E+00
   -0.77464E+06         0.31599E+07         0.00000E+00
    0.00000E+00         0.00000E+00         0.44804E+06
 
   -0.97714E+06        -0.68819E+06         0.00000E+00
   -0.68819E+06         0.32087E+07         0.00000E+00
    0.00000E+00         0.00000E+00         0.44631E+06
 
   -0.10306E+07        -0.59642E+06         0.00000E+00
   -0.59642E+06         0.32552E+07         0.00000E+00
    0.00000E+00         0.00000E+00         0.44493E+06
 
   -0.10795E+07        -0.49913E+06         0.00000E+00
   -0.49913E+06         0.32996E+07         0.00000E+00
    0.00000E+00         0.00000E+00         0.44401E+06
 
   -0.11231E+07        -0.39608E+06         0.00000E+00
   -0.39608E+06         0.33417E+07         0.00000E+00
    0.00000E+00         0.00000E+00         0.44371E+06
 
   -0.11607E+07        -0.28695E+06         0.00000E+00
   -0.28695E+06         0.33815E+07         0.00000E+00
    0.00000E+00         0.00000E+00         0.44417E+06
 
   -0.11911E+07        -0.17143E+06         0.00000E+00
   -0.17143E+06         0.34188E+07         0.00000E+00
    0.00000E+00         0.00000E+00         0.44553E+06
 
   -0.12133E+07        -0.49185E+05         0.00000E+00
   -0.49185E+05         0.34532E+07         0.00000E+00
    0.00000E+00         0.00000E+00         0.44798E+06
 
   -0.12259E+07         0.80115E+05         0.00000E+00
    0.80115E+05         0.34842E+07         0.00000E+00
    0.00000E+00         0.00000E+00         0.45167E+06
 
   -0.12271E+07         0.21674E+06         0.00000E+00
    0.21674E+06         0.35112E+07         0.00000E+00
    0.00000E+00         0.00000E+00         0.45682E+06
 
   -0.12153E+07         0.36087E+06         0.00000E+00
    0.36087E+06         0.35334E+07         0.00000E+00
    0.00000E+00         0.00000E+00         0.46361E+06
 
   -0.11882E+07         0.51257E+06         0.00000E+00
    0.51257E+06         0.35496E+07         0.00000E+00
    0.00000E+00         0.00000E+00         0.47227E+06
 
   -0.11434E+07         0.67166E+06         0.00000E+00
    0.67166E+06         0.35586E+07         0.00000E+00
    0.00000E+00         0.00000E+00         0.48303E+06
 
   -0.10783E+07         0.83773E+06         0.00000E+00
    0.83773E+06         0.35588E+07         0.00000E+00
    0.00000E+00         0.00000E+00         0.49611E+06
 
   -0.98979E+06         0.10100E+07         0.00000E+00
    0.10100E+07         0.35486E+07         0.00000E+00
    0.00000E+00         0.00000E+00         0.51176E+06
 
   -0.87490E+06         0.11872E+07         0.00000E+00
    0.11872E+07         0.35259E+07         0.00000E+00
    0.00000E+00         0.00000E+00         0.53019E+06
 
   -0.73038E+06         0.13676E+07         0.00000E+00
    0.13676E+07         0.34886E+07         0.00000E+00
    0.00000E+00         0.00000E+00         0.55164E+06
 
   -0.55294E+06         0.15488E+07         0.00000E+00
    0.15488E+07         0.34345E+07         0.00000E+00
    0.00000E+00         0.00000E+00         0.57631E+06
 
   -0.33930E+06         0.17280E+07         0.00000E+00
    0.17280E+07         0.33614E+07         0.00000E+00
    0.00000E+00         0.00000E+00         0.60442E+06
 
   -0.86098E+05         0.19016E+07         0.00000E+00
    0.19016E+07         0.32673E+07         0.00000E+00
    0.00000E+00         0.00000E+00         0.63623E+06
 
    0.20994E+06         0.20651E+07         0.00000E+00
    0.20651E+07         0.31497E+07         0.00000E+00
    0.00000E+00         0.00000E+00         0.67193E+06
 
    0.55016E+06         0.22115E+07         0.00000E+00
    0.22115E+07         0.30049E+07         0.00000E+00
    0.00000E+00         0.00000E+00         0.71102E+06
 
   -0.26586E+07         0.49505E+04         0.00000E+00
    0.49505E+04         0.27398E+06         0.00000E+00
    0.00000E+00         0.00000E+00        -0.47692E+06
 
   -0.23310E+07        -0.36996E+05         0.00000E+00
   -0.36996E+05         0.28548E+06         0.00000E+00
    0.00000E+00         0.00000E+00        -0.40911E+06
 
   -0.20364E+07        -0.93595E+05         0.00000E+00
   -0.93595E+05         0.30813E+06         0.00000E+00
    0.00000E+00         0.00000E+00        -0.34565E+06
 
   -0.17743E+07        -0.16144E+06         0.00000E+00
   -0.16144E+06         0.34301E+06         0.00000E+00
    0.00000E+00         0.00000E+00        -0.28626E+06
 
   -0.15447E+07        -0.23654E+06         0.00000E+00
   -0.23654E+06         0.38948E+06         0.00000E+00
    0.00000E+00         0.00000E+00        -0.23104E+06
 
   -0.13464E+07        -0.31531E+06         0.00000E+00
   -0.31531E+06         0.44653E+06         0.00000E+00
    0.00000E+00         0.00000E+00        -0.17998E+06
 
   -0.11781E+07        -0.39474E+06         0.00000E+00
   -0.39474E+06         0.51279E+06         0.00000E+00
    0.00000E+00         0.00000E+00        -0.13305E+06
 
   -0.10376E+07        -0.47248E+06         0.00000E+00
   -0.47248E+06         0.58698E+06         0.00000E+00
    0.00000E+00         0.00000E+00        -0.90115E+05
 
   -0.92277E+06        -0.54659E+06         0.00000E+00
   -0.54659E+06         0.66786E+06         0.00000E+00
    0.00000E+00         0.00000E+00        -0.50982E+05
 
   -0.83147E+06        -0.61549E+06         0.00000E+00
   -0.61549E+06         0.75409E+06         0.00000E+00
    0.00000E+00         0.00000E+00        -0.15475E+05
 
   -0.76137E+06        -0.67800E+06         0.00000E+00
   -0.67800E+06         0.84443E+06         0.00000E+00
    0.00000E+00         0.00000E+00         0.16613E+05
 
   -0.71020E+06        -0.73324E+06         0.00000E+00
   -0.73324E+06         0.93771E+06         0.00000E+00
    0.00000E+00         0.00000E+00         0.45501E+05
 
   -0.67577E+06        -0.78064E+06         0.00000E+00
   -0.78064E+06         0.10329E+07         0.00000E+00
    0.00000E+00         0.00000E+00         0.71419E+05
 
   -0.65598E+06        -0.81981E+06         0.00000E+00
   -0.81981E+06         0.11289E+07         0.00000E+00
    0.00000E+00         0.00000E+00         0.94593E+05
 
   -0.64886E+06        -0.85060E+06         0.00000E+00
   -0.85060E+06         0.12251E+07         0.00000E+00
    0.00000E+00         0.00000E+00         0.11525E+06
 
   -0.65258E+06        -0.87295E+06         0.00000E+00
   -0.87295E+06         0.13206E+07         0.00000E+00
    0.00000E+00         0.00000E+00         0.13361E+06
 
   -0.66545E+06        -0.88696E+06         0.00000E+00
   -0.88696E+06         0.14149E+07         0.00000E+00
    0.00000E+00         0.00000E+00         0.14989E+06
 
   -0.68593E+06        -0.89281E+06         0.00000E+00
   -0.89281E+06         0.15074E+07         0.00000E+00
    0.00000E+00         0.00000E+00         0.16430E+06
 
   -0.71259E+06        -0.89075E+06         0.00000E+00
   -0.89075E+06         0.15977E+07         0.00000E+00
    0.00000E+00         0.00000E+00         0.17703E+06
 
   -0.74417E+06        -0.88104E+06         0.00000E+00
   -0.88104E+06         0.16856E+07         0.00000E+00
    0.00000E+00         0.00000E+00         0.18829E+06
 
   -0.77953E+06        -0.86399E+06         0.00000E+00
   -0.86399E+06         0.17707E+07         0.00000E+00
    0.00000E+00         0.00000E+00         0.19824E+06
 
   -0.81761E+06        -0.83991E+06         0.00000E+00
   -0.83991E+06         0.18529E+07         0.00000E+00
    0.00000E+00         0.00000E+00         0.20707E+06
 
   -0.85749E+06        -0.80910E+06         0.00000E+00
   -0.80910E+06         0.19321E+07         0.00000E+00
    0.00000E+00         0.00000E+00         0.21493E+06
 
   -0.89829E+06        -0.77184E+06         0.00000E+00
   -0.77184E+06         0.20082E+07         0.00000E+00
    0.00000E+00         0.00000E+00         0.22198E+06
 
   -0.93924E+06        -0.72839E+06         0.00000E+00
   -0.72839E+06         0.20811E+07         0.00000E+00
    0.00000E+00         0.00000E+00         0.22838E+06
 
   -0.97959E+06        -0.67899E+06         0.00000E+00
   -0.67899E+06         0.21508E+07         0.00000E+00
    0.00000E+00         0.00000E+00         0.23425E+06
 
   -0.10186E+07        -0.62385E+06         0.00000E+00
   -0.62385E+06         0.22173E+07         0.00000E+00
    0.00000E+00         0.00000E+00         0.23974E+06
 
   -0.10557E+07        -0.56313E+06         0.00000E+00
   -0.56313E+06         0.22805E+07         0.00000E+00
    0.00000E+00         0.00000E+00         0.24497E+06
 
   -0.10901E+07        -0.49698E+06         0.00000E+00
   -0.49698E+06         0.23404E+07         0.00000E+00
    0.00000E+00         0.00000E+00         0.25008E+06
 
   -0.11211E+07        -0.42555E+06         0.00000E+00
   -0.42555E+06         0.23970E+07         0.00000E+00
    0.00000E+00         0.00000E+00         0.25518E+06
 
   -0.11480E+07        -0.34893E+06         0.00000E+00
   -0.34893E+06         0.24500E+07         0.00000E+00
    0.00000E+00         0.00000E+00         0.26040E+06
 
   -0.11702E+07        -0.26724E+06         0.00000E+00
   -0.26724E+06         0.24994E+07         0.00000E+00
    0.00000E+00         0.00000E+00         0.26586E+06
 
   -0.11867E+07        -0.18057E+06         0.00000E+00
   -0.18057E+06         0.25450E+07         0.00000E+00
    0.00000E+00         0.00000E+00         0.27167E+06
 
   -0.11967E+07        -0.89051E+05         0.00000E+00
   -0.89051E+05         0.25866E+07         0.00000E+00
    0.00000E+00         0.00000E+00         0.27797E+06
 
   -0.11994E+07         0.71661E+04         0.00000E+00
    0.71661E+04         0.26237E+07         0.00000E+00
    0.00000E+00         0.00000E+00         0.28487E+06
 
   -0.11936E+07         0.10788E+06         0.00000E+00
    0.10788E+06         0.26560E+07         0.00000E+00
    0.00000E+00         0.00000E+00         0.29248E+06
 
   -0.11784E+07         0.21283E+06         0.00000E+00
    0.21283E+06         0.26831E+07         0.00000E+00
    0.00000E+00         0.00000E+00         0.30094E+06
 
   -0.11526E+07         0.32164E+06         0.00000E+00
    0.32164E+06         0.27044E+07         0.00000E+00
    0.00000E+00         0.00000E+00         0.31036E+06
 
   -0.11149E+07         0.43383E+06         0.00000E+00
    0.43383E+06         0.27192E+07         0.00000E+00
    0.00000E+00         0.00000E+00         0.32085E+06
 
   -0.10642E+07         0.54876E+06         0.00000E+00
    0.54876E+06         0.27268E+07         0.00000E+00
    0.00000E+00         0.00000E+00         0.33254E+06
 
   -0.99896E+06         0.66561E+06         0.00000E+00
    0.66561E+06         0.27266E+07         0.00000E+00
    0.00000E+00         0.00000E+00         0.34552E+06
 
   -0.91802E+06         0.78336E+06         0.00000E+00
    0.78336E+06         0.27175E+07         0.00000E+00
    0.00000E+00         0.00000E+00         0.35989E+06
 
   -0.82004E+06         0.90073E+06         0.00000E+00
    0.90073E+06         0.26988E+07         0.00000E+00
    0.00000E+00         0.00000E+00         0.37575E+06
 
   -0.70379E+06         0.10162E+07         0.00000E+00
    0.10162E+07         0.26696E+07         0.00000E+00
    0.00000E+00         0.00000E+00         0.39317E+06
 
   -0.56817E+06         0.11279E+07         0.00000E+00
    0.11279E+07         0.26292E+07         0.00000E+00
    0.00000E+00         0.00000E+00         0.41220E+06
 
   -0.41225E+06         0.12337E+07         0.00000E+00
    0.12337E+07         0.25767E+07         0.00000E+00
    0.00000E+00         0.00000E+00         0.43289E+06
 
   -0.23535E+06         0.13310E+07         0.00000E+00
    0.13310E+07         0.25115E+07         0.00000E+00
    0.00000E+00         0.00000E+00         0.45523E+06
 
   -0.37253E+05         0.14170E+07         0.00000E+00
    0.14170E+07         0.24331E+07         0.00000E+00
    0.00000E+00         0.00000E+00         0.47917E+06
 
    0.18169E+06         0.14884E+07         0.00000E+00
    0.14884E+07         0.23414E+07         0.00000E+00
    0.00000E+00         0.00000E+00         0.50461E+06
 
    0.42088E+06         0.15419E+07         0.00000E+00
    0.15419E+07         0.22370E+07         0.00000E+00
    0.00000E+00         0.00000E+00         0.53158E+06
 
   -0.28963E+07         0.19577E+05         0.00000E+00
    0.19577E+05         0.82640E+05         0.00000E+00
    0.00000E+00         0.00000E+00        -0.56273E+06
 
   -0.26493E+07         0.21831E+05         0.00000E+00
    0.21831E+05         0.86600E+05         0.00000E+00
    0.00000E+00         0.00000E+00        -0.51255E+06
 
   -0.24179E+07         0.10890E+05         0.00000E+00
    0.10890E+05         0.97556E+05         0.00000E+00
    0.00000E+00         0.00000E+00        -0.46407E+06
 
   -0.22036E+07        -0.10660E+05         0.00000E+00
   -0.10660E+05         0.11559E+06         0.00000E+00
    0.00000E+00         0.00000E+00        -0.41760E+06
 
   -0.20072E+07        -0.40629E+05         0.00000E+00
   -0.40629E+05         0.14094E+06         0.00000E+00
    0.00000E+00         0.00000E+00        -0.37325E+06
 
   -0.18291E+07        -0.76919E+05         0.00000E+00
   -0.76919E+05         0.17359E+06         0.00000E+00
    0.00000E+00         0.00000E+00        -0.33110E+06
 
   -0.16693E+07        -0.11756E+06         0.00000E+00
   -0.11756E+06         0.21328E+06         0.00000E+00
    0.00000E+00         0.00000E+00        -0.29121E+06
 
   -0.15276E+07        -0.16071E+06         0.00000E+00
   -0.16071E+06         0.25959E+06         0.00000E+00
    0.00000E+00         0.00000E+00        -0.25361E+06
 
   -0.14034E+07        -0.20477E+06         0.00000E+00
   -0.20477E+06         0.31194E+06         0.00000E+00
    0.00000E+00         0.00000E+00        -0.21829E+06
 
   -0.12959E+07        -0.24832E+06         0.00000E+00
   -0.24832E+06         0.36969E+06         0.00000E+00
    0.00000E+00         0.00000E+00        -0.18523E+06
 
   -0.12041E+07        -0.29016E+06         0.00000E+00
   -0.29016E+06         0.43217E+06         0.00000E+00
    0.00000E+00         0.00000E+00        -0.15438E+06
 
   -0.11269E+07        -0.32926E+06         0.00000E+00
   -0.32926E+06         0.49866E+06         0.00000E+00
    0.00000E+00         0.00000E+00        -0.12565E+06
 
   -0.10633E+07        -0.36479E+06         0.00000E+00
   -0.36479E+06         0.56846E+06         0.00000E+00
    0.00000E+00         0.00000E+00        -0.98961E+05
 
   -0.10120E+07        -0.39606E+06         0.00000E+00
   -0.39606E+06         0.64087E+06         0.00000E+00
    0.00000E+00         0.00000E+00        -0.74222E+05
 
   -0.97183E+06        -0.42256E+06         0.00000E+00
   -0.42256E+06         0.71523E+06         0.00000E+00
    0.00000E+00         0.00000E+00        -0.51321E+05
 
   -0.94165E+06        -0.44387E+06         0.00000E+00
   -0.44387E+06         0.79091E+06         0.00000E+00
    0.00000E+00         0.00000E+00        -0.30148E+05
 
   -0.92027E+06        -0.45971E+06         0.00000E+00
   -0.45971E+06         0.86735E+06         0.00000E+00
    0.00000E+00         0.00000E+00        -0.10585E+05
 
   -0.90656E+06        -0.46990E+06         0.00000E+00
   -0.46990E+06         0.94400E+06         0.00000E+00
    0.00000E+00         0.00000E+00         0.74868E+04
 
   -0.89945E+06        -0.47432E+06         0.00000E+00
   -0.47432E+06         0.10204E+07         0.00000E+00
    0.00000E+00         0.00000E+00         0.24187E+05
 
   -0.89789E+06        -0.47294E+06         0.00000E+00
   -0.47294E+06         0.10961E+07         0.00000E+00
    0.00000E+00         0.00000E+00         0.39636E+05
 
   -0.90091E+06        -0.46577E+06         0.00000E+00
   -0.46577E+06         0.11707E+07         0.00000E+00
    0.00000E+00         0.00000E+00         0.53951E+05
 
   -0.90757E+06        -0.45286E+06         0.00000E+00
   -0.45286E+06         0.12438E+07         0.00000E+00
    0.00000E+00         0.00000E+00         0.67251E+05
 
   -0.91699E+06        -0.43431E+06         0.00000E+00
   -0.43431E+06         0.13152E+07         0.00000E+00
    0.00000E+00         0.00000E+00         0.79650E+05
 
   -0.92832E+06        -0.41025E+06         0.00000E+00
   -0.41025E+06         0.13846E+07         0.00000E+00
    0.00000E+00         0.00000E+00         0.91259E+05
 
   -0.94078E+06        -0.38080E+06         0.00000E+00
   -0.38080E+06         0.14517E+07         0.00000E+00
    0.00000E+00         0.00000E+00         0.10219E+06
 
   -0.95359E+06        -0.34614E+06         0.00000E+00
   -0.34614E+06         0.15163E+07         0.00000E+00
    0.00000E+00         0.00000E+00         0.11254E+06
 
   -0.96602E+06        -0.30642E+06         0.00000E+00
   -0.30642E+06         0.15782E+07         0.00000E+00
    0.00000E+00         0.00000E+00         0.12243E+06
 
   -0.97735E+06        -0.26183E+06         0.00000E+00
   -0.26183E+06         0.16371E+07         0.00000E+00
    0.00000E+00         0.00000E+00         0.13194E+06
 
   -0.98688E+06        -0.21257E+06         0.00000E+00
   -0.21257E+06         0.16928E+07         0.00000E+00
    0.00000E+00         0.00000E+00         0.14119E+06
 
   -0.99394E+06        -0.15885E+06         0.00000E+00
   -0.15885E+06         0.17452E+07         0.00000E+00
    0.00000E+00         0.00000E+00         0.15025E+06
 
   -0.99782E+06        -0.10090E+06         0.00000E+00
   -0.10090E+06         0.17939E+07         0.00000E+00
    0.00000E+00         0.00000E+00         0.15922E+06
 
   -0.99786E+06        -0.38970E+05         0.00000E+00
   -0.38970E+05         0.18389E+07         0.00000E+00
    0.00000E+00         0.00000E+00         0.16820E+06
 
   -0.99337E+06         0.26654E+05         0.00000E+00
    0.26654E+05         0.18797E+07         0.00000E+00
    0.00000E+00         0.00000E+00         0.17726E+06
 
   -0.98367E+06         0.95652E+05         0.00000E+00
    0.95652E+05         0.19161E+07         0.00000E+00
    0.00000E+00         0.00000E+00         0.18650E+06
 
   -0.96807E+06         0.16765E+06         0.00000E+00
    0.16765E+06         0.19479E+07         0.00000E+00
    0.00000E+00         0.00000E+00         0.19597E+06
 
   -0.94588E+06         0.24224E+06         0.00000E+00
    0.24224E+06         0.19747E+07         0.00000E+00
    0.00000E+00         0.00000E+00         0.20577E+06
 
   -0.91643E+06         0.31890E+06         0.00000E+00
    0.31890E+06         0.19962E+07         0.00000E+00
    0.00000E+00         0.00000E+00         0.21595E+06
 
   -0.87905E+06         0.39709E+06         0.00000E+00
    0.39709E+06         0.20120E+07         0.00000E+00
    0.00000E+00         0.00000E+00         0.22659E+06
 
   -0.83310E+06         0.47612E+06         0.00000E+00
    0.47612E+06         0.20217E+07         0.00000E+00
    0.00000E+00         0.00000E+00         0.23773E+06
 
   -0.77798E+06         0.55525E+06         0.00000E+00
    0.55525E+06         0.20251E+07         0.00000E+00
    0.00000E+00         0.00000E+00         0.24942E+06
 
   -0.71317E+06         0.63359E+06         0.00000E+00
    0.63359E+06         0.20217E+07         0.00000E+00
    0.00000E+00         0.00000E+00         0.26171E+06
 
   -0.63821E+06         0.71015E+06         0.00000E+00
    0.71015E+06         0.20113E+07         0.00000E+00
    0.00000E+00         0.00000E+00         0.27462E+06
 
   -0.55275E+06         0.78381E+06         0.00000E+00
    0.78381E+06         0.19935E+07         0.00000E+00
    0.00000E+00         0.00000E+00         0.28815E+06
 
   -0.45659E+06         0.85332E+06         0.00000E+00
    0.85332E+06         0.19682E+07         0.00000E+00
    0.00000E+00         0.00000E+00         0.30232E+06
 
   -0.34970E+06         0.91730E+06         0.00000E+00
    0.91730E+06         0.19352E+07         0.00000E+00
    0.00000E+00         0.00000E+00         0.31710E+06
 
   -0.23227E+06         0.97423E+06         0.00000E+00
    0.97423E+06         0.18946E+07         0.00000E+00
    0.00000E+00         0.00000E+00         0.33246E+06
 
   -0.10476E+06         0.10225E+07         0.00000E+00
    0.10225E+07         0.18465E+07         0.00000E+00
    0.00000E+00         0.00000E+00         0.34834E+06
 
    0.32096E+05         0.10604E+07         0.00000E+00
    0.10604E+07         0.17912E+07         0.00000E+00
    0.00000E+00         0.00000E+00         0.36466E+06
 
    0.17725E+06         0.10862E+07         0.00000E+00
    0.10862E+07         0.17295E+07         0.00000E+00
    0.00000E+00         0.00000E+00         0.38134E+06
 
    0.32921E+06         0.10980E+07         0.00000E+00
    0.10980E+07         0.16619E+07         0.00000E+00
    0.00000E+00         0.00000E+00         0.39821E+06
 
   -0.28547E+07         0.24732E+05         0.00000E+00
    0.24732E+05         0.22341E+05         0.00000E+00
    0.00000E+00         0.00000E+00        -0.56647E+06
 
   -0.26678E+07         0.48909E+05         0.00000E+00
    0.48909E+05         0.24140E+05         0.00000E+00
    0.00000E+00         0.00000E+00        -0.52874E+06
 
   -0.24885E+07         0.63553E+05         0.00000E+00
    0.63553E+05         0.29333E+05         0.00000E+00
    0.00000E+00         0.00000E+00        -0.49184E+06
 
   -0.23179E+07         0.69690E+05         0.00000E+00
    0.69690E+05         0.38583E+05         0.00000E+00
    0.00000E+00         0.00000E+00        -0.45587E+06
 
   -0.21570E+07         0.68512E+05         0.00000E+00
    0.68512E+05         0.52237E+05         0.00000E+00
    0.00000E+00         0.00000E+00        -0.42095E+06
 
   -0.20064E+07         0.61220E+05         0.00000E+00
    0.61220E+05         0.70509E+05         0.00000E+00
    0.00000E+00         0.00000E+00        -0.38717E+06
 
   -0.18665E+07         0.48998E+05         0.00000E+00
    0.48998E+05         0.93475E+05         0.00000E+00
    0.00000E+00         0.00000E+00        -0.35461E+06
 
   -0.17377E+07         0.32989E+05         0.00000E+00
    0.32989E+05         0.12110E+06         0.00000E+00
    0.00000E+00         0.00000E+00        -0.32333E+06
 
   -0.16200E+07         0.14283E+05         0.00000E+00
    0.14283E+05         0.15324E+06         0.00000E+00
    0.00000E+00         0.00000E+00        -0.29335E+06
 
   -0.15133E+07        -0.60938E+04         0.00000E+00
   -0.60938E+04         0.18967E+06         0.00000E+00
    0.00000E+00         0.00000E+00        -0.26472E+06
 
   -0.14172E+07        -0.27205E+05         0.00000E+00
   -0.27205E+05         0.23008E+06         0.00000E+00
    0.00000E+00         0.00000E+00        -0.23742E+06
 
   -0.13314E+07        -0.48203E+05         0.00000E+00
   -0.48203E+05         0.27411E+06         0.00000E+00
    0.00000E+00         0.00000E+00        -0.21147E+06
 
   -0.12555E+07        -0.68333E+05         0.00000E+00
   -0.68333E+05         0.32137E+06         0.00000E+00
    0.00000E+00         0.00000E+00        -0.18683E+06
 
   -0.11888E+07        -0.86931E+05         0.00000E+00
   -0.86931E+05         0.37145E+06         0.00000E+00
    0.00000E+00         0.00000E+00        -0.16347E+06
 
   -0.11307E+07        -0.10343E+06         0.00000E+00
   -0.10343E+06         0.42391E+06         0.00000E+00
    0.00000E+00         0.00000E+00        -0.14137E+06
 
   -0.10806E+07        -0.11734E+06         0.00000E+00
   -0.11734E+06         0.47831E+06         0.00000E+00
    0.00000E+00         0.00000E+00        -0.12046E+06
 
   -0.10378E+07        -0.12827E+06         0.00000E+00
   -0.12827E+06         0.53422E+06         0.00000E+00
    0.00000E+00         0.00000E+00        -0.10071E+06
 
   -0.10014E+07        -0.13588E+06         0.00000E+00
   -0.13588E+06         0.59120E+06         0.00000E+00
    0.00000E+00         0.00000E+00        -0.82049E+05
 
   -0.97093E+06        -0.13993E+06         0.00000E+00
   -0.13993E+06         0.64885E+06         0.00000E+00
    0.00000E+00         0.00000E+00        -0.64416E+05
 
   -0.94550E+06        -0.14022E+06         0.00000E+00
   -0.14022E+06         0.70677E+06         0.00000E+00
    0.00000E+00         0.00000E+00        -0.47746E+05
 
   -0.92443E+06        -0.13662E+06         0.00000E+00
   -0.13662E+06         0.76457E+06         0.00000E+00
    0.00000E+00         0.00000E+00        -0.31972E+05
 
   -0.90702E+06        -0.12905E+06         0.00000E+00
   -0.12905E+06         0.82190E+06         0.00000E+00
    0.00000E+00         0.00000E+00        -0.17025E+05
 
   -0.89258E+06        -0.11747E+06         0.00000E+00
   -0.11747E+06         0.87840E+06         0.00000E+00
    0.00000E+00         0.00000E+00        -0.28357E+04
 
   -0.88044E+06        -0.10189E+06         0.00000E+00
   -0.10189E+06         0.93377E+06         0.00000E+00
    0.00000E+00         0.00000E+00         0.10667E+05
 
   -0.86992E+06        -0.82360E+05         0.00000E+00
   -0.82360E+05         0.98768E+06         0.00000E+00
    0.00000E+00         0.00000E+00         0.23551E+05
 
   -0.86041E+06        -0.58950E+05         0.00000E+00
   -0.58950E+05         0.10398E+07         0.00000E+00
    0.00000E+00         0.00000E+00         0.35886E+05
 
   -0.85128E+06        -0.31778E+05         0.00000E+00
   -0.31778E+05         0.10900E+07         0.00000E+00
    0.00000E+00         0.00000E+00         0.47739E+05
 
   -0.84192E+06        -0.98661E+03         0.00000E+00
   -0.98661E+03         0.11378E+07         0.00000E+00
    0.00000E+00         0.00000E+00         0.59176E+05
 
   -0.83176E+06         0.33248E+05         0.00000E+00
    0.33248E+05         0.11831E+07         0.00000E+00
    0.00000E+00         0.00000E+00         0.70261E+05
 
   -0.82024E+06         0.70721E+05         0.00000E+00
    0.70721E+05         0.12255E+07         0.00000E+00
    0.00000E+00         0.00000E+00         0.81055E+05
 
   -0.80681E+06         0.11119E+06         0.00000E+00
    0.11119E+06         0.12649E+07         0.00000E+00
    0.00000E+00         0.00000E+00         0.91616E+05
 
   -0.79095E+06         0.15439E+06         0.00000E+00
    0.15439E+06         0.13010E+07         0.00000E+00
    0.00000E+00         0.00000E+00         0.10200E+06
 
   -0.77216E+06         0.20001E+06         0.00000E+00
    0.20001E+06         0.13335E+07         0.00000E+00
    0.00000E+00         0.00000E+00         0.11226E+06
 
   -0.74997E+06         0.24770E+06         0.00000E+00
    0.24770E+06         0.13622E+07         0.00000E+00
    0.00000E+00         0.00000E+00         0.12245E+06
 
   -0.72392E+06         0.29708E+06         0.00000E+00
    0.29708E+06         0.13869E+07         0.00000E+00
    0.00000E+00         0.00000E+00         0.13260E+06
 
   -0.69362E+06         0.34771E+06         0.00000E+00
    0.34771E+06         0.14074E+07         0.00000E+00
    0.00000E+00         0.00000E+00         0.14276E+06
 
   -0.65867E+06         0.39910E+06         0.00000E+00
    0.39910E+06         0.14235E+07         0.00000E+00
    0.00000E+00         0.00000E+00         0.15296E+06
 
   -0.61876E+06         0.45074E+06         0.00000E+00
    0.45074E+06         0.14349E+07         0.00000E+00
    0.00000E+00         0.00000E+00         0.16323E+06
 
   -0.57363E+06         0.50202E+06         0.00000E+00
    0.50202E+06         0.14416E+07         0.00000E+00
    0.00000E+00         0.00000E+00         0.17359E+06
 
   -0.52306E+06         0.55231E+06         0.00000E+00
    0.55231E+06         0.14433E+07         0.00000E+00
    0.00000E+00         0.00000E+00         0.18405E+06
 
   -0.46695E+06         0.60093E+06         0.00000E+00
    0.60093E+06         0.14401E+07         0.00000E+00
    0.00000E+00         0.00000E+00         0.19462E+06
 
   -0.40525E+06         0.64711E+06         0.00000E+00
    0.64711E+06         0.14317E+07         0.00000E+00
    0.00000E+00         0.00000E+00         0.20530E+06
 
   -0.33806E+06         0.69006E+06         0.00000E+00
    0.69006E+06         0.14184E+07         0.00000E+00
    0.00000E+00         0.00000E+00         0.21606E+06
 
   -0.26558E+06         0.72895E+06         0.00000E+00
    0.72895E+06         0.14001E+07         0.00000E+00
    0.00000E+00         0.00000E+00         0.22690E+06
 
   -0.18814E+06         0.76290E+06         0.00000E+00
    0.76290E+06         0.13770E+07         0.00000E+00
    0.00000E+00         0.00000E+00         0.23777E+06
 
   -0.10625E+06         0.79102E+06         0.00000E+00
    0.79102E+06         0.13494E+07         0.00000E+00
    0.00000E+00         0.00000E+00         0.24862E+06
 
   -0.20561E+05         0.81241E+06         0.00000E+00
    0.81241E+06         0.13176E+07         0.00000E+00
    0.00000E+00         0.00000E+00         0.25941E+06
 
    0.68089E+05         0.82618E+06         0.00000E+00
    0.82618E+06         0.12822E+07         0.00000E+00
    0.00000E+00         0.00000E+00         0.27007E+06
 
    0.15866E+06         0.83146E+06         0.00000E+00
    0.83146E+06         0.12438E+07         0.00000E+00
    0.00000E+00         0.00000E+00         0.28050E+06
 
    0.24995E+06         0.82749E+06         0.00000E+00
    0.82749E+06         0.12032E+07         0.00000E+00
    0.00000E+00         0.00000E+00         0.29063E+06
 
   -0.26983E+07         0.26592E+05         0.00000E+00
    0.26592E+05         0.54485E+04         0.00000E+00
    0.00000E+00         0.00000E+00        -0.53858E+06
 
   -0.25544E+07         0.62056E+05         0.00000E+00
    0.62056E+05         0.61881E+04         0.00000E+00
    0.00000E+00         0.00000E+00        -0.50964E+06
 
   -0.24142E+07         0.90499E+05         0.00000E+00
    0.90499E+05         0.87762E+04         0.00000E+00
    0.00000E+00         0.00000E+00        -0.48108E+06
 
   -0.22785E+07         0.11250E+06         0.00000E+00
    0.11250E+06         0.13563E+05         0.00000E+00
    0.00000E+00         0.00000E+00        -0.45298E+06
 
   -0.21480E+07         0.12866E+06         0.00000E+00
    0.12866E+06         0.20872E+05         0.00000E+00
    0.00000E+00         0.00000E+00        -0.42543E+06
 
   -0.20233E+07         0.13964E+06         0.00000E+00
    0.13964E+06         0.30940E+05         0.00000E+00
    0.00000E+00         0.00000E+00        -0.39847E+06
 
   -0.19048E+07         0.14613E+06         0.00000E+00
    0.14613E+06         0.43928E+05         0.00000E+00
    0.00000E+00         0.00000E+00        -0.37218E+06
 
   -0.17929E+07         0.14883E+06         0.00000E+00
    0.14883E+06         0.59921E+05         0.00000E+00
    0.00000E+00         0.00000E+00        -0.34660E+06
 
   -0.16878E+07         0.14842E+06         0.00000E+00
    0.14842E+06         0.78936E+05         0.00000E+00
    0.00000E+00         0.00000E+00        -0.32177E+06
 
   -0.15895E+07         0.14557E+06         0.00000E+00
    0.14557E+06         0.10093E+06         0.00000E+00
    0.00000E+00         0.00000E+00        -0.29772E+06
 
   -0.14982E+07         0.14094E+06         0.00000E+00
    0.14094E+06         0.12580E+06         0.00000E+00
    0.00000E+00         0.00000E+00        -0.27448E+06
 
   -0.14137E+07         0.13513E+06         0.00000E+00
    0.13513E+06         0.15341E+06         0.00000E+00
    0.00000E+00         0.00000E+00        -0.25206E+06
 
   -0.13359E+07         0.12872E+06         0.00000E+00
    0.12872E+06         0.18355E+06         0.00000E+00
    0.00000E+00         0.00000E+00        -0.23047E+06
 
   -0.12646E+07         0.12223E+06         0.00000E+00
    0.12223E+06         0.21601E+06         0.00000E+00
    0.00000E+00         0.00000E+00        -0.20971E+06
 
   -0.11994E+07         0.11614E+06         0.00000E+00
    0.11614E+06         0.25054E+06         0.00000E+00
    0.00000E+00         0.00000E+00        -0.18977E+06
 
   -0.11400E+07         0.11087E+06         0.00000E+00
    0.11087E+06         0.28687E+06         0.00000E+00
    0.00000E+00         0.00000E+00        -0.17063E+06
 
   -0.10861E+07         0.10680E+06         0.00000E+00
    0.10680E+06         0.32470E+06         0.00000E+00
    0.00000E+00         0.00000E+00        -0.15229E+06
 
   -0.10373E+07         0.10425E+06         0.00000E+00
    0.10425E+06         0.36375E+06         0.00000E+00
    0.00000E+00         0.00000E+00        -0.13471E+06
 
   -0.99305E+06         0.10349E+06         0.00000E+00
    0.10349E+06         0.40372E+06         0.00000E+00
    0.00000E+00         0.00000E+00        -0.11787E+06
 
   -0.95297E+06         0.10476E+06         0.00000E+00
    0.10476E+06         0.44429E+06         0.00000E+00
    0.00000E+00         0.00000E+00        -0.10174E+06
 
   -0.91658E+06         0.10822E+06         0.00000E+00
    0.10822E+06         0.48517E+06         0.00000E+00
    0.00000E+00         0.00000E+00        -0.86282E+05
 
   -0.88340E+06         0.11402E+06         0.00000E+00
    0.11402E+06         0.52606E+06         0.00000E+00
    0.00000E+00         0.00000E+00        -0.71469E+05
 
   -0.85297E+06         0.12224E+06         0.00000E+00
    0.12224E+06         0.56667E+06         0.00000E+00
    0.00000E+00         0.00000E+00        -0.57260E+05
 
   -0.82480E+06         0.13295E+06         0.00000E+00
    0.13295E+06         0.60671E+06         0.00000E+00
    0.00000E+00         0.00000E+00        -0.43617E+05
 
   -0.79842E+06         0.14614E+06         0.00000E+00
    0.14614E+06         0.64590E+06         0.00000E+00
    0.00000E+00         0.00000E+00        -0.30503E+05
 
   -0.77338E+06         0.16180E+06         0.00000E+00
    0.16180E+06         0.68399E+06         0.00000E+00
    0.00000E+00         0.00000E+00        -0.17878E+05
 
   -0.74922E+06         0.17988E+06         0.00000E+00
    0.17988E+06         0.72069E+06         0.00000E+00
    0.00000E+00         0.00000E+00        -0.57051E+04
 
   -0.72551E+06         0.20027E+06         0.00000E+00
    0.20027E+06         0.75578E+06         0.00000E+00
    0.00000E+00         0.00000E+00         0.60542E+04
 
   -0.70182E+06         0.22286E+06         0.00000E+00
    0.22286E+06         0.78900E+06         0.00000E+00
    0.00000E+00         0.00000E+00         0.17436E+05
 
   -0.67776E+06         0.24748E+06         0.00000E+00
    0.24748E+06         0.82014E+06         0.00000E+00
    0.00000E+00         0.00000E+00         0.28475E+05
 
   -0.65295E+06         0.27395E+06         0.00000E+00
    0.27395E+06         0.84897E+06         0.00000E+00
    0.00000E+00         0.00000E+00         0.39204E+05
 
   -0.62703E+06         0.30205E+06         0.00000E+00
    0.30205E+06         0.87530E+06         0.00000E+00
    0.00000E+00         0.00000E+00         0.49653E+05
 
   -0.59967E+06         0.33153E+06         0.00000E+00
    0.33153E+06         0.89893E+06         0.00000E+00
    0.00000E+00         0.00000E+00         0.59851E+05
 
   -0.57058E+06         0.36210E+06         0.00000E+00
    0.36210E+06         0.91969E+06         0.00000E+00
    0.00000E+00         0.00000E+00         0.69822E+05
 
   -0.53949E+06         0.39345E+06         0.00000E+00
    0.39345E+06         0.93743E+06         0.00000E+00
    0.00000E+00         0.00000E+00         0.79587E+05
 
   -0.50618E+06         0.42524E+06         0.00000E+00
    0.42524E+06         0.95201E+06         0.00000E+00
    0.00000E+00         0.00000E+00         0.89165E+05
 
   -0.47048E+06         0.45709E+06         0.00000E+00
    0.45709E+06         0.96332E+06         0.00000E+00
    0.00000E+00         0.00000E+00         0.98568E+05
 
   -0.43225E+06         0.48861E+06         0.00000E+00
    0.48861E+06         0.97128E+06         0.00000E+00
    0.00000E+00         0.00000E+00         0.10781E+06
 
   -0.39141E+06         0.51936E+06         0.00000E+00
    0.51936E+06         0.97582E+06         0.00000E+00
    0.00000E+00         0.00000E+00         0.11688E+06
 
   -0.34796E+06         0.54889E+06         0.00000E+00
    0.54889E+06         0.97694E+06         0.00000E+00
    0.00000E+00         0.00000E+00         0.12580E+06
 
   -0.30195E+06         0.57673E+06         0.00000E+00
    0.57673E+06         0.97465E+06         0.00000E+00
    0.00000E+00         0.00000E+00         0.13454E+06
 
   -0.25350E+06         0.60240E+06         0.00000E+00
    0.60240E+06         0.96901E+06         0.00000E+00
    0.00000E+00         0.00000E+00         0.14310E+06
 
   -0.20282E+06         0.62539E+06         0.00000E+00
    0.62539E+06         0.96014E+06         0.00000E+00
    0.00000E+00         0.00000E+00         0.15146E+06
 
   -0.15020E+06         0.64520E+06         0.00000E+00
    0.64520E+06         0.94820E+06         0.00000E+00
    0.00000E+00         0.00000E+00         0.15960E+06
 
   -0.96017E+05         0.66133E+06         0.00000E+00
    0.66133E+06         0.93343E+06         0.00000E+00
    0.00000E+00         0.00000E+00         0.16748E+06
 
   -0.40745E+05         0.67330E+06         0.00000E+00
    0.67330E+06         0.91610E+06         0.00000E+00
    0.00000E+00         0.00000E+00         0.17507E+06
 
    0.15048E+05         0.68064E+06         0.00000E+00
    0.68064E+06         0.89657E+06         0.00000E+00
    0.00000E+00         0.00000E+00         0.18232E+06
 
    0.70698E+05         0.68294E+06         0.00000E+00
    0.68294E+06         0.87526E+06         0.00000E+00
    0.00000E+00         0.00000E+00         0.18919E+06
 
    0.12545E+06         0.67982E+06         0.00000E+00
    0.67982E+06         0.85267E+06         0.00000E+00
    0.00000E+00         0.00000E+00         0.19562E+06
 
    0.17844E+06         0.67097E+06         0.00000E+00
    0.67097E+06         0.82933E+06         0.00000E+00
    0.00000E+00         0.00000E+00         0.20155E+06
 
   -0.24941E+07         0.27138E+05         0.00000E+00
    0.27138E+05         0.11524E+04         0.00000E+00
    0.00000E+00         0.00000E+00        -0.49860E+06
 
   -0.23817E+07         0.68190E+05         0.00000E+00
    0.68190E+05         0.13779E+04         0.00000E+00
    0.00000E+00         0.00000E+00        -0.47606E+06
 
   -0.22710E+07         0.10393E+06         0.00000E+00
    0.10393E+06         0.24796E+04         0.00000E+00
    0.00000E+00         0.00000E+00        -0.45370E+06
 
   -0.21625E+07         0.13466E+06         0.00000E+00
    0.13466E+06         0.47262E+04         0.00000E+00
    0.00000E+00         0.00000E+00        -0.43156E+06
 
   -0.20568E+07         0.16075E+06         0.00000E+00
    0.16075E+06         0.83385E+04         0.00000E+00
    0.00000E+00         0.00000E+00        -0.40970E+06
 
   -0.19543E+07         0.18259E+06         0.00000E+00
    0.18259E+06         0.13503E+05         0.00000E+00
    0.00000E+00         0.00000E+00        -0.38816E+06
 
   -0.18552E+07         0.20058E+06         0.00000E+00
    0.20058E+06         0.20367E+05         0.00000E+00
    0.00000E+00         0.00000E+00        -0.36697E+06
 
   -0.17600E+07         0.21514E+06         0.00000E+00
    0.21514E+06         0.29037E+05         0.00000E+00
    0.00000E+00         0.00000E+00        -0.34619E+06
 
   -0.16688E+07         0.22672E+06         0.00000E+00
    0.22672E+06         0.39580E+05         0.00000E+00
    0.00000E+00         0.00000E+00        -0.32584E+06
 
   -0.15817E+07         0.23573E+06         0.00000E+00
    0.23573E+06         0.52020E+05         0.00000E+00
    0.00000E+00         0.00000E+00        -0.30595E+06
 
   -0.14990E+07         0.24263E+06         0.00000E+00
    0.24263E+06         0.66346E+05         0.00000E+00
    0.00000E+00         0.00000E+00        -0.28654E+06
 
   -0.14207E+07         0.24781E+06         0.00000E+00
    0.24781E+06         0.82514E+05         0.00000E+00
    0.00000E+00         0.00000E+00        -0.26763E+06
 
   -0.13467E+07         0.25167E+06         0.00000E+00
    0.25167E+06         0.10044E+06         0.00000E+00
    0.00000E+00         0.00000E+00        -0.24924E+06
 
   -0.12769E+07         0.25461E+06         0.00000E+00
    0.25461E+06         0.12003E+06         0.00000E+00
    0.00000E+00         0.00000E+00        -0.23138E+06
 
   -0.12114E+07         0.25697E+06         0.00000E+00
    0.25697E+06         0.14114E+06         0.00000E+00
    0.00000E+00         0.00000E+00        -0.21405E+06
 
   -0.11500E+07         0.25908E+06         0.00000E+00
    0.25908E+06         0.16363E+06         0.00000E+00
    0.00000E+00         0.00000E+00        -0.19726E+06
 
   -0.10924E+07         0.26124E+06         0.00000E+00
    0.26124E+06         0.18732E+06         0.00000E+00
    0.00000E+00         0.00000E+00        -0.18101E+06
 
   -0.10385E+07         0.26371E+06         0.00000E+00
    0.26371E+06         0.21202E+06         0.00000E+00
    0.00000E+00         0.00000E+00        -0.16529E+06
 
   -0.98797E+06         0.26674E+06         0.00000E+00
    0.26674E+06         0.23755E+06         0.00000E+00
    0.00000E+00         0.00000E+00        -0.15009E+06
 
   -0.94067E+06         0.27051E+06         0.00000E+00
    0.27051E+06         0.26368E+06         0.00000E+00
    0.00000E+00         0.00000E+00        -0.13540E+06
 
   -0.89628E+06         0.27521E+06         0.00000E+00
    0.27521E+06         0.29023E+06         0.00000E+00
    0.00000E+00         0.00000E+00        -0.12121E+06
 
   -0.85452E+06         0.28097E+06         0.00000E+00
    0.28097E+06         0.31696E+06         0.00000E+00
    0.00000E+00         0.00000E+00        -0.10751E+06
 
   -0.81508E+06         0.28790E+06         0.00000E+00
    0.28790E+06         0.34367E+06         0.00000E+00
    0.00000E+00         0.00000E+00        -0.94282E+05
 
   -0.77767E+06         0.29607E+06         0.00000E+00
    0.29607E+06         0.37013E+06         0.00000E+00
    0.00000E+00         0.00000E+00        -0.81508E+05
 
   -0.74200E+06         0.30552E+06         0.00000E+00
    0.30552E+06         0.39615E+06         0.00000E+00
    0.00000E+00         0.00000E+00        -0.69170E+05
 
   -0.70776E+06         0.31626E+06         0.00000E+00
    0.31626E+06         0.42150E+06         0.00000E+00
    0.00000E+00         0.00000E+00        -0.57251E+05
 
   -0.67466E+06         0.32829E+06         0.00000E+00
    0.32829E+06         0.44600E+06         0.00000E+00
    0.00000E+00         0.00000E+00        -0.45732E+05
 
   -0.64243E+06         0.34154E+06         0.00000E+00
    0.34154E+06         0.46945E+06         0.00000E+00
    0.00000E+00         0.00000E+00        -0.34597E+05
 
   -0.61079E+06         0.35596E+06         0.00000E+00
    0.35596E+06         0.49165E+06         0.00000E+00
    0.00000E+00         0.00000E+00        -0.23827E+05
 
   -0.57948E+06         0.37144E+06         0.00000E+00
    0.37144E+06         0.51245E+06         0.00000E+00
    0.00000E+00         0.00000E+00        -0.13406E+05
 
   -0.54827E+06         0.38786E+06         0.00000E+00
    0.38786E+06         0.53167E+06         0.00000E+00
    0.00000E+00         0.00000E+00        -0.33190E+04
 
   -0.51694E+06         0.40507E+06         0.00000E+00
    0.40507E+06         0.54917E+06         0.00000E+00
    0.00000E+00         0.00000E+00         0.64478E+04
 
   -0.48529E+06         0.42289E+06         0.00000E+00
    0.42289E+06         0.56482E+06         0.00000E+00
    0.00000E+00         0.00000E+00         0.15907E+05
 
   -0.45316E+06         0.44114E+06         0.00000E+00
    0.44114E+06         0.57850E+06         0.00000E+00
    0.00000E+00         0.00000E+00         0.25068E+05
 
   -0.42041E+06         0.45960E+06         0.00000E+00
    0.45960E+06         0.59010E+06         0.00000E+00
    0.00000E+00         0.00000E+00         0.33939E+05
 
   -0.38693E+06         0.47804E+06         0.00000E+00
    0.47804E+06         0.59955E+06         0.00000E+00
    0.00000E+00         0.00000E+00         0.42525E+05
 
   -0.35265E+06         0.49620E+06         0.00000E+00
    0.49620E+06         0.60680E+06         0.00000E+00
    0.00000E+00         0.00000E+00         0.50829E+05
 
   -0.31755E+06         0.51383E+06         0.00000E+00
    0.51383E+06         0.61181E+06         0.00000E+00
    0.00000E+00         0.00000E+00         0.58852E+05
 
   -0.28163E+06         0.53064E+06         0.00000E+00
    0.53064E+06         0.61457E+06         0.00000E+00
    0.00000E+00         0.00000E+00         0.66589E+05
 
   -0.24495E+06         0.54637E+06         0.00000E+00
    0.54637E+06         0.61512E+06         0.00000E+00
    0.00000E+00         0.00000E+00         0.74034E+05
 
   -0.20761E+06         0.56071E+06         0.00000E+00
    0.56071E+06         0.61350E+06         0.00000E+00
    0.00000E+00         0.00000E+00         0.81178E+05
 
   -0.16976E+06         0.57338E+06         0.00000E+00
    0.57338E+06         0.60980E+06         0.00000E+00
    0.00000E+00         0.00000E+00         0.88007E+05
 
   -0.13161E+06         0.58409E+06         0.00000E+00
    0.58409E+06         0.60413E+06         0.00000E+00
    0.00000E+00         0.00000E+00         0.94505E+05
 
   -0.93408E+05         0.59258E+06         0.00000E+00
    0.59258E+06         0.59667E+06         0.00000E+00
    0.00000E+00         0.00000E+00         0.10065E+06
 
   -0.55470E+05         0.59857E+06         0.00000E+00
    0.59857E+06         0.58760E+06         0.00000E+00
    0.00000E+00         0.00000E+00         0.10643E+06
 
   -0.18155E+05         0.60183E+06         0.00000E+00
    0.60183E+06         0.57714E+06         0.00000E+00
    0.00000E+00         0.00000E+00         0.11180E+06
 
    0.18122E+05         0.60214E+06         0.00000E+00
    0.60214E+06         0.56557E+06         0.00000E+00
    0.00000E+00         0.00000E+00         0.11674E+06
 
    0.52896E+05         0.59932E+06         0.00000E+00
    0.59932E+06         0.55319E+06         0.00000E+00
    0.00000E+00         0.00000E+00         0.12122E+06
 
    0.85654E+05         0.59324E+06         0.00000E+00
    0.59324E+06         0.54033E+06         0.00000E+00
    0.00000E+00         0.00000E+00         0.12520E+06
 
    0.11584E+06         0.58379E+06         0.00000E+00
    0.58379E+06         0.52736E+06         0.00000E+00
    0.00000E+00         0.00000E+00         0.12864E+06
 
   -0.22713E+07         0.26797E+05         0.00000E+00
    0.26797E+05         0.22095E+03         0.00000E+00
    0.00000E+00         0.00000E+00        -0.45421E+06
 
   -0.21830E+07         0.70051E+05         0.00000E+00
    0.70051E+05         0.59247E+02         0.00000E+00
    0.00000E+00         0.00000E+00        -0.43659E+06
 
   -0.20953E+07         0.10911E+06         0.00000E+00
    0.10911E+06         0.18651E+03         0.00000E+00
    0.00000E+00         0.00000E+00        -0.41903E+06
 
   -0.20085E+07         0.14418E+06         0.00000E+00
    0.14418E+06         0.78062E+03         0.00000E+00
    0.00000E+00         0.00000E+00        -0.40155E+06
 
   -0.19230E+07         0.17549E+06         0.00000E+00
    0.17549E+06         0.20053E+04         0.00000E+00
    0.00000E+00         0.00000E+00        -0.38419E+06
 
   -0.18390E+07         0.20328E+06         0.00000E+00
    0.20328E+06         0.40023E+04         0.00000E+00
    0.00000E+00         0.00000E+00        -0.36699E+06
 
   -0.17568E+07         0.22780E+06         0.00000E+00
    0.22780E+06         0.68912E+04         0.00000E+00
    0.00000E+00         0.00000E+00        -0.34998E+06
 
   -0.16767E+07         0.24934E+06         0.00000E+00
    0.24934E+06         0.10768E+05         0.00000E+00
    0.00000E+00         0.00000E+00        -0.33318E+06
 
   -0.15988E+07         0.26816E+06         0.00000E+00
    0.26816E+06         0.15706E+05         0.00000E+00
    0.00000E+00         0.00000E+00        -0.31662E+06
 
   -0.15234E+07         0.28455E+06         0.00000E+00
    0.28455E+06         0.21751E+05         0.00000E+00
    0.00000E+00         0.00000E+00        -0.30033E+06
 
   -0.14505E+07         0.29879E+06         0.00000E+00
    0.29879E+06         0.28929E+05         0.00000E+00
    0.00000E+00         0.00000E+00        -0.28432E+06
 
   -0.13804E+07         0.31115E+06         0.00000E+00
    0.31115E+06         0.37241E+05         0.00000E+00
    0.00000E+00         0.00000E+00        -0.26862E+06
 
   -0.13129E+07         0.32192E+06         0.00000E+00
    0.32192E+06         0.46664E+05         0.00000E+00
    0.00000E+00         0.00000E+00        -0.25324E+06
 
   -0.12482E+07         0.33135E+06         0.00000E+00
    0.33135E+06         0.57159E+05         0.00000E+00
    0.00000E+00         0.00000E+00        -0.23820E+06
 
   -0.11862E+07         0.33969E+06         0.00000E+00
    0.33969E+06         0.68663E+05         0.00000E+00
    0.00000E+00         0.00000E+00        -0.22350E+06
 
   -0.11269E+07         0.34719E+06         0.00000E+00
    0.34719E+06         0.81099E+05         0.00000E+00
    0.00000E+00         0.00000E+00        -0.20916E+06
 
   -0.10703E+07         0.35406E+06         0.00000E+00
    0.35406E+06         0.94374E+05         0.00000E+00
    0.00000E+00         0.00000E+00        -0.19518E+06
 
   -0.10162E+07         0.36051E+06         0.00000E+00
    0.36051E+06         0.10838E+06         0.00000E+00
    0.00000E+00         0.00000E+00        -0.18157E+06
 
   -0.96463E+06         0.36671E+06         0.00000E+00
    0.36671E+06         0.12301E+06         0.00000E+00
    0.00000E+00         0.00000E+00        -0.16832E+06
 
   -0.91536E+06         0.37284E+06         0.00000E+00
    0.37284E+06         0.13812E+06         0.00000E+00
    0.00000E+00         0.00000E+00        -0.15545E+06
 
   -0.86829E+06         0.37902E+06         0.00000E+00
    0.37902E+06         0.15358E+06         0.00000E+00
    0.00000E+00         0.00000E+00        -0.14294E+06
 
   -0.82327E+06         0.38539E+06         0.00000E+00
    0.38539E+06         0.16927E+06         0.00000E+00
    0.00000E+00         0.00000E+00        -0.13080E+06
 
   -0.78014E+06         0.39204E+06         0.00000E+00
    0.39204E+06         0.18502E+06         0.00000E+00
    0.00000E+00         0.00000E+00        -0.11902E+06
 
   -0.73873E+06         0.39904E+06         0.00000E+00
    0.39904E+06         0.20070E+06         0.00000E+00
    0.00000E+00         0.00000E+00        -0.10761E+06
 
   -0.69887E+06         0.40645E+06         0.00000E+00
    0.40645E+06         0.21617E+06         0.00000E+00
    0.00000E+00         0.00000E+00        -0.96540E+05
 
   -0.66040E+06         0.41430E+06         0.00000E+00
    0.41430E+06         0.23128E+06         0.00000E+00
    0.00000E+00         0.00000E+00        -0.85824E+05
 
   -0.62315E+06         0.42260E+06         0.00000E+00
    0.42260E+06         0.24590E+06         0.00000E+00
    0.00000E+00         0.00000E+00        -0.75450E+05
 
   -0.58695E+06         0.43135E+06         0.00000E+00
    0.43135E+06         0.25988E+06         0.00000E+00
    0.00000E+00         0.00000E+00        -0.65413E+05
 
   -0.55165E+06         0.44050E+06         0.00000E+00
    0.44050E+06         0.27311E+06         0.00000E+00
    0.00000E+00         0.00000E+00        -0.55708E+05
 
   -0.51710E+06         0.45001E+06         0.00000E+00
    0.45001E+06         0.28546E+06         0.00000E+00
    0.00000E+00         0.00000E+00        -0.46329E+05
 
   -0.48318E+06         0.45982E+06         0.00000E+00
    0.45982E+06         0.29683E+06         0.00000E+00
    0.00000E+00         0.00000E+00        -0.37271E+05
 
   -0.44976E+06         0.46984E+06         0.00000E+00
    0.46984E+06         0.30710E+06         0.00000E+00
    0.00000E+00         0.00000E+00        -0.28532E+05
 
   -0.41675E+06         0.47997E+06         0.00000E+00
    0.47997E+06         0.31621E+06         0.00000E+00
    0.00000E+00         0.00000E+00        -0.20108E+05
 
   -0.38405E+06         0.49009E+06         0.00000E+00
    0.49009E+06         0.32406E+06         0.00000E+00
    0.00000E+00         0.00000E+00        -0.11998E+05
 
   -0.35162E+06         0.50009E+06         0.00000E+00
    0.50009E+06         0.33062E+06         0.00000E+00
    0.00000E+00         0.00000E+00        -0.42000E+04
 
   -0.31940E+06         0.50982E+06         0.00000E+00
    0.50982E+06         0.33582E+06         0.00000E+00
    0.00000E+00         0.00000E+00         0.32836E+04
 
   -0.28739E+06         0.51913E+06         0.00000E+00
    0.51913E+06         0.33965E+06         0.00000E+00
    0.00000E+00         0.00000E+00         0.10451E+05
 
   -0.25561E+06         0.52789E+06         0.00000E+00
    0.52789E+06         0.34209E+06         0.00000E+00
    0.00000E+00         0.00000E+00         0.17297E+05
 
   -0.22408E+06         0.53591E+06         0.00000E+00
    0.53591E+06         0.34317E+06         0.00000E+00
    0.00000E+00         0.00000E+00         0.23817E+05
 
   -0.19289E+06         0.54306E+06         0.00000E+00
    0.54306E+06         0.34290E+06         0.00000E+00
    0.00000E+00         0.00000E+00         0.30003E+05
 
   -0.16213E+06         0.54918E+06         0.00000E+00
    0.54918E+06         0.34136E+06         0.00000E+00
    0.00000E+00         0.00000E+00         0.35845E+05
 
   -0.13194E+06         0.55410E+06         0.00000E+00
    0.55410E+06         0.33860E+06         0.00000E+00
    0.00000E+00         0.00000E+00         0.41333E+05
 
   -0.10248E+06         0.55769E+06         0.00000E+00
    0.55769E+06         0.33474E+06         0.00000E+00
    0.00000E+00         0.00000E+00         0.46452E+05
 
   -0.73932E+05         0.55981E+06         0.00000E+00
    0.55981E+06         0.32988E+06         0.00000E+00
    0.00000E+00         0.00000E+00         0.51189E+05
 
   -0.46536E+05         0.56034E+06         0.00000E+00
    0.56034E+06         0.32417E+06         0.00000E+00
    0.00000E+00         0.00000E+00         0.55526E+05
 
   -0.20538E+05         0.55918E+06         0.00000E+00
    0.55918E+06         0.31777E+06         0.00000E+00
    0.00000E+00         0.00000E+00         0.59446E+05
 
    0.37785E+04         0.55625E+06         0.00000E+00
    0.55625E+06         0.31086E+06         0.00000E+00
    0.00000E+00         0.00000E+00         0.62928E+05
 
    0.26107E+05         0.55149E+06         0.00000E+00
    0.55149E+06         0.30365E+06         0.00000E+00
    0.00000E+00         0.00000E+00         0.65951E+05
 
    0.46118E+05         0.54488E+06         0.00000E+00
    0.54488E+06         0.29635E+06         0.00000E+00
    0.00000E+00         0.00000E+00         0.68493E+05
 
    0.63460E+05         0.53642E+06         0.00000E+00
    0.53642E+06         0.28919E+06         0.00000E+00
    0.00000E+00         0.00000E+00         0.70530E+05
 
   -0.20450E+07         0.25731E+05         0.00000E+00
    0.25731E+05         0.90282E+02         0.00000E+00
    0.00000E+00         0.00000E+00        -0.40899E+06
 
   -0.19760E+07         0.68907E+05         0.00000E+00
    0.68907E+05        -0.36279E+03         0.00000E+00
    0.00000E+00         0.00000E+00        -0.39528E+06
 
   -0.19068E+07         0.10870E+06         0.00000E+00
    0.10870E+06        -0.93133E+03         0.00000E+00
    0.00000E+00         0.00000E+00        -0.38154E+06
 
   -0.18376E+07         0.14525E+06         0.00000E+00
    0.14525E+06        -0.14778E+04         0.00000E+00
    0.00000E+00         0.00000E+00        -0.36781E+06
 
   -0.17686E+07         0.17870E+06         0.00000E+00
    0.17870E+06        -0.18776E+04         0.00000E+00
    0.00000E+00         0.00000E+00        -0.35409E+06
 
   -0.17002E+07         0.20922E+06         0.00000E+00
    0.20922E+06        -0.20186E+04         0.00000E+00
    0.00000E+00         0.00000E+00        -0.34044E+06
 
   -0.16325E+07         0.23696E+06         0.00000E+00
    0.23696E+06        -0.18025E+04         0.00000E+00
    0.00000E+00         0.00000E+00        -0.32685E+06
 
   -0.15657E+07         0.26212E+06         0.00000E+00
    0.26212E+06        -0.11457E+04         0.00000E+00
    0.00000E+00         0.00000E+00        -0.31337E+06
 
   -0.15001E+07         0.28486E+06         0.00000E+00
    0.28486E+06         0.20286E+02         0.00000E+00
    0.00000E+00         0.00000E+00        -0.30001E+06
 
   -0.14357E+07         0.30538E+06         0.00000E+00
    0.30538E+06         0.17486E+04         0.00000E+00
    0.00000E+00         0.00000E+00        -0.28680E+06
 
   -0.13728E+07         0.32387E+06         0.00000E+00
    0.32387E+06         0.40769E+04         0.00000E+00
    0.00000E+00         0.00000E+00        -0.27374E+06
 
   -0.13113E+07         0.34050E+06         0.00000E+00
    0.34050E+06         0.70277E+04         0.00000E+00
    0.00000E+00         0.00000E+00        -0.26086E+06
 
   -0.12515E+07         0.35547E+06         0.00000E+00
    0.35547E+06         0.10609E+05         0.00000E+00
    0.00000E+00         0.00000E+00        -0.24818E+06
 
   -0.11934E+07         0.36895E+06         0.00000E+00
    0.36895E+06         0.14813E+05         0.00000E+00
    0.00000E+00         0.00000E+00        -0.23571E+06
 
   -0.11369E+07         0.38112E+06         0.00000E+00
    0.38112E+06         0.19622E+05         0.00000E+00
    0.00000E+00         0.00000E+00        -0.22346E+06
 
   -0.10822E+07         0.39215E+06         0.00000E+00
    0.39215E+06         0.25002E+05         0.00000E+00
    0.00000E+00         0.00000E+00        -0.21144E+06
 
   -0.10292E+07         0.40219E+06         0.00000E+00
    0.40219E+06         0.30910E+05         0.00000E+00
    0.00000E+00         0.00000E+00        -0.19967E+06
 
   -0.97800E+06         0.41139E+06         0.00000E+00
    0.41139E+06         0.37292E+05         0.00000E+00
    0.00000E+00         0.00000E+00        -0.18814E+06
 
   -0.92847E+06         0.41989E+06         0.00000E+00
    0.41989E+06         0.44085E+05         0.00000E+00
    0.00000E+00         0.00000E+00        -0.17688E+06
 
   -0.88061E+06         0.42782E+06         0.00000E+00
    0.42782E+06         0.51218E+05         0.00000E+00
    0.00000E+00         0.00000E+00        -0.16588E+06
 
   -0.83435E+06         0.43527E+06         0.00000E+00
    0.43527E+06         0.58615E+05         0.00000E+00
    0.00000E+00         0.00000E+00        -0.15515E+06
 
   -0.78964E+06         0.44236E+06         0.00000E+00
    0.44236E+06         0.66193E+05         0.00000E+00
    0.00000E+00         0.00000E+00        -0.14469E+06
 
   -0.74642E+06         0.44916E+06         0.00000E+00
    0.44916E+06         0.73867E+05         0.00000E+00
    0.00000E+00         0.00000E+00        -0.13451E+06
 
   -0.70460E+06         0.45575E+06         0.00000E+00
    0.45575E+06         0.81549E+05         0.00000E+00
    0.00000E+00         0.00000E+00        -0.12461E+06
 
   -0.66411E+06         0.46217E+06         0.00000E+00
    0.46217E+06         0.89149E+05         0.00000E+00
    0.00000E+00         0.00000E+00        -0.11499E+06
 
   -0.62487E+06         0.46847E+06         0.00000E+00
    0.46847E+06         0.96580E+05         0.00000E+00
    0.00000E+00         0.00000E+00        -0.10566E+06
 
   -0.58679E+06         0.47467E+06         0.00000E+00
    0.47467E+06         0.10375E+06         0.00000E+00
    0.00000E+00         0.00000E+00        -0.96608E+05
 
   -0.54980E+06         0.48080E+06         0.00000E+00
    0.48080E+06         0.11059E+06         0.00000E+00
    0.00000E+00         0.00000E+00        -0.87843E+05
 
   -0.51383E+06         0.48683E+06         0.00000E+00
    0.48683E+06         0.11700E+06         0.00000E+00
    0.00000E+00         0.00000E+00        -0.79365E+05
 
   -0.47879E+06         0.49278E+06         0.00000E+00
    0.49278E+06         0.12292E+06         0.00000E+00
    0.00000E+00         0.00000E+00        -0.71175E+05
 
   -0.44464E+06         0.49860E+06         0.00000E+00
    0.49860E+06         0.12827E+06         0.00000E+00
    0.00000E+00         0.00000E+00        -0.63274E+05
 
   -0.41132E+06         0.50426E+06         0.00000E+00
    0.50426E+06         0.13300E+06         0.00000E+00
    0.00000E+00         0.00000E+00        -0.55664E+05
 
   -0.37879E+06         0.50972E+06         0.00000E+00
    0.50972E+06         0.13705E+06         0.00000E+00
    0.00000E+00         0.00000E+00        -0.48348E+05
 
   -0.34701E+06         0.51492E+06         0.00000E+00
    0.51492E+06         0.14038E+06         0.00000E+00
    0.00000E+00         0.00000E+00        -0.41327E+05
 
   -0.31598E+06         0.51981E+06         0.00000E+00
    0.51981E+06         0.14296E+06         0.00000E+00
    0.00000E+00         0.00000E+00        -0.34604E+05
 
   -0.28569E+06         0.52431E+06         0.00000E+00
    0.52431E+06         0.14477E+06         0.00000E+00
    0.00000E+00         0.00000E+00        -0.28185E+05
 
   -0.25616E+06         0.52835E+06         0.00000E+00
    0.52835E+06         0.14579E+06         0.00000E+00
    0.00000E+00         0.00000E+00        -0.22074E+05
 
   -0.22740E+06         0.53186E+06         0.00000E+00
    0.53186E+06         0.14603E+06         0.00000E+00
    0.00000E+00         0.00000E+00        -0.16275E+05
 
   -0.19949E+06         0.53476E+06         0.00000E+00
    0.53476E+06         0.14550E+06         0.00000E+00
    0.00000E+00         0.00000E+00        -0.10797E+05
 
   -0.17247E+06         0.53699E+06         0.00000E+00
    0.53699E+06         0.14424E+06         0.00000E+00
    0.00000E+00         0.00000E+00        -0.56447E+04
 
   -0.14643E+06         0.53846E+06         0.00000E+00
    0.53846E+06         0.14229E+06         0.00000E+00
    0.00000E+00         0.00000E+00        -0.82775E+03
 
   -0.12147E+06         0.53912E+06         0.00000E+00
    0.53912E+06         0.13970E+06         0.00000E+00
    0.00000E+00         0.00000E+00         0.36452E+04
 
   -0.97718E+05         0.53889E+06         0.00000E+00
    0.53889E+06         0.13654E+06         0.00000E+00
    0.00000E+00         0.00000E+00         0.77641E+04
 
   -0.75302E+05         0.53775E+06         0.00000E+00
    0.53775E+06         0.13289E+06         0.00000E+00
    0.00000E+00         0.00000E+00         0.11518E+05
 
   -0.54378E+05         0.53563E+06         0.00000E+00
    0.53563E+06         0.12886E+06         0.00000E+00
    0.00000E+00         0.00000E+00         0.14896E+05
 
   -0.35113E+05         0.53253E+06         0.00000E+00
    0.53253E+06         0.12454E+06         0.00000E+00
    0.00000E+00         0.00000E+00         0.17886E+05
 
   -0.17690E+05         0.52843E+06         0.00000E+00
    0.52843E+06         0.12006E+06         0.00000E+00
    0.00000E+00         0.00000E+00         0.20473E+05
 
   -0.23048E+04         0.52334E+06         0.00000E+00
    0.52334E+06         0.11553E+06         0.00000E+00
    0.00000E+00         0.00000E+00         0.22646E+05
 
    0.10838E+05         0.51728E+06         0.00000E+00
    0.51728E+06         0.11111E+06         0.00000E+00
    0.00000E+00         0.00000E+00         0.24389E+05
 
    0.21524E+05         0.51030E+06         0.00000E+00
    0.51030E+06         0.10692E+06         0.00000E+00
    0.00000E+00         0.00000E+00         0.25689E+05
 
   -0.18250E+07         0.24101E+05         0.00000E+00
    0.24101E+05         0.12084E+03         0.00000E+00
    0.00000E+00         0.00000E+00        -0.36498E+06
 
   -0.17716E+07         0.65631E+05         0.00000E+00
    0.65631E+05        -0.53904E+03         0.00000E+00
    0.00000E+00         0.00000E+00        -0.35442E+06
 
   -0.17173E+07         0.10441E+06         0.00000E+00
    0.10441E+06        -0.15844E+04         0.00000E+00
    0.00000E+00         0.00000E+00        -0.34378E+06
 
   -0.16625E+07         0.14054E+06         0.00000E+00
    0.14054E+06        -0.29045E+04         0.00000E+00
    0.00000E+00         0.00000E+00        -0.33308E+06
 
   -0.16073E+07         0.17410E+06         0.00000E+00
    0.17410E+06        -0.43970E+04         0.00000E+00
    0.00000E+00         0.00000E+00        -0.32234E+06
 
   -0.15520E+07         0.20521E+06         0.00000E+00
    0.20521E+06        -0.59686E+04         0.00000E+00
    0.00000E+00         0.00000E+00        -0.31159E+06
 
   -0.14967E+07         0.23397E+06         0.00000E+00
    0.23397E+06        -0.75357E+04         0.00000E+00
    0.00000E+00         0.00000E+00        -0.30085E+06
 
   -0.14416E+07         0.26051E+06         0.00000E+00
    0.26051E+06        -0.90244E+04         0.00000E+00
    0.00000E+00         0.00000E+00        -0.29013E+06
 
   -0.13869E+07         0.28493E+06         0.00000E+00
    0.28493E+06        -0.10371E+05         0.00000E+00
    0.00000E+00         0.00000E+00        -0.27945E+06
 
   -0.13327E+07         0.30736E+06         0.00000E+00
    0.30736E+06        -0.11522E+05         0.00000E+00
    0.00000E+00         0.00000E+00        -0.26884E+06
 
   -0.12791E+07         0.32792E+06         0.00000E+00
    0.32792E+06        -0.12435E+05         0.00000E+00
    0.00000E+00         0.00000E+00        -0.25831E+06
 
   -0.12263E+07         0.34675E+06         0.00000E+00
    0.34675E+06        -0.13077E+05         0.00000E+00
    0.00000E+00         0.00000E+00        -0.24787E+06
 
   -0.11743E+07         0.36397E+06         0.00000E+00
    0.36397E+06        -0.13425E+05         0.00000E+00
    0.00000E+00         0.00000E+00        -0.23754E+06
 
   -0.11232E+07         0.37969E+06         0.00000E+00
    0.37969E+06        -0.13465E+05         0.00000E+00
    0.00000E+00         0.00000E+00        -0.22734E+06
 
   -0.10731E+07         0.39404E+06         0.00000E+00
    0.39404E+06        -0.13194E+05         0.00000E+00
    0.00000E+00         0.00000E+00        -0.21727E+06
 
   -0.10241E+07         0.40714E+06         0.00000E+00
    0.40714E+06        -0.12617E+05         0.00000E+00
    0.00000E+00         0.00000E+00        -0.20735E+06
 
   -0.97619E+06         0.41910E+06         0.00000E+00
    0.41910E+06        -0.11747E+05         0.00000E+00
    0.00000E+00         0.00000E+00        -0.19759E+06
 
   -0.92938E+06         0.43002E+06         0.00000E+00
    0.43002E+06        -0.10605E+05         0.00000E+00
    0.00000E+00         0.00000E+00        -0.18800E+06
 
   -0.88372E+06         0.44000E+06         0.00000E+00
    0.44000E+06        -0.92164E+04         0.00000E+00
    0.00000E+00         0.00000E+00        -0.17859E+06
 
   -0.83920E+06         0.44915E+06         0.00000E+00
    0.44915E+06        -0.76158E+04         0.00000E+00
    0.00000E+00         0.00000E+00        -0.16936E+06
 
   -0.79583E+06         0.45753E+06         0.00000E+00
    0.45753E+06        -0.58407E+04         0.00000E+00
    0.00000E+00         0.00000E+00        -0.16033E+06
 
   -0.75360E+06         0.46524E+06         0.00000E+00
    0.46524E+06        -0.39333E+04         0.00000E+00
    0.00000E+00         0.00000E+00        -0.15151E+06
 
   -0.71250E+06         0.47234E+06         0.00000E+00
    0.47234E+06        -0.19390E+04         0.00000E+00
    0.00000E+00         0.00000E+00        -0.14289E+06
 
   -0.67252E+06         0.47888E+06         0.00000E+00
    0.47888E+06         0.94512E+02         0.00000E+00
    0.00000E+00         0.00000E+00        -0.13448E+06
 
   -0.63363E+06         0.48493E+06         0.00000E+00
    0.48493E+06         0.21183E+04         0.00000E+00
    0.00000E+00         0.00000E+00        -0.12630E+06
 
   -0.59580E+06         0.49052E+06         0.00000E+00
    0.49052E+06         0.40831E+04         0.00000E+00
    0.00000E+00         0.00000E+00        -0.11834E+06
 
   -0.55901E+06         0.49569E+06         0.00000E+00
    0.49569E+06         0.59398E+04         0.00000E+00
    0.00000E+00         0.00000E+00        -0.11061E+06
 
   -0.52324E+06         0.50047E+06         0.00000E+00
    0.50047E+06         0.76410E+04         0.00000E+00
    0.00000E+00         0.00000E+00        -0.10312E+06
 
   -0.48846E+06         0.50486E+06         0.00000E+00
    0.50486E+06         0.91416E+04         0.00000E+00
    0.00000E+00         0.00000E+00        -0.95865E+05
 
   -0.45466E+06         0.50888E+06         0.00000E+00
    0.50888E+06         0.10399E+05         0.00000E+00
    0.00000E+00         0.00000E+00        -0.88852E+05
 
   -0.42181E+06         0.51254E+06         0.00000E+00
    0.51254E+06         0.11376E+05         0.00000E+00
    0.00000E+00         0.00000E+00        -0.82087E+05
 
   -0.38991E+06         0.51583E+06         0.00000E+00
    0.51583E+06         0.12038E+05         0.00000E+00
    0.00000E+00         0.00000E+00        -0.75574E+05
 
   -0.35894E+06         0.51874E+06         0.00000E+00
    0.51874E+06         0.12357E+05         0.00000E+00
    0.00000E+00         0.00000E+00        -0.69317E+05
 
   -0.32892E+06         0.52125E+06         0.00000E+00
    0.52125E+06         0.12311E+05         0.00000E+00
    0.00000E+00         0.00000E+00        -0.63321E+05
 
   -0.29984E+06         0.52335E+06         0.00000E+00
    0.52335E+06         0.11885E+05         0.00000E+00
    0.00000E+00         0.00000E+00        -0.57591E+05
 
   -0.27172E+06         0.52502E+06         0.00000E+00
    0.52502E+06         0.11068E+05         0.00000E+00
    0.00000E+00         0.00000E+00        -0.52131E+05
 
   -0.24460E+06         0.52623E+06         0.00000E+00
    0.52623E+06         0.98614E+04         0.00000E+00
    0.00000E+00         0.00000E+00        -0.46947E+05
 
   -0.21849E+06         0.52696E+06         0.00000E+00
    0.52696E+06         0.82701E+04         0.00000E+00
    0.00000E+00         0.00000E+00        -0.42045E+05
 
   -0.19346E+06         0.52719E+06         0.00000E+00
    0.52719E+06         0.63089E+04         0.00000E+00
    0.00000E+00         0.00000E+00        -0.37430E+05
 
   -0.16955E+06         0.52690E+06         0.00000E+00
    0.52690E+06         0.40003E+04         0.00000E+00
    0.00000E+00         0.00000E+00        -0.33110E+05
 
   -0.14683E+06         0.52606E+06         0.00000E+00
    0.52606E+06         0.13750E+04         0.00000E+00
    0.00000E+00         0.00000E+00        -0.29090E+05
 
   -0.12536E+06         0.52466E+06         0.00000E+00
    0.52466E+06        -0.15287E+04         0.00000E+00
    0.00000E+00         0.00000E+00        -0.25378E+05
 
   -0.10524E+06         0.52270E+06         0.00000E+00
    0.52270E+06        -0.46643E+04         0.00000E+00
    0.00000E+00         0.00000E+00        -0.21981E+05
 
   -0.86557E+05         0.52017E+06         0.00000E+00
    0.52017E+06        -0.79783E+04         0.00000E+00
    0.00000E+00         0.00000E+00        -0.18907E+05
 
   -0.69408E+05         0.51708E+06         0.00000E+00
    0.51708E+06        -0.11410E+05         0.00000E+00
    0.00000E+00         0.00000E+00        -0.16164E+05
 
   -0.53901E+05         0.51344E+06         0.00000E+00
    0.51344E+06        -0.14894E+05         0.00000E+00
    0.00000E+00         0.00000E+00        -0.13759E+05
 
   -0.40150E+05         0.50929E+06         0.00000E+00
    0.50929E+06        -0.18357E+05         0.00000E+00
    0.00000E+00         0.00000E+00        -0.11701E+05
 
   -0.28274E+05         0.50465E+06         0.00000E+00
    0.50465E+06        -0.21722E+05         0.00000E+00
    0.00000E+00         0.00000E+00        -0.99993E+04
 
   -0.18396E+05         0.49959E+06         0.00000E+00
    0.49959E+06        -0.24910E+05         0.00000E+00
    0.00000E+00         0.00000E+00        -0.86611E+04
 
   -0.10639E+05         0.49417E+06         0.00000E+00
    0.49417E+06        -0.27838E+05         0.00000E+00
    0.00000E+00         0.00000E+00        -0.76953E+04
 
   -0.16175E+07         0.22097E+05         0.00000E+00
    0.22097E+05         0.16423E+03         0.00000E+00
    0.00000E+00         0.00000E+00        -0.32346E+06
 
   -0.15766E+07         0.60952E+05         0.00000E+00
    0.60952E+05        -0.62046E+03         0.00000E+00
    0.00000E+00         0.00000E+00        -0.31544E+06
 
   -0.15345E+07         0.97586E+05         0.00000E+00
    0.97586E+05        -0.19605E+04         0.00000E+00
    0.00000E+00         0.00000E+00        -0.30730E+06
 
   -0.14916E+07         0.13205E+06         0.00000E+00
    0.13205E+06        -0.37627E+04         0.00000E+00
    0.00000E+00         0.00000E+00        -0.29906E+06
 
   -0.14478E+07         0.16441E+06         0.00000E+00
    0.16441E+06        -0.59402E+04         0.00000E+00
    0.00000E+00         0.00000E+00        -0.29075E+06
 
   -0.14035E+07         0.19471E+06         0.00000E+00
    0.19471E+06        -0.84131E+04         0.00000E+00
    0.00000E+00         0.00000E+00        -0.28238E+06
 
   -0.13588E+07         0.22305E+06         0.00000E+00
    0.22305E+06        -0.11108E+05         0.00000E+00
    0.00000E+00         0.00000E+00        -0.27398E+06
 
   -0.13138E+07         0.24948E+06         0.00000E+00
    0.24948E+06        -0.13959E+05         0.00000E+00
    0.00000E+00         0.00000E+00        -0.26554E+06
 
   -0.12686E+07         0.27408E+06         0.00000E+00
    0.27408E+06        -0.16907E+05         0.00000E+00
    0.00000E+00         0.00000E+00        -0.25711E+06
 
   -0.12235E+07         0.29694E+06         0.00000E+00
    0.29694E+06        -0.19900E+05         0.00000E+00
    0.00000E+00         0.00000E+00        -0.24868E+06
 
   -0.11785E+07         0.31813E+06         0.00000E+00
    0.31813E+06        -0.22893E+05         0.00000E+00
    0.00000E+00         0.00000E+00        -0.24027E+06
 
   -0.11337E+07         0.33774E+06         0.00000E+00
    0.33774E+06        -0.25848E+05         0.00000E+00
    0.00000E+00         0.00000E+00        -0.23190E+06
 
   -0.10892E+07         0.35586E+06         0.00000E+00
    0.35586E+06        -0.28736E+05         0.00000E+00
    0.00000E+00         0.00000E+00        -0.22359E+06
 
   -0.10452E+07         0.37256E+06         0.00000E+00
    0.37256E+06        -0.31531E+05         0.00000E+00
    0.00000E+00         0.00000E+00        -0.21534E+06
 
   -0.10016E+07         0.38792E+06         0.00000E+00
    0.38792E+06        -0.34216E+05         0.00000E+00
    0.00000E+00         0.00000E+00        -0.20717E+06
 
   -0.95863E+06         0.40204E+06         0.00000E+00
    0.40204E+06        -0.36780E+05         0.00000E+00
    0.00000E+00         0.00000E+00        -0.19908E+06
 
   -0.91628E+06         0.41499E+06         0.00000E+00
    0.41499E+06        -0.39216E+05         0.00000E+00
    0.00000E+00         0.00000E+00        -0.19110E+06
 
   -0.87460E+06         0.42684E+06         0.00000E+00
    0.42684E+06        -0.41526E+05         0.00000E+00
    0.00000E+00         0.00000E+00        -0.18323E+06
 
   -0.83364E+06         0.43767E+06         0.00000E+00
    0.43767E+06        -0.43713E+05         0.00000E+00
    0.00000E+00         0.00000E+00        -0.17547E+06
 
   -0.79345E+06         0.44755E+06         0.00000E+00
    0.44755E+06        -0.45787E+05         0.00000E+00
    0.00000E+00         0.00000E+00        -0.16785E+06
 
   -0.75404E+06         0.45654E+06         0.00000E+00
    0.45654E+06        -0.47759E+05         0.00000E+00
    0.00000E+00         0.00000E+00        -0.16036E+06
 
   -0.71545E+06         0.46471E+06         0.00000E+00
    0.46471E+06        -0.49646E+05         0.00000E+00
    0.00000E+00         0.00000E+00        -0.15302E+06
 
   -0.67769E+06         0.47211E+06         0.00000E+00
    0.47211E+06        -0.51467E+05         0.00000E+00
    0.00000E+00         0.00000E+00        -0.14583E+06
 
   -0.64078E+06         0.47879E+06         0.00000E+00
    0.47879E+06        -0.53243E+05         0.00000E+00
    0.00000E+00         0.00000E+00        -0.13881E+06
 
   -0.60474E+06         0.48479E+06         0.00000E+00
    0.48479E+06        -0.54994E+05         0.00000E+00
    0.00000E+00         0.00000E+00        -0.13195E+06
 
   -0.56957E+06         0.49017E+06         0.00000E+00
    0.49017E+06        -0.56744E+05         0.00000E+00
    0.00000E+00         0.00000E+00        -0.12526E+06
 
   -0.53528E+06         0.49496E+06         0.00000E+00
    0.49496E+06        -0.58517E+05         0.00000E+00
    0.00000E+00         0.00000E+00        -0.11876E+06
 
   -0.50188E+06         0.49918E+06         0.00000E+00
    0.49918E+06        -0.60334E+05         0.00000E+00
    0.00000E+00         0.00000E+00        -0.11244E+06
 
   -0.46937E+06         0.50286E+06         0.00000E+00
    0.50286E+06        -0.62218E+05         0.00000E+00
    0.00000E+00         0.00000E+00        -0.10632E+06
 
   -0.43776E+06         0.50604E+06         0.00000E+00
    0.50604E+06        -0.64188E+05         0.00000E+00
    0.00000E+00         0.00000E+00        -0.10039E+06
 
   -0.40707E+06         0.50872E+06         0.00000E+00
    0.50872E+06        -0.66263E+05         0.00000E+00
    0.00000E+00         0.00000E+00        -0.94667E+05
 
   -0.37730E+06         0.51092E+06         0.00000E+00
    0.51092E+06        -0.68457E+05         0.00000E+00
    0.00000E+00         0.00000E+00        -0.89152E+05
 
   -0.34847E+06         0.51266E+06         0.00000E+00
    0.51266E+06        -0.70784E+05         0.00000E+00
    0.00000E+00         0.00000E+00        -0.83851E+05
 
   -0.32059E+06         0.51394E+06         0.00000E+00
    0.51394E+06        -0.73253E+05         0.00000E+00
    0.00000E+00         0.00000E+00        -0.78769E+05
 
   -0.29369E+06         0.51477E+06         0.00000E+00
    0.51477E+06        -0.75868E+05         0.00000E+00
    0.00000E+00         0.00000E+00        -0.73912E+05
 
   -0.26779E+06         0.51516E+06         0.00000E+00
    0.51516E+06        -0.78632E+05         0.00000E+00
    0.00000E+00         0.00000E+00        -0.69284E+05
 
   -0.24291E+06         0.51511E+06         0.00000E+00
    0.51511E+06        -0.81541E+05         0.00000E+00
    0.00000E+00         0.00000E+00        -0.64891E+05
 
   -0.21910E+06         0.51464E+06         0.00000E+00
    0.51464E+06        -0.84587E+05         0.00000E+00
    0.00000E+00         0.00000E+00        -0.60737E+05
 
   -0.19639E+06         0.51374E+06         0.00000E+00
    0.51374E+06        -0.87760E+05         0.00000E+00
    0.00000E+00         0.00000E+00        -0.56829E+05
 
   -0.17482E+06         0.51243E+06         0.00000E+00
    0.51243E+06        -0.91043E+05         0.00000E+00
    0.00000E+00         0.00000E+00        -0.53172E+05
 
   -0.15443E+06         0.51071E+06         0.00000E+00
    0.51071E+06        -0.94414E+05         0.00000E+00
    0.00000E+00         0.00000E+00        -0.49770E+05
 
   -0.13530E+06         0.50862E+06         0.00000E+00
    0.50862E+06        -0.97849E+05         0.00000E+00
    0.00000E+00         0.00000E+00        -0.46629E+05
 
   -0.11745E+06         0.50615E+06         0.00000E+00
    0.50615E+06        -0.10132E+06         0.00000E+00
    0.00000E+00         0.00000E+00        -0.43755E+05
 
   -0.10097E+06         0.50334E+06         0.00000E+00
    0.50334E+06        -0.10479E+06         0.00000E+00
    0.00000E+00         0.00000E+00        -0.41152E+05
 
   -0.85906E+05         0.50022E+06         0.00000E+00
    0.50022E+06        -0.10823E+06         0.00000E+00
    0.00000E+00         0.00000E+00        -0.38827E+05
 
   -0.72327E+05         0.49682E+06         0.00000E+00
    0.49682E+06        -0.11159E+06         0.00000E+00
    0.00000E+00         0.00000E+00        -0.36784E+05
 
   -0.60300E+05         0.49318E+06         0.00000E+00
    0.49318E+06        -0.11484E+06         0.00000E+00
    0.00000E+00         0.00000E+00        -0.35029E+05
 
   -0.49894E+05         0.48937E+06         0.00000E+00
    0.48937E+06        -0.11793E+06         0.00000E+00
    0.00000E+00         0.00000E+00        -0.33566E+05
 
   -0.41176E+05         0.48543E+06         0.00000E+00
    0.48543E+06        -0.12082E+06         0.00000E+00
    0.00000E+00         0.00000E+00        -0.32400E+05
 
   -0.34214E+05         0.48144E+06         0.00000E+00
    0.48144E+06        -0.12347E+06         0.00000E+00
    0.00000E+00         0.00000E+00        -0.31536E+05
 
   -0.14262E+07         0.19902E+05         0.00000E+00
    0.19902E+05         0.19241E+03         0.00000E+00
    0.00000E+00         0.00000E+00        -0.28520E+06
 
   -0.13953E+07         0.55484E+05         0.00000E+00
    0.55484E+05        -0.64713E+03         0.00000E+00
    0.00000E+00         0.00000E+00        -0.27920E+06
 
   -0.13632E+07         0.89288E+05         0.00000E+00
    0.89288E+05        -0.21336E+04         0.00000E+00
    0.00000E+00         0.00000E+00        -0.27306E+06
 
   -0.13299E+07         0.12134E+06         0.00000E+00
    0.12134E+06        -0.41879E+04         0.00000E+00
    0.00000E+00         0.00000E+00        -0.26681E+06
 
   -0.12956E+07         0.15167E+06         0.00000E+00
    0.15167E+06        -0.67357E+04         0.00000E+00
    0.00000E+00         0.00000E+00        -0.26046E+06
 
   -0.12605E+07         0.18031E+06         0.00000E+00
    0.18031E+06        -0.97076E+04         0.00000E+00
    0.00000E+00         0.00000E+00        -0.25403E+06
 
   -0.12246E+07         0.20730E+06         0.00000E+00
    0.20730E+06        -0.13039E+05         0.00000E+00
    0.00000E+00         0.00000E+00        -0.24753E+06
 
   -0.11882E+07         0.23269E+06         0.00000E+00
    0.23269E+06        -0.16671E+05         0.00000E+00
    0.00000E+00         0.00000E+00        -0.24097E+06
 
   -0.11513E+07         0.25652E+06         0.00000E+00
    0.25652E+06        -0.20548E+05         0.00000E+00
    0.00000E+00         0.00000E+00        -0.23438E+06
 
   -0.11142E+07         0.27884E+06         0.00000E+00
    0.27884E+06        -0.24622E+05         0.00000E+00
    0.00000E+00         0.00000E+00        -0.22776E+06
 
   -0.10768E+07         0.29971E+06         0.00000E+00
    0.29971E+06        -0.28849E+05         0.00000E+00
    0.00000E+00         0.00000E+00        -0.22113E+06
 
   -0.10393E+07         0.31917E+06         0.00000E+00
    0.31917E+06        -0.33188E+05         0.00000E+00
    0.00000E+00         0.00000E+00        -0.21449E+06
 
   -0.10017E+07         0.33729E+06         0.00000E+00
    0.33729E+06        -0.37606E+05         0.00000E+00
    0.00000E+00         0.00000E+00        -0.20787E+06
 
   -0.96430E+06         0.35412E+06         0.00000E+00
    0.35412E+06        -0.42073E+05         0.00000E+00
    0.00000E+00         0.00000E+00        -0.20127E+06
 
   -0.92700E+06         0.36971E+06         0.00000E+00
    0.36971E+06        -0.46563E+05         0.00000E+00
    0.00000E+00         0.00000E+00        -0.19471E+06
 
   -0.88993E+06         0.38412E+06         0.00000E+00
    0.38412E+06        -0.51057E+05         0.00000E+00
    0.00000E+00         0.00000E+00        -0.18820E+06
 
   -0.85316E+06         0.39741E+06         0.00000E+00
    0.39741E+06        -0.55538E+05         0.00000E+00
    0.00000E+00         0.00000E+00        -0.18174E+06
 
   -0.81674E+06         0.40963E+06         0.00000E+00
    0.40963E+06        -0.59993E+05         0.00000E+00
    0.00000E+00         0.00000E+00        -0.17535E+06
 
   -0.78074E+06         0.42083E+06         0.00000E+00
    0.42083E+06        -0.64413E+05         0.00000E+00
    0.00000E+00         0.00000E+00        -0.16903E+06
 
   -0.74520E+06         0.43107E+06         0.00000E+00
    0.43107E+06        -0.68792E+05         0.00000E+00
    0.00000E+00         0.00000E+00        -0.16280E+06
 
   -0.71018E+06         0.44040E+06         0.00000E+00
    0.44040E+06        -0.73128E+05         0.00000E+00
    0.00000E+00         0.00000E+00        -0.15666E+06
 
   -0.67570E+06         0.44886E+06         0.00000E+00
    0.44886E+06        -0.77419E+05         0.00000E+00
    0.00000E+00         0.00000E+00        -0.15062E+06
 
   -0.64182E+06         0.45650E+06         0.00000E+00
    0.45650E+06        -0.81667E+05         0.00000E+00
    0.00000E+00         0.00000E+00        -0.14470E+06
 
   -0.60856E+06         0.46336E+06         0.00000E+00
    0.46336E+06        -0.85877E+05         0.00000E+00
    0.00000E+00         0.00000E+00        -0.13889E+06
 
   -0.57595E+06         0.46948E+06         0.00000E+00
    0.46948E+06        -0.90052E+05         0.00000E+00
    0.00000E+00         0.00000E+00        -0.13320E+06
 
   -0.54403E+06         0.47491E+06         0.00000E+00
    0.47491E+06        -0.94200E+05         0.00000E+00
    0.00000E+00         0.00000E+00        -0.12765E+06
 
   -0.51282E+06         0.47967E+06         0.00000E+00
    0.47967E+06        -0.98325E+05         0.00000E+00
    0.00000E+00         0.00000E+00        -0.12223E+06
 
   -0.48234E+06         0.48381E+06         0.00000E+00
    0.48381E+06        -0.10244E+06         0.00000E+00
    0.00000E+00         0.00000E+00        -0.11695E+06
 
   -0.45261E+06         0.48734E+06         0.00000E+00
    0.48734E+06        -0.10654E+06         0.00000E+00
    0.00000E+00         0.00000E+00        -0.11183E+06
 
   -0.42367E+06         0.49030E+06         0.00000E+00
    0.49030E+06        -0.11064E+06         0.00000E+00
    0.00000E+00         0.00000E+00        -0.10686E+06
 
   -0.39553E+06         0.49272E+06         0.00000E+00
    0.49272E+06        -0.11474E+06         0.00000E+00
    0.00000E+00         0.00000E+00        -0.10205E+06
 
   -0.36822E+06         0.49462E+06         0.00000E+00
    0.49462E+06        -0.11885E+06         0.00000E+00
    0.00000E+00         0.00000E+00        -0.97414E+05
 
   -0.34176E+06         0.49603E+06         0.00000E+00
    0.49603E+06        -0.12297E+06         0.00000E+00
    0.00000E+00         0.00000E+00        -0.92945E+05
 
   -0.31617E+06         0.49696E+06         0.00000E+00
    0.49696E+06        -0.12710E+06         0.00000E+00
    0.00000E+00         0.00000E+00        -0.88654E+05
 
   -0.29148E+06         0.49744E+06         0.00000E+00
    0.49744E+06        -0.13124E+06         0.00000E+00
    0.00000E+00         0.00000E+00        -0.84544E+05
 
   -0.26772E+06         0.49749E+06         0.00000E+00
    0.49749E+06        -0.13539E+06         0.00000E+00
    0.00000E+00         0.00000E+00        -0.80622E+05
 
   -0.24492E+06         0.49714E+06         0.00000E+00
    0.49714E+06        -0.13953E+06         0.00000E+00
    0.00000E+00         0.00000E+00        -0.76890E+05
 
   -0.22310E+06         0.49640E+06         0.00000E+00
    0.49640E+06        -0.14368E+06         0.00000E+00
    0.00000E+00         0.00000E+00        -0.73355E+05
 
   -0.20229E+06         0.49530E+06         0.00000E+00
    0.49530E+06        -0.14781E+06         0.00000E+00
    0.00000E+00         0.00000E+00        -0.70020E+05
 
   -0.18254E+06         0.49386E+06         0.00000E+00
    0.49386E+06        -0.15191E+06         0.00000E+00
    0.00000E+00         0.00000E+00        -0.66890E+05
 
   -0.16386E+06         0.49212E+06         0.00000E+00
    0.49212E+06        -0.15598E+06         0.00000E+00
    0.00000E+00         0.00000E+00        -0.63968E+05
 
   -0.14631E+06         0.49009E+06         0.00000E+00
    0.49009E+06        -0.15999E+06         0.00000E+00
    0.00000E+00         0.00000E+00        -0.61260E+05
 
   -0.12991E+06         0.48781E+06         0.00000E+00
    0.48781E+06        -0.16393E+06         0.00000E+00
    0.00000E+00         0.00000E+00        -0.58768E+05
 
   -0.11471E+06         0.48533E+06         0.00000E+00
    0.48533E+06        -0.16778E+06         0.00000E+00
    0.00000E+00         0.00000E+00        -0.56497E+05
 
   -0.10073E+06         0.48267E+06         0.00000E+00
    0.48267E+06        -0.17151E+06         0.00000E+00
    0.00000E+00         0.00000E+00        -0.54449E+05
 
   -0.88025E+05         0.47989E+06         0.00000E+00
    0.47989E+06        -0.17512E+06         0.00000E+00
    0.00000E+00         0.00000E+00        -0.52629E+05
 
   -0.76621E+05         0.47702E+06         0.00000E+00
    0.47702E+06        -0.17857E+06         0.00000E+00
    0.00000E+00         0.00000E+00        -0.51039E+05
 
   -0.66558E+05         0.47413E+06         0.00000E+00
    0.47413E+06        -0.18185E+06         0.00000E+00
    0.00000E+00         0.00000E+00        -0.49681E+05
 
   -0.57867E+05         0.47128E+06         0.00000E+00
    0.47128E+06        -0.18493E+06         0.00000E+00
    0.00000E+00         0.00000E+00        -0.48559E+05
 
   -0.50581E+05         0.46852E+06         0.00000E+00
    0.46852E+06        -0.18779E+06         0.00000E+00
    0.00000E+00         0.00000E+00        -0.47674E+05
 
   -0.12531E+07         0.17666E+05         0.00000E+00
    0.17666E+05         0.20399E+03         0.00000E+00
    0.00000E+00         0.00000E+00        -0.25058E+06
 
   -0.12302E+07         0.49711E+05         0.00000E+00
    0.49711E+05        -0.63618E+03         0.00000E+00
    0.00000E+00         0.00000E+00        -0.24617E+06
 
   -0.12059E+07         0.80351E+05         0.00000E+00
    0.80351E+05        -0.21563E+04         0.00000E+00
    0.00000E+00         0.00000E+00        -0.24162E+06
 
   -0.11805E+07         0.10959E+06         0.00000E+00
    0.10959E+06        -0.42896E+04         0.00000E+00
    0.00000E+00         0.00000E+00        -0.23695E+06
 
   -0.11539E+07         0.13744E+06         0.00000E+00
    0.13744E+06        -0.69728E+04         0.00000E+00
    0.00000E+00         0.00000E+00        -0.23217E+06
 
   -0.11263E+07         0.16392E+06         0.00000E+00
    0.16392E+06        -0.10146E+05         0.00000E+00
    0.00000E+00         0.00000E+00        -0.22729E+06
 
   -0.10979E+07         0.18904E+06         0.00000E+00
    0.18904E+06        -0.13753E+05         0.00000E+00
    0.00000E+00         0.00000E+00        -0.22233E+06
 
   -0.10687E+07         0.21282E+06         0.00000E+00
    0.21282E+06        -0.17740E+05         0.00000E+00
    0.00000E+00         0.00000E+00        -0.21729E+06
 
   -0.10389E+07         0.23530E+06         0.00000E+00
    0.23530E+06        -0.22059E+05         0.00000E+00
    0.00000E+00         0.00000E+00        -0.21219E+06
 
   -0.10086E+07         0.25649E+06         0.00000E+00
    0.25649E+06        -0.26664E+05         0.00000E+00
    0.00000E+00         0.00000E+00        -0.20705E+06
 
   -0.97785E+06         0.27644E+06         0.00000E+00
    0.27644E+06        -0.31513E+05         0.00000E+00
    0.00000E+00         0.00000E+00        -0.20187E+06
 
   -0.94678E+06         0.29517E+06         0.00000E+00
    0.29517E+06        -0.36567E+05         0.00000E+00
    0.00000E+00         0.00000E+00        -0.19667E+06
 
   -0.91546E+06         0.31272E+06         0.00000E+00
    0.31272E+06        -0.41790E+05         0.00000E+00
    0.00000E+00         0.00000E+00        -0.19145E+06
 
   -0.88399E+06         0.32912E+06         0.00000E+00
    0.32912E+06        -0.47153E+05         0.00000E+00
    0.00000E+00         0.00000E+00        -0.18623E+06
 
   -0.85243E+06         0.34441E+06         0.00000E+00
    0.34441E+06        -0.52625E+05         0.00000E+00
    0.00000E+00         0.00000E+00        -0.18101E+06
 
   -0.82087E+06         0.35863E+06         0.00000E+00
    0.35863E+06        -0.58182E+05         0.00000E+00
    0.00000E+00         0.00000E+00        -0.17581E+06
 
   -0.78938E+06         0.37181E+06         0.00000E+00
    0.37181E+06        -0.63802E+05         0.00000E+00
    0.00000E+00         0.00000E+00        -0.17064E+06
 
   -0.75801E+06         0.38401E+06         0.00000E+00
    0.38401E+06        -0.69464E+05         0.00000E+00
    0.00000E+00         0.00000E+00        -0.16549E+06
 
   -0.72683E+06         0.39525E+06         0.00000E+00
    0.39525E+06        -0.75153E+05         0.00000E+00
    0.00000E+00         0.00000E+00        -0.16040E+06
 
   -0.69589E+06         0.40557E+06         0.00000E+00
    0.40557E+06        -0.80854E+05         0.00000E+00
    0.00000E+00         0.00000E+00        -0.15535E+06
 
   -0.66525E+06         0.41501E+06         0.00000E+00
    0.41501E+06        -0.86555E+05         0.00000E+00
    0.00000E+00         0.00000E+00        -0.15036E+06
 
   -0.63495E+06         0.42361E+06         0.00000E+00
    0.42361E+06        -0.92246E+05         0.00000E+00
    0.00000E+00         0.00000E+00        -0.14544E+06
 
   -0.60504E+06         0.43140E+06         0.00000E+00
    0.43140E+06        -0.97919E+05         0.00000E+00
    0.00000E+00         0.00000E+00        -0.14059E+06
 
   -0.57556E+06         0.43842E+06         0.00000E+00
    0.43842E+06        -0.10357E+06         0.00000E+00
    0.00000E+00         0.00000E+00        -0.13583E+06
 
   -0.54655E+06         0.44471E+06         0.00000E+00
    0.44471E+06        -0.10918E+06         0.00000E+00
    0.00000E+00         0.00000E+00        -0.13115E+06
 
   -0.51805E+06         0.45030E+06         0.00000E+00
    0.45030E+06        -0.11477E+06         0.00000E+00
    0.00000E+00         0.00000E+00        -0.12656E+06
 
   -0.49010E+06         0.45522E+06         0.00000E+00
    0.45522E+06        -0.12031E+06         0.00000E+00
    0.00000E+00         0.00000E+00        -0.12208E+06
 
   -0.46271E+06         0.45950E+06         0.00000E+00
    0.45950E+06        -0.12581E+06         0.00000E+00
    0.00000E+00         0.00000E+00        -0.11771E+06
 
   -0.43594E+06         0.46318E+06         0.00000E+00
    0.46318E+06        -0.13127E+06         0.00000E+00
    0.00000E+00         0.00000E+00        -0.11344E+06
 
   -0.40980E+06         0.46628E+06         0.00000E+00
    0.46628E+06        -0.13668E+06         0.00000E+00
    0.00000E+00         0.00000E+00        -0.10930E+06
 
   -0.38433E+06         0.46883E+06         0.00000E+00
    0.46883E+06        -0.14205E+06         0.00000E+00
    0.00000E+00         0.00000E+00        -0.10527E+06
 
   -0.35955E+06         0.47086E+06         0.00000E+00
    0.47086E+06        -0.14736E+06         0.00000E+00
    0.00000E+00         0.00000E+00        -0.10138E+06
 
   -0.33549E+06         0.47240E+06         0.00000E+00
    0.47240E+06        -0.15262E+06         0.00000E+00
    0.00000E+00         0.00000E+00        -0.97621E+05
 
   -0.31217E+06         0.47348E+06         0.00000E+00
    0.47348E+06        -0.15782E+06         0.00000E+00
    0.00000E+00         0.00000E+00        -0.93999E+05
 
   -0.28964E+06         0.47413E+06         0.00000E+00
    0.47413E+06        -0.16296E+06         0.00000E+00
    0.00000E+00         0.00000E+00        -0.90519E+05
 
   -0.26790E+06         0.47437E+06         0.00000E+00
    0.47437E+06        -0.16803E+06         0.00000E+00
    0.00000E+00         0.00000E+00        -0.87186E+05
 
   -0.24699E+06         0.47424E+06         0.00000E+00
    0.47424E+06        -0.17303E+06         0.00000E+00
    0.00000E+00         0.00000E+00        -0.84003E+05
 
   -0.22692E+06         0.47375E+06         0.00000E+00
    0.47375E+06        -0.17795E+06         0.00000E+00
    0.00000E+00         0.00000E+00        -0.80975E+05
 
   -0.20774E+06         0.47295E+06         0.00000E+00
    0.47295E+06        -0.18279E+06         0.00000E+00
    0.00000E+00         0.00000E+00        -0.78105E+05
 
   -0.18946E+06         0.47187E+06         0.00000E+00
    0.47187E+06        -0.18753E+06         0.00000E+00
    0.00000E+00         0.00000E+00        -0.75396E+05
 
   -0.17210E+06         0.47053E+06         0.00000E+00
    0.47053E+06        -0.19217E+06         0.00000E+00
    0.00000E+00         0.00000E+00        -0.72852E+05
 
   -0.15569E+06         0.46897E+06         0.00000E+00
    0.46897E+06        -0.19669E+06         0.00000E+00
    0.00000E+00         0.00000E+00        -0.70476E+05
 
   -0.14025E+06         0.46724E+06         0.00000E+00
    0.46724E+06        -0.20110E+06         0.00000E+00
    0.00000E+00         0.00000E+00        -0.68270E+05
 
   -0.12581E+06         0.46536E+06         0.00000E+00
    0.46536E+06        -0.20537E+06         0.00000E+00
    0.00000E+00         0.00000E+00        -0.66237E+05
 
   -0.11239E+06         0.46339E+06         0.00000E+00
    0.46339E+06        -0.20950E+06         0.00000E+00
    0.00000E+00         0.00000E+00        -0.64379E+05
 
   -0.10000E+06         0.46136E+06         0.00000E+00
    0.46136E+06        -0.21349E+06         0.00000E+00
    0.00000E+00         0.00000E+00        -0.62698E+05
 
   -0.88666E+05         0.45932E+06         0.00000E+00
    0.45932E+06        -0.21731E+06         0.00000E+00
    0.00000E+00         0.00000E+00        -0.61195E+05
 
   -0.78399E+05         0.45733E+06         0.00000E+00
    0.45733E+06        -0.22096E+06         0.00000E+00
    0.00000E+00         0.00000E+00        -0.59873E+05
 
   -0.69211E+05         0.45543E+06         0.00000E+00
    0.45543E+06        -0.22445E+06         0.00000E+00
    0.00000E+00         0.00000E+00        -0.58731E+05
 
   -0.61113E+05         0.45369E+06         0.00000E+00
    0.45369E+06        -0.22774E+06         0.00000E+00
    0.00000E+00         0.00000E+00        -0.57772E+05
 
   -0.10987E+07         0.15503E+05         0.00000E+00
    0.15503E+05         0.20280E+03         0.00000E+00
    0.00000E+00         0.00000E+00        -0.21970E+06
 
   -0.10820E+07         0.43991E+05         0.00000E+00
    0.43991E+05        -0.59995E+03         0.00000E+00
    0.00000E+00         0.00000E+00        -0.21652E+06
 
   -0.10640E+07         0.71386E+05         0.00000E+00
    0.71386E+05        -0.20742E+04         0.00000E+00
    0.00000E+00         0.00000E+00        -0.21321E+06
 
   -0.10447E+07         0.97679E+05         0.00000E+00
    0.97679E+05        -0.41644E+04         0.00000E+00
    0.00000E+00         0.00000E+00        -0.20978E+06
 
   -0.10243E+07         0.12287E+06         0.00000E+00
    0.12287E+06        -0.68172E+04         0.00000E+00
    0.00000E+00         0.00000E+00        -0.20623E+06
 
   -0.10029E+07         0.14695E+06         0.00000E+00
    0.14695E+06        -0.99817E+04         0.00000E+00
    0.00000E+00         0.00000E+00        -0.20258E+06
 
   -0.98060E+06         0.16993E+06         0.00000E+00
    0.16993E+06        -0.13609E+05         0.00000E+00
    0.00000E+00         0.00000E+00        -0.19884E+06
 
   -0.95745E+06         0.19182E+06         0.00000E+00
    0.19182E+06        -0.17653E+05         0.00000E+00
    0.00000E+00         0.00000E+00        -0.19502E+06
 
   -0.93357E+06         0.21262E+06         0.00000E+00
    0.21262E+06        -0.22071E+05         0.00000E+00
    0.00000E+00         0.00000E+00        -0.19113E+06
 
   -0.90906E+06         0.23235E+06         0.00000E+00
    0.23235E+06        -0.26820E+05         0.00000E+00
    0.00000E+00         0.00000E+00        -0.18718E+06
 
   -0.88401E+06         0.25103E+06         0.00000E+00
    0.25103E+06        -0.31863E+05         0.00000E+00
    0.00000E+00         0.00000E+00        -0.18317E+06
 
   -0.85850E+06         0.26867E+06         0.00000E+00
    0.26867E+06        -0.37162E+05         0.00000E+00
    0.00000E+00         0.00000E+00        -0.17913E+06
 
   -0.83260E+06         0.28529E+06         0.00000E+00
    0.28529E+06        -0.42685E+05         0.00000E+00
    0.00000E+00         0.00000E+00        -0.17506E+06
 
   -0.80640E+06         0.30092E+06         0.00000E+00
    0.30092E+06        -0.48399E+05         0.00000E+00
    0.00000E+00         0.00000E+00        -0.17096E+06
 
   -0.77996E+06         0.31558E+06         0.00000E+00
    0.31558E+06        -0.54276E+05         0.00000E+00
    0.00000E+00         0.00000E+00        -0.16685E+06
 
   -0.75336E+06         0.32929E+06         0.00000E+00
    0.32929E+06        -0.60289E+05         0.00000E+00
    0.00000E+00         0.00000E+00        -0.16273E+06
 
   -0.72667E+06         0.34208E+06         0.00000E+00
    0.34208E+06        -0.66413E+05         0.00000E+00
    0.00000E+00         0.00000E+00        -0.15862E+06
 
   -0.69994E+06         0.35398E+06         0.00000E+00
    0.35398E+06        -0.72626E+05         0.00000E+00
    0.00000E+00         0.00000E+00        -0.15451E+06
 
   -0.67323E+06         0.36501E+06         0.00000E+00
    0.36501E+06        -0.78908E+05         0.00000E+00
    0.00000E+00         0.00000E+00        -0.15043E+06
 
   -0.64660E+06         0.37521E+06         0.00000E+00
    0.37521E+06        -0.85241E+05         0.00000E+00
    0.00000E+00         0.00000E+00        -0.14637E+06
 
   -0.62010E+06         0.38459E+06         0.00000E+00
    0.38459E+06        -0.91606E+05         0.00000E+00
    0.00000E+00         0.00000E+00        -0.14234E+06
 
   -0.59378E+06         0.39319E+06         0.00000E+00
    0.39319E+06        -0.97990E+05         0.00000E+00
    0.00000E+00         0.00000E+00        -0.13835E+06
 
   -0.56768E+06         0.40104E+06         0.00000E+00
    0.40104E+06        -0.10438E+06         0.00000E+00
    0.00000E+00         0.00000E+00        -0.13441E+06
 
   -0.54186E+06         0.40817E+06         0.00000E+00
    0.40817E+06        -0.11076E+06         0.00000E+00
    0.00000E+00         0.00000E+00        -0.13052E+06
 
   -0.51635E+06         0.41460E+06         0.00000E+00
    0.41460E+06        -0.11712E+06         0.00000E+00
    0.00000E+00         0.00000E+00        -0.12669E+06
 
   -0.49120E+06         0.42037E+06         0.00000E+00
    0.42037E+06        -0.12345E+06         0.00000E+00
    0.00000E+00         0.00000E+00        -0.12293E+06
 
   -0.46643E+06         0.42550E+06         0.00000E+00
    0.42550E+06        -0.12975E+06         0.00000E+00
    0.00000E+00         0.00000E+00        -0.11924E+06
 
   -0.44209E+06         0.43002E+06         0.00000E+00
    0.43002E+06        -0.13599E+06         0.00000E+00
    0.00000E+00         0.00000E+00        -0.11562E+06
 
   -0.41821E+06         0.43396E+06         0.00000E+00
    0.43396E+06        -0.14219E+06         0.00000E+00
    0.00000E+00         0.00000E+00        -0.11208E+06
 
   -0.39483E+06         0.43735E+06         0.00000E+00
    0.43735E+06        -0.14832E+06         0.00000E+00
    0.00000E+00         0.00000E+00        -0.10863E+06
 
   -0.37196E+06         0.44021E+06         0.00000E+00
    0.44021E+06        -0.15439E+06         0.00000E+00
    0.00000E+00         0.00000E+00        -0.10527E+06
 
   -0.34964E+06         0.44258E+06         0.00000E+00
    0.44258E+06        -0.16038E+06         0.00000E+00
    0.00000E+00         0.00000E+00        -0.10200E+06
 
   -0.32790E+06         0.44449E+06         0.00000E+00
    0.44449E+06        -0.16629E+06         0.00000E+00
    0.00000E+00         0.00000E+00        -0.98837E+05
 
   -0.30676E+06         0.44596E+06         0.00000E+00
    0.44596E+06        -0.17211E+06         0.00000E+00
    0.00000E+00         0.00000E+00        -0.95775E+05
 
   -0.28626E+06         0.44702E+06         0.00000E+00
    0.44702E+06        -0.17784E+06         0.00000E+00
    0.00000E+00         0.00000E+00        -0.92820E+05
 
   -0.26640E+06         0.44770E+06         0.00000E+00
    0.44770E+06        -0.18348E+06         0.00000E+00
    0.00000E+00         0.00000E+00        -0.89976E+05
 
   -0.24722E+06         0.44804E+06         0.00000E+00
    0.44804E+06        -0.18901E+06         0.00000E+00
    0.00000E+00         0.00000E+00        -0.87246E+05
 
   -0.22874E+06         0.44805E+06         0.00000E+00
    0.44805E+06        -0.19443E+06         0.00000E+00
    0.00000E+00         0.00000E+00        -0.84634E+05
 
   -0.21097E+06         0.44779E+06         0.00000E+00
    0.44779E+06        -0.19973E+06         0.00000E+00
    0.00000E+00         0.00000E+00        -0.82142E+05
 
   -0.19394E+06         0.44727E+06         0.00000E+00
    0.44727E+06        -0.20492E+06         0.00000E+00
    0.00000E+00         0.00000E+00        -0.79773E+05
 
   -0.17767E+06         0.44653E+06         0.00000E+00
    0.44653E+06        -0.20998E+06         0.00000E+00
    0.00000E+00         0.00000E+00        -0.77529E+05
 
   -0.16216E+06         0.44561E+06         0.00000E+00
    0.44561E+06        -0.21491E+06         0.00000E+00
    0.00000E+00         0.00000E+00        -0.75414E+05
 
   -0.14744E+06         0.44455E+06         0.00000E+00
    0.44455E+06        -0.21970E+06         0.00000E+00
    0.00000E+00         0.00000E+00        -0.73428E+05
 
   -0.13351E+06         0.44337E+06         0.00000E+00
    0.44337E+06        -0.22436E+06         0.00000E+00
    0.00000E+00         0.00000E+00        -0.71573E+05
 
   -0.12039E+06         0.44213E+06         0.00000E+00
    0.44213E+06        -0.22887E+06         0.00000E+00
    0.00000E+00         0.00000E+00        -0.69851E+05
 
   -0.10808E+06         0.44086E+06         0.00000E+00
    0.44086E+06        -0.23323E+06         0.00000E+00
    0.00000E+00         0.00000E+00        -0.68263E+05
 
   -0.96595E+05         0.43961E+06         0.00000E+00
    0.43961E+06        -0.23745E+06         0.00000E+00
    0.00000E+00         0.00000E+00        -0.66809E+05
 
   -0.85932E+05         0.43841E+06         0.00000E+00
    0.43841E+06        -0.24152E+06         0.00000E+00
    0.00000E+00         0.00000E+00        -0.65490E+05
 
   -0.76093E+05         0.43733E+06         0.00000E+00
    0.43733E+06        -0.24544E+06         0.00000E+00
    0.00000E+00         0.00000E+00        -0.64307E+05
 
   -0.67073E+05         0.43639E+06         0.00000E+00
    0.43639E+06        -0.24922E+06         0.00000E+00
    0.00000E+00         0.00000E+00        -0.63258E+05
 
   -0.96248E+06         0.13486E+05         0.00000E+00
    0.13486E+05         0.19299E+03         0.00000E+00
    0.00000E+00         0.00000E+00        -0.19246E+06
 
   -0.95057E+06         0.38564E+05         0.00000E+00
    0.38564E+05        -0.54847E+03         0.00000E+00
    0.00000E+00         0.00000E+00        -0.19022E+06
 
   -0.93739E+06         0.62804E+05         0.00000E+00
    0.62804E+05        -0.19257E+04         0.00000E+00
    0.00000E+00         0.00000E+00        -0.18786E+06
 
   -0.92302E+06         0.86191E+05         0.00000E+00
    0.86191E+05        -0.38933E+04         0.00000E+00
    0.00000E+00         0.00000E+00        -0.18538E+06
 
   -0.90756E+06         0.10871E+06         0.00000E+00
    0.10871E+06        -0.64070E+04         0.00000E+00
    0.00000E+00         0.00000E+00        -0.18279E+06
 
   -0.89109E+06         0.13035E+06         0.00000E+00
    0.13035E+06        -0.94241E+04         0.00000E+00
    0.00000E+00         0.00000E+00        -0.18010E+06
 
   -0.87370E+06         0.15111E+06         0.00000E+00
    0.15111E+06        -0.12904E+05         0.00000E+00
    0.00000E+00         0.00000E+00        -0.17732E+06
 
   -0.85548E+06         0.17099E+06         0.00000E+00
    0.17099E+06        -0.16806E+05         0.00000E+00
    0.00000E+00         0.00000E+00        -0.17446E+06
 
   -0.83649E+06         0.18998E+06         0.00000E+00
    0.18998E+06        -0.21092E+05         0.00000E+00
    0.00000E+00         0.00000E+00        -0.17152E+06
 
   -0.81683E+06         0.20809E+06         0.00000E+00
    0.20809E+06        -0.25727E+05         0.00000E+00
    0.00000E+00         0.00000E+00        -0.16851E+06
 
   -0.79656E+06         0.22532E+06         0.00000E+00
    0.22532E+06        -0.30676E+05         0.00000E+00
    0.00000E+00         0.00000E+00        -0.16545E+06
 
   -0.77577E+06         0.24169E+06         0.00000E+00
    0.24169E+06        -0.35906E+05         0.00000E+00
    0.00000E+00         0.00000E+00        -0.16233E+06
 
   -0.75451E+06         0.25719E+06         0.00000E+00
    0.25719E+06        -0.41385E+05         0.00000E+00
    0.00000E+00         0.00000E+00        -0.15918E+06
 
   -0.73286E+06         0.27185E+06         0.00000E+00
    0.27185E+06        -0.47084E+05         0.00000E+00
    0.00000E+00         0.00000E+00        -0.15599E+06
 
   -0.71088E+06         0.28568E+06         0.00000E+00
    0.28568E+06        -0.52975E+05         0.00000E+00
    0.00000E+00         0.00000E+00        -0.15277E+06
 
   -0.68864E+06         0.29869E+06         0.00000E+00
    0.29869E+06        -0.59033E+05         0.00000E+00
    0.00000E+00         0.00000E+00        -0.14953E+06
 
   -0.66619E+06         0.31089E+06         0.00000E+00
    0.31089E+06        -0.65232E+05         0.00000E+00
    0.00000E+00         0.00000E+00        -0.14628E+06
 
   -0.64359E+06         0.32232E+06         0.00000E+00
    0.32232E+06        -0.71549E+05         0.00000E+00
    0.00000E+00         0.00000E+00        -0.14303E+06
 
   -0.62089E+06         0.33297E+06         0.00000E+00
    0.33297E+06        -0.77964E+05         0.00000E+00
    0.00000E+00         0.00000E+00        -0.13977E+06
 
   -0.59816E+06         0.34289E+06         0.00000E+00
    0.34289E+06        -0.84456E+05         0.00000E+00
    0.00000E+00         0.00000E+00        -0.13652E+06
 
   -0.57543E+06         0.35208E+06         0.00000E+00
    0.35208E+06        -0.91006E+05         0.00000E+00
    0.00000E+00         0.00000E+00        -0.13329E+06
 
   -0.55275E+06         0.36057E+06         0.00000E+00
    0.36057E+06        -0.97597E+05         0.00000E+00
    0.00000E+00         0.00000E+00        -0.13007E+06
 
   -0.53017E+06         0.36837E+06         0.00000E+00
    0.36837E+06        -0.10421E+06         0.00000E+00
    0.00000E+00         0.00000E+00        -0.12688E+06
 
   -0.50774E+06         0.37552E+06         0.00000E+00
    0.37552E+06        -0.11084E+06         0.00000E+00
    0.00000E+00         0.00000E+00        -0.12372E+06
 
   -0.48549E+06         0.38204E+06         0.00000E+00
    0.38204E+06        -0.11746E+06         0.00000E+00
    0.00000E+00         0.00000E+00        -0.12059E+06
 
   -0.46345E+06         0.38795E+06         0.00000E+00
    0.38795E+06        -0.12407E+06         0.00000E+00
    0.00000E+00         0.00000E+00        -0.11751E+06
 
   -0.44168E+06         0.39327E+06         0.00000E+00
    0.39327E+06        -0.13065E+06         0.00000E+00
    0.00000E+00         0.00000E+00        -0.11447E+06
 
   -0.42020E+06         0.39803E+06         0.00000E+00
    0.39803E+06        -0.13719E+06         0.00000E+00
    0.00000E+00         0.00000E+00        -0.11148E+06
 
   -0.39904E+06         0.40225E+06         0.00000E+00
    0.40225E+06        -0.14368E+06         0.00000E+00
    0.00000E+00         0.00000E+00        -0.10854E+06
 
   -0.37824E+06         0.40596E+06         0.00000E+00
    0.40596E+06        -0.15011E+06         0.00000E+00
    0.00000E+00         0.00000E+00        -0.10567E+06
 
   -0.35782E+06         0.40919E+06         0.00000E+00
    0.40919E+06        -0.15647E+06         0.00000E+00
    0.00000E+00         0.00000E+00        -0.10286E+06
 
   -0.33782E+06         0.41196E+06         0.00000E+00
    0.41196E+06        -0.16276E+06         0.00000E+00
    0.00000E+00         0.00000E+00        -0.10012E+06
 
   -0.31825E+06         0.41430E+06         0.00000E+00
    0.41430E+06        -0.16897E+06         0.00000E+00
    0.00000E+00         0.00000E+00        -0.97443E+05
 
   -0.29914E+06         0.41623E+06         0.00000E+00
    0.41623E+06        -0.17508E+06         0.00000E+00
    0.00000E+00         0.00000E+00        -0.94845E+05
 
   -0.28052E+06         0.41779E+06         0.00000E+00
    0.41779E+06        -0.18110E+06         0.00000E+00
    0.00000E+00         0.00000E+00        -0.92325E+05
 
   -0.26241E+06         0.41900E+06         0.00000E+00
    0.41900E+06        -0.18701E+06         0.00000E+00
    0.00000E+00         0.00000E+00        -0.89885E+05
 
   -0.24482E+06         0.41988E+06         0.00000E+00
    0.41988E+06        -0.19282E+06         0.00000E+00
    0.00000E+00         0.00000E+00        -0.87529E+05
 
   -0.22778E+06         0.42048E+06         0.00000E+00
    0.42048E+06        -0.19851E+06         0.00000E+00
    0.00000E+00         0.00000E+00        -0.85259E+05
 
   -0.21130E+06         0.42082E+06         0.00000E+00
    0.42082E+06        -0.20409E+06         0.00000E+00
    0.00000E+00         0.00000E+00        -0.83077E+05
 
   -0.19539E+06         0.42092E+06         0.00000E+00
    0.42092E+06        -0.20954E+06         0.00000E+00
    0.00000E+00         0.00000E+00        -0.80985E+05
 
   -0.18006E+06         0.42083E+06         0.00000E+00
    0.42083E+06        -0.21487E+06         0.00000E+00
    0.00000E+00         0.00000E+00        -0.78986E+05
 
   -0.16533E+06         0.42057E+06         0.00000E+00
    0.42057E+06        -0.22007E+06         0.00000E+00
    0.00000E+00         0.00000E+00        -0.77081E+05
 
   -0.15121E+06         0.42018E+06         0.00000E+00
    0.42018E+06        -0.22514E+06         0.00000E+00
    0.00000E+00         0.00000E+00        -0.75271E+05
 
   -0.13770E+06         0.41968E+06         0.00000E+00
    0.41968E+06        -0.23008E+06         0.00000E+00
    0.00000E+00         0.00000E+00        -0.73557E+05
 
   -0.12481E+06         0.41913E+06         0.00000E+00
    0.41913E+06        -0.23489E+06         0.00000E+00
    0.00000E+00         0.00000E+00        -0.71941E+05
 
   -0.11254E+06         0.41855E+06         0.00000E+00
    0.41855E+06        -0.23957E+06         0.00000E+00
    0.00000E+00         0.00000E+00        -0.70422E+05
 
   -0.10088E+06         0.41798E+06         0.00000E+00
    0.41798E+06        -0.24413E+06         0.00000E+00
    0.00000E+00         0.00000E+00        -0.69001E+05
 
   -0.89834E+05         0.41745E+06         0.00000E+00
    0.41745E+06        -0.24856E+06         0.00000E+00
    0.00000E+00         0.00000E+00        -0.67678E+05
 
   -0.79397E+05         0.41702E+06         0.00000E+00
    0.41702E+06        -0.25287E+06         0.00000E+00
    0.00000E+00         0.00000E+00        -0.66453E+05
 
   -0.69557E+05         0.41670E+06         0.00000E+00
    0.41670E+06        -0.25707E+06         0.00000E+00
    0.00000E+00         0.00000E+00        -0.65325E+05
 
   -0.84331E+06         0.11658E+05         0.00000E+00
    0.11658E+05         0.17799E+03         0.00000E+00
    0.00000E+00         0.00000E+00        -0.16863E+06
 
   -0.83500E+06         0.33575E+05         0.00000E+00
    0.33575E+05        -0.48957E+03         0.00000E+00
    0.00000E+00         0.00000E+00        -0.16710E+06
 
   -0.82552E+06         0.54862E+05         0.00000E+00
    0.54862E+05        -0.17412E+04         0.00000E+00
    0.00000E+00         0.00000E+00        -0.16545E+06
 
   -0.81494E+06         0.75497E+05         0.00000E+00
    0.75497E+05        -0.35401E+04         0.00000E+00
    0.00000E+00         0.00000E+00        -0.16370E+06
 
   -0.80334E+06         0.95461E+05         0.00000E+00
    0.95461E+05        -0.58506E+04         0.00000E+00
    0.00000E+00         0.00000E+00        -0.16184E+06
 
   -0.79079E+06         0.11474E+06         0.00000E+00
    0.11474E+06        -0.86374E+04         0.00000E+00
    0.00000E+00         0.00000E+00        -0.15989E+06
 
   -0.77735E+06         0.13332E+06         0.00000E+00
    0.13332E+06        -0.11866E+05         0.00000E+00
    0.00000E+00         0.00000E+00        -0.15784E+06
 
   -0.76310E+06         0.15120E+06         0.00000E+00
    0.15120E+06        -0.15504E+05         0.00000E+00
    0.00000E+00         0.00000E+00        -0.15572E+06
 
   -0.74810E+06         0.16836E+06         0.00000E+00
    0.16836E+06        -0.19518E+05         0.00000E+00
    0.00000E+00         0.00000E+00        -0.15352E+06
 
   -0.73242E+06         0.18481E+06         0.00000E+00
    0.18481E+06        -0.23877E+05         0.00000E+00
    0.00000E+00         0.00000E+00        -0.15126E+06
 
   -0.71612E+06         0.20054E+06         0.00000E+00
    0.20054E+06        -0.28551E+05         0.00000E+00
    0.00000E+00         0.00000E+00        -0.14893E+06
 
   -0.69926E+06         0.21555E+06         0.00000E+00
    0.21555E+06        -0.33511E+05         0.00000E+00
    0.00000E+00         0.00000E+00        -0.14655E+06
 
   -0.68191E+06         0.22985E+06         0.00000E+00
    0.22985E+06        -0.38728E+05         0.00000E+00
    0.00000E+00         0.00000E+00        -0.14413E+06
 
   -0.66412E+06         0.24344E+06         0.00000E+00
    0.24344E+06        -0.44178E+05         0.00000E+00
    0.00000E+00         0.00000E+00        -0.14166E+06
 
   -0.64595E+06         0.25633E+06         0.00000E+00
    0.25633E+06        -0.49833E+05         0.00000E+00
    0.00000E+00         0.00000E+00        -0.13916E+06
 
   -0.62745E+06         0.26852E+06         0.00000E+00
    0.26852E+06        -0.55669E+05         0.00000E+00
    0.00000E+00         0.00000E+00        -0.13662E+06
 
   -0.60867E+06         0.28003E+06         0.00000E+00
    0.28003E+06        -0.61664E+05         0.00000E+00
    0.00000E+00         0.00000E+00        -0.13407E+06
 
   -0.58967E+06         0.29086E+06         0.00000E+00
    0.29086E+06        -0.67794E+05         0.00000E+00
    0.00000E+00         0.00000E+00        -0.13149E+06
 
   -0.57050E+06         0.30103E+06         0.00000E+00
    0.30103E+06        -0.74041E+05         0.00000E+00
    0.00000E+00         0.00000E+00        -0.12891E+06
 
   -0.55119E+06         0.31055E+06         0.00000E+00
    0.31055E+06        -0.80383E+05         0.00000E+00
    0.00000E+00         0.00000E+00        -0.12632E+06
 
   -0.53181E+06         0.31944E+06         0.00000E+00
    0.31944E+06        -0.86802E+05         0.00000E+00
    0.00000E+00         0.00000E+00        -0.12372E+06
 
   -0.51238E+06         0.32772E+06         0.00000E+00
    0.32772E+06        -0.93280E+05         0.00000E+00
    0.00000E+00         0.00000E+00        -0.12113E+06
 
   -0.49295E+06         0.33539E+06         0.00000E+00
    0.33539E+06        -0.99802E+05         0.00000E+00
    0.00000E+00         0.00000E+00        -0.11855E+06
 
   -0.47356E+06         0.34248E+06         0.00000E+00
    0.34248E+06        -0.10635E+06         0.00000E+00
    0.00000E+00         0.00000E+00        -0.11598E+06
 
   -0.45425E+06         0.34900E+06         0.00000E+00
    0.34900E+06        -0.11291E+06         0.00000E+00
    0.00000E+00         0.00000E+00        -0.11343E+06
 
   -0.43505E+06         0.35498E+06         0.00000E+00
    0.35498E+06        -0.11947E+06         0.00000E+00
    0.00000E+00         0.00000E+00        -0.11090E+06
 
   -0.41600E+06         0.36044E+06         0.00000E+00
    0.36044E+06        -0.12602E+06         0.00000E+00
    0.00000E+00         0.00000E+00        -0.10840E+06
 
   -0.39712E+06         0.36539E+06         0.00000E+00
    0.36539E+06        -0.13254E+06         0.00000E+00
    0.00000E+00         0.00000E+00        -0.10593E+06
 
   -0.37845E+06         0.36985E+06         0.00000E+00
    0.36985E+06        -0.13903E+06         0.00000E+00
    0.00000E+00         0.00000E+00        -0.10350E+06
 
   -0.36002E+06         0.37385E+06         0.00000E+00
    0.37385E+06        -0.14546E+06         0.00000E+00
    0.00000E+00         0.00000E+00        -0.10110E+06
 
   -0.34185E+06         0.37742E+06         0.00000E+00
    0.37742E+06        -0.15185E+06         0.00000E+00
    0.00000E+00         0.00000E+00        -0.98740E+05
 
   -0.32397E+06         0.38056E+06         0.00000E+00
    0.38056E+06        -0.15816E+06         0.00000E+00
    0.00000E+00         0.00000E+00        -0.96427E+05
 
   -0.30641E+06         0.38331E+06         0.00000E+00
    0.38331E+06        -0.16441E+06         0.00000E+00
    0.00000E+00         0.00000E+00        -0.94162E+05
 
   -0.28917E+06         0.38569E+06         0.00000E+00
    0.38569E+06        -0.17057E+06         0.00000E+00
    0.00000E+00         0.00000E+00        -0.91948E+05
 
   -0.27229E+06         0.38773E+06         0.00000E+00
    0.38773E+06        -0.17664E+06         0.00000E+00
    0.00000E+00         0.00000E+00        -0.89787E+05
 
   -0.25578E+06         0.38944E+06         0.00000E+00
    0.38944E+06        -0.18263E+06         0.00000E+00
    0.00000E+00         0.00000E+00        -0.87682E+05
 
   -0.23966E+06         0.39086E+06         0.00000E+00
    0.39086E+06        -0.18851E+06         0.00000E+00
    0.00000E+00         0.00000E+00        -0.85635E+05
 
   -0.22394E+06         0.39201E+06         0.00000E+00
    0.39201E+06        -0.19429E+06         0.00000E+00
    0.00000E+00         0.00000E+00        -0.83647E+05
 
   -0.20864E+06         0.39292E+06         0.00000E+00
    0.39292E+06        -0.19997E+06         0.00000E+00
    0.00000E+00         0.00000E+00        -0.81722E+05
 
   -0.19377E+06         0.39361E+06         0.00000E+00
    0.39361E+06        -0.20553E+06         0.00000E+00
    0.00000E+00         0.00000E+00        -0.79861E+05
 
   -0.17933E+06         0.39412E+06         0.00000E+00
    0.39412E+06        -0.21099E+06         0.00000E+00
    0.00000E+00         0.00000E+00        -0.78064E+05
 
   -0.16534E+06         0.39446E+06         0.00000E+00
    0.39446E+06        -0.21633E+06         0.00000E+00
    0.00000E+00         0.00000E+00        -0.76333E+05
 
   -0.15179E+06         0.39468E+06         0.00000E+00
    0.39468E+06        -0.22156E+06         0.00000E+00
    0.00000E+00         0.00000E+00        -0.74670E+05
 
   -0.13870E+06         0.39479E+06         0.00000E+00
    0.39479E+06        -0.22667E+06         0.00000E+00
    0.00000E+00         0.00000E+00        -0.73075E+05
 
   -0.12606E+06         0.39483E+06         0.00000E+00
    0.39483E+06        -0.23168E+06         0.00000E+00
    0.00000E+00         0.00000E+00        -0.71547E+05
 
   -0.11387E+06         0.39483E+06         0.00000E+00
    0.39483E+06        -0.23658E+06         0.00000E+00
    0.00000E+00         0.00000E+00        -0.70089E+05
 
   -0.10212E+06         0.39483E+06         0.00000E+00
    0.39483E+06        -0.24137E+06         0.00000E+00
    0.00000E+00         0.00000E+00        -0.68699E+05
 
   -0.90816E+05         0.39484E+06         0.00000E+00
    0.39484E+06        -0.24607E+06         0.00000E+00
    0.00000E+00         0.00000E+00        -0.67377E+05
 
   -0.79941E+05         0.39490E+06         0.00000E+00
    0.39490E+06        -0.25068E+06         0.00000E+00
    0.00000E+00         0.00000E+00        -0.66123E+05
 
   -0.69485E+05         0.39505E+06         0.00000E+00
    0.39505E+06        -0.25520E+06         0.00000E+00
    0.00000E+00         0.00000E+00        -0.64937E+05
 
   -0.73966E+06         0.10036E+05         0.00000E+00
    0.10036E+05         0.16040E+03         0.00000E+00
    0.00000E+00         0.00000E+00        -0.14790E+06
 
   -0.73402E+06         0.29097E+05         0.00000E+00
    0.29097E+05        -0.42896E+03         0.00000E+00
    0.00000E+00         0.00000E+00        -0.14689E+06
 
   -0.72733E+06         0.47692E+05         0.00000E+00
    0.47692E+05        -0.15428E+04         0.00000E+00
    0.00000E+00         0.00000E+00        -0.14577E+06
 
   -0.71964E+06         0.65796E+05         0.00000E+00
    0.65796E+05        -0.31522E+04         0.00000E+00
    0.00000E+00         0.00000E+00        -0.14456E+06
 
   -0.71102E+06         0.83391E+05         0.00000E+00
    0.83391E+05        -0.52284E+04         0.00000E+00
    0.00000E+00         0.00000E+00        -0.14325E+06
 
   -0.70152E+06         0.10046E+06         0.00000E+00
    0.10046E+06        -0.77429E+04         0.00000E+00
    0.00000E+00         0.00000E+00        -0.14185E+06
 
   -0.69121E+06         0.11698E+06         0.00000E+00
    0.11698E+06        -0.10668E+05         0.00000E+00
    0.00000E+00         0.00000E+00        -0.14037E+06
 
   -0.68012E+06         0.13295E+06         0.00000E+00
    0.13295E+06        -0.13975E+05         0.00000E+00
    0.00000E+00         0.00000E+00        -0.13882E+06
 
   -0.66833E+06         0.14835E+06         0.00000E+00
    0.14835E+06        -0.17639E+05         0.00000E+00
    0.00000E+00         0.00000E+00        -0.13719E+06
 
   -0.65587E+06         0.16317E+06         0.00000E+00
    0.16317E+06        -0.21632E+05         0.00000E+00
    0.00000E+00         0.00000E+00        -0.13550E+06
 
   -0.64281E+06         0.17742E+06         0.00000E+00
    0.17742E+06        -0.25929E+05         0.00000E+00
    0.00000E+00         0.00000E+00        -0.13375E+06
 
   -0.62920E+06         0.19108E+06         0.00000E+00
    0.19108E+06        -0.30504E+05         0.00000E+00
    0.00000E+00         0.00000E+00        -0.13194E+06
 
   -0.61509E+06         0.20415E+06         0.00000E+00
    0.20415E+06        -0.35334E+05         0.00000E+00
    0.00000E+00         0.00000E+00        -0.13008E+06
 
   -0.60052E+06         0.21664E+06         0.00000E+00
    0.21664E+06        -0.40395E+05         0.00000E+00
    0.00000E+00         0.00000E+00        -0.12818E+06
 
   -0.58555E+06         0.22854E+06         0.00000E+00
    0.22854E+06        -0.45664E+05         0.00000E+00
    0.00000E+00         0.00000E+00        -0.12624E+06
 
   -0.57021E+06         0.23986E+06         0.00000E+00
    0.23986E+06        -0.51120E+05         0.00000E+00
    0.00000E+00         0.00000E+00        -0.12427E+06
 
   -0.55457E+06         0.25061E+06         0.00000E+00
    0.25061E+06        -0.56741E+05         0.00000E+00
    0.00000E+00         0.00000E+00        -0.12226E+06
 
   -0.53865E+06         0.26078E+06         0.00000E+00
    0.26078E+06        -0.62508E+05         0.00000E+00
    0.00000E+00         0.00000E+00        -0.12023E+06
 
   -0.52250E+06         0.27039E+06         0.00000E+00
    0.27039E+06        -0.68401E+05         0.00000E+00
    0.00000E+00         0.00000E+00        -0.11818E+06
 
   -0.50617E+06         0.27945E+06         0.00000E+00
    0.27945E+06        -0.74402E+05         0.00000E+00
    0.00000E+00         0.00000E+00        -0.11611E+06
 
   -0.48969E+06         0.28796E+06         0.00000E+00
    0.28796E+06        -0.80493E+05         0.00000E+00
    0.00000E+00         0.00000E+00        -0.11404E+06
 
   -0.47310E+06         0.29594E+06         0.00000E+00
    0.29594E+06        -0.86657E+05         0.00000E+00
    0.00000E+00         0.00000E+00        -0.11195E+06
 
   -0.45643E+06         0.30340E+06         0.00000E+00
    0.30340E+06        -0.92878E+05         0.00000E+00
    0.00000E+00         0.00000E+00        -0.10986E+06
 
   -0.43973E+06         0.31035E+06         0.00000E+00
    0.31035E+06        -0.99143E+05         0.00000E+00
    0.00000E+00         0.00000E+00        -0.10777E+06
 
   -0.42302E+06         0.31680E+06         0.00000E+00
    0.31680E+06        -0.10544E+06         0.00000E+00
    0.00000E+00         0.00000E+00        -0.10569E+06
 
   -0.40634E+06         0.32278E+06         0.00000E+00
    0.32278E+06        -0.11174E+06         0.00000E+00
    0.00000E+00         0.00000E+00        -0.10362E+06
 
   -0.38971E+06         0.32829E+06         0.00000E+00
    0.32829E+06        -0.11805E+06         0.00000E+00
    0.00000E+00         0.00000E+00        -0.10155E+06
 
   -0.37316E+06         0.33335E+06         0.00000E+00
    0.33335E+06        -0.12435E+06         0.00000E+00
    0.00000E+00         0.00000E+00        -0.99503E+05
 
   -0.35673E+06         0.33798E+06         0.00000E+00
    0.33798E+06        -0.13063E+06         0.00000E+00
    0.00000E+00         0.00000E+00        -0.97473E+05
 
   -0.34044E+06         0.34220E+06         0.00000E+00
    0.34220E+06        -0.13688E+06         0.00000E+00
    0.00000E+00         0.00000E+00        -0.95463E+05
 
   -0.32430E+06         0.34603E+06         0.00000E+00
    0.34603E+06        -0.14309E+06         0.00000E+00
    0.00000E+00         0.00000E+00        -0.93478E+05
 
   -0.30835E+06         0.34948E+06         0.00000E+00
    0.34948E+06        -0.14925E+06         0.00000E+00
    0.00000E+00         0.00000E+00        -0.91519E+05
 
   -0.29260E+06         0.35257E+06         0.00000E+00
    0.35257E+06        -0.15535E+06         0.00000E+00
    0.00000E+00         0.00000E+00        -0.89590E+05
 
   -0.27707E+06         0.35533E+06         0.00000E+00
    0.35533E+06        -0.16139E+06         0.00000E+00
    0.00000E+00         0.00000E+00        -0.87692E+05
 
   -0.26178E+06         0.35777E+06         0.00000E+00
    0.35777E+06        -0.16736E+06         0.00000E+00
    0.00000E+00         0.00000E+00        -0.85828E+05
 
   -0.24675E+06         0.35993E+06         0.00000E+00
    0.35993E+06        -0.17325E+06         0.00000E+00
    0.00000E+00         0.00000E+00        -0.84000E+05
 
   -0.23198E+06         0.36180E+06         0.00000E+00
    0.36180E+06        -0.17907E+06         0.00000E+00
    0.00000E+00         0.00000E+00        -0.82210E+05
 
   -0.21750E+06         0.36343E+06         0.00000E+00
    0.36343E+06        -0.18479E+06         0.00000E+00
    0.00000E+00         0.00000E+00        -0.80459E+05
 
   -0.20331E+06         0.36483E+06         0.00000E+00
    0.36483E+06        -0.19043E+06         0.00000E+00
    0.00000E+00         0.00000E+00        -0.78749E+05
 
   -0.18942E+06         0.36603E+06         0.00000E+00
    0.36603E+06        -0.19598E+06         0.00000E+00
    0.00000E+00         0.00000E+00        -0.77080E+05
 
   -0.17584E+06         0.36704E+06         0.00000E+00
    0.36704E+06        -0.20144E+06         0.00000E+00
    0.00000E+00         0.00000E+00        -0.75456E+05
 
   -0.16257E+06         0.36790E+06         0.00000E+00
    0.36790E+06        -0.20681E+06         0.00000E+00
    0.00000E+00         0.00000E+00        -0.73875E+05
 
   -0.14961E+06         0.36862E+06         0.00000E+00
    0.36862E+06        -0.21208E+06         0.00000E+00
    0.00000E+00         0.00000E+00        -0.72339E+05
 
   -0.13698E+06         0.36924E+06         0.00000E+00
    0.36924E+06        -0.21726E+06         0.00000E+00
    0.00000E+00         0.00000E+00        -0.70848E+05
 
   -0.12466E+06         0.36977E+06         0.00000E+00
    0.36977E+06        -0.22236E+06         0.00000E+00
    0.00000E+00         0.00000E+00        -0.69402E+05
 
   -0.11265E+06         0.37024E+06         0.00000E+00
    0.37024E+06        -0.22737E+06         0.00000E+00
    0.00000E+00         0.00000E+00        -0.68003E+05
 
   -0.10095E+06         0.37067E+06         0.00000E+00
    0.37067E+06        -0.23230E+06         0.00000E+00
    0.00000E+00         0.00000E+00        -0.66649E+05
 
   -0.89546E+05         0.37109E+06         0.00000E+00
    0.37109E+06        -0.23715E+06         0.00000E+00
    0.00000E+00         0.00000E+00        -0.65340E+05
 
   -0.78436E+05         0.37153E+06         0.00000E+00
    0.37153E+06        -0.24194E+06         0.00000E+00
    0.00000E+00         0.00000E+00        -0.64075E+05
 
   -0.67603E+05         0.37201E+06         0.00000E+00
    0.37201E+06        -0.24667E+06         0.00000E+00
    0.00000E+00         0.00000E+00        -0.62854E+05
 
   -0.64985E+06         0.86207E+04         0.00000E+00
    0.86207E+04         0.14204E+03         0.00000E+00
    0.00000E+00         0.00000E+00        -0.12994E+06
 
   -0.64615E+06         0.25150E+05         0.00000E+00
    0.25150E+05        -0.37047E+03         0.00000E+00
    0.00000E+00         0.00000E+00        -0.12930E+06
 
   -0.64152E+06         0.41340E+05         0.00000E+00
    0.41340E+05        -0.13461E+04         0.00000E+00
    0.00000E+00         0.00000E+00        -0.12857E+06
 
   -0.63600E+06         0.57168E+05         0.00000E+00
    0.57168E+05        -0.27622E+04         0.00000E+00
    0.00000E+00         0.00000E+00        -0.12775E+06
 
   -0.62965E+06         0.72613E+05         0.00000E+00
    0.72613E+05        -0.45962E+04         0.00000E+00
    0.00000E+00         0.00000E+00        -0.12685E+06
 
   -0.62251E+06         0.87656E+05         0.00000E+00
    0.87656E+05        -0.68256E+04         0.00000E+00
    0.00000E+00         0.00000E+00        -0.12587E+06
 
   -0.61462E+06         0.10228E+06         0.00000E+00
    0.10228E+06        -0.94278E+04         0.00000E+00
    0.00000E+00         0.00000E+00        -0.12481E+06
 
   -0.60603E+06         0.11647E+06         0.00000E+00
    0.11647E+06        -0.12380E+05         0.00000E+00
    0.00000E+00         0.00000E+00        -0.12368E+06
 
   -0.59678E+06         0.13022E+06         0.00000E+00
    0.13022E+06        -0.15661E+05         0.00000E+00
    0.00000E+00         0.00000E+00        -0.12249E+06
 
   -0.58691E+06         0.14351E+06         0.00000E+00
    0.14351E+06        -0.19249E+05         0.00000E+00
    0.00000E+00         0.00000E+00        -0.12123E+06
 
   -0.57647E+06         0.15634E+06         0.00000E+00
    0.15634E+06        -0.23122E+05         0.00000E+00
    0.00000E+00         0.00000E+00        -0.11992E+06
 
   -0.56550E+06         0.16869E+06         0.00000E+00
    0.16869E+06        -0.27258E+05         0.00000E+00
    0.00000E+00         0.00000E+00        -0.11855E+06
 
   -0.55404E+06         0.18058E+06         0.00000E+00
    0.18058E+06        -0.31638E+05         0.00000E+00
    0.00000E+00         0.00000E+00        -0.11713E+06
 
   -0.54213E+06         0.19198E+06         0.00000E+00
    0.19198E+06        -0.36241E+05         0.00000E+00
    0.00000E+00         0.00000E+00        -0.11567E+06
 
   -0.52981E+06         0.20290E+06         0.00000E+00
    0.20290E+06        -0.41048E+05         0.00000E+00
    0.00000E+00         0.00000E+00        -0.11417E+06
 
   -0.51712E+06         0.21334E+06         0.00000E+00
    0.21334E+06        -0.46040E+05         0.00000E+00
    0.00000E+00         0.00000E+00        -0.11263E+06
 
   -0.50410E+06         0.22330E+06         0.00000E+00
    0.22330E+06        -0.51197E+05         0.00000E+00
    0.00000E+00         0.00000E+00        -0.11106E+06
 
   -0.49078E+06         0.23278E+06         0.00000E+00
    0.23278E+06        -0.56503E+05         0.00000E+00
    0.00000E+00         0.00000E+00        -0.10946E+06
 
   -0.47721E+06         0.24179E+06         0.00000E+00
    0.24179E+06        -0.61941E+05         0.00000E+00
    0.00000E+00         0.00000E+00        -0.10783E+06
 
   -0.46341E+06         0.25033E+06         0.00000E+00
    0.25033E+06        -0.67492E+05         0.00000E+00
    0.00000E+00         0.00000E+00        -0.10618E+06
 
   -0.44942E+06         0.25840E+06         0.00000E+00
    0.25840E+06        -0.73143E+05         0.00000E+00
    0.00000E+00         0.00000E+00        -0.10451E+06
 
   -0.43527E+06         0.26602E+06         0.00000E+00
    0.26602E+06        -0.78876E+05         0.00000E+00
    0.00000E+00         0.00000E+00        -0.10283E+06
 
   -0.42100E+06         0.27320E+06         0.00000E+00
    0.27320E+06        -0.84679E+05         0.00000E+00
    0.00000E+00         0.00000E+00        -0.10114E+06
 
   -0.40662E+06         0.27994E+06         0.00000E+00
    0.27994E+06        -0.90537E+05         0.00000E+00
    0.00000E+00         0.00000E+00        -0.99432E+05
 
   -0.39218E+06         0.28624E+06         0.00000E+00
    0.28624E+06        -0.96436E+05         0.00000E+00
    0.00000E+00         0.00000E+00        -0.97724E+05
 
   -0.37770E+06         0.29214E+06         0.00000E+00
    0.29214E+06        -0.10236E+06         0.00000E+00
    0.00000E+00         0.00000E+00        -0.96014E+05
 
   -0.36321E+06         0.29763E+06         0.00000E+00
    0.29763E+06        -0.10831E+06         0.00000E+00
    0.00000E+00         0.00000E+00        -0.94304E+05
 
   -0.34872E+06         0.30272E+06         0.00000E+00
    0.30272E+06        -0.11426E+06         0.00000E+00
    0.00000E+00         0.00000E+00        -0.92597E+05
 
   -0.33427E+06         0.30744E+06         0.00000E+00
    0.30744E+06        -0.12021E+06         0.00000E+00
    0.00000E+00         0.00000E+00        -0.90897E+05
 
   -0.31988E+06         0.31179E+06         0.00000E+00
    0.31179E+06        -0.12615E+06         0.00000E+00
    0.00000E+00         0.00000E+00        -0.89205E+05
 
   -0.30556E+06         0.31579E+06         0.00000E+00
    0.31579E+06        -0.13206E+06         0.00000E+00
    0.00000E+00         0.00000E+00        -0.87523E+05
 
   -0.29133E+06         0.31946E+06         0.00000E+00
    0.31946E+06        -0.13794E+06         0.00000E+00
    0.00000E+00         0.00000E+00        -0.85855E+05
 
   -0.27722E+06         0.32281E+06         0.00000E+00
    0.32281E+06        -0.14379E+06         0.00000E+00
    0.00000E+00         0.00000E+00        -0.84201E+05
 
   -0.26324E+06         0.32585E+06         0.00000E+00
    0.32585E+06        -0.14959E+06         0.00000E+00
    0.00000E+00         0.00000E+00        -0.82565E+05
 
   -0.24940E+06         0.32861E+06         0.00000E+00
    0.32861E+06        -0.15533E+06         0.00000E+00
    0.00000E+00         0.00000E+00        -0.80947E+05
 
   -0.23572E+06         0.33110E+06         0.00000E+00
    0.33110E+06        -0.16102E+06         0.00000E+00
    0.00000E+00         0.00000E+00        -0.79350E+05
 
   -0.22222E+06         0.33335E+06         0.00000E+00
    0.33335E+06        -0.16666E+06         0.00000E+00
    0.00000E+00         0.00000E+00        -0.77775E+05
 
   -0.20889E+06         0.33535E+06         0.00000E+00
    0.33535E+06        -0.17222E+06         0.00000E+00
    0.00000E+00         0.00000E+00        -0.76222E+05
 
   -0.19575E+06         0.33715E+06         0.00000E+00
    0.33715E+06        -0.17772E+06         0.00000E+00
    0.00000E+00         0.00000E+00        -0.74695E+05
 
   -0.18281E+06         0.33874E+06         0.00000E+00
    0.33874E+06        -0.18315E+06         0.00000E+00
    0.00000E+00         0.00000E+00        -0.73192E+05
 
   -0.17007E+06         0.34016E+06         0.00000E+00
    0.34016E+06        -0.18851E+06         0.00000E+00
    0.00000E+00         0.00000E+00        -0.71716E+05
 
   -0.15753E+06         0.34142E+06         0.00000E+00
    0.34142E+06        -0.19380E+06         0.00000E+00
    0.00000E+00         0.00000E+00        -0.70267E+05
 
   -0.14520E+06         0.34255E+06         0.00000E+00
    0.34255E+06        -0.19902E+06         0.00000E+00
    0.00000E+00         0.00000E+00        -0.68845E+05
 
   -0.13308E+06         0.34355E+06         0.00000E+00
    0.34355E+06        -0.20417E+06         0.00000E+00
    0.00000E+00         0.00000E+00        -0.67451E+05
 
   -0.12117E+06         0.34446E+06         0.00000E+00
    0.34446E+06        -0.20926E+06         0.00000E+00
    0.00000E+00         0.00000E+00        -0.66084E+05
 
   -0.10946E+06         0.34528E+06         0.00000E+00
    0.34528E+06        -0.21428E+06         0.00000E+00
    0.00000E+00         0.00000E+00        -0.64746E+05
 
   -0.97941E+05         0.34605E+06         0.00000E+00
    0.34605E+06        -0.21924E+06         0.00000E+00
    0.00000E+00         0.00000E+00        -0.63436E+05
 
   -0.86617E+05         0.34677E+06         0.00000E+00
    0.34677E+06        -0.22415E+06         0.00000E+00
    0.00000E+00         0.00000E+00        -0.62153E+05
 
   -0.75475E+05         0.34747E+06         0.00000E+00
    0.34747E+06        -0.22901E+06         0.00000E+00
    0.00000E+00         0.00000E+00        -0.60896E+05
 
   -0.64503E+05         0.34816E+06         0.00000E+00
    0.34816E+06        -0.23383E+06         0.00000E+00
    0.00000E+00         0.00000E+00        -0.59666E+05
 
   -0.57218E+06         0.74020E+04         0.00000E+00
    0.74020E+04         0.12413E+03         0.00000E+00
    0.00000E+00         0.00000E+00        -0.11441E+06
 
   -0.56985E+06         0.21718E+05         0.00000E+00
    0.21718E+05        -0.31643E+03         0.00000E+00
    0.00000E+00         0.00000E+00        -0.11403E+06
 
   -0.56672E+06         0.35792E+05         0.00000E+00
    0.35792E+05        -0.11606E+04         0.00000E+00
    0.00000E+00         0.00000E+00        -0.11358E+06
 
   -0.56281E+06         0.49604E+05         0.00000E+00
    0.49604E+05        -0.23911E+04         0.00000E+00
    0.00000E+00         0.00000E+00        -0.11304E+06
 
   -0.55817E+06         0.63133E+05         0.00000E+00
    0.63133E+05        -0.39904E+04         0.00000E+00
    0.00000E+00         0.00000E+00        -0.11243E+06
 
   -0.55282E+06         0.76361E+05         0.00000E+00
    0.76361E+05        -0.59410E+04         0.00000E+00
    0.00000E+00         0.00000E+00        -0.11175E+06
 
   -0.54680E+06         0.89270E+05         0.00000E+00
    0.89270E+05        -0.82249E+04         0.00000E+00
    0.00000E+00         0.00000E+00        -0.11100E+06
 
   -0.54015E+06         0.10185E+06         0.00000E+00
    0.10185E+06        -0.10824E+05         0.00000E+00
    0.00000E+00         0.00000E+00        -0.11019E+06
 
   -0.53289E+06         0.11408E+06         0.00000E+00
    0.11408E+06        -0.13722E+05         0.00000E+00
    0.00000E+00         0.00000E+00        -0.10932E+06
 
   -0.52507E+06         0.12595E+06         0.00000E+00
    0.12595E+06        -0.16899E+05         0.00000E+00
    0.00000E+00         0.00000E+00        -0.10839E+06
 
   -0.51672E+06         0.13745E+06         0.00000E+00
    0.13745E+06        -0.20338E+05         0.00000E+00
    0.00000E+00         0.00000E+00        -0.10741E+06
 
   -0.50788E+06         0.14858E+06         0.00000E+00
    0.14858E+06        -0.24023E+05         0.00000E+00
    0.00000E+00         0.00000E+00        -0.10638E+06
 
   -0.49857E+06         0.15933E+06         0.00000E+00
    0.15933E+06        -0.27935E+05         0.00000E+00
    0.00000E+00         0.00000E+00        -0.10530E+06
 
   -0.48883E+06         0.16969E+06         0.00000E+00
    0.16969E+06        -0.32058E+05         0.00000E+00
    0.00000E+00         0.00000E+00        -0.10418E+06
 
   -0.47869E+06         0.17966E+06         0.00000E+00
    0.17966E+06        -0.36376E+05         0.00000E+00
    0.00000E+00         0.00000E+00        -0.10301E+06
 
   -0.46818E+06         0.18923E+06         0.00000E+00
    0.18923E+06        -0.40871E+05         0.00000E+00
    0.00000E+00         0.00000E+00        -0.10181E+06
 
   -0.45734E+06         0.19841E+06         0.00000E+00
    0.19841E+06        -0.45529E+05         0.00000E+00
    0.00000E+00         0.00000E+00        -0.10057E+06
 
   -0.44620E+06         0.20719E+06         0.00000E+00
    0.20719E+06        -0.50333E+05         0.00000E+00
    0.00000E+00         0.00000E+00        -0.99306E+05
 
   -0.43478E+06         0.21558E+06         0.00000E+00
    0.21558E+06        -0.55270E+05         0.00000E+00
    0.00000E+00         0.00000E+00        -0.98010E+05
 
   -0.42312E+06         0.22357E+06         0.00000E+00
    0.22357E+06        -0.60324E+05         0.00000E+00
    0.00000E+00         0.00000E+00        -0.96689E+05
 
   -0.41124E+06         0.23118E+06         0.00000E+00
    0.23118E+06        -0.65481E+05         0.00000E+00
    0.00000E+00         0.00000E+00        -0.95344E+05
 
   -0.39917E+06         0.23840E+06         0.00000E+00
    0.23840E+06        -0.70728E+05         0.00000E+00
    0.00000E+00         0.00000E+00        -0.93980E+05
 
   -0.38694E+06         0.24524E+06         0.00000E+00
    0.24524E+06        -0.76052E+05         0.00000E+00
    0.00000E+00         0.00000E+00        -0.92599E+05
 
   -0.37458E+06         0.25170E+06         0.00000E+00
    0.25170E+06        -0.81440E+05         0.00000E+00
    0.00000E+00         0.00000E+00        -0.91203E+05
 
   -0.36209E+06         0.25780E+06         0.00000E+00
    0.25780E+06        -0.86881E+05         0.00000E+00
    0.00000E+00         0.00000E+00        -0.89795E+05
 
   -0.34952E+06         0.26355E+06         0.00000E+00
    0.26355E+06        -0.92364E+05         0.00000E+00
    0.00000E+00         0.00000E+00        -0.88378E+05
 
   -0.33689E+06         0.26894E+06         0.00000E+00
    0.26894E+06        -0.97878E+05         0.00000E+00
    0.00000E+00         0.00000E+00        -0.86953E+05
 
   -0.32420E+06         0.27399E+06         0.00000E+00
    0.27399E+06        -0.10341E+06         0.00000E+00
    0.00000E+00         0.00000E+00        -0.85522E+05
 
   -0.31149E+06         0.27871E+06         0.00000E+00
    0.27871E+06        -0.10896E+06         0.00000E+00
    0.00000E+00         0.00000E+00        -0.84089E+05
 
   -0.29877E+06         0.28311E+06         0.00000E+00
    0.28311E+06        -0.11451E+06         0.00000E+00
    0.00000E+00         0.00000E+00        -0.82655E+05
 
   -0.28606E+06         0.28720E+06         0.00000E+00
    0.28720E+06        -0.12005E+06         0.00000E+00
    0.00000E+00         0.00000E+00        -0.81222E+05
 
   -0.27338E+06         0.29099E+06         0.00000E+00
    0.29099E+06        -0.12558E+06         0.00000E+00
    0.00000E+00         0.00000E+00        -0.79792E+05
 
   -0.26074E+06         0.29450E+06         0.00000E+00
    0.29450E+06        -0.13109E+06         0.00000E+00
    0.00000E+00         0.00000E+00        -0.78366E+05
 
   -0.24816E+06         0.29773E+06         0.00000E+00
    0.29773E+06        -0.13657E+06         0.00000E+00
    0.00000E+00         0.00000E+00        -0.76946E+05
 
   -0.23565E+06         0.30071E+06         0.00000E+00
    0.30071E+06        -0.14202E+06         0.00000E+00
    0.00000E+00         0.00000E+00        -0.75533E+05
 
   -0.22321E+06         0.30344E+06         0.00000E+00
    0.30344E+06        -0.14744E+06         0.00000E+00
    0.00000E+00         0.00000E+00        -0.74129E+05
 
   -0.21087E+06         0.30594E+06         0.00000E+00
    0.30594E+06        -0.15281E+06         0.00000E+00
    0.00000E+00         0.00000E+00        -0.72735E+05
 
   -0.19862E+06         0.30823E+06         0.00000E+00
    0.30823E+06        -0.15814E+06         0.00000E+00
    0.00000E+00         0.00000E+00        -0.71352E+05
 
   -0.18648E+06         0.31031E+06         0.00000E+00
    0.31031E+06        -0.16342E+06         0.00000E+00
    0.00000E+00         0.00000E+00        -0.69981E+05
 
   -0.17446E+06         0.31220E+06         0.00000E+00
    0.31220E+06        -0.16866E+06         0.00000E+00
    0.00000E+00         0.00000E+00        -0.68623E+05
 
   -0.16255E+06         0.31392E+06         0.00000E+00
    0.31392E+06        -0.17384E+06         0.00000E+00
    0.00000E+00         0.00000E+00        -0.67278E+05
 
   -0.15076E+06         0.31548E+06         0.00000E+00
    0.31548E+06        -0.17897E+06         0.00000E+00
    0.00000E+00         0.00000E+00        -0.65947E+05
 
   -0.13909E+06         0.31690E+06         0.00000E+00
    0.31690E+06        -0.18406E+06         0.00000E+00
    0.00000E+00         0.00000E+00        -0.64630E+05
 
   -0.12755E+06         0.31819E+06         0.00000E+00
    0.31819E+06        -0.18909E+06         0.00000E+00
    0.00000E+00         0.00000E+00        -0.63328E+05
 
   -0.11612E+06         0.31937E+06         0.00000E+00
    0.31937E+06        -0.19408E+06         0.00000E+00
    0.00000E+00         0.00000E+00        -0.62040E+05
 
   -0.10481E+06         0.32045E+06         0.00000E+00
    0.32045E+06        -0.19903E+06         0.00000E+00
    0.00000E+00         0.00000E+00        -0.60768E+05
 
   -0.93617E+05         0.32145E+06         0.00000E+00
    0.32145E+06        -0.20393E+06         0.00000E+00
    0.00000E+00         0.00000E+00        -0.59509E+05
 
   -0.82529E+05         0.32238E+06         0.00000E+00
    0.32238E+06        -0.20880E+06         0.00000E+00
    0.00000E+00         0.00000E+00        -0.58265E+05
 
   -0.71539E+05         0.32325E+06         0.00000E+00
    0.32325E+06        -0.21363E+06         0.00000E+00
    0.00000E+00         0.00000E+00        -0.57035E+05
 
   -0.60640E+05         0.32408E+06         0.00000E+00
    0.32408E+06        -0.21845E+06         0.00000E+00
    0.00000E+00         0.00000E+00        -0.55817E+05
 
   -0.50503E+06         0.63627E+04         0.00000E+00
    0.63627E+04         0.10742E+03         0.00000E+00
    0.00000E+00         0.00000E+00        -0.10098E+06
 
   -0.50366E+06         0.18765E+05         0.00000E+00
    0.18765E+05        -0.26805E+03         0.00000E+00
    0.00000E+00         0.00000E+00        -0.10078E+06
 
   -0.50159E+06         0.31000E+05         0.00000E+00
    0.31000E+05        -0.99187E+03         0.00000E+00
    0.00000E+00         0.00000E+00        -0.10052E+06
 
   -0.49885E+06         0.43049E+05         0.00000E+00
    0.43049E+05        -0.20511E+04         0.00000E+00
    0.00000E+00         0.00000E+00        -0.10018E+06
 
   -0.49546E+06         0.54891E+05         0.00000E+00
    0.54891E+05        -0.34325E+04         0.00000E+00
    0.00000E+00         0.00000E+00        -0.99779E+05
 
   -0.49146E+06         0.66510E+05         0.00000E+00
    0.66510E+05        -0.51223E+04         0.00000E+00
    0.00000E+00         0.00000E+00        -0.99317E+05
 
   -0.48687E+06         0.77889E+05         0.00000E+00
    0.77889E+05        -0.71069E+04         0.00000E+00
    0.00000E+00         0.00000E+00        -0.98794E+05
 
   -0.48171E+06         0.89015E+05         0.00000E+00
    0.89015E+05        -0.93720E+04         0.00000E+00
    0.00000E+00         0.00000E+00        -0.98215E+05
 
   -0.47601E+06         0.99875E+05         0.00000E+00
    0.99875E+05        -0.11904E+05         0.00000E+00
    0.00000E+00         0.00000E+00        -0.97582E+05
 
   -0.46980E+06         0.11046E+06         0.00000E+00
    0.11046E+06        -0.14688E+05         0.00000E+00
    0.00000E+00         0.00000E+00        -0.96897E+05
 
   -0.46310E+06         0.12075E+06         0.00000E+00
    0.12075E+06        -0.17710E+05         0.00000E+00
    0.00000E+00         0.00000E+00        -0.96162E+05
 
   -0.45595E+06         0.13074E+06         0.00000E+00
    0.13074E+06        -0.20956E+05         0.00000E+00
    0.00000E+00         0.00000E+00        -0.95381E+05
 
   -0.44837E+06         0.14043E+06         0.00000E+00
    0.14043E+06        -0.24411E+05         0.00000E+00
    0.00000E+00         0.00000E+00        -0.94556E+05
 
   -0.44038E+06         0.14981E+06         0.00000E+00
    0.14981E+06        -0.28063E+05         0.00000E+00
    0.00000E+00         0.00000E+00        -0.93689E+05
 
   -0.43202E+06         0.15888E+06         0.00000E+00
    0.15888E+06        -0.31897E+05         0.00000E+00
    0.00000E+00         0.00000E+00        -0.92783E+05
 
   -0.42330E+06         0.16762E+06         0.00000E+00
    0.16762E+06        -0.35899E+05         0.00000E+00
    0.00000E+00         0.00000E+00        -0.91840E+05
 
   -0.41426E+06         0.17604E+06         0.00000E+00
    0.17604E+06        -0.40056E+05         0.00000E+00
    0.00000E+00         0.00000E+00        -0.90863E+05
 
   -0.40491E+06         0.18413E+06         0.00000E+00
    0.18413E+06        -0.44356E+05         0.00000E+00
    0.00000E+00         0.00000E+00        -0.89854E+05
 
   -0.39529E+06         0.19189E+06         0.00000E+00
    0.19189E+06        -0.48785E+05         0.00000E+00
    0.00000E+00         0.00000E+00        -0.88816E+05
 
   -0.38542E+06         0.19933E+06         0.00000E+00
    0.19933E+06        -0.53331E+05         0.00000E+00
    0.00000E+00         0.00000E+00        -0.87750E+05
 
   -0.37532E+06         0.20645E+06         0.00000E+00
    0.20645E+06        -0.57982E+05         0.00000E+00
    0.00000E+00         0.00000E+00        -0.86660E+05
 
   -0.36501E+06         0.21324E+06         0.00000E+00
    0.21324E+06        -0.62726E+05         0.00000E+00
    0.00000E+00         0.00000E+00        -0.85547E+05
 
   -0.35451E+06         0.21971E+06         0.00000E+00
    0.21971E+06        -0.67553E+05         0.00000E+00
    0.00000E+00         0.00000E+00        -0.84413E+05
 
   -0.34385E+06         0.22586E+06         0.00000E+00
    0.22586E+06        -0.72450E+05         0.00000E+00
    0.00000E+00         0.00000E+00        -0.83260E+05
 
   -0.33305E+06         0.23170E+06         0.00000E+00
    0.23170E+06        -0.77409E+05         0.00000E+00
    0.00000E+00         0.00000E+00        -0.82092E+05
 
   -0.32212E+06         0.23723E+06         0.00000E+00
    0.23723E+06        -0.82419E+05         0.00000E+00
    0.00000E+00         0.00000E+00        -0.80908E+05
 
   -0.31109E+06         0.24247E+06         0.00000E+00
    0.24247E+06        -0.87470E+05         0.00000E+00
    0.00000E+00         0.00000E+00        -0.79712E+05
 
   -0.29997E+06         0.24740E+06         0.00000E+00
    0.24740E+06        -0.92554E+05         0.00000E+00
    0.00000E+00         0.00000E+00        -0.78505E+05
 
   -0.28878E+06         0.25205E+06         0.00000E+00
    0.25205E+06        -0.97662E+05         0.00000E+00
    0.00000E+00         0.00000E+00        -0.77289E+05
 
   -0.27754E+06         0.25642E+06         0.00000E+00
    0.25642E+06        -0.10279E+06         0.00000E+00
    0.00000E+00         0.00000E+00        -0.76065E+05
 
   -0.26625E+06         0.26052E+06         0.00000E+00
    0.26052E+06        -0.10792E+06         0.00000E+00
    0.00000E+00         0.00000E+00        -0.74835E+05
 
   -0.25494E+06         0.26435E+06         0.00000E+00
    0.26435E+06        -0.11306E+06         0.00000E+00
    0.00000E+00         0.00000E+00        -0.73600E+05
 
   -0.24362E+06         0.26793E+06         0.00000E+00
    0.26793E+06        -0.11819E+06         0.00000E+00
    0.00000E+00         0.00000E+00        -0.72363E+05
 
   -0.23230E+06         0.27127E+06         0.00000E+00
    0.27127E+06        -0.12331E+06         0.00000E+00
    0.00000E+00         0.00000E+00        -0.71123E+05
 
   -0.22099E+06         0.27437E+06         0.00000E+00
    0.27437E+06        -0.12842E+06         0.00000E+00
    0.00000E+00         0.00000E+00        -0.69882E+05
 
   -0.20969E+06         0.27725E+06         0.00000E+00
    0.27725E+06        -0.13351E+06         0.00000E+00
    0.00000E+00         0.00000E+00        -0.68641E+05
 
   -0.19843E+06         0.27992E+06         0.00000E+00
    0.27992E+06        -0.13858E+06         0.00000E+00
    0.00000E+00         0.00000E+00        -0.67402E+05
 
   -0.18720E+06         0.28238E+06         0.00000E+00
    0.28238E+06        -0.14362E+06         0.00000E+00
    0.00000E+00         0.00000E+00        -0.66164E+05
 
   -0.17602E+06         0.28465E+06         0.00000E+00
    0.28465E+06        -0.14863E+06         0.00000E+00
    0.00000E+00         0.00000E+00        -0.64929E+05
 
   -0.16488E+06         0.28674E+06         0.00000E+00
    0.28674E+06        -0.15361E+06         0.00000E+00
    0.00000E+00         0.00000E+00        -0.63698E+05
 
   -0.15379E+06         0.28867E+06         0.00000E+00
    0.28867E+06        -0.15856E+06         0.00000E+00
    0.00000E+00         0.00000E+00        -0.62470E+05
 
   -0.14275E+06         0.29043E+06         0.00000E+00
    0.29043E+06        -0.16348E+06         0.00000E+00
    0.00000E+00         0.00000E+00        -0.61247E+05
 
   -0.13178E+06         0.29205E+06         0.00000E+00
    0.29205E+06        -0.16837E+06         0.00000E+00
    0.00000E+00         0.00000E+00        -0.60029E+05
 
   -0.12086E+06         0.29354E+06         0.00000E+00
    0.29354E+06        -0.17322E+06         0.00000E+00
    0.00000E+00         0.00000E+00        -0.58815E+05
 
   -0.10999E+06         0.29490E+06         0.00000E+00
    0.29490E+06        -0.17804E+06         0.00000E+00
    0.00000E+00         0.00000E+00        -0.57607E+05
 
   -0.99174E+05         0.29615E+06         0.00000E+00
    0.29615E+06        -0.18284E+06         0.00000E+00
    0.00000E+00         0.00000E+00        -0.56403E+05
 
   -0.88410E+05         0.29730E+06         0.00000E+00
    0.29730E+06        -0.18761E+06         0.00000E+00
    0.00000E+00         0.00000E+00        -0.55204E+05
 
   -0.77690E+05         0.29835E+06         0.00000E+00
    0.29835E+06        -0.19236E+06         0.00000E+00
    0.00000E+00         0.00000E+00        -0.54010E+05
 
   -0.67009E+05         0.29933E+06         0.00000E+00
    0.29933E+06        -0.19709E+06         0.00000E+00
    0.00000E+00         0.00000E+00        -0.52821E+05
 
   -0.56360E+05         0.30024E+06         0.00000E+00
    0.30024E+06        -0.20181E+06         0.00000E+00
    0.00000E+00         0.00000E+00        -0.51635E+05
 
   -0.44691E+06         0.54826E+04         0.00000E+00
    0.54826E+04         0.92300E+02         0.00000E+00
    0.00000E+00         0.00000E+00        -0.89363E+05
 
   -0.44617E+06         0.16244E+05         0.00000E+00
    0.16244E+05        -0.22575E+03         0.00000E+00
    0.00000E+00         0.00000E+00        -0.89280E+05
 
   -0.44485E+06         0.26894E+05         0.00000E+00
    0.26894E+05        -0.84240E+03         0.00000E+00
    0.00000E+00         0.00000E+00        -0.89138E+05
 
   -0.44294E+06         0.37412E+05         0.00000E+00
    0.37412E+05        -0.17481E+04         0.00000E+00
    0.00000E+00         0.00000E+00        -0.88938E+05
 
   -0.44048E+06         0.47784E+05         0.00000E+00
    0.47784E+05        -0.29330E+04         0.00000E+00
    0.00000E+00         0.00000E+00        -0.88682E+05
 
   -0.43747E+06         0.57991E+05         0.00000E+00
    0.57991E+05        -0.43866E+04         0.00000E+00
    0.00000E+00         0.00000E+00        -0.88372E+05
 
   -0.43395E+06         0.68021E+05         0.00000E+00
    0.68021E+05        -0.60985E+04         0.00000E+00
    0.00000E+00         0.00000E+00        -0.88010E+05
 
   -0.42993E+06         0.77860E+05         0.00000E+00
    0.77860E+05        -0.80577E+04         0.00000E+00
    0.00000E+00         0.00000E+00        -0.87597E+05
 
   -0.42543E+06         0.87495E+05         0.00000E+00
    0.87495E+05        -0.10253E+05         0.00000E+00
    0.00000E+00         0.00000E+00        -0.87136E+05
 
   -0.42047E+06         0.96915E+05         0.00000E+00
    0.96915E+05        -0.12674E+05         0.00000E+00
    0.00000E+00         0.00000E+00        -0.86629E+05
 
   -0.41508E+06         0.10611E+06         0.00000E+00
    0.10611E+06        -0.15308E+05         0.00000E+00
    0.00000E+00         0.00000E+00        -0.86077E+05
 
   -0.40927E+06         0.11507E+06         0.00000E+00
    0.11507E+06        -0.18145E+05         0.00000E+00
    0.00000E+00         0.00000E+00        -0.85483E+05
 
   -0.40307E+06         0.12379E+06         0.00000E+00
    0.12379E+06        -0.21173E+05         0.00000E+00
    0.00000E+00         0.00000E+00        -0.84848E+05
 
   -0.39649E+06         0.13226E+06         0.00000E+00
    0.13226E+06        -0.24380E+05         0.00000E+00
    0.00000E+00         0.00000E+00        -0.84174E+05
 
   -0.38956E+06         0.14048E+06         0.00000E+00
    0.14048E+06        -0.27756E+05         0.00000E+00
    0.00000E+00         0.00000E+00        -0.83464E+05
 
   -0.38230E+06         0.14844E+06         0.00000E+00
    0.14844E+06        -0.31289E+05         0.00000E+00
    0.00000E+00         0.00000E+00        -0.82718E+05
 
   -0.37473E+06         0.15613E+06         0.00000E+00
    0.15613E+06        -0.34969E+05         0.00000E+00
    0.00000E+00         0.00000E+00        -0.81940E+05
 
   -0.36687E+06         0.16355E+06         0.00000E+00
    0.16355E+06        -0.38784E+05         0.00000E+00
    0.00000E+00         0.00000E+00        -0.81130E+05
 
   -0.35873E+06         0.17071E+06         0.00000E+00
    0.17071E+06        -0.42723E+05         0.00000E+00
    0.00000E+00         0.00000E+00        -0.80291E+05
 
   -0.35035E+06         0.17760E+06         0.00000E+00
    0.17760E+06        -0.46777E+05         0.00000E+00
    0.00000E+00         0.00000E+00        -0.79425E+05
 
   -0.34173E+06         0.18422E+06         0.00000E+00
    0.18422E+06        -0.50935E+05         0.00000E+00
    0.00000E+00         0.00000E+00        -0.78533E+05
 
   -0.33289E+06         0.19056E+06         0.00000E+00
    0.19056E+06        -0.55188E+05         0.00000E+00
    0.00000E+00         0.00000E+00        -0.77616E+05
 
   -0.32387E+06         0.19664E+06         0.00000E+00
    0.19664E+06        -0.59524E+05         0.00000E+00
    0.00000E+00         0.00000E+00        -0.76678E+05
 
   -0.31466E+06         0.20245E+06         0.00000E+00
    0.20245E+06        -0.63937E+05         0.00000E+00
    0.00000E+00         0.00000E+00        -0.75719E+05
 
   -0.30529E+06         0.20799E+06         0.00000E+00
    0.20799E+06        -0.68416E+05         0.00000E+00
    0.00000E+00         0.00000E+00        -0.74740E+05
 
   -0.29577E+06         0.21327E+06         0.00000E+00
    0.21327E+06        -0.72952E+05         0.00000E+00
    0.00000E+00         0.00000E+00        -0.73744E+05
 
   -0.28612E+06         0.21829E+06         0.00000E+00
    0.21829E+06        -0.77539E+05         0.00000E+00
    0.00000E+00         0.00000E+00        -0.72732E+05
 
   -0.27636E+06         0.22306E+06         0.00000E+00
    0.22306E+06        -0.82167E+05         0.00000E+00
    0.00000E+00         0.00000E+00        -0.71705E+05
 
   -0.26649E+06         0.22758E+06         0.00000E+00
    0.22758E+06        -0.86830E+05         0.00000E+00
    0.00000E+00         0.00000E+00        -0.70665E+05
 
   -0.25654E+06         0.23185E+06         0.00000E+00
    0.23185E+06        -0.91521E+05         0.00000E+00
    0.00000E+00         0.00000E+00        -0.69612E+05
 
   -0.24651E+06         0.23589E+06         0.00000E+00
    0.23589E+06        -0.96233E+05         0.00000E+00
    0.00000E+00         0.00000E+00        -0.68549E+05
 
   -0.23642E+06         0.23969E+06         0.00000E+00
    0.23969E+06        -0.10096E+06         0.00000E+00
    0.00000E+00         0.00000E+00        -0.67476E+05
 
   -0.22627E+06         0.24327E+06         0.00000E+00
    0.24327E+06        -0.10570E+06         0.00000E+00
    0.00000E+00         0.00000E+00        -0.66395E+05
 
   -0.21609E+06         0.24663E+06         0.00000E+00
    0.24663E+06        -0.11044E+06         0.00000E+00
    0.00000E+00         0.00000E+00        -0.65305E+05
 
   -0.20587E+06         0.24978E+06         0.00000E+00
    0.24978E+06        -0.11518E+06         0.00000E+00
    0.00000E+00         0.00000E+00        -0.64209E+05
 
   -0.19562E+06         0.25272E+06         0.00000E+00
    0.25272E+06        -0.11992E+06         0.00000E+00
    0.00000E+00         0.00000E+00        -0.63108E+05
 
   -0.18535E+06         0.25546E+06         0.00000E+00
    0.25546E+06        -0.12465E+06         0.00000E+00
    0.00000E+00         0.00000E+00        -0.62001E+05
 
   -0.17508E+06         0.25802E+06         0.00000E+00
    0.25802E+06        -0.12937E+06         0.00000E+00
    0.00000E+00         0.00000E+00        -0.60890E+05
 
   -0.16479E+06         0.26040E+06         0.00000E+00
    0.26040E+06        -0.13408E+06         0.00000E+00
    0.00000E+00         0.00000E+00        -0.59775E+05
 
   -0.15451E+06         0.26261E+06         0.00000E+00
    0.26261E+06        -0.13877E+06         0.00000E+00
    0.00000E+00         0.00000E+00        -0.58656E+05
 
   -0.14423E+06         0.26465E+06         0.00000E+00
    0.26465E+06        -0.14345E+06         0.00000E+00
    0.00000E+00         0.00000E+00        -0.57536E+05
 
   -0.13395E+06         0.26653E+06         0.00000E+00
    0.26653E+06        -0.14811E+06         0.00000E+00
    0.00000E+00         0.00000E+00        -0.56412E+05
 
   -0.12368E+06         0.26827E+06         0.00000E+00
    0.26827E+06        -0.15275E+06         0.00000E+00
    0.00000E+00         0.00000E+00        -0.55287E+05
 
   -0.11342E+06         0.26988E+06         0.00000E+00
    0.26988E+06        -0.15737E+06         0.00000E+00
    0.00000E+00         0.00000E+00        -0.54159E+05
 
   -0.10317E+06         0.27135E+06         0.00000E+00
    0.27135E+06        -0.16198E+06         0.00000E+00
    0.00000E+00         0.00000E+00        -0.53030E+05
 
   -0.92917E+05         0.27269E+06         0.00000E+00
    0.27269E+06        -0.16658E+06         0.00000E+00
    0.00000E+00         0.00000E+00        -0.51899E+05
 
   -0.82671E+05         0.27393E+06         0.00000E+00
    0.27393E+06        -0.17116E+06         0.00000E+00
    0.00000E+00         0.00000E+00        -0.50765E+05
 
   -0.72425E+05         0.27505E+06         0.00000E+00
    0.27505E+06        -0.17573E+06         0.00000E+00
    0.00000E+00         0.00000E+00        -0.49630E+05
 
   -0.62175E+05         0.27608E+06         0.00000E+00
    0.27608E+06        -0.18029E+06         0.00000E+00
    0.00000E+00         0.00000E+00        -0.48493E+05
 
   -0.51915E+05         0.27701E+06         0.00000E+00
    0.27701E+06        -0.18485E+06         0.00000E+00
    0.00000E+00         0.00000E+00        -0.47353E+05
 
   -0.39648E+06         0.47409E+04         0.00000E+00
    0.47409E+04         0.78929E+02         0.00000E+00
    0.00000E+00         0.00000E+00        -0.79281E+05
 
   -0.39616E+06         0.14104E+05         0.00000E+00
    0.14104E+05        -0.18944E+03         0.00000E+00
    0.00000E+00         0.00000E+00        -0.79271E+05
 
   -0.39534E+06         0.23393E+05         0.00000E+00
    0.23393E+05        -0.71258E+03         0.00000E+00
    0.00000E+00         0.00000E+00        -0.79210E+05
 
   -0.39402E+06         0.32594E+05         0.00000E+00
    0.32594E+05        -0.14836E+04         0.00000E+00
    0.00000E+00         0.00000E+00        -0.79100E+05
 
   -0.39221E+06         0.41691E+05         0.00000E+00
    0.41691E+05        -0.24952E+04         0.00000E+00
    0.00000E+00         0.00000E+00        -0.78942E+05
 
   -0.38994E+06         0.50670E+05         0.00000E+00
    0.50670E+05        -0.37397E+04         0.00000E+00
    0.00000E+00         0.00000E+00        -0.78737E+05
 
   -0.38722E+06         0.59518E+05         0.00000E+00
    0.59518E+05        -0.52091E+04         0.00000E+00
    0.00000E+00         0.00000E+00        -0.78486E+05
 
   -0.38406E+06         0.68223E+05         0.00000E+00
    0.68223E+05        -0.68951E+04         0.00000E+00
    0.00000E+00         0.00000E+00        -0.78191E+05
 
   -0.38048E+06         0.76773E+05         0.00000E+00
    0.76773E+05        -0.87891E+04         0.00000E+00
    0.00000E+00         0.00000E+00        -0.77854E+05
 
   -0.37649E+06         0.85158E+05         0.00000E+00
    0.85158E+05        -0.10883E+05         0.00000E+00
    0.00000E+00         0.00000E+00        -0.77475E+05
 
   -0.37212E+06         0.93369E+05         0.00000E+00
    0.93369E+05        -0.13166E+05         0.00000E+00
    0.00000E+00         0.00000E+00        -0.77057E+05
 
   -0.36737E+06         0.10140E+06         0.00000E+00
    0.10140E+06        -0.15632E+05         0.00000E+00
    0.00000E+00         0.00000E+00        -0.76600E+05
 
   -0.36226E+06         0.10923E+06         0.00000E+00
    0.10923E+06        -0.18270E+05         0.00000E+00
    0.00000E+00         0.00000E+00        -0.76106E+05
 
   -0.35681E+06         0.11687E+06         0.00000E+00
    0.11687E+06        -0.21071E+05         0.00000E+00
    0.00000E+00         0.00000E+00        -0.75577E+05
 
   -0.35104E+06         0.12431E+06         0.00000E+00
    0.12431E+06        -0.24027E+05         0.00000E+00
    0.00000E+00         0.00000E+00        -0.75014E+05
 
   -0.34496E+06         0.13153E+06         0.00000E+00
    0.13153E+06        -0.27127E+05         0.00000E+00
    0.00000E+00         0.00000E+00        -0.74418E+05
 
   -0.33859E+06         0.13854E+06         0.00000E+00
    0.13854E+06        -0.30364E+05         0.00000E+00
    0.00000E+00         0.00000E+00        -0.73791E+05
 
   -0.33194E+06         0.14534E+06         0.00000E+00
    0.14534E+06        -0.33728E+05         0.00000E+00
    0.00000E+00         0.00000E+00        -0.73134E+05
 
   -0.32503E+06         0.15191E+06         0.00000E+00
    0.15191E+06        -0.37211E+05         0.00000E+00
    0.00000E+00         0.00000E+00        -0.72449E+05
 
   -0.31788E+06         0.15826E+06         0.00000E+00
    0.15826E+06        -0.40804E+05         0.00000E+00
    0.00000E+00         0.00000E+00        -0.71737E+05
 
   -0.31050E+06         0.16438E+06         0.00000E+00
    0.16438E+06        -0.44497E+05         0.00000E+00
    0.00000E+00         0.00000E+00        -0.70999E+05
 
   -0.30290E+06         0.17028E+06         0.00000E+00
    0.17028E+06        -0.48284E+05         0.00000E+00
    0.00000E+00         0.00000E+00        -0.70237E+05
 
   -0.29511E+06         0.17595E+06         0.00000E+00
    0.17595E+06        -0.52156E+05         0.00000E+00
    0.00000E+00         0.00000E+00        -0.69452E+05
 
   -0.28712E+06         0.18140E+06         0.00000E+00
    0.18140E+06        -0.56106E+05         0.00000E+00
    0.00000E+00         0.00000E+00        -0.68646E+05
 
   -0.27897E+06         0.18662E+06         0.00000E+00
    0.18662E+06        -0.60124E+05         0.00000E+00
    0.00000E+00         0.00000E+00        -0.67819E+05
 
   -0.27066E+06         0.19162E+06         0.00000E+00
    0.19162E+06        -0.64205E+05         0.00000E+00
    0.00000E+00         0.00000E+00        -0.66973E+05
 
   -0.26220E+06         0.19639E+06         0.00000E+00
    0.19639E+06        -0.68342E+05         0.00000E+00
    0.00000E+00         0.00000E+00        -0.66109E+05
 
   -0.25361E+06         0.20095E+06         0.00000E+00
    0.20095E+06        -0.72527E+05         0.00000E+00
    0.00000E+00         0.00000E+00        -0.65228E+05
 
   -0.24490E+06         0.20529E+06         0.00000E+00
    0.20529E+06        -0.76754E+05         0.00000E+00
    0.00000E+00         0.00000E+00        -0.64331E+05
 
   -0.23608E+06         0.20942E+06         0.00000E+00
    0.20942E+06        -0.81018E+05         0.00000E+00
    0.00000E+00         0.00000E+00        -0.63419E+05
 
   -0.22716E+06         0.21333E+06         0.00000E+00
    0.21333E+06        -0.85313E+05         0.00000E+00
    0.00000E+00         0.00000E+00        -0.62494E+05
 
   -0.21814E+06         0.21705E+06         0.00000E+00
    0.21705E+06        -0.89633E+05         0.00000E+00
    0.00000E+00         0.00000E+00        -0.61555E+05
 
   -0.20905E+06         0.22056E+06         0.00000E+00
    0.22056E+06        -0.93973E+05         0.00000E+00
    0.00000E+00         0.00000E+00        -0.60604E+05
 
   -0.19988E+06         0.22387E+06         0.00000E+00
    0.22387E+06        -0.98330E+05         0.00000E+00
    0.00000E+00         0.00000E+00        -0.59642E+05
 
   -0.19065E+06         0.22700E+06         0.00000E+00
    0.22700E+06        -0.10270E+06         0.00000E+00
    0.00000E+00         0.00000E+00        -0.58670E+05
 
   -0.18136E+06         0.22994E+06         0.00000E+00
    0.22994E+06        -0.10707E+06         0.00000E+00
    0.00000E+00         0.00000E+00        -0.57687E+05
 
   -0.17202E+06         0.23269E+06         0.00000E+00
    0.23269E+06        -0.11146E+06         0.00000E+00
    0.00000E+00         0.00000E+00        -0.56696E+05
 
   -0.16264E+06         0.23528E+06         0.00000E+00
    0.23528E+06        -0.11584E+06         0.00000E+00
    0.00000E+00         0.00000E+00        -0.55695E+05
 
   -0.15321E+06         0.23769E+06         0.00000E+00
    0.23769E+06        -0.12022E+06         0.00000E+00
    0.00000E+00         0.00000E+00        -0.54687E+05
 
   -0.14375E+06         0.23994E+06         0.00000E+00
    0.23994E+06        -0.12461E+06         0.00000E+00
    0.00000E+00         0.00000E+00        -0.53671E+05
 
   -0.13425E+06         0.24203E+06         0.00000E+00
    0.24203E+06        -0.12898E+06         0.00000E+00
    0.00000E+00         0.00000E+00        -0.52647E+05
 
   -0.12473E+06         0.24397E+06         0.00000E+00
    0.24397E+06        -0.13336E+06         0.00000E+00
    0.00000E+00         0.00000E+00        -0.51616E+05
 
   -0.11517E+06         0.24577E+06         0.00000E+00
    0.24577E+06        -0.13772E+06         0.00000E+00
    0.00000E+00         0.00000E+00        -0.50579E+05
 
   -0.10559E+06         0.24742E+06         0.00000E+00
    0.24742E+06        -0.14209E+06         0.00000E+00
    0.00000E+00         0.00000E+00        -0.49535E+05
 
   -0.95979E+05         0.24894E+06         0.00000E+00
    0.24894E+06        -0.14644E+06         0.00000E+00
    0.00000E+00         0.00000E+00        -0.48484E+05
 
   -0.86342E+05         0.25033E+06         0.00000E+00
    0.25033E+06        -0.15079E+06         0.00000E+00
    0.00000E+00         0.00000E+00        -0.47427E+05
 
   -0.76677E+05         0.25160E+06         0.00000E+00
    0.25160E+06        -0.15514E+06         0.00000E+00
    0.00000E+00         0.00000E+00        -0.46364E+05
 
   -0.66980E+05         0.25275E+06         0.00000E+00
    0.25275E+06        -0.15949E+06         0.00000E+00
    0.00000E+00         0.00000E+00        -0.45294E+05
 
   -0.57250E+05         0.25379E+06         0.00000E+00
    0.25379E+06        -0.16384E+06         0.00000E+00
    0.00000E+00         0.00000E+00        -0.44217E+05
 
   -0.47483E+05         0.25471E+06         0.00000E+00
    0.25471E+06        -0.16818E+06         0.00000E+00
    0.00000E+00         0.00000E+00        -0.43134E+05
 
   -0.35260E+06         0.41175E+04         0.00000E+00
    0.41175E+04         0.67308E+02         0.00000E+00
    0.00000E+00         0.00000E+00        -0.70506E+05
 
   -0.35253E+06         0.12291E+05         0.00000E+00
    0.12291E+05        -0.15871E+03         0.00000E+00
    0.00000E+00         0.00000E+00        -0.70538E+05
 
   -0.35203E+06         0.20420E+05         0.00000E+00
    0.20420E+05        -0.60153E+03         0.00000E+00
    0.00000E+00         0.00000E+00        -0.70527E+05
 
   -0.35111E+06         0.28490E+05         0.00000E+00
    0.28490E+05        -0.12563E+04         0.00000E+00
    0.00000E+00         0.00000E+00        -0.70474E+05
 
   -0.34978E+06         0.36488E+05         0.00000E+00
    0.36488E+05        -0.21177E+04         0.00000E+00
    0.00000E+00         0.00000E+00        -0.70379E+05
 
   -0.34804E+06         0.44401E+05         0.00000E+00
    0.44401E+05        -0.31802E+04         0.00000E+00
    0.00000E+00         0.00000E+00        -0.70244E+05
 
   -0.34591E+06         0.52220E+05         0.00000E+00
    0.52220E+05        -0.44377E+04         0.00000E+00
    0.00000E+00         0.00000E+00        -0.70070E+05
 
   -0.34340E+06         0.59931E+05         0.00000E+00
    0.59931E+05        -0.58841E+04         0.00000E+00
    0.00000E+00         0.00000E+00        -0.69857E+05
 
   -0.34052E+06         0.67526E+05         0.00000E+00
    0.67526E+05        -0.75129E+04         0.00000E+00
    0.00000E+00         0.00000E+00        -0.69607E+05
 
   -0.33728E+06         0.74994E+05         0.00000E+00
    0.74994E+05        -0.93174E+04         0.00000E+00
    0.00000E+00         0.00000E+00        -0.69320E+05
 
   -0.33370E+06         0.82328E+05         0.00000E+00
    0.82328E+05        -0.11291E+05         0.00000E+00
    0.00000E+00         0.00000E+00        -0.68998E+05
 
   -0.32978E+06         0.89518E+05         0.00000E+00
    0.89518E+05        -0.13426E+05         0.00000E+00
    0.00000E+00         0.00000E+00        -0.68641E+05
 
   -0.32554E+06         0.96558E+05         0.00000E+00
    0.96558E+05        -0.15715E+05         0.00000E+00
    0.00000E+00         0.00000E+00        -0.68251E+05
 
   -0.32099E+06         0.10344E+06         0.00000E+00
    0.10344E+06        -0.18153E+05         0.00000E+00
    0.00000E+00         0.00000E+00        -0.67829E+05
 
   -0.31615E+06         0.11016E+06         0.00000E+00
    0.11016E+06        -0.20730E+05         0.00000E+00
    0.00000E+00         0.00000E+00        -0.67376E+05
 
   -0.31103E+06         0.11671E+06         0.00000E+00
    0.11671E+06        -0.23440E+05         0.00000E+00
    0.00000E+00         0.00000E+00        -0.66893E+05
 
   -0.30563E+06         0.12308E+06         0.00000E+00
    0.12308E+06        -0.26276E+05         0.00000E+00
    0.00000E+00         0.00000E+00        -0.66381E+05
 
   -0.29998E+06         0.12928E+06         0.00000E+00
    0.12928E+06        -0.29231E+05         0.00000E+00
    0.00000E+00         0.00000E+00        -0.65841E+05
 
   -0.29408E+06         0.13530E+06         0.00000E+00
    0.13530E+06        -0.32297E+05         0.00000E+00
    0.00000E+00         0.00000E+00        -0.65275E+05
 
   -0.28795E+06         0.14113E+06         0.00000E+00
    0.14113E+06        -0.35467E+05         0.00000E+00
    0.00000E+00         0.00000E+00        -0.64682E+05
 
   -0.28159E+06         0.14678E+06         0.00000E+00
    0.14678E+06        -0.38734E+05         0.00000E+00
    0.00000E+00         0.00000E+00        -0.64066E+05
 
   -0.27503E+06         0.15224E+06         0.00000E+00
    0.15224E+06        -0.42091E+05         0.00000E+00
    0.00000E+00         0.00000E+00        -0.63425E+05
 
   -0.26828E+06         0.15750E+06         0.00000E+00
    0.15750E+06        -0.45532E+05         0.00000E+00
    0.00000E+00         0.00000E+00        -0.62762E+05
 
   -0.26133E+06         0.16258E+06         0.00000E+00
    0.16258E+06        -0.49050E+05         0.00000E+00
    0.00000E+00         0.00000E+00        -0.62077E+05
 
   -0.25422E+06         0.16747E+06         0.00000E+00
    0.16747E+06        -0.52639E+05         0.00000E+00
    0.00000E+00         0.00000E+00        -0.61371E+05
 
   -0.24694E+06         0.17216E+06         0.00000E+00
    0.17216E+06        -0.56292E+05         0.00000E+00
    0.00000E+00         0.00000E+00        -0.60646E+05
 
   -0.23950E+06         0.17667E+06         0.00000E+00
    0.17667E+06        -0.60004E+05         0.00000E+00
    0.00000E+00         0.00000E+00        -0.59902E+05
 
   -0.23193E+06         0.18098E+06         0.00000E+00
    0.18098E+06        -0.63769E+05         0.00000E+00
    0.00000E+00         0.00000E+00        -0.59139E+05
 
   -0.22422E+06         0.18511E+06         0.00000E+00
    0.18511E+06        -0.67582E+05         0.00000E+00
    0.00000E+00         0.00000E+00        -0.58360E+05
 
   -0.21639E+06         0.18905E+06         0.00000E+00
    0.18905E+06        -0.71437E+05         0.00000E+00
    0.00000E+00         0.00000E+00        -0.57564E+05
 
   -0.20844E+06         0.19281E+06         0.00000E+00
    0.19281E+06        -0.75329E+05         0.00000E+00
    0.00000E+00         0.00000E+00        -0.56753E+05
 
   -0.20038E+06         0.19639E+06         0.00000E+00
    0.19639E+06        -0.79254E+05         0.00000E+00
    0.00000E+00         0.00000E+00        -0.55927E+05
 
   -0.19223E+06         0.19978E+06         0.00000E+00
    0.19978E+06        -0.83208E+05         0.00000E+00
    0.00000E+00         0.00000E+00        -0.55087E+05
 
   -0.18398E+06         0.20301E+06         0.00000E+00
    0.20301E+06        -0.87187E+05         0.00000E+00
    0.00000E+00         0.00000E+00        -0.54233E+05
 
   -0.17565E+06         0.20605E+06         0.00000E+00
    0.20605E+06        -0.91186E+05         0.00000E+00
    0.00000E+00         0.00000E+00        -0.53366E+05
 
   -0.16723E+06         0.20893E+06         0.00000E+00
    0.20893E+06        -0.95203E+05         0.00000E+00
    0.00000E+00         0.00000E+00        -0.52487E+05
 
   -0.15875E+06         0.21165E+06         0.00000E+00
    0.21165E+06        -0.99235E+05         0.00000E+00
    0.00000E+00         0.00000E+00        -0.51596E+05
 
   -0.15019E+06         0.21420E+06         0.00000E+00
    0.21420E+06        -0.10328E+06         0.00000E+00
    0.00000E+00         0.00000E+00        -0.50694E+05
 
   -0.14157E+06         0.21659E+06         0.00000E+00
    0.21659E+06        -0.10733E+06         0.00000E+00
    0.00000E+00         0.00000E+00        -0.49781E+05
 
   -0.13289E+06         0.21883E+06         0.00000E+00
    0.21883E+06        -0.11139E+06         0.00000E+00
    0.00000E+00         0.00000E+00        -0.48857E+05
 
   -0.12416E+06         0.22092E+06         0.00000E+00
    0.22092E+06        -0.11546E+06         0.00000E+00
    0.00000E+00         0.00000E+00        -0.47923E+05
 
   -0.11536E+06         0.22286E+06         0.00000E+00
    0.22286E+06        -0.11953E+06         0.00000E+00
    0.00000E+00         0.00000E+00        -0.46979E+05
 
   -0.10652E+06         0.22466E+06         0.00000E+00
    0.22466E+06        -0.12361E+06         0.00000E+00
    0.00000E+00         0.00000E+00        -0.46025E+05
 
   -0.97624E+05         0.22632E+06         0.00000E+00
    0.22632E+06        -0.12769E+06         0.00000E+00
    0.00000E+00         0.00000E+00        -0.45062E+05
 
   -0.88679E+05         0.22784E+06         0.00000E+00
    0.22784E+06        -0.13177E+06         0.00000E+00
    0.00000E+00         0.00000E+00        -0.44089E+05
 
   -0.79683E+05         0.22923E+06         0.00000E+00
    0.22923E+06        -0.13585E+06         0.00000E+00
    0.00000E+00         0.00000E+00        -0.43107E+05
 
   -0.70637E+05         0.23050E+06         0.00000E+00
    0.23050E+06        -0.13994E+06         0.00000E+00
    0.00000E+00         0.00000E+00        -0.42115E+05
 
   -0.61541E+05         0.23163E+06         0.00000E+00
    0.23163E+06        -0.14403E+06         0.00000E+00
    0.00000E+00         0.00000E+00        -0.41114E+05
 
   -0.52391E+05         0.23265E+06         0.00000E+00
    0.23265E+06        -0.14813E+06         0.00000E+00
    0.00000E+00         0.00000E+00        -0.40104E+05
 
   -0.43187E+05         0.23355E+06         0.00000E+00
    0.23355E+06        -0.15223E+06         0.00000E+00
    0.00000E+00         0.00000E+00        -0.39084E+05
 
   -0.31425E+06         0.35940E+04         0.00000E+00
    0.35940E+04         0.57337E+02         0.00000E+00
    0.00000E+00         0.00000E+00        -0.62838E+05
 
   -0.31432E+06         0.10759E+05         0.00000E+00
    0.10759E+05        -0.13299E+03         0.00000E+00
    0.00000E+00         0.00000E+00        -0.62891E+05
 
   -0.31403E+06         0.17898E+05         0.00000E+00
    0.17898E+05        -0.50763E+03         0.00000E+00
    0.00000E+00         0.00000E+00        -0.62908E+05
 
   -0.31338E+06         0.24999E+05         0.00000E+00
    0.24999E+05        -0.10632E+04         0.00000E+00
    0.00000E+00         0.00000E+00        -0.62889E+05
 
   -0.31238E+06         0.32052E+05         0.00000E+00
    0.32052E+05        -0.17961E+04         0.00000E+00
    0.00000E+00         0.00000E+00        -0.62834E+05
 
   -0.31102E+06         0.39045E+05         0.00000E+00
    0.39045E+05        -0.27022E+04         0.00000E+00
    0.00000E+00         0.00000E+00        -0.62745E+05
 
   -0.30933E+06         0.45969E+05         0.00000E+00
    0.45969E+05        -0.37771E+04         0.00000E+00
    0.00000E+00         0.00000E+00        -0.62621E+05
 
   -0.30730E+06         0.52814E+05         0.00000E+00
    0.52814E+05        -0.50162E+04         0.00000E+00
    0.00000E+00         0.00000E+00        -0.62464E+05
 
   -0.30495E+06         0.59570E+05         0.00000E+00
    0.59570E+05        -0.64148E+04         0.00000E+00
    0.00000E+00         0.00000E+00        -0.62274E+05
 
   -0.30229E+06         0.66230E+05         0.00000E+00
    0.66230E+05        -0.79676E+04         0.00000E+00
    0.00000E+00         0.00000E+00        -0.62052E+05
 
   -0.29932E+06         0.72786E+05         0.00000E+00
    0.72786E+05        -0.96694E+04         0.00000E+00
    0.00000E+00         0.00000E+00        -0.61799E+05
 
   -0.29606E+06         0.79229E+05         0.00000E+00
    0.79229E+05        -0.11515E+05         0.00000E+00
    0.00000E+00         0.00000E+00        -0.61515E+05
 
   -0.29251E+06         0.85553E+05         0.00000E+00
    0.85553E+05        -0.13498E+05         0.00000E+00
    0.00000E+00         0.00000E+00        -0.61201E+05
 
   -0.28868E+06         0.91753E+05         0.00000E+00
    0.91753E+05        -0.15614E+05         0.00000E+00
    0.00000E+00         0.00000E+00        -0.60859E+05
 
   -0.28459E+06         0.97821E+05         0.00000E+00
    0.97821E+05        -0.17857E+05         0.00000E+00
    0.00000E+00         0.00000E+00        -0.60488E+05
 
   -0.28023E+06         0.10375E+06         0.00000E+00
    0.10375E+06        -0.20220E+05         0.00000E+00
    0.00000E+00         0.00000E+00        -0.60091E+05
 
   -0.27563E+06         0.10954E+06         0.00000E+00
    0.10954E+06        -0.22699E+05         0.00000E+00
    0.00000E+00         0.00000E+00        -0.59666E+05
 
   -0.27079E+06         0.11519E+06         0.00000E+00
    0.11519E+06        -0.25287E+05         0.00000E+00
    0.00000E+00         0.00000E+00        -0.59216E+05
 
   -0.26573E+06         0.12068E+06         0.00000E+00
    0.12068E+06        -0.27978E+05         0.00000E+00
    0.00000E+00         0.00000E+00        -0.58741E+05
 
   -0.26044E+06         0.12603E+06         0.00000E+00
    0.12603E+06        -0.30767E+05         0.00000E+00
    0.00000E+00         0.00000E+00        -0.58242E+05
 
   -0.25495E+06         0.13122E+06         0.00000E+00
    0.13122E+06        -0.33648E+05         0.00000E+00
    0.00000E+00         0.00000E+00        -0.57719E+05
 
   -0.24926E+06         0.13625E+06         0.00000E+00
    0.13625E+06        -0.36616E+05         0.00000E+00
    0.00000E+00         0.00000E+00        -0.57174E+05
 
   -0.24337E+06         0.14112E+06         0.00000E+00
    0.14112E+06        -0.39664E+05         0.00000E+00
    0.00000E+00         0.00000E+00        -0.56608E+05
 
   -0.23731E+06         0.14583E+06         0.00000E+00
    0.14583E+06        -0.42788E+05         0.00000E+00
    0.00000E+00         0.00000E+00        -0.56020E+05
 
   -0.23108E+06         0.15037E+06         0.00000E+00
    0.15037E+06        -0.45982E+05         0.00000E+00
    0.00000E+00         0.00000E+00        -0.55412E+05
 
   -0.22468E+06         0.15476E+06         0.00000E+00
    0.15476E+06        -0.49241E+05         0.00000E+00
    0.00000E+00         0.00000E+00        -0.54784E+05
 
   -0.21813E+06         0.15898E+06         0.00000E+00
    0.15898E+06        -0.52560E+05         0.00000E+00
    0.00000E+00         0.00000E+00        -0.54138E+05
 
   -0.21143E+06         0.16303E+06         0.00000E+00
    0.16303E+06        -0.55934E+05         0.00000E+00
    0.00000E+00         0.00000E+00        -0.53473E+05
 
   -0.20460E+06         0.16693E+06         0.00000E+00
    0.16693E+06        -0.59359E+05         0.00000E+00
    0.00000E+00         0.00000E+00        -0.52791E+05
 
   -0.19763E+06         0.17066E+06         0.00000E+00
    0.17066E+06        -0.62830E+05         0.00000E+00
    0.00000E+00         0.00000E+00        -0.52092E+05
 
   -0.19054E+06         0.17423E+06         0.00000E+00
    0.17423E+06        -0.66343E+05         0.00000E+00
    0.00000E+00         0.00000E+00        -0.51377E+05
 
   -0.18334E+06         0.17763E+06         0.00000E+00
    0.17763E+06        -0.69894E+05         0.00000E+00
    0.00000E+00         0.00000E+00        -0.50646E+05
 
   -0.17602E+06         0.18088E+06         0.00000E+00
    0.18088E+06        -0.73479E+05         0.00000E+00
    0.00000E+00         0.00000E+00        -0.49900E+05
 
   -0.16860E+06         0.18397E+06         0.00000E+00
    0.18397E+06        -0.77095E+05         0.00000E+00
    0.00000E+00         0.00000E+00        -0.49139E+05
 
   -0.16108E+06         0.18691E+06         0.00000E+00
    0.18691E+06        -0.80738E+05         0.00000E+00
    0.00000E+00         0.00000E+00        -0.48364E+05
 
   -0.15347E+06         0.18969E+06         0.00000E+00
    0.18969E+06        -0.84405E+05         0.00000E+00
    0.00000E+00         0.00000E+00        -0.47575E+05
 
   -0.14577E+06         0.19232E+06         0.00000E+00
    0.19232E+06        -0.88095E+05         0.00000E+00
    0.00000E+00         0.00000E+00        -0.46773E+05
 
   -0.13799E+06         0.19479E+06         0.00000E+00
    0.19479E+06        -0.91803E+05         0.00000E+00
    0.00000E+00         0.00000E+00        -0.45958E+05
 
   -0.13013E+06         0.19712E+06         0.00000E+00
    0.19712E+06        -0.95528E+05         0.00000E+00
    0.00000E+00         0.00000E+00        -0.45131E+05
 
   -0.12219E+06         0.19931E+06         0.00000E+00
    0.19931E+06        -0.99268E+05         0.00000E+00
    0.00000E+00         0.00000E+00        -0.44292E+05
 
   -0.11418E+06         0.20135E+06         0.00000E+00
    0.20135E+06        -0.10302E+06         0.00000E+00
    0.00000E+00         0.00000E+00        -0.43440E+05
 
   -0.10610E+06         0.20325E+06         0.00000E+00
    0.20325E+06        -0.10679E+06         0.00000E+00
    0.00000E+00         0.00000E+00        -0.42577E+05
 
   -0.97950E+05         0.20501E+06         0.00000E+00
    0.20501E+06        -0.11056E+06         0.00000E+00
    0.00000E+00         0.00000E+00        -0.41702E+05
 
   -0.89735E+05         0.20664E+06         0.00000E+00
    0.20664E+06        -0.11435E+06         0.00000E+00
    0.00000E+00         0.00000E+00        -0.40817E+05
 
   -0.81456E+05         0.20813E+06         0.00000E+00
    0.20813E+06        -0.11814E+06         0.00000E+00
    0.00000E+00         0.00000E+00        -0.39920E+05
 
   -0.73113E+05         0.20949E+06         0.00000E+00
    0.20949E+06        -0.12194E+06         0.00000E+00
    0.00000E+00         0.00000E+00        -0.39012E+05
 
   -0.64707E+05         0.21073E+06         0.00000E+00
    0.21073E+06        -0.12576E+06         0.00000E+00
    0.00000E+00         0.00000E+00        -0.38092E+05
 
   -0.56237E+05         0.21183E+06         0.00000E+00
    0.21183E+06        -0.12958E+06         0.00000E+00
    0.00000E+00         0.00000E+00        -0.37163E+05
 
   -0.47704E+05         0.21281E+06         0.00000E+00
    0.21281E+06        -0.13340E+06         0.00000E+00
    0.00000E+00         0.00000E+00        -0.36222E+05
 
   -0.39106E+05         0.21366E+06         0.00000E+00
    0.21366E+06        -0.13724E+06         0.00000E+00
    0.00000E+00         0.00000E+00        -0.35270E+05
 
   -0.28059E+06         0.31540E+04         0.00000E+00
    0.31540E+04         0.48862E+02         0.00000E+00
    0.00000E+00         0.00000E+00        -0.56108E+05
 
   -0.28073E+06         0.94629E+04         0.00000E+00
    0.94629E+04        -0.11163E+03         0.00000E+00
    0.00000E+00         0.00000E+00        -0.56169E+05
 
   -0.28056E+06         0.15759E+05         0.00000E+00
    0.15759E+05        -0.42891E+03         0.00000E+00
    0.00000E+00         0.00000E+00        -0.56199E+05
 
   -0.28009E+06         0.22032E+05         0.00000E+00
    0.22032E+05        -0.90074E+03         0.00000E+00
    0.00000E+00         0.00000E+00        -0.56198E+05
 
   -0.27931E+06         0.28272E+05         0.00000E+00
    0.28272E+05        -0.15246E+04         0.00000E+00
    0.00000E+00         0.00000E+00        -0.56166E+05
 
   -0.27823E+06         0.34471E+05         0.00000E+00
    0.34471E+05        -0.22975E+04         0.00000E+00
    0.00000E+00         0.00000E+00        -0.56105E+05
 
   -0.27685E+06         0.40619E+05         0.00000E+00
    0.40619E+05        -0.32165E+04         0.00000E+00
    0.00000E+00         0.00000E+00        -0.56014E+05
 
   -0.27519E+06         0.46709E+05         0.00000E+00
    0.46709E+05        -0.42781E+04         0.00000E+00
    0.00000E+00         0.00000E+00        -0.55894E+05
 
   -0.27325E+06         0.52732E+05         0.00000E+00
    0.52732E+05        -0.54788E+04         0.00000E+00
    0.00000E+00         0.00000E+00        -0.55746E+05
 
   -0.27103E+06         0.58681E+05         0.00000E+00
    0.58681E+05        -0.68147E+04         0.00000E+00
    0.00000E+00         0.00000E+00        -0.55569E+05
 
   -0.26854E+06         0.64549E+05         0.00000E+00
    0.64549E+05        -0.82818E+04         0.00000E+00
    0.00000E+00         0.00000E+00        -0.55365E+05
 
   -0.26579E+06         0.70328E+05         0.00000E+00
    0.70328E+05        -0.98760E+04         0.00000E+00
    0.00000E+00         0.00000E+00        -0.55134E+05
 
   -0.26279E+06         0.76014E+05         0.00000E+00
    0.76014E+05        -0.11593E+05         0.00000E+00
    0.00000E+00         0.00000E+00        -0.54876E+05
 
   -0.25954E+06         0.81599E+05         0.00000E+00
    0.81599E+05        -0.13429E+05         0.00000E+00
    0.00000E+00         0.00000E+00        -0.54593E+05
 
   -0.25604E+06         0.87079E+05         0.00000E+00
    0.87079E+05        -0.15378E+05         0.00000E+00
    0.00000E+00         0.00000E+00        -0.54284E+05
 
   -0.25232E+06         0.92448E+05         0.00000E+00
    0.92448E+05        -0.17437E+05         0.00000E+00
    0.00000E+00         0.00000E+00        -0.53951E+05
 
   -0.24837E+06         0.97703E+05         0.00000E+00
    0.97703E+05        -0.19600E+05         0.00000E+00
    0.00000E+00         0.00000E+00        -0.53593E+05
 
   -0.24420E+06         0.10284E+06         0.00000E+00
    0.10284E+06        -0.21864E+05         0.00000E+00
    0.00000E+00         0.00000E+00        -0.53212E+05
 
   -0.23982E+06         0.10785E+06         0.00000E+00
    0.10785E+06        -0.24223E+05         0.00000E+00
    0.00000E+00         0.00000E+00        -0.52809E+05
 
   -0.23524E+06         0.11273E+06         0.00000E+00
    0.11273E+06        -0.26673E+05         0.00000E+00
    0.00000E+00         0.00000E+00        -0.52382E+05
 
   -0.23046E+06         0.11749E+06         0.00000E+00
    0.11749E+06        -0.29209E+05         0.00000E+00
    0.00000E+00         0.00000E+00        -0.51935E+05
 
   -0.22550E+06         0.12211E+06         0.00000E+00
    0.12211E+06        -0.31827E+05         0.00000E+00
    0.00000E+00         0.00000E+00        -0.51466E+05
 
   -0.22036E+06         0.12660E+06         0.00000E+00
    0.12660E+06        -0.34522E+05         0.00000E+00
    0.00000E+00         0.00000E+00        -0.50976E+05
 
   -0.21504E+06         0.13095E+06         0.00000E+00
    0.13095E+06        -0.37290E+05         0.00000E+00
    0.00000E+00         0.00000E+00        -0.50467E+05
 
   -0.20956E+06         0.13516E+06         0.00000E+00
    0.13516E+06        -0.40126E+05         0.00000E+00
    0.00000E+00         0.00000E+00        -0.49938E+05
 
   -0.20392E+06         0.13923E+06         0.00000E+00
    0.13923E+06        -0.43026E+05         0.00000E+00
    0.00000E+00         0.00000E+00        -0.49390E+05
 
   -0.19813E+06         0.14316E+06         0.00000E+00
    0.14316E+06        -0.45986E+05         0.00000E+00
    0.00000E+00         0.00000E+00        -0.48824E+05
 
   -0.19220E+06         0.14695E+06         0.00000E+00
    0.14695E+06        -0.49001E+05         0.00000E+00
    0.00000E+00         0.00000E+00        -0.48240E+05
 
   -0.18613E+06         0.15060E+06         0.00000E+00
    0.15060E+06        -0.52068E+05         0.00000E+00
    0.00000E+00         0.00000E+00        -0.47639E+05
 
   -0.17992E+06         0.15410E+06         0.00000E+00
    0.15410E+06        -0.55184E+05         0.00000E+00
    0.00000E+00         0.00000E+00        -0.47022E+05
 
   -0.17359E+06         0.15746E+06         0.00000E+00
    0.15746E+06        -0.58344E+05         0.00000E+00
    0.00000E+00         0.00000E+00        -0.46388E+05
 
   -0.16714E+06         0.16068E+06         0.00000E+00
    0.16068E+06        -0.61545E+05         0.00000E+00
    0.00000E+00         0.00000E+00        -0.45738E+05
 
   -0.16058E+06         0.16376E+06         0.00000E+00
    0.16376E+06        -0.64783E+05         0.00000E+00
    0.00000E+00         0.00000E+00        -0.45073E+05
 
   -0.15391E+06         0.16669E+06         0.00000E+00
    0.16669E+06        -0.68057E+05         0.00000E+00
    0.00000E+00         0.00000E+00        -0.44392E+05
 
   -0.14713E+06         0.16948E+06         0.00000E+00
    0.16948E+06        -0.71361E+05         0.00000E+00
    0.00000E+00         0.00000E+00        -0.43698E+05
 
   -0.14025E+06         0.17213E+06         0.00000E+00
    0.17213E+06        -0.74695E+05         0.00000E+00
    0.00000E+00         0.00000E+00        -0.42989E+05
 
   -0.13327E+06         0.17465E+06         0.00000E+00
    0.17465E+06        -0.78056E+05         0.00000E+00
    0.00000E+00         0.00000E+00        -0.42266E+05
 
   -0.12621E+06         0.17702E+06         0.00000E+00
    0.17702E+06        -0.81440E+05         0.00000E+00
    0.00000E+00         0.00000E+00        -0.41530E+05
 
   -0.11905E+06         0.17926E+06         0.00000E+00
    0.17926E+06        -0.84846E+05         0.00000E+00
    0.00000E+00         0.00000E+00        -0.40780E+05
 
   -0.11182E+06         0.18136E+06         0.00000E+00
    0.18136E+06        -0.88272E+05         0.00000E+00
    0.00000E+00         0.00000E+00        -0.40018E+05
 
   -0.10450E+06         0.18333E+06         0.00000E+00
    0.18333E+06        -0.91717E+05         0.00000E+00
    0.00000E+00         0.00000E+00        -0.39243E+05
 
   -0.97098E+05         0.18516E+06         0.00000E+00
    0.18516E+06        -0.95178E+05         0.00000E+00
    0.00000E+00         0.00000E+00        -0.38455E+05
 
   -0.89622E+05         0.18686E+06         0.00000E+00
    0.18686E+06        -0.98654E+05         0.00000E+00
    0.00000E+00         0.00000E+00        -0.37655E+05
 
   -0.82073E+05         0.18842E+06         0.00000E+00
    0.18842E+06        -0.10214E+06         0.00000E+00
    0.00000E+00         0.00000E+00        -0.36844E+05
 
   -0.74450E+05         0.18986E+06         0.00000E+00
    0.18986E+06        -0.10565E+06         0.00000E+00
    0.00000E+00         0.00000E+00        -0.36020E+05
 
   -0.66756E+05         0.19117E+06         0.00000E+00
    0.19117E+06        -0.10916E+06         0.00000E+00
    0.00000E+00         0.00000E+00        -0.35184E+05
 
   -0.58992E+05         0.19235E+06         0.00000E+00
    0.19235E+06        -0.11269E+06         0.00000E+00
    0.00000E+00         0.00000E+00        -0.34337E+05
 
   -0.51159E+05         0.19340E+06         0.00000E+00
    0.19340E+06        -0.11623E+06         0.00000E+00
    0.00000E+00         0.00000E+00        -0.33478E+05
 
   -0.43256E+05         0.19433E+06         0.00000E+00
    0.19433E+06        -0.11978E+06         0.00000E+00
    0.00000E+00         0.00000E+00        -0.32608E+05
 
   -0.35285E+05         0.19513E+06         0.00000E+00
    0.19513E+06        -0.12334E+06         0.00000E+00
    0.00000E+00         0.00000E+00        -0.31726E+05
 
   -0.25090E+06         0.27834E+04         0.00000E+00
    0.27834E+04         0.41707E+02         0.00000E+00
    0.00000E+00         0.00000E+00        -0.50172E+05
 
   -0.25106E+06         0.83649E+04         0.00000E+00
    0.83649E+04        -0.93994E+02         0.00000E+00
    0.00000E+00         0.00000E+00        -0.50232E+05
 
   -0.25096E+06         0.13942E+05         0.00000E+00
    0.13942E+05        -0.36329E+03         0.00000E+00
    0.00000E+00         0.00000E+00        -0.50265E+05
 
   -0.25060E+06         0.19505E+05         0.00000E+00
    0.19505E+05        -0.76477E+03         0.00000E+00
    0.00000E+00         0.00000E+00        -0.50273E+05
 
   -0.24997E+06         0.25047E+05         0.00000E+00
    0.25047E+05        -0.12967E+04         0.00000E+00
    0.00000E+00         0.00000E+00        -0.50254E+05
 
   -0.24909E+06         0.30560E+05         0.00000E+00
    0.30560E+05        -0.19572E+04         0.00000E+00
    0.00000E+00         0.00000E+00        -0.50209E+05
 
   -0.24795E+06         0.36037E+05         0.00000E+00
    0.36037E+05        -0.27439E+04         0.00000E+00
    0.00000E+00         0.00000E+00        -0.50139E+05
 
   -0.24656E+06         0.41470E+05         0.00000E+00
    0.41470E+05        -0.36545E+04         0.00000E+00
    0.00000E+00         0.00000E+00        -0.50043E+05
 
   -0.24493E+06         0.46852E+05         0.00000E+00
    0.46852E+05        -0.46863E+04         0.00000E+00
    0.00000E+00         0.00000E+00        -0.49923E+05
 
   -0.24305E+06         0.52176E+05         0.00000E+00
    0.52176E+05        -0.58365E+04         0.00000E+00
    0.00000E+00         0.00000E+00        -0.49778E+05
 
   -0.24094E+06         0.57438E+05         0.00000E+00
    0.57438E+05        -0.71022E+04         0.00000E+00
    0.00000E+00         0.00000E+00        -0.49609E+05
 
   -0.23860E+06         0.62629E+05         0.00000E+00
    0.62629E+05        -0.84801E+04         0.00000E+00
    0.00000E+00         0.00000E+00        -0.49416E+05
 
   -0.23603E+06         0.67746E+05         0.00000E+00
    0.67746E+05        -0.99669E+04         0.00000E+00
    0.00000E+00         0.00000E+00        -0.49200E+05
 
   -0.23324E+06         0.72782E+05         0.00000E+00
    0.72782E+05        -0.11559E+05         0.00000E+00
    0.00000E+00         0.00000E+00        -0.48960E+05
 
   -0.23024E+06         0.77732E+05         0.00000E+00
    0.77732E+05        -0.13254E+05         0.00000E+00
    0.00000E+00         0.00000E+00        -0.48698E+05
 
   -0.22702E+06         0.82592E+05         0.00000E+00
    0.82592E+05        -0.15047E+05         0.00000E+00
    0.00000E+00         0.00000E+00        -0.48414E+05
 
   -0.22361E+06         0.87358E+05         0.00000E+00
    0.87358E+05        -0.16935E+05         0.00000E+00
    0.00000E+00         0.00000E+00        -0.48108E+05
 
   -0.21999E+06         0.92025E+05         0.00000E+00
    0.92025E+05        -0.18915E+05         0.00000E+00
    0.00000E+00         0.00000E+00        -0.47781E+05
 
   -0.21618E+06         0.96589E+05         0.00000E+00
    0.96589E+05        -0.20982E+05         0.00000E+00
    0.00000E+00         0.00000E+00        -0.47433E+05
 
   -0.21219E+06         0.10105E+06         0.00000E+00
    0.10105E+06        -0.23132E+05         0.00000E+00
    0.00000E+00         0.00000E+00        -0.47065E+05
 
   -0.20802E+06         0.10540E+06         0.00000E+00
    0.10540E+06        -0.25363E+05         0.00000E+00
    0.00000E+00         0.00000E+00        -0.46676E+05
 
   -0.20367E+06         0.10963E+06         0.00000E+00
    0.10963E+06        -0.27670E+05         0.00000E+00
    0.00000E+00         0.00000E+00        -0.46268E+05
 
   -0.19916E+06         0.11376E+06         0.00000E+00
    0.11376E+06        -0.30050E+05         0.00000E+00
    0.00000E+00         0.00000E+00        -0.45841E+05
 
   -0.19448E+06         0.11776E+06         0.00000E+00
    0.11776E+06        -0.32499E+05         0.00000E+00
    0.00000E+00         0.00000E+00        -0.45396E+05
 
   -0.18965E+06         0.12165E+06         0.00000E+00
    0.12165E+06        -0.35013E+05         0.00000E+00
    0.00000E+00         0.00000E+00        -0.44932E+05
 
   -0.18466E+06         0.12542E+06         0.00000E+00
    0.12542E+06        -0.37589E+05         0.00000E+00
    0.00000E+00         0.00000E+00        -0.44450E+05
 
   -0.17953E+06         0.12906E+06         0.00000E+00
    0.12906E+06        -0.40224E+05         0.00000E+00
    0.00000E+00         0.00000E+00        -0.43951E+05
 
   -0.17426E+06         0.13258E+06         0.00000E+00
    0.13258E+06        -0.42913E+05         0.00000E+00
    0.00000E+00         0.00000E+00        -0.43436E+05
 
   -0.16886E+06         0.13598E+06         0.00000E+00
    0.13598E+06        -0.45654E+05         0.00000E+00
    0.00000E+00         0.00000E+00        -0.42903E+05
 
   -0.16333E+06         0.13925E+06         0.00000E+00
    0.13925E+06        -0.48444E+05         0.00000E+00
    0.00000E+00         0.00000E+00        -0.42354E+05
 
   -0.15767E+06         0.14239E+06         0.00000E+00
    0.14239E+06        -0.51279E+05         0.00000E+00
    0.00000E+00         0.00000E+00        -0.41790E+05
 
   -0.15189E+06         0.14541E+06         0.00000E+00
    0.14541E+06        -0.54156E+05         0.00000E+00
    0.00000E+00         0.00000E+00        -0.41210E+05
 
   -0.14600E+06         0.14829E+06         0.00000E+00
    0.14829E+06        -0.57073E+05         0.00000E+00
    0.00000E+00         0.00000E+00        -0.40615E+05
 
   -0.14000E+06         0.15106E+06         0.00000E+00
    0.15106E+06        -0.60026E+05         0.00000E+00
    0.00000E+00         0.00000E+00        -0.40006E+05
 
   -0.13389E+06         0.15369E+06         0.00000E+00
    0.15369E+06        -0.63014E+05         0.00000E+00
    0.00000E+00         0.00000E+00        -0.39382E+05
 
   -0.12768E+06         0.15619E+06         0.00000E+00
    0.15619E+06        -0.66033E+05         0.00000E+00
    0.00000E+00         0.00000E+00        -0.38744E+05
 
   -0.12138E+06         0.15857E+06         0.00000E+00
    0.15857E+06        -0.69082E+05         0.00000E+00
    0.00000E+00         0.00000E+00        -0.38092E+05
 
   -0.11497E+06         0.16082E+06         0.00000E+00
    0.16082E+06        -0.72158E+05         0.00000E+00
    0.00000E+00         0.00000E+00        -0.37426E+05
 
   -0.10848E+06         0.16295E+06         0.00000E+00
    0.16295E+06        -0.75259E+05         0.00000E+00
    0.00000E+00         0.00000E+00        -0.36748E+05
 
   -0.10190E+06         0.16494E+06         0.00000E+00
    0.16494E+06        -0.78383E+05         0.00000E+00
    0.00000E+00         0.00000E+00        -0.36056E+05
 
   -0.95230E+05         0.16681E+06         0.00000E+00
    0.16681E+06        -0.81528E+05         0.00000E+00
    0.00000E+00         0.00000E+00        -0.35352E+05
 
   -0.88479E+05         0.16856E+06         0.00000E+00
    0.16856E+06        -0.84694E+05         0.00000E+00
    0.00000E+00         0.00000E+00        -0.34635E+05
 
   -0.81649E+05         0.17017E+06         0.00000E+00
    0.17017E+06        -0.87877E+05         0.00000E+00
    0.00000E+00         0.00000E+00        -0.33905E+05
 
   -0.74740E+05         0.17166E+06         0.00000E+00
    0.17166E+06        -0.91078E+05         0.00000E+00
    0.00000E+00         0.00000E+00        -0.33164E+05
 
   -0.67755E+05         0.17303E+06         0.00000E+00
    0.17303E+06        -0.94295E+05         0.00000E+00
    0.00000E+00         0.00000E+00        -0.32410E+05
 
   -0.60697E+05         0.17427E+06         0.00000E+00
    0.17427E+06        -0.97527E+05         0.00000E+00
    0.00000E+00         0.00000E+00        -0.31645E+05
 
   -0.53565E+05         0.17539E+06         0.00000E+00
    0.17539E+06        -0.10077E+06         0.00000E+00
    0.00000E+00         0.00000E+00        -0.30867E+05
 
   -0.46362E+05         0.17638E+06         0.00000E+00
    0.17638E+06        -0.10403E+06         0.00000E+00
    0.00000E+00         0.00000E+00        -0.30079E+05
 
   -0.39089E+05         0.17725E+06         0.00000E+00
    0.17725E+06        -0.10730E+06         0.00000E+00
    0.00000E+00         0.00000E+00        -0.29278E+05
 
   -0.31746E+05         0.17799E+06         0.00000E+00
    0.17799E+06        -0.11059E+06         0.00000E+00
    0.00000E+00         0.00000E+00        -0.28466E+05
 
   -0.22459E+06         0.24701E+04         0.00000E+00
    0.24701E+04         0.35689E+02         0.00000E+00
    0.00000E+00         0.00000E+00        -0.44910E+05
 
   -0.22474E+06         0.74321E+04         0.00000E+00
    0.74321E+04        -0.79472E+02         0.00000E+00
    0.00000E+00         0.00000E+00        -0.44964E+05
 
   -0.22467E+06         0.12394E+05         0.00000E+00
    0.12394E+05        -0.30879E+03         0.00000E+00
    0.00000E+00         0.00000E+00        -0.44996E+05
 
   -0.22437E+06         0.17349E+05         0.00000E+00
    0.17349E+05        -0.65140E+03         0.00000E+00
    0.00000E+00         0.00000E+00        -0.45005E+05
 
   -0.22385E+06         0.22291E+05         0.00000E+00
    0.22291E+05        -0.11062E+04         0.00000E+00
    0.00000E+00         0.00000E+00        -0.44992E+05
 
   -0.22311E+06         0.27211E+05         0.00000E+00
    0.27211E+05        -0.16719E+04         0.00000E+00
    0.00000E+00         0.00000E+00        -0.44956E+05
 
   -0.22215E+06         0.32105E+05         0.00000E+00
    0.32105E+05        -0.23469E+04         0.00000E+00
    0.00000E+00         0.00000E+00        -0.44898E+05
 
   -0.22096E+06         0.36967E+05         0.00000E+00
    0.36967E+05        -0.31296E+04         0.00000E+00
    0.00000E+00         0.00000E+00        -0.44819E+05
 
   -0.21957E+06         0.41789E+05         0.00000E+00
    0.41789E+05        -0.40180E+04         0.00000E+00
    0.00000E+00         0.00000E+00        -0.44717E+05
 
   -0.21796E+06         0.46566E+05         0.00000E+00
    0.46566E+05        -0.50100E+04         0.00000E+00
    0.00000E+00         0.00000E+00        -0.44595E+05
 
   -0.21615E+06         0.51293E+05         0.00000E+00
    0.51293E+05        -0.61034E+04         0.00000E+00
    0.00000E+00         0.00000E+00        -0.44451E+05
 
   -0.21413E+06         0.55964E+05         0.00000E+00
    0.55964E+05        -0.72959E+04         0.00000E+00
    0.00000E+00         0.00000E+00        -0.44286E+05
 
   -0.21191E+06         0.60575E+05         0.00000E+00
    0.60575E+05        -0.85850E+04         0.00000E+00
    0.00000E+00         0.00000E+00        -0.44100E+05
 
   -0.20950E+06         0.65120E+05         0.00000E+00
    0.65120E+05        -0.99681E+04         0.00000E+00
    0.00000E+00         0.00000E+00        -0.43894E+05
 
   -0.20690E+06         0.69596E+05         0.00000E+00
    0.69596E+05        -0.11442E+05         0.00000E+00
    0.00000E+00         0.00000E+00        -0.43668E+05
 
   -0.20410E+06         0.73997E+05         0.00000E+00
    0.73997E+05        -0.13005E+05         0.00000E+00
    0.00000E+00         0.00000E+00        -0.43422E+05
 
   -0.20113E+06         0.78319E+05         0.00000E+00
    0.78319E+05        -0.14654E+05         0.00000E+00
    0.00000E+00         0.00000E+00        -0.43156E+05
 
   -0.19797E+06         0.82560E+05         0.00000E+00
    0.82560E+05        -0.16385E+05         0.00000E+00
    0.00000E+00         0.00000E+00        -0.42871E+05
 
   -0.19464E+06         0.86714E+05         0.00000E+00
    0.86714E+05        -0.18196E+05         0.00000E+00
    0.00000E+00         0.00000E+00        -0.42568E+05
 
   -0.19115E+06         0.90779E+05         0.00000E+00
    0.90779E+05        -0.20084E+05         0.00000E+00
    0.00000E+00         0.00000E+00        -0.42246E+05
 
   -0.18748E+06         0.94752E+05         0.00000E+00
    0.94752E+05        -0.22046E+05         0.00000E+00
    0.00000E+00         0.00000E+00        -0.41906E+05
 
   -0.18366E+06         0.98630E+05         0.00000E+00
    0.98630E+05        -0.24078E+05         0.00000E+00
    0.00000E+00         0.00000E+00        -0.41548E+05
 
   -0.17968E+06         0.10241E+06         0.00000E+00
    0.10241E+06        -0.26178E+05         0.00000E+00
    0.00000E+00         0.00000E+00        -0.41172E+05
 
   -0.17555E+06         0.10609E+06         0.00000E+00
    0.10609E+06        -0.28343E+05         0.00000E+00
    0.00000E+00         0.00000E+00        -0.40779E+05
 
   -0.17128E+06         0.10967E+06         0.00000E+00
    0.10967E+06        -0.30570E+05         0.00000E+00
    0.00000E+00         0.00000E+00        -0.40369E+05
 
   -0.16686E+06         0.11314E+06         0.00000E+00
    0.11314E+06        -0.32856E+05         0.00000E+00
    0.00000E+00         0.00000E+00        -0.39943E+05
 
   -0.16231E+06         0.11650E+06         0.00000E+00
    0.11650E+06        -0.35198E+05         0.00000E+00
    0.00000E+00         0.00000E+00        -0.39501E+05
 
   -0.15762E+06         0.11976E+06         0.00000E+00
    0.11976E+06        -0.37593E+05         0.00000E+00
    0.00000E+00         0.00000E+00        -0.39042E+05
 
   -0.15280E+06         0.12291E+06         0.00000E+00
    0.12291E+06        -0.40039E+05         0.00000E+00
    0.00000E+00         0.00000E+00        -0.38569E+05
 
   -0.14786E+06         0.12594E+06         0.00000E+00
    0.12594E+06        -0.42532E+05         0.00000E+00
    0.00000E+00         0.00000E+00        -0.38079E+05
 
   -0.14281E+06         0.12887E+06         0.00000E+00
    0.12887E+06        -0.45070E+05         0.00000E+00
    0.00000E+00         0.00000E+00        -0.37575E+05
 
   -0.13763E+06         0.13168E+06         0.00000E+00
    0.13168E+06        -0.47650E+05         0.00000E+00
    0.00000E+00         0.00000E+00        -0.37056E+05
 
   -0.13235E+06         0.13437E+06         0.00000E+00
    0.13437E+06        -0.50270E+05         0.00000E+00
    0.00000E+00         0.00000E+00        -0.36523E+05
 
   -0.12695E+06         0.13696E+06         0.00000E+00
    0.13696E+06        -0.52928E+05         0.00000E+00
    0.00000E+00         0.00000E+00        -0.35976E+05
 
   -0.12145E+06         0.13942E+06         0.00000E+00
    0.13942E+06        -0.55621E+05         0.00000E+00
    0.00000E+00         0.00000E+00        -0.35415E+05
 
   -0.11585E+06         0.14177E+06         0.00000E+00
    0.14177E+06        -0.58346E+05         0.00000E+00
    0.00000E+00         0.00000E+00        -0.34840E+05
 
   -0.11016E+06         0.14400E+06         0.00000E+00
    0.14400E+06        -0.61103E+05         0.00000E+00
    0.00000E+00         0.00000E+00        -0.34252E+05
 
   -0.10437E+06         0.14612E+06         0.00000E+00
    0.14612E+06        -0.63888E+05         0.00000E+00
    0.00000E+00         0.00000E+00        -0.33651E+05
 
   -0.98484E+05         0.14811E+06         0.00000E+00
    0.14811E+06        -0.66700E+05         0.00000E+00
    0.00000E+00         0.00000E+00        -0.33037E+05
 
   -0.92514E+05         0.14999E+06         0.00000E+00
    0.14999E+06        -0.69538E+05         0.00000E+00
    0.00000E+00         0.00000E+00        -0.32410E+05
 
   -0.86458E+05         0.15175E+06         0.00000E+00
    0.15175E+06        -0.72398E+05         0.00000E+00
    0.00000E+00         0.00000E+00        -0.31771E+05
 
   -0.80320E+05         0.15340E+06         0.00000E+00
    0.15340E+06        -0.75280E+05         0.00000E+00
    0.00000E+00         0.00000E+00        -0.31120E+05
 
   -0.74101E+05         0.15492E+06         0.00000E+00
    0.15492E+06        -0.78182E+05         0.00000E+00
    0.00000E+00         0.00000E+00        -0.30457E+05
 
   -0.67804E+05         0.15633E+06         0.00000E+00
    0.15633E+06        -0.81103E+05         0.00000E+00
    0.00000E+00         0.00000E+00        -0.29781E+05
 
   -0.61432E+05         0.15761E+06         0.00000E+00
    0.15761E+06        -0.84041E+05         0.00000E+00
    0.00000E+00         0.00000E+00        -0.29095E+05
 
   -0.54985E+05         0.15878E+06         0.00000E+00
    0.15878E+06        -0.86996E+05         0.00000E+00
    0.00000E+00         0.00000E+00        -0.28396E+05
 
   -0.48466E+05         0.15982E+06         0.00000E+00
    0.15982E+06        -0.89965E+05         0.00000E+00
    0.00000E+00         0.00000E+00        -0.27686E+05
 
   -0.41877E+05         0.16075E+06         0.00000E+00
    0.16075E+06        -0.92948E+05         0.00000E+00
    0.00000E+00         0.00000E+00        -0.26965E+05
 
   -0.35219E+05         0.16155E+06         0.00000E+00
    0.16155E+06        -0.95945E+05         0.00000E+00
    0.00000E+00         0.00000E+00        -0.26233E+05
 
   -0.28494E+05         0.16224E+06         0.00000E+00
    0.16224E+06        -0.98953E+05         0.00000E+00
    0.00000E+00         0.00000E+00        -0.25489E+05
 
   -0.20115E+06         0.22041E+04         0.00000E+00
    0.22041E+04         0.30636E+02         0.00000E+00
    0.00000E+00         0.00000E+00        -0.40223E+05
 
   -0.20128E+06         0.66367E+04         0.00000E+00
    0.66367E+04        -0.67524E+02         0.00000E+00
    0.00000E+00         0.00000E+00        -0.40269E+05
 
   -0.20122E+06         0.11072E+05         0.00000E+00
    0.11072E+05        -0.26355E+03         0.00000E+00
    0.00000E+00         0.00000E+00        -0.40296E+05
 
   -0.20096E+06         0.15504E+05         0.00000E+00
    0.15504E+05        -0.55697E+03         0.00000E+00
    0.00000E+00         0.00000E+00        -0.40303E+05
 
   -0.20051E+06         0.19927E+05         0.00000E+00
    0.19927E+05        -0.94712E+03         0.00000E+00
    0.00000E+00         0.00000E+00        -0.40291E+05
 
   -0.19987E+06         0.24336E+05         0.00000E+00
    0.24336E+05        -0.14331E+04         0.00000E+00
    0.00000E+00         0.00000E+00        -0.40260E+05
 
   -0.19903E+06         0.28724E+05         0.00000E+00
    0.28724E+05        -0.20140E+04         0.00000E+00
    0.00000E+00         0.00000E+00        -0.40210E+05
 
   -0.19801E+06         0.33087E+05         0.00000E+00
    0.33087E+05        -0.26885E+04         0.00000E+00
    0.00000E+00         0.00000E+00        -0.40140E+05
 
   -0.19680E+06         0.37420E+05         0.00000E+00
    0.37420E+05        -0.34552E+04         0.00000E+00
    0.00000E+00         0.00000E+00        -0.40052E+05
 
   -0.19541E+06         0.41717E+05         0.00000E+00
    0.41717E+05        -0.43127E+04         0.00000E+00
    0.00000E+00         0.00000E+00        -0.39945E+05
 
   -0.19383E+06         0.45974E+05         0.00000E+00
    0.45974E+05        -0.52593E+04         0.00000E+00
    0.00000E+00         0.00000E+00        -0.39819E+05
 
   -0.19208E+06         0.50186E+05         0.00000E+00
    0.50186E+05        -0.62933E+04         0.00000E+00
    0.00000E+00         0.00000E+00        -0.39675E+05
 
   -0.19015E+06         0.54348E+05         0.00000E+00
    0.54348E+05        -0.74128E+04         0.00000E+00
    0.00000E+00         0.00000E+00        -0.39512E+05
 
   -0.18804E+06         0.58456E+05         0.00000E+00
    0.58456E+05        -0.86157E+04         0.00000E+00
    0.00000E+00         0.00000E+00        -0.39332E+05
 
   -0.18577E+06         0.62506E+05         0.00000E+00
    0.62506E+05        -0.99000E+04         0.00000E+00
    0.00000E+00         0.00000E+00        -0.39133E+05
 
   -0.18332E+06         0.66495E+05         0.00000E+00
    0.66495E+05        -0.11264E+05         0.00000E+00
    0.00000E+00         0.00000E+00        -0.38918E+05
 
   -0.18072E+06         0.70417E+05         0.00000E+00
    0.70417E+05        -0.12704E+05         0.00000E+00
    0.00000E+00         0.00000E+00        -0.38684E+05
 
   -0.17795E+06         0.74271E+05         0.00000E+00
    0.74271E+05        -0.14220E+05         0.00000E+00
    0.00000E+00         0.00000E+00        -0.38434E+05
 
   -0.17502E+06         0.78052E+05         0.00000E+00
    0.78052E+05        -0.15807E+05         0.00000E+00
    0.00000E+00         0.00000E+00        -0.38166E+05
 
   -0.17195E+06         0.81757E+05         0.00000E+00
    0.81757E+05        -0.17465E+05         0.00000E+00
    0.00000E+00         0.00000E+00        -0.37882E+05
 
   -0.16872E+06         0.85383E+05         0.00000E+00
    0.85383E+05        -0.19190E+05         0.00000E+00
    0.00000E+00         0.00000E+00        -0.37581E+05
 
   -0.16534E+06         0.88927E+05         0.00000E+00
    0.88927E+05        -0.20981E+05         0.00000E+00
    0.00000E+00         0.00000E+00        -0.37265E+05
 
   -0.16182E+06         0.92387E+05         0.00000E+00
    0.92387E+05        -0.22834E+05         0.00000E+00
    0.00000E+00         0.00000E+00        -0.36932E+05
 
   -0.15817E+06         0.95760E+05         0.00000E+00
    0.95760E+05        -0.24748E+05         0.00000E+00
    0.00000E+00         0.00000E+00        -0.36583E+05
 
   -0.15438E+06         0.99044E+05         0.00000E+00
    0.99044E+05        -0.26719E+05         0.00000E+00
    0.00000E+00         0.00000E+00        -0.36219E+05
 
   -0.15046E+06         0.10224E+06         0.00000E+00
    0.10224E+06        -0.28746E+05         0.00000E+00
    0.00000E+00         0.00000E+00        -0.35840E+05
 
   -0.14641E+06         0.10534E+06         0.00000E+00
    0.10534E+06        -0.30826E+05         0.00000E+00
    0.00000E+00         0.00000E+00        -0.35446E+05
 
   -0.14223E+06         0.10834E+06         0.00000E+00
    0.10834E+06        -0.32956E+05         0.00000E+00
    0.00000E+00         0.00000E+00        -0.35037E+05
 
   -0.13794E+06         0.11125E+06         0.00000E+00
    0.11125E+06        -0.35135E+05         0.00000E+00
    0.00000E+00         0.00000E+00        -0.34614E+05
 
   -0.13352E+06         0.11405E+06         0.00000E+00
    0.11405E+06        -0.37359E+05         0.00000E+00
    0.00000E+00         0.00000E+00        -0.34177E+05
 
   -0.12900E+06         0.11676E+06         0.00000E+00
    0.11676E+06        -0.39628E+05         0.00000E+00
    0.00000E+00         0.00000E+00        -0.33725E+05
 
   -0.12436E+06         0.11937E+06         0.00000E+00
    0.11937E+06        -0.41937E+05         0.00000E+00
    0.00000E+00         0.00000E+00        -0.33260E+05
 
   -0.11962E+06         0.12187E+06         0.00000E+00
    0.12187E+06        -0.44286E+05         0.00000E+00
    0.00000E+00         0.00000E+00        -0.32782E+05
 
   -0.11478E+06         0.12427E+06         0.00000E+00
    0.12427E+06        -0.46672E+05         0.00000E+00
    0.00000E+00         0.00000E+00        -0.32290E+05
 
   -0.10983E+06         0.12657E+06         0.00000E+00
    0.12657E+06        -0.49093E+05         0.00000E+00
    0.00000E+00         0.00000E+00        -0.31785E+05
 
   -0.10479E+06         0.12876E+06         0.00000E+00
    0.12876E+06        -0.51546E+05         0.00000E+00
    0.00000E+00         0.00000E+00        -0.31267E+05
 
   -0.99655E+05         0.13084E+06         0.00000E+00
    0.13084E+06        -0.54031E+05         0.00000E+00
    0.00000E+00         0.00000E+00        -0.30737E+05
 
   -0.94428E+05         0.13281E+06         0.00000E+00
    0.13281E+06        -0.56545E+05         0.00000E+00
    0.00000E+00         0.00000E+00        -0.30195E+05
 
   -0.89112E+05         0.13468E+06         0.00000E+00
    0.13468E+06        -0.59087E+05         0.00000E+00
    0.00000E+00         0.00000E+00        -0.29640E+05
 
   -0.83711E+05         0.13643E+06         0.00000E+00
    0.13643E+06        -0.61654E+05         0.00000E+00
    0.00000E+00         0.00000E+00        -0.29073E+05
 
   -0.78227E+05         0.13808E+06         0.00000E+00
    0.13808E+06        -0.64245E+05         0.00000E+00
    0.00000E+00         0.00000E+00        -0.28494E+05
 
   -0.72663E+05         0.13962E+06         0.00000E+00
    0.13962E+06        -0.66858E+05         0.00000E+00
    0.00000E+00         0.00000E+00        -0.27904E+05
 
   -0.67021E+05         0.14104E+06         0.00000E+00
    0.14104E+06        -0.69493E+05         0.00000E+00
    0.00000E+00         0.00000E+00        -0.27303E+05
 
   -0.61303E+05         0.14235E+06         0.00000E+00
    0.14235E+06        -0.72146E+05         0.00000E+00
    0.00000E+00         0.00000E+00        -0.26690E+05
 
   -0.55511E+05         0.14355E+06         0.00000E+00
    0.14355E+06        -0.74818E+05         0.00000E+00
    0.00000E+00         0.00000E+00        -0.26066E+05
 
   -0.49648E+05         0.14464E+06         0.00000E+00
    0.14464E+06        -0.77506E+05         0.00000E+00
    0.00000E+00         0.00000E+00        -0.25431E+05
 
   -0.43716E+05         0.14561E+06         0.00000E+00
    0.14561E+06        -0.80210E+05         0.00000E+00
    0.00000E+00         0.00000E+00        -0.24785E+05
 
   -0.37717E+05         0.14647E+06         0.00000E+00
    0.14647E+06        -0.82928E+05         0.00000E+00
    0.00000E+00         0.00000E+00        -0.24129E+05
 
   -0.31652E+05         0.14721E+06         0.00000E+00
    0.14721E+06        -0.85658E+05         0.00000E+00
    0.00000E+00         0.00000E+00        -0.23462E+05
 
   -0.25524E+05         0.14784E+06         0.00000E+00
    0.14784E+06        -0.88401E+05         0.00000E+00
    0.00000E+00         0.00000E+00        -0.22785E+05
 
   -0.18016E+06         0.19771E+04         0.00000E+00
    0.19771E+04         0.26390E+02         0.00000E+00
    0.00000E+00         0.00000E+00        -0.36027E+05
 
   -0.18026E+06         0.59556E+04         0.00000E+00
    0.59556E+04        -0.57675E+02         0.00000E+00
    0.00000E+00         0.00000E+00        -0.36064E+05
 
   -0.18020E+06         0.99378E+04         0.00000E+00
    0.99378E+04        -0.22595E+03         0.00000E+00
    0.00000E+00         0.00000E+00        -0.36085E+05
 
   -0.17997E+06         0.13919E+05         0.00000E+00
    0.13919E+05        -0.47823E+03         0.00000E+00
    0.00000E+00         0.00000E+00        -0.36089E+05
 
   -0.17956E+06         0.17894E+05         0.00000E+00
    0.17894E+05        -0.81413E+03         0.00000E+00
    0.00000E+00         0.00000E+00        -0.36076E+05
 
   -0.17900E+06         0.21859E+05         0.00000E+00
    0.21859E+05        -0.12331E+04         0.00000E+00
    0.00000E+00         0.00000E+00        -0.36046E+05
 
   -0.17827E+06         0.25808E+05         0.00000E+00
    0.25808E+05        -0.17345E+04         0.00000E+00
    0.00000E+00         0.00000E+00        -0.36000E+05
 
   -0.17737E+06         0.29737E+05         0.00000E+00
    0.29737E+05        -0.23175E+04         0.00000E+00
    0.00000E+00         0.00000E+00        -0.35937E+05
 
   -0.17631E+06         0.33641E+05         0.00000E+00
    0.33641E+05        -0.29811E+04         0.00000E+00
    0.00000E+00         0.00000E+00        -0.35858E+05
 
   -0.17509E+06         0.37517E+05         0.00000E+00
    0.37517E+05        -0.37242E+04         0.00000E+00
    0.00000E+00         0.00000E+00        -0.35762E+05
 
   -0.17371E+06         0.41360E+05         0.00000E+00
    0.41360E+05        -0.45456E+04         0.00000E+00
    0.00000E+00         0.00000E+00        -0.35650E+05
 
   -0.17217E+06         0.45166E+05         0.00000E+00
    0.45166E+05        -0.54440E+04         0.00000E+00
    0.00000E+00         0.00000E+00        -0.35522E+05
 
   -0.17047E+06         0.48930E+05         0.00000E+00
    0.48930E+05        -0.64180E+04         0.00000E+00
    0.00000E+00         0.00000E+00        -0.35378E+05
 
   -0.16862E+06         0.52650E+05         0.00000E+00
    0.52650E+05        -0.74660E+04         0.00000E+00
    0.00000E+00         0.00000E+00        -0.35218E+05
 
   -0.16662E+06         0.56321E+05         0.00000E+00
    0.56321E+05        -0.85866E+04         0.00000E+00
    0.00000E+00         0.00000E+00        -0.35042E+05
 
   -0.16447E+06         0.59939E+05         0.00000E+00
    0.59939E+05        -0.97779E+04         0.00000E+00
    0.00000E+00         0.00000E+00        -0.34850E+05
 
   -0.16218E+06         0.63502E+05         0.00000E+00
    0.63502E+05        -0.11038E+05         0.00000E+00
    0.00000E+00         0.00000E+00        -0.34643E+05
 
   -0.15974E+06         0.67006E+05         0.00000E+00
    0.67006E+05        -0.12366E+05         0.00000E+00
    0.00000E+00         0.00000E+00        -0.34420E+05
 
   -0.15715E+06         0.70448E+05         0.00000E+00
    0.70448E+05        -0.13759E+05         0.00000E+00
    0.00000E+00         0.00000E+00        -0.34183E+05
 
   -0.15444E+06         0.73825E+05         0.00000E+00
    0.73825E+05        -0.15216E+05         0.00000E+00
    0.00000E+00         0.00000E+00        -0.33930E+05
 
   -0.15158E+06         0.77134E+05         0.00000E+00
    0.77134E+05        -0.16734E+05         0.00000E+00
    0.00000E+00         0.00000E+00        -0.33663E+05
 
   -0.14859E+06         0.80372E+05         0.00000E+00
    0.80372E+05        -0.18311E+05         0.00000E+00
    0.00000E+00         0.00000E+00        -0.33381E+05
 
   -0.14548E+06         0.83537E+05         0.00000E+00
    0.83537E+05        -0.19947E+05         0.00000E+00
    0.00000E+00         0.00000E+00        -0.33084E+05
 
   -0.14223E+06         0.86626E+05         0.00000E+00
    0.86626E+05        -0.21638E+05         0.00000E+00
    0.00000E+00         0.00000E+00        -0.32774E+05
 
   -0.13886E+06         0.89636E+05         0.00000E+00
    0.89636E+05        -0.23382E+05         0.00000E+00
    0.00000E+00         0.00000E+00        -0.32449E+05
 
   -0.13537E+06         0.92567E+05         0.00000E+00
    0.92567E+05        -0.25178E+05         0.00000E+00
    0.00000E+00         0.00000E+00        -0.32111E+05
 
   -0.13177E+06         0.95415E+05         0.00000E+00
    0.95415E+05        -0.27024E+05         0.00000E+00
    0.00000E+00         0.00000E+00        -0.31758E+05
 
   -0.12805E+06         0.98179E+05         0.00000E+00
    0.98179E+05        -0.28917E+05         0.00000E+00
    0.00000E+00         0.00000E+00        -0.31393E+05
 
   -0.12421E+06         0.10086E+06         0.00000E+00
    0.10086E+06        -0.30856E+05         0.00000E+00
    0.00000E+00         0.00000E+00        -0.31014E+05
 
   -0.12027E+06         0.10345E+06         0.00000E+00
    0.10345E+06        -0.32838E+05         0.00000E+00
    0.00000E+00         0.00000E+00        -0.30622E+05
 
   -0.11623E+06         0.10595E+06         0.00000E+00
    0.10595E+06        -0.34862E+05         0.00000E+00
    0.00000E+00         0.00000E+00        -0.30218E+05
 
   -0.11208E+06         0.10835E+06         0.00000E+00
    0.10835E+06        -0.36925E+05         0.00000E+00
    0.00000E+00         0.00000E+00        -0.29800E+05
 
   -0.10783E+06         0.11067E+06         0.00000E+00
    0.11067E+06        -0.39026E+05         0.00000E+00
    0.00000E+00         0.00000E+00        -0.29370E+05
 
   -0.10348E+06         0.11289E+06         0.00000E+00
    0.11289E+06        -0.41163E+05         0.00000E+00
    0.00000E+00         0.00000E+00        -0.28928E+05
 
   -0.99037E+05         0.11502E+06         0.00000E+00
    0.11502E+06        -0.43334E+05         0.00000E+00
    0.00000E+00         0.00000E+00        -0.28474E+05
 
   -0.94503E+05         0.11705E+06         0.00000E+00
    0.11705E+06        -0.45538E+05         0.00000E+00
    0.00000E+00         0.00000E+00        -0.28008E+05
 
   -0.89881E+05         0.11898E+06         0.00000E+00
    0.11898E+06        -0.47772E+05         0.00000E+00
    0.00000E+00         0.00000E+00        -0.27531E+05
 
   -0.85173E+05         0.12081E+06         0.00000E+00
    0.12081E+06        -0.50034E+05         0.00000E+00
    0.00000E+00         0.00000E+00        -0.27041E+05
 
   -0.80380E+05         0.12255E+06         0.00000E+00
    0.12255E+06        -0.52324E+05         0.00000E+00
    0.00000E+00         0.00000E+00        -0.26541E+05
 
   -0.75507E+05         0.12418E+06         0.00000E+00
    0.12418E+06        -0.54639E+05         0.00000E+00
    0.00000E+00         0.00000E+00        -0.26029E+05
 
   -0.70555E+05         0.12571E+06         0.00000E+00
    0.12571E+06        -0.56978E+05         0.00000E+00
    0.00000E+00         0.00000E+00        -0.25506E+05
 
   -0.65526E+05         0.12714E+06         0.00000E+00
    0.12714E+06        -0.59339E+05         0.00000E+00
    0.00000E+00         0.00000E+00        -0.24973E+05
 
   -0.60424E+05         0.12846E+06         0.00000E+00
    0.12846E+06        -0.61721E+05         0.00000E+00
    0.00000E+00         0.00000E+00        -0.24429E+05
 
   -0.55250E+05         0.12968E+06         0.00000E+00
    0.12968E+06        -0.64122E+05         0.00000E+00
    0.00000E+00         0.00000E+00        -0.23874E+05
 
   -0.50006E+05         0.13079E+06         0.00000E+00
    0.13079E+06        -0.66541E+05         0.00000E+00
    0.00000E+00         0.00000E+00        -0.23309E+05
 
   -0.44695E+05         0.13180E+06         0.00000E+00
    0.13180E+06        -0.68977E+05         0.00000E+00
    0.00000E+00         0.00000E+00        -0.22734E+05
 
   -0.39319E+05         0.13270E+06         0.00000E+00
    0.13270E+06        -0.71428E+05         0.00000E+00
    0.00000E+00         0.00000E+00        -0.22149E+05
 
   -0.33880E+05         0.13349E+06         0.00000E+00
    0.13349E+06        -0.73892E+05         0.00000E+00
    0.00000E+00         0.00000E+00        -0.21554E+05
 
   -0.28379E+05         0.13417E+06         0.00000E+00
    0.13417E+06        -0.76369E+05         0.00000E+00
    0.00000E+00         0.00000E+00        -0.20950E+05
 
   -0.22820E+05         0.13474E+06         0.00000E+00
    0.13474E+06        -0.78857E+05         0.00000E+00
    0.00000E+00         0.00000E+00        -0.20336E+05
 
   -0.16129E+06         0.17825E+04         0.00000E+00
    0.17825E+04         0.22813E+02         0.00000E+00
    0.00000E+00         0.00000E+00        -0.32253E+05
 
   -0.16136E+06         0.53698E+04         0.00000E+00
    0.53698E+04        -0.49523E+02         0.00000E+00
    0.00000E+00         0.00000E+00        -0.32281E+05
 
   -0.16128E+06         0.89612E+04         0.00000E+00
    0.89612E+04        -0.19459E+03         0.00000E+00
    0.00000E+00         0.00000E+00        -0.32296E+05
 
   -0.16106E+06         0.12552E+05         0.00000E+00
    0.12552E+05        -0.41234E+03         0.00000E+00
    0.00000E+00         0.00000E+00        -0.32295E+05
 
   -0.16070E+06         0.16139E+05         0.00000E+00
    0.16139E+05        -0.70259E+03         0.00000E+00
    0.00000E+00         0.00000E+00        -0.32281E+05
 
   -0.16019E+06         0.19718E+05         0.00000E+00
    0.19718E+05        -0.10650E+04         0.00000E+00
    0.00000E+00         0.00000E+00        -0.32251E+05
 
   -0.15954E+06         0.23284E+05         0.00000E+00
    0.23284E+05        -0.14992E+04         0.00000E+00
    0.00000E+00         0.00000E+00        -0.32208E+05
 
   -0.15874E+06         0.26834E+05         0.00000E+00
    0.26834E+05        -0.20045E+04         0.00000E+00
    0.00000E+00         0.00000E+00        -0.32149E+05
 
   -0.15780E+06         0.30364E+05         0.00000E+00
    0.30364E+05        -0.25804E+04         0.00000E+00
    0.00000E+00         0.00000E+00        -0.32077E+05
 
   -0.15672E+06         0.33870E+05         0.00000E+00
    0.33870E+05        -0.32260E+04         0.00000E+00
    0.00000E+00         0.00000E+00        -0.31990E+05
 
   -0.15550E+06         0.37349E+05         0.00000E+00
    0.37349E+05        -0.39404E+04         0.00000E+00
    0.00000E+00         0.00000E+00        -0.31889E+05
 
   -0.15414E+06         0.40796E+05         0.00000E+00
    0.40796E+05        -0.47227E+04         0.00000E+00
    0.00000E+00         0.00000E+00        -0.31773E+05
 
   -0.15265E+06         0.44209E+05         0.00000E+00
    0.44209E+05        -0.55718E+04         0.00000E+00
    0.00000E+00         0.00000E+00        -0.31644E+05
 
   -0.15101E+06         0.47583E+05         0.00000E+00
    0.47583E+05        -0.64865E+04         0.00000E+00
    0.00000E+00         0.00000E+00        -0.31500E+05
 
   -0.14925E+06         0.50916E+05         0.00000E+00
    0.50916E+05        -0.74656E+04         0.00000E+00
    0.00000E+00         0.00000E+00        -0.31342E+05
 
   -0.14735E+06         0.54204E+05         0.00000E+00
    0.54204E+05        -0.85078E+04         0.00000E+00
    0.00000E+00         0.00000E+00        -0.31171E+05
 
   -0.14532E+06         0.57444E+05         0.00000E+00
    0.57444E+05        -0.96118E+04         0.00000E+00
    0.00000E+00         0.00000E+00        -0.30986E+05
 
   -0.14316E+06         0.60634E+05         0.00000E+00
    0.60634E+05        -0.10776E+05         0.00000E+00
    0.00000E+00         0.00000E+00        -0.30787E+05
 
   -0.14087E+06         0.63770E+05         0.00000E+00
    0.63770E+05        -0.11999E+05         0.00000E+00
    0.00000E+00         0.00000E+00        -0.30575E+05
 
   -0.13846E+06         0.66849E+05         0.00000E+00
    0.66849E+05        -0.13280E+05         0.00000E+00
    0.00000E+00         0.00000E+00        -0.30349E+05
 
   -0.13593E+06         0.69869E+05         0.00000E+00
    0.69869E+05        -0.14616E+05         0.00000E+00
    0.00000E+00         0.00000E+00        -0.30110E+05
 
   -0.13328E+06         0.72827E+05         0.00000E+00
    0.72827E+05        -0.16006E+05         0.00000E+00
    0.00000E+00         0.00000E+00        -0.29858E+05
 
   -0.13052E+06         0.75721E+05         0.00000E+00
    0.75721E+05        -0.17449E+05         0.00000E+00
    0.00000E+00         0.00000E+00        -0.29593E+05
 
   -0.12763E+06         0.78549E+05         0.00000E+00
    0.78549E+05        -0.18943E+05         0.00000E+00
    0.00000E+00         0.00000E+00        -0.29315E+05
 
   -0.12464E+06         0.81307E+05         0.00000E+00
    0.81307E+05        -0.20486E+05         0.00000E+00
    0.00000E+00         0.00000E+00        -0.29025E+05
 
   -0.12153E+06         0.83995E+05         0.00000E+00
    0.83995E+05        -0.22077E+05         0.00000E+00
    0.00000E+00         0.00000E+00        -0.28722E+05
 
   -0.11832E+06         0.86609E+05         0.00000E+00
    0.86609E+05        -0.23713E+05         0.00000E+00
    0.00000E+00         0.00000E+00        -0.28407E+05
 
   -0.11500E+06         0.89148E+05         0.00000E+00
    0.89148E+05        -0.25394E+05         0.00000E+00
    0.00000E+00         0.00000E+00        -0.28079E+05
 
   -0.11158E+06         0.91610E+05         0.00000E+00
    0.91610E+05        -0.27117E+05         0.00000E+00
    0.00000E+00         0.00000E+00        -0.27740E+05
 
   -0.10806E+06         0.93993E+05         0.00000E+00
    0.93993E+05        -0.28881E+05         0.00000E+00
    0.00000E+00         0.00000E+00        -0.27388E+05
 
   -0.10444E+06         0.96295E+05         0.00000E+00
    0.96295E+05        -0.30684E+05         0.00000E+00
    0.00000E+00         0.00000E+00        -0.27025E+05
 
   -0.10073E+06         0.98516E+05         0.00000E+00
    0.98516E+05        -0.32524E+05         0.00000E+00
    0.00000E+00         0.00000E+00        -0.26651E+05
 
   -0.96924E+05         0.10065E+06         0.00000E+00
    0.10065E+06        -0.34400E+05         0.00000E+00
    0.00000E+00         0.00000E+00        -0.26265E+05
 
   -0.93029E+05         0.10270E+06         0.00000E+00
    0.10270E+06        -0.36310E+05         0.00000E+00
    0.00000E+00         0.00000E+00        -0.25868E+05
 
   -0.89045E+05         0.10467E+06         0.00000E+00
    0.10467E+06        -0.38253E+05         0.00000E+00
    0.00000E+00         0.00000E+00        -0.25460E+05
 
   -0.84977E+05         0.10654E+06         0.00000E+00
    0.10654E+06        -0.40226E+05         0.00000E+00
    0.00000E+00         0.00000E+00        -0.25041E+05
 
   -0.80825E+05         0.10833E+06         0.00000E+00
    0.10833E+06        -0.42229E+05         0.00000E+00
    0.00000E+00         0.00000E+00        -0.24611E+05
 
   -0.76593E+05         0.11003E+06         0.00000E+00
    0.11003E+06        -0.44260E+05         0.00000E+00
    0.00000E+00         0.00000E+00        -0.24171E+05
 
   -0.72283E+05         0.11163E+06         0.00000E+00
    0.11163E+06        -0.46316E+05         0.00000E+00
    0.00000E+00         0.00000E+00        -0.23720E+05
 
   -0.67898E+05         0.11314E+06         0.00000E+00
    0.11314E+06        -0.48397E+05         0.00000E+00
    0.00000E+00         0.00000E+00        -0.23259E+05
 
   -0.63439E+05         0.11456E+06         0.00000E+00
    0.11456E+06        -0.50501E+05         0.00000E+00
    0.00000E+00         0.00000E+00        -0.22788E+05
 
   -0.58908E+05         0.11588E+06         0.00000E+00
    0.11588E+06        -0.52627E+05         0.00000E+00
    0.00000E+00         0.00000E+00        -0.22307E+05
 
   -0.54309E+05         0.11710E+06         0.00000E+00
    0.11710E+06        -0.54773E+05         0.00000E+00
    0.00000E+00         0.00000E+00        -0.21816E+05
 
   -0.49643E+05         0.11823E+06         0.00000E+00
    0.11823E+06        -0.56938E+05         0.00000E+00
    0.00000E+00         0.00000E+00        -0.21316E+05
 
   -0.44912E+05         0.11926E+06         0.00000E+00
    0.11926E+06        -0.59119E+05         0.00000E+00
    0.00000E+00         0.00000E+00        -0.20806E+05
 
   -0.40119E+05         0.12019E+06         0.00000E+00
    0.12019E+06        -0.61317E+05         0.00000E+00
    0.00000E+00         0.00000E+00        -0.20287E+05
 
   -0.35266E+05         0.12102E+06         0.00000E+00
    0.12102E+06        -0.63530E+05         0.00000E+00
    0.00000E+00         0.00000E+00        -0.19759E+05
 
   -0.30354E+05         0.12174E+06         0.00000E+00
    0.12174E+06        -0.65755E+05         0.00000E+00
    0.00000E+00         0.00000E+00        -0.19222E+05
 
   -0.25387E+05         0.12237E+06         0.00000E+00
    0.12237E+06        -0.67993E+05         0.00000E+00
    0.00000E+00         0.00000E+00        -0.18676E+05
 
   -0.20366E+05         0.12289E+06         0.00000E+00
    0.12289E+06        -0.70240E+05         0.00000E+00
    0.00000E+00         0.00000E+00        -0.18121E+05
 
   -0.14423E+06         0.16149E+04         0.00000E+00
    0.16149E+04         0.19783E+02         0.00000E+00
    0.00000E+00         0.00000E+00        -0.28842E+05
 
   -0.14427E+06         0.48640E+04         0.00000E+00
    0.48640E+04        -0.42730E+02         0.00000E+00
    0.00000E+00         0.00000E+00        -0.28863E+05
 
   -0.14419E+06         0.81169E+04         0.00000E+00
    0.81169E+04        -0.16827E+03         0.00000E+00
    0.00000E+00         0.00000E+00        -0.28871E+05
 
   -0.14398E+06         0.11370E+05         0.00000E+00
    0.11370E+05        -0.35689E+03         0.00000E+00
    0.00000E+00         0.00000E+00        -0.28867E+05
 
   -0.14364E+06         0.14620E+05         0.00000E+00
    0.14620E+05        -0.60852E+03         0.00000E+00
    0.00000E+00         0.00000E+00        -0.28850E+05
 
   -0.14318E+06         0.17862E+05         0.00000E+00
    0.17862E+05        -0.92299E+03         0.00000E+00
    0.00000E+00         0.00000E+00        -0.28821E+05
 
   -0.14259E+06         0.21095E+05         0.00000E+00
    0.21095E+05        -0.13000E+04         0.00000E+00
    0.00000E+00         0.00000E+00        -0.28779E+05
 
   -0.14188E+06         0.24314E+05         0.00000E+00
    0.24314E+05        -0.17393E+04         0.00000E+00
    0.00000E+00         0.00000E+00        -0.28724E+05
 
   -0.14104E+06         0.27515E+05         0.00000E+00
    0.27515E+05        -0.22402E+04         0.00000E+00
    0.00000E+00         0.00000E+00        -0.28657E+05
 
   -0.14008E+06         0.30697E+05         0.00000E+00
    0.30697E+05        -0.28023E+04         0.00000E+00
    0.00000E+00         0.00000E+00        -0.28577E+05
 
   -0.13900E+06         0.33855E+05         0.00000E+00
    0.33855E+05        -0.34250E+04         0.00000E+00
    0.00000E+00         0.00000E+00        -0.28485E+05
 
   -0.13779E+06         0.36986E+05         0.00000E+00
    0.36986E+05        -0.41074E+04         0.00000E+00
    0.00000E+00         0.00000E+00        -0.28380E+05
 
   -0.13646E+06         0.40087E+05         0.00000E+00
    0.40087E+05        -0.48488E+04         0.00000E+00
    0.00000E+00         0.00000E+00        -0.28263E+05
 
   -0.13502E+06         0.43155E+05         0.00000E+00
    0.43155E+05        -0.56483E+04         0.00000E+00
    0.00000E+00         0.00000E+00        -0.28133E+05
 
   -0.13345E+06         0.46187E+05         0.00000E+00
    0.46187E+05        -0.65049E+04         0.00000E+00
    0.00000E+00         0.00000E+00        -0.27991E+05
 
   -0.13177E+06         0.49181E+05         0.00000E+00
    0.49181E+05        -0.74177E+04         0.00000E+00
    0.00000E+00         0.00000E+00        -0.27837E+05
 
   -0.12997E+06         0.52133E+05         0.00000E+00
    0.52133E+05        -0.83855E+04         0.00000E+00
    0.00000E+00         0.00000E+00        -0.27670E+05
 
   -0.12805E+06         0.55040E+05         0.00000E+00
    0.55040E+05        -0.94072E+04         0.00000E+00
    0.00000E+00         0.00000E+00        -0.27492E+05
 
   -0.12603E+06         0.57901E+05         0.00000E+00
    0.57901E+05        -0.10482E+05         0.00000E+00
    0.00000E+00         0.00000E+00        -0.27301E+05
 
   -0.12389E+06         0.60711E+05         0.00000E+00
    0.60711E+05        -0.11608E+05         0.00000E+00
    0.00000E+00         0.00000E+00        -0.27099E+05
 
   -0.12164E+06         0.63470E+05         0.00000E+00
    0.63470E+05        -0.12784E+05         0.00000E+00
    0.00000E+00         0.00000E+00        -0.26885E+05
 
   -0.11929E+06         0.66175E+05         0.00000E+00
    0.66175E+05        -0.14009E+05         0.00000E+00
    0.00000E+00         0.00000E+00        -0.26659E+05
 
   -0.11683E+06         0.68822E+05         0.00000E+00
    0.68822E+05        -0.15282E+05         0.00000E+00
    0.00000E+00         0.00000E+00        -0.26422E+05
 
   -0.11426E+06         0.71410E+05         0.00000E+00
    0.71410E+05        -0.16601E+05         0.00000E+00
    0.00000E+00         0.00000E+00        -0.26173E+05
 
   -0.11160E+06         0.73938E+05         0.00000E+00
    0.73938E+05        -0.17965E+05         0.00000E+00
    0.00000E+00         0.00000E+00        -0.25913E+05
 
   -0.10884E+06         0.76401E+05         0.00000E+00
    0.76401E+05        -0.19373E+05         0.00000E+00
    0.00000E+00         0.00000E+00        -0.25642E+05
 
   -0.10597E+06         0.78800E+05         0.00000E+00
    0.78800E+05        -0.20822E+05         0.00000E+00
    0.00000E+00         0.00000E+00        -0.25359E+05
 
   -0.10302E+06         0.81130E+05         0.00000E+00
    0.81130E+05        -0.22313E+05         0.00000E+00
    0.00000E+00         0.00000E+00        -0.25066E+05
 
   -0.99966E+05         0.83392E+05         0.00000E+00
    0.83392E+05        -0.23842E+05         0.00000E+00
    0.00000E+00         0.00000E+00        -0.24762E+05
 
   -0.96825E+05         0.85583E+05         0.00000E+00
    0.85583E+05        -0.25409E+05         0.00000E+00
    0.00000E+00         0.00000E+00        -0.24447E+05
 
   -0.93594E+05         0.87701E+05         0.00000E+00
    0.87701E+05        -0.27013E+05         0.00000E+00
    0.00000E+00         0.00000E+00        -0.24121E+05
 
   -0.90276E+05         0.89744E+05         0.00000E+00
    0.89744E+05        -0.28651E+05         0.00000E+00
    0.00000E+00         0.00000E+00        -0.23785E+05
 
   -0.86874E+05         0.91712E+05         0.00000E+00
    0.91712E+05        -0.30323E+05         0.00000E+00
    0.00000E+00         0.00000E+00        -0.23439E+05
 
   -0.83389E+05         0.93601E+05         0.00000E+00
    0.93601E+05        -0.32026E+05         0.00000E+00
    0.00000E+00         0.00000E+00        -0.23083E+05
 
   -0.79824E+05         0.95412E+05         0.00000E+00
    0.95412E+05        -0.33760E+05         0.00000E+00
    0.00000E+00         0.00000E+00        -0.22717E+05
 
   -0.76180E+05         0.97142E+05         0.00000E+00
    0.97142E+05        -0.35523E+05         0.00000E+00
    0.00000E+00         0.00000E+00        -0.22341E+05
 
   -0.72460E+05         0.98790E+05         0.00000E+00
    0.98790E+05        -0.37314E+05         0.00000E+00
    0.00000E+00         0.00000E+00        -0.21955E+05
 
   -0.68666E+05         0.10036E+06         0.00000E+00
    0.10036E+06        -0.39130E+05         0.00000E+00
    0.00000E+00         0.00000E+00        -0.21559E+05
 
   -0.64800E+05         0.10184E+06         0.00000E+00
    0.10184E+06        -0.40972E+05         0.00000E+00
    0.00000E+00         0.00000E+00        -0.21154E+05
 
   -0.60865E+05         0.10323E+06         0.00000E+00
    0.10323E+06        -0.42836E+05         0.00000E+00
    0.00000E+00         0.00000E+00        -0.20740E+05
 
   -0.56862E+05         0.10454E+06         0.00000E+00
    0.10454E+06        -0.44723E+05         0.00000E+00
    0.00000E+00         0.00000E+00        -0.20317E+05
 
   -0.52793E+05         0.10576E+06         0.00000E+00
    0.10576E+06        -0.46630E+05         0.00000E+00
    0.00000E+00         0.00000E+00        -0.19885E+05
 
   -0.48661E+05         0.10689E+06         0.00000E+00
    0.10689E+06        -0.48557E+05         0.00000E+00
    0.00000E+00         0.00000E+00        -0.19444E+05
 
   -0.44468E+05         0.10793E+06         0.00000E+00
    0.10793E+06        -0.50501E+05         0.00000E+00
    0.00000E+00         0.00000E+00        -0.18994E+05
 
   -0.40215E+05         0.10887E+06         0.00000E+00
    0.10887E+06        -0.52461E+05         0.00000E+00
    0.00000E+00         0.00000E+00        -0.18535E+05
 
   -0.35906E+05         0.10973E+06         0.00000E+00
    0.10973E+06        -0.54437E+05         0.00000E+00
    0.00000E+00         0.00000E+00        -0.18069E+05
 
   -0.31541E+05         0.11049E+06         0.00000E+00
    0.11049E+06        -0.56426E+05         0.00000E+00
    0.00000E+00         0.00000E+00        -0.17593E+05
 
   -0.27124E+05         0.11116E+06         0.00000E+00
    0.11116E+06        -0.58428E+05         0.00000E+00
    0.00000E+00         0.00000E+00        -0.17110E+05
 
   -0.22656E+05         0.11173E+06         0.00000E+00
    0.11173E+06        -0.60440E+05         0.00000E+00
    0.00000E+00         0.00000E+00        -0.16619E+05
 
   -0.18139E+05         0.11220E+06         0.00000E+00
    0.11220E+06        -0.62462E+05         0.00000E+00
    0.00000E+00         0.00000E+00        -0.16120E+05
 
   -0.12875E+06         0.14698E+04         0.00000E+00
    0.14698E+04         0.17200E+02         0.00000E+00
    0.00000E+00         0.00000E+00        -0.25746E+05
 
   -0.12876E+06         0.44256E+04         0.00000E+00
    0.44256E+04        -0.37020E+02         0.00000E+00
    0.00000E+00         0.00000E+00        -0.25760E+05
 
   -0.12867E+06         0.73845E+04         0.00000E+00
    0.73845E+04        -0.14601E+03         0.00000E+00
    0.00000E+00         0.00000E+00        -0.25763E+05
 
   -0.12847E+06         0.10343E+05         0.00000E+00
    0.10343E+05        -0.30987E+03         0.00000E+00
    0.00000E+00         0.00000E+00        -0.25756E+05
 
   -0.12816E+06         0.13299E+05         0.00000E+00
    0.13299E+05        -0.52860E+03         0.00000E+00
    0.00000E+00         0.00000E+00        -0.25737E+05
 
   -0.12774E+06         0.16249E+05         0.00000E+00
    0.16249E+05        -0.80214E+03         0.00000E+00
    0.00000E+00         0.00000E+00        -0.25708E+05
 
   -0.12720E+06         0.19190E+05         0.00000E+00
    0.19190E+05        -0.11303E+04         0.00000E+00
    0.00000E+00         0.00000E+00        -0.25667E+05
 
   -0.12656E+06         0.22119E+05         0.00000E+00
    0.22119E+05        -0.15129E+04         0.00000E+00
    0.00000E+00         0.00000E+00        -0.25615E+05
 
   -0.12581E+06         0.25033E+05         0.00000E+00
    0.25033E+05        -0.19495E+04         0.00000E+00
    0.00000E+00         0.00000E+00        -0.25553E+05
 
   -0.12496E+06         0.27930E+05         0.00000E+00
    0.27930E+05        -0.24397E+04         0.00000E+00
    0.00000E+00         0.00000E+00        -0.25479E+05
 
   -0.12399E+06         0.30805E+05         0.00000E+00
    0.30805E+05        -0.29832E+04         0.00000E+00
    0.00000E+00         0.00000E+00        -0.25394E+05
 
   -0.12292E+06         0.33657E+05         0.00000E+00
    0.33657E+05        -0.35793E+04         0.00000E+00
    0.00000E+00         0.00000E+00        -0.25299E+05
 
   -0.12173E+06         0.36483E+05         0.00000E+00
    0.36483E+05        -0.42274E+04         0.00000E+00
    0.00000E+00         0.00000E+00        -0.25192E+05
 
   -0.12045E+06         0.39281E+05         0.00000E+00
    0.39281E+05        -0.49268E+04         0.00000E+00
    0.00000E+00         0.00000E+00        -0.25075E+05
 
   -0.11906E+06         0.42046E+05         0.00000E+00
    0.42046E+05        -0.56768E+04         0.00000E+00
    0.00000E+00         0.00000E+00        -0.24947E+05
 
   -0.11756E+06         0.44778E+05         0.00000E+00
    0.44778E+05        -0.64766E+04         0.00000E+00
    0.00000E+00         0.00000E+00        -0.24808E+05
 
   -0.11596E+06         0.47472E+05         0.00000E+00
    0.47472E+05        -0.73254E+04         0.00000E+00
    0.00000E+00         0.00000E+00        -0.24658E+05
 
   -0.11427E+06         0.50128E+05         0.00000E+00
    0.50128E+05        -0.82222E+04         0.00000E+00
    0.00000E+00         0.00000E+00        -0.24497E+05
 
   -0.11247E+06         0.52742E+05         0.00000E+00
    0.52742E+05        -0.91662E+04         0.00000E+00
    0.00000E+00         0.00000E+00        -0.24326E+05
 
   -0.11057E+06         0.55312E+05         0.00000E+00
    0.55312E+05        -0.10156E+05         0.00000E+00
    0.00000E+00         0.00000E+00        -0.24145E+05
 
   -0.10857E+06         0.57835E+05         0.00000E+00
    0.57835E+05        -0.11191E+05         0.00000E+00
    0.00000E+00         0.00000E+00        -0.23953E+05
 
   -0.10648E+06         0.60310E+05         0.00000E+00
    0.60310E+05        -0.12271E+05         0.00000E+00
    0.00000E+00         0.00000E+00        -0.23750E+05
 
   -0.10430E+06         0.62735E+05         0.00000E+00
    0.62735E+05        -0.13393E+05         0.00000E+00
    0.00000E+00         0.00000E+00        -0.23538E+05
 
   -0.10202E+06         0.65106E+05         0.00000E+00
    0.65106E+05        -0.14557E+05         0.00000E+00
    0.00000E+00         0.00000E+00        -0.23315E+05
 
   -0.99649E+05         0.67423E+05         0.00000E+00
    0.67423E+05        -0.15761E+05         0.00000E+00
    0.00000E+00         0.00000E+00        -0.23082E+05
 
   -0.97190E+05         0.69682E+05         0.00000E+00
    0.69682E+05        -0.17005E+05         0.00000E+00
    0.00000E+00         0.00000E+00        -0.22839E+05
 
   -0.94643E+05         0.71883E+05         0.00000E+00
    0.71883E+05        -0.18287E+05         0.00000E+00
    0.00000E+00         0.00000E+00        -0.22586E+05
 
   -0.92011E+05         0.74023E+05         0.00000E+00
    0.74023E+05        -0.19607E+05         0.00000E+00
    0.00000E+00         0.00000E+00        -0.22323E+05
 
   -0.89294E+05         0.76101E+05         0.00000E+00
    0.76101E+05        -0.20962E+05         0.00000E+00
    0.00000E+00         0.00000E+00        -0.22051E+05
 
   -0.86495E+05         0.78114E+05         0.00000E+00
    0.78114E+05        -0.22352E+05         0.00000E+00
    0.00000E+00         0.00000E+00        -0.21769E+05
 
   -0.83615E+05         0.80061E+05         0.00000E+00
    0.80061E+05        -0.23775E+05         0.00000E+00
    0.00000E+00         0.00000E+00        -0.21478E+05
 
   -0.80656E+05         0.81941E+05         0.00000E+00
    0.81941E+05        -0.25230E+05         0.00000E+00
    0.00000E+00         0.00000E+00        -0.21177E+05
 
   -0.77621E+05         0.83751E+05         0.00000E+00
    0.83751E+05        -0.26716E+05         0.00000E+00
    0.00000E+00         0.00000E+00        -0.20867E+05
 
   -0.74510E+05         0.85491E+05         0.00000E+00
    0.85491E+05        -0.28231E+05         0.00000E+00
    0.00000E+00         0.00000E+00        -0.20548E+05
 
   -0.71327E+05         0.87158E+05         0.00000E+00
    0.87158E+05        -0.29775E+05         0.00000E+00
    0.00000E+00         0.00000E+00        -0.20220E+05
 
   -0.68072E+05         0.88752E+05         0.00000E+00
    0.88752E+05        -0.31345E+05         0.00000E+00
    0.00000E+00         0.00000E+00        -0.19883E+05
 
   -0.64748E+05         0.90270E+05         0.00000E+00
    0.90270E+05        -0.32942E+05         0.00000E+00
    0.00000E+00         0.00000E+00        -0.19538E+05
 
   -0.61356E+05         0.91712E+05         0.00000E+00
    0.91712E+05        -0.34562E+05         0.00000E+00
    0.00000E+00         0.00000E+00        -0.19184E+05
 
   -0.57899E+05         0.93077E+05         0.00000E+00
    0.93077E+05        -0.36206E+05         0.00000E+00
    0.00000E+00         0.00000E+00        -0.18821E+05
 
   -0.54379E+05         0.94362E+05         0.00000E+00
    0.94362E+05        -0.37871E+05         0.00000E+00
    0.00000E+00         0.00000E+00        -0.18450E+05
 
   -0.50797E+05         0.95567E+05         0.00000E+00
    0.95567E+05        -0.39557E+05         0.00000E+00
    0.00000E+00         0.00000E+00        -0.18071E+05
 
   -0.47156E+05         0.96690E+05         0.00000E+00
    0.96690E+05        -0.41262E+05         0.00000E+00
    0.00000E+00         0.00000E+00        -0.17684E+05
 
   -0.43457E+05         0.97731E+05         0.00000E+00
    0.97731E+05        -0.42984E+05         0.00000E+00
    0.00000E+00         0.00000E+00        -0.17288E+05
 
   -0.39702E+05         0.98687E+05         0.00000E+00
    0.98687E+05        -0.44724E+05         0.00000E+00
    0.00000E+00         0.00000E+00        -0.16885E+05
 
   -0.35894E+05         0.99559E+05         0.00000E+00
    0.99559E+05        -0.46478E+05         0.00000E+00
    0.00000E+00         0.00000E+00        -0.16475E+05
 
   -0.32034E+05         0.10034E+06         0.00000E+00
    0.10034E+06        -0.48247E+05         0.00000E+00
    0.00000E+00         0.00000E+00        -0.16056E+05
 
   -0.28125E+05         0.10104E+06         0.00000E+00
    0.10104E+06        -0.50028E+05         0.00000E+00
    0.00000E+00         0.00000E+00        -0.15631E+05
 
   -0.24168E+05         0.10165E+06         0.00000E+00
    0.10165E+06        -0.51821E+05         0.00000E+00
    0.00000E+00         0.00000E+00        -0.15198E+05
 
   -0.20165E+05         0.10217E+06         0.00000E+00
    0.10217E+06        -0.53624E+05         0.00000E+00
    0.00000E+00         0.00000E+00        -0.14758E+05
 
   -0.16119E+05         0.10261E+06         0.00000E+00
    0.10261E+06        -0.55435E+05         0.00000E+00
    0.00000E+00         0.00000E+00        -0.14311E+05
 
   -0.11463E+06         0.13438E+04         0.00000E+00
    0.13438E+04         0.14978E+02         0.00000E+00
    0.00000E+00         0.00000E+00        -0.22923E+05
 
   -0.11463E+06         0.40446E+04         0.00000E+00
    0.40446E+04        -0.32168E+02         0.00000E+00
    0.00000E+00         0.00000E+00        -0.22932E+05
 
   -0.11453E+06         0.67477E+04         0.00000E+00
    0.67477E+04        -0.12699E+03         0.00000E+00
    0.00000E+00         0.00000E+00        -0.22931E+05
 
   -0.11433E+06         0.94505E+04         0.00000E+00
    0.94505E+04        -0.26962E+03         0.00000E+00
    0.00000E+00         0.00000E+00        -0.22921E+05
 
   -0.11404E+06         0.12150E+05         0.00000E+00
    0.12150E+05        -0.46009E+03         0.00000E+00
    0.00000E+00         0.00000E+00        -0.22901E+05
 
   -0.11366E+06         0.14845E+05         0.00000E+00
    0.14845E+05        -0.69838E+03         0.00000E+00
    0.00000E+00         0.00000E+00        -0.22871E+05
 
   -0.11318E+06         0.17531E+05         0.00000E+00
    0.17531E+05        -0.98440E+03         0.00000E+00
    0.00000E+00         0.00000E+00        -0.22832E+05
 
   -0.11260E+06         0.20206E+05         0.00000E+00
    0.20206E+05        -0.13180E+04         0.00000E+00
    0.00000E+00         0.00000E+00        -0.22783E+05
 
   -0.11193E+06         0.22868E+05         0.00000E+00
    0.22868E+05        -0.16989E+04         0.00000E+00
    0.00000E+00         0.00000E+00        -0.22725E+05
 
   -0.11116E+06         0.25514E+05         0.00000E+00
    0.25514E+05        -0.21269E+04         0.00000E+00
    0.00000E+00         0.00000E+00        -0.22657E+05
 
   -0.11030E+06         0.28142E+05         0.00000E+00
    0.28142E+05        -0.26015E+04         0.00000E+00
    0.00000E+00         0.00000E+00        -0.22580E+05
 
   -0.10934E+06         0.30748E+05         0.00000E+00
    0.30748E+05        -0.31224E+04         0.00000E+00
    0.00000E+00         0.00000E+00        -0.22492E+05
 
   -0.10829E+06         0.33332E+05         0.00000E+00
    0.33332E+05        -0.36891E+04         0.00000E+00
    0.00000E+00         0.00000E+00        -0.22396E+05
 
   -0.10715E+06         0.35889E+05         0.00000E+00
    0.35889E+05        -0.43011E+04         0.00000E+00
    0.00000E+00         0.00000E+00        -0.22289E+05
 
   -0.10591E+06         0.38419E+05         0.00000E+00
    0.38419E+05        -0.49578E+04         0.00000E+00
    0.00000E+00         0.00000E+00        -0.22173E+05
 
   -0.10458E+06         0.40918E+05         0.00000E+00
    0.40918E+05        -0.56586E+04         0.00000E+00
    0.00000E+00         0.00000E+00        -0.22048E+05
 
   -0.10316E+06         0.43384E+05         0.00000E+00
    0.43384E+05        -0.64027E+04         0.00000E+00
    0.00000E+00         0.00000E+00        -0.21913E+05
 
   -0.10166E+06         0.45815E+05         0.00000E+00
    0.45815E+05        -0.71895E+04         0.00000E+00
    0.00000E+00         0.00000E+00        -0.21769E+05
 
   -0.10006E+06         0.48209E+05         0.00000E+00
    0.48209E+05        -0.80182E+04         0.00000E+00
    0.00000E+00         0.00000E+00        -0.21616E+05
 
   -0.98376E+05         0.50563E+05         0.00000E+00
    0.50563E+05        -0.88879E+04         0.00000E+00
    0.00000E+00         0.00000E+00        -0.21453E+05
 
   -0.96605E+05         0.52876E+05         0.00000E+00
    0.52876E+05        -0.97980E+04         0.00000E+00
    0.00000E+00         0.00000E+00        -0.21281E+05
 
   -0.94750E+05         0.55145E+05         0.00000E+00
    0.55145E+05        -0.10747E+05         0.00000E+00
    0.00000E+00         0.00000E+00        -0.21099E+05
 
   -0.92810E+05         0.57369E+05         0.00000E+00
    0.57369E+05        -0.11735E+05         0.00000E+00
    0.00000E+00         0.00000E+00        -0.20909E+05
 
   -0.90788E+05         0.59545E+05         0.00000E+00
    0.59545E+05        -0.12761E+05         0.00000E+00
    0.00000E+00         0.00000E+00        -0.20710E+05
 
   -0.88684E+05         0.61671E+05         0.00000E+00
    0.61671E+05        -0.13823E+05         0.00000E+00
    0.00000E+00         0.00000E+00        -0.20501E+05
 
   -0.86501E+05         0.63746E+05         0.00000E+00
    0.63746E+05        -0.14920E+05         0.00000E+00
    0.00000E+00         0.00000E+00        -0.20284E+05
 
   -0.84239E+05         0.65768E+05         0.00000E+00
    0.65768E+05        -0.16052E+05         0.00000E+00
    0.00000E+00         0.00000E+00        -0.20058E+05
 
   -0.81900E+05         0.67734E+05         0.00000E+00
    0.67734E+05        -0.17218E+05         0.00000E+00
    0.00000E+00         0.00000E+00        -0.19824E+05
 
   -0.79486E+05         0.69644E+05         0.00000E+00
    0.69644E+05        -0.18416E+05         0.00000E+00
    0.00000E+00         0.00000E+00        -0.19580E+05
 
   -0.76997E+05         0.71495E+05         0.00000E+00
    0.71495E+05        -0.19645E+05         0.00000E+00
    0.00000E+00         0.00000E+00        -0.19329E+05
 
   -0.74436E+05         0.73286E+05         0.00000E+00
    0.73286E+05        -0.20905E+05         0.00000E+00
    0.00000E+00         0.00000E+00        -0.19068E+05
 
   -0.71805E+05         0.75016E+05         0.00000E+00
    0.75016E+05        -0.22194E+05         0.00000E+00
    0.00000E+00         0.00000E+00        -0.18800E+05
 
   -0.69104E+05         0.76682E+05         0.00000E+00
    0.76682E+05        -0.23511E+05         0.00000E+00
    0.00000E+00         0.00000E+00        -0.18523E+05
 
   -0.66336E+05         0.78284E+05         0.00000E+00
    0.78284E+05        -0.24855E+05         0.00000E+00
    0.00000E+00         0.00000E+00        -0.18238E+05
 
   -0.63502E+05         0.79819E+05         0.00000E+00
    0.79819E+05        -0.26225E+05         0.00000E+00
    0.00000E+00         0.00000E+00        -0.17945E+05
 
   -0.60604E+05         0.81287E+05         0.00000E+00
    0.81287E+05        -0.27620E+05         0.00000E+00
    0.00000E+00         0.00000E+00        -0.17645E+05
 
   -0.57643E+05         0.82685E+05         0.00000E+00
    0.82685E+05        -0.29038E+05         0.00000E+00
    0.00000E+00         0.00000E+00        -0.17336E+05
 
   -0.54622E+05         0.84014E+05         0.00000E+00
    0.84014E+05        -0.30478E+05         0.00000E+00
    0.00000E+00         0.00000E+00        -0.17020E+05
 
   -0.51542E+05         0.85270E+05         0.00000E+00
    0.85270E+05        -0.31940E+05         0.00000E+00
    0.00000E+00         0.00000E+00        -0.16696E+05
 
   -0.48404E+05         0.86454E+05         0.00000E+00
    0.86454E+05        -0.33422E+05         0.00000E+00
    0.00000E+00         0.00000E+00        -0.16365E+05
 
   -0.45211E+05         0.87564E+05         0.00000E+00
    0.87564E+05        -0.34922E+05         0.00000E+00
    0.00000E+00         0.00000E+00        -0.16027E+05
 
   -0.41965E+05         0.88598E+05         0.00000E+00
    0.88598E+05        -0.36440E+05         0.00000E+00
    0.00000E+00         0.00000E+00        -0.15681E+05
 
   -0.38667E+05         0.89556E+05         0.00000E+00
    0.89556E+05        -0.37975E+05         0.00000E+00
    0.00000E+00         0.00000E+00        -0.15328E+05
 
   -0.35318E+05         0.90436E+05         0.00000E+00
    0.90436E+05        -0.39524E+05         0.00000E+00
    0.00000E+00         0.00000E+00        -0.14969E+05
 
   -0.31922E+05         0.91238E+05         0.00000E+00
    0.91238E+05        -0.41088E+05         0.00000E+00
    0.00000E+00         0.00000E+00        -0.14602E+05
 
   -0.28480E+05         0.91960E+05         0.00000E+00
    0.91960E+05        -0.42665E+05         0.00000E+00
    0.00000E+00         0.00000E+00        -0.14229E+05
 
   -0.24993E+05         0.92601E+05         0.00000E+00
    0.92601E+05        -0.44253E+05         0.00000E+00
    0.00000E+00         0.00000E+00        -0.13849E+05
 
   -0.21463E+05         0.93160E+05         0.00000E+00
    0.93160E+05        -0.45852E+05         0.00000E+00
    0.00000E+00         0.00000E+00        -0.13463E+05
 
   -0.17893E+05         0.93636E+05         0.00000E+00
    0.93636E+05        -0.47459E+05         0.00000E+00
    0.00000E+00         0.00000E+00        -0.13071E+05
 
   -0.14285E+05         0.94029E+05         0.00000E+00
    0.94029E+05        -0.49075E+05         0.00000E+00
    0.00000E+00         0.00000E+00        -0.12672E+05
 
   -0.10170E+06         0.12342E+04         0.00000E+00
    0.12342E+04         0.13049E+02         0.00000E+00
    0.00000E+00         0.00000E+00        -0.20338E+05
 
   -0.10168E+06         0.37130E+04         0.00000E+00
    0.37130E+04        -0.27995E+02         0.00000E+00
    0.00000E+00         0.00000E+00        -0.20342E+05
 
   -0.10158E+06         0.61933E+04         0.00000E+00
    0.61933E+04        -0.11057E+03         0.00000E+00
    0.00000E+00         0.00000E+00        -0.20338E+05
 
   -0.10140E+06         0.86727E+04         0.00000E+00
    0.86727E+04        -0.23479E+03         0.00000E+00
    0.00000E+00         0.00000E+00        -0.20326E+05
 
   -0.10113E+06         0.11149E+05         0.00000E+00
    0.11149E+05        -0.40072E+03         0.00000E+00
    0.00000E+00         0.00000E+00        -0.20305E+05
 
   -0.10077E+06         0.13620E+05         0.00000E+00
    0.13620E+05        -0.60838E+03         0.00000E+00
    0.00000E+00         0.00000E+00        -0.20277E+05
 
   -0.10034E+06         0.16083E+05         0.00000E+00
    0.16083E+05        -0.85770E+03         0.00000E+00
    0.00000E+00         0.00000E+00        -0.20239E+05
 
   -0.99819E+05         0.18537E+05         0.00000E+00
    0.18537E+05        -0.11486E+04         0.00000E+00
    0.00000E+00         0.00000E+00        -0.20194E+05
 
   -0.99216E+05         0.20978E+05         0.00000E+00
    0.20978E+05        -0.14809E+04         0.00000E+00
    0.00000E+00         0.00000E+00        -0.20139E+05
 
   -0.98530E+05         0.23405E+05         0.00000E+00
    0.23405E+05        -0.18543E+04         0.00000E+00
    0.00000E+00         0.00000E+00        -0.20077E+05
 
   -0.97761E+05         0.25815E+05         0.00000E+00
    0.25815E+05        -0.22687E+04         0.00000E+00
    0.00000E+00         0.00000E+00        -0.20006E+05
 
   -0.96910E+05         0.28206E+05         0.00000E+00
    0.28206E+05        -0.27237E+04         0.00000E+00
    0.00000E+00         0.00000E+00        -0.19927E+05
 
   -0.95976E+05         0.30575E+05         0.00000E+00
    0.30575E+05        -0.32189E+04         0.00000E+00
    0.00000E+00         0.00000E+00        -0.19839E+05
 
   -0.94961E+05         0.32922E+05         0.00000E+00
    0.32922E+05        -0.37539E+04         0.00000E+00
    0.00000E+00         0.00000E+00        -0.19743E+05
 
   -0.93864E+05         0.35243E+05         0.00000E+00
    0.35243E+05        -0.43282E+04         0.00000E+00
    0.00000E+00         0.00000E+00        -0.19638E+05
 
   -0.92687E+05         0.37537E+05         0.00000E+00
    0.37537E+05        -0.49414E+04         0.00000E+00
    0.00000E+00         0.00000E+00        -0.19526E+05
 
   -0.91430E+05         0.39801E+05         0.00000E+00
    0.39801E+05        -0.55929E+04         0.00000E+00
    0.00000E+00         0.00000E+00        -0.19405E+05
 
   -0.90095E+05         0.42033E+05         0.00000E+00
    0.42033E+05        -0.62822E+04         0.00000E+00
    0.00000E+00         0.00000E+00        -0.19275E+05
 
   -0.88681E+05         0.44231E+05         0.00000E+00
    0.44231E+05        -0.70085E+04         0.00000E+00
    0.00000E+00         0.00000E+00        -0.19138E+05
 
   -0.87190E+05         0.46394E+05         0.00000E+00
    0.46394E+05        -0.77713E+04         0.00000E+00
    0.00000E+00         0.00000E+00        -0.18992E+05
 
   -0.85622E+05         0.48519E+05         0.00000E+00
    0.48519E+05        -0.85698E+04         0.00000E+00
    0.00000E+00         0.00000E+00        -0.18838E+05
 
   -0.83979E+05         0.50604E+05         0.00000E+00
    0.50604E+05        -0.94033E+04         0.00000E+00
    0.00000E+00         0.00000E+00        -0.18677E+05
 
   -0.82262E+05         0.52648E+05         0.00000E+00
    0.52648E+05        -0.10271E+05         0.00000E+00
    0.00000E+00         0.00000E+00        -0.18507E+05
 
   -0.80472E+05         0.54649E+05         0.00000E+00
    0.54649E+05        -0.11172E+05         0.00000E+00
    0.00000E+00         0.00000E+00        -0.18329E+05
 
   -0.78609E+05         0.56605E+05         0.00000E+00
    0.56605E+05        -0.12106E+05         0.00000E+00
    0.00000E+00         0.00000E+00        -0.18143E+05
 
   -0.76676E+05         0.58514E+05         0.00000E+00
    0.58514E+05        -0.13072E+05         0.00000E+00
    0.00000E+00         0.00000E+00        -0.17950E+05
 
   -0.74672E+05         0.60374E+05         0.00000E+00
    0.60374E+05        -0.14069E+05         0.00000E+00
    0.00000E+00         0.00000E+00        -0.17748E+05
 
   -0.72601E+05         0.62184E+05         0.00000E+00
    0.62184E+05        -0.15096E+05         0.00000E+00
    0.00000E+00         0.00000E+00        -0.17539E+05
 
   -0.70462E+05         0.63942E+05         0.00000E+00
    0.63942E+05        -0.16152E+05         0.00000E+00
    0.00000E+00         0.00000E+00        -0.17323E+05
 
   -0.68257E+05         0.65647E+05         0.00000E+00
    0.65647E+05        -0.17236E+05         0.00000E+00
    0.00000E+00         0.00000E+00        -0.17099E+05
 
   -0.65988E+05         0.67297E+05         0.00000E+00
    0.67297E+05        -0.18347E+05         0.00000E+00
    0.00000E+00         0.00000E+00        -0.16867E+05
 
   -0.63655E+05         0.68890E+05         0.00000E+00
    0.68890E+05        -0.19485E+05         0.00000E+00
    0.00000E+00         0.00000E+00        -0.16628E+05
 
   -0.61261E+05         0.70425E+05         0.00000E+00
    0.70425E+05        -0.20649E+05         0.00000E+00
    0.00000E+00         0.00000E+00        -0.16382E+05
 
   -0.58807E+05         0.71901E+05         0.00000E+00
    0.71901E+05        -0.21836E+05         0.00000E+00
    0.00000E+00         0.00000E+00        -0.16129E+05
 
   -0.56294E+05         0.73316E+05         0.00000E+00
    0.73316E+05        -0.23047E+05         0.00000E+00
    0.00000E+00         0.00000E+00        -0.15868E+05
 
   -0.53723E+05         0.74669E+05         0.00000E+00
    0.74669E+05        -0.24281E+05         0.00000E+00
    0.00000E+00         0.00000E+00        -0.15601E+05
 
   -0.51097E+05         0.75958E+05         0.00000E+00
    0.75958E+05        -0.25536E+05         0.00000E+00
    0.00000E+00         0.00000E+00        -0.15327E+05
 
   -0.48417E+05         0.77182E+05         0.00000E+00
    0.77182E+05        -0.26811E+05         0.00000E+00
    0.00000E+00         0.00000E+00        -0.15045E+05
 
   -0.45684E+05         0.78341E+05         0.00000E+00
    0.78341E+05        -0.28105E+05         0.00000E+00
    0.00000E+00         0.00000E+00        -0.14758E+05
 
   -0.42900E+05         0.79432E+05         0.00000E+00
    0.79432E+05        -0.29417E+05         0.00000E+00
    0.00000E+00         0.00000E+00        -0.14463E+05
 
   -0.40066E+05         0.80454E+05         0.00000E+00
    0.80454E+05        -0.30747E+05         0.00000E+00
    0.00000E+00         0.00000E+00        -0.14163E+05
 
   -0.37184E+05         0.81407E+05         0.00000E+00
    0.81407E+05        -0.32093E+05         0.00000E+00
    0.00000E+00         0.00000E+00        -0.13855E+05
 
   -0.34257E+05         0.82290E+05         0.00000E+00
    0.82290E+05        -0.33453E+05         0.00000E+00
    0.00000E+00         0.00000E+00        -0.13542E+05
 
   -0.31285E+05         0.83100E+05         0.00000E+00
    0.83100E+05        -0.34828E+05         0.00000E+00
    0.00000E+00         0.00000E+00        -0.13223E+05
 
   -0.28270E+05         0.83838E+05         0.00000E+00
    0.83838E+05        -0.36215E+05         0.00000E+00
    0.00000E+00         0.00000E+00        -0.12897E+05
 
   -0.25214E+05         0.84502E+05         0.00000E+00
    0.84502E+05        -0.37614E+05         0.00000E+00
    0.00000E+00         0.00000E+00        -0.12566E+05
 
   -0.22119E+05         0.85090E+05         0.00000E+00
    0.85090E+05        -0.39023E+05         0.00000E+00
    0.00000E+00         0.00000E+00        -0.12228E+05
 
   -0.18986E+05         0.85603E+05         0.00000E+00
    0.85603E+05        -0.40442E+05         0.00000E+00
    0.00000E+00         0.00000E+00        -0.11886E+05
 
   -0.15817E+05         0.86039E+05         0.00000E+00
    0.86039E+05        -0.41869E+05         0.00000E+00
    0.00000E+00         0.00000E+00        -0.11537E+05
 
   -0.12615E+05         0.86398E+05         0.00000E+00
    0.86398E+05        -0.43303E+05         0.00000E+00
    0.00000E+00         0.00000E+00        -0.11183E+05
 
   -0.89808E+05         0.11388E+04         0.00000E+00
    0.11388E+04         0.11355E+02         0.00000E+00
    0.00000E+00         0.00000E+00        -0.17959E+05
 
   -0.89778E+05         0.34243E+04         0.00000E+00
    0.34243E+04        -0.24355E+02         0.00000E+00
    0.00000E+00         0.00000E+00        -0.17960E+05
 
   -0.89675E+05         0.57105E+04         0.00000E+00
    0.57105E+04        -0.96196E+02         0.00000E+00
    0.00000E+00         0.00000E+00        -0.17954E+05
 
   -0.89501E+05         0.79954E+04         0.00000E+00
    0.79954E+04        -0.20428E+03         0.00000E+00
    0.00000E+00         0.00000E+00        -0.17941E+05
 
   -0.89253E+05         0.10277E+05         0.00000E+00
    0.10277E+05        -0.34868E+03         0.00000E+00
    0.00000E+00         0.00000E+00        -0.17920E+05
 
   -0.88933E+05         0.12553E+05         0.00000E+00
    0.12553E+05        -0.52942E+03         0.00000E+00
    0.00000E+00         0.00000E+00        -0.17893E+05
 
   -0.88540E+05         0.14822E+05         0.00000E+00
    0.14822E+05        -0.74646E+03         0.00000E+00
    0.00000E+00         0.00000E+00        -0.17857E+05
 
   -0.88075E+05         0.17082E+05         0.00000E+00
    0.17082E+05        -0.99973E+03         0.00000E+00
    0.00000E+00         0.00000E+00        -0.17815E+05
 
   -0.87536E+05         0.19330E+05         0.00000E+00
    0.19330E+05        -0.12891E+04         0.00000E+00
    0.00000E+00         0.00000E+00        -0.17765E+05
 
   -0.86925E+05         0.21565E+05         0.00000E+00
    0.21565E+05        -0.16144E+04         0.00000E+00
    0.00000E+00         0.00000E+00        -0.17708E+05
 
   -0.86242E+05         0.23784E+05         0.00000E+00
    0.23784E+05        -0.19755E+04         0.00000E+00
    0.00000E+00         0.00000E+00        -0.17643E+05
 
   -0.85486E+05         0.25986E+05         0.00000E+00
    0.25986E+05        -0.23721E+04         0.00000E+00
    0.00000E+00         0.00000E+00        -0.17572E+05
 
   -0.84659E+05         0.28169E+05         0.00000E+00
    0.28169E+05        -0.28039E+04         0.00000E+00
    0.00000E+00         0.00000E+00        -0.17493E+05
 
   -0.83760E+05         0.30330E+05         0.00000E+00
    0.30330E+05        -0.32705E+04         0.00000E+00
    0.00000E+00         0.00000E+00        -0.17406E+05
 
   -0.82791E+05         0.32468E+05         0.00000E+00
    0.32468E+05        -0.37717E+04         0.00000E+00
    0.00000E+00         0.00000E+00        -0.17312E+05
 
   -0.81750E+05         0.34580E+05         0.00000E+00
    0.34580E+05        -0.43070E+04         0.00000E+00
    0.00000E+00         0.00000E+00        -0.17211E+05
 
   -0.80640E+05         0.36666E+05         0.00000E+00
    0.36666E+05        -0.48759E+04         0.00000E+00
    0.00000E+00         0.00000E+00        -0.17103E+05
 
   -0.79461E+05         0.38722E+05         0.00000E+00
    0.38722E+05        -0.54780E+04         0.00000E+00
    0.00000E+00         0.00000E+00        -0.16988E+05
 
   -0.78213E+05         0.40748E+05         0.00000E+00
    0.40748E+05        -0.61128E+04         0.00000E+00
    0.00000E+00         0.00000E+00        -0.16865E+05
 
   -0.76898E+05         0.42741E+05         0.00000E+00
    0.42741E+05        -0.67797E+04         0.00000E+00
    0.00000E+00         0.00000E+00        -0.16735E+05
 
   -0.75515E+05         0.44700E+05         0.00000E+00
    0.44700E+05        -0.74781E+04         0.00000E+00
    0.00000E+00         0.00000E+00        -0.16599E+05
 
   -0.74066E+05         0.46622E+05         0.00000E+00
    0.46622E+05        -0.82075E+04         0.00000E+00
    0.00000E+00         0.00000E+00        -0.16455E+05
 
   -0.72551E+05         0.48507E+05         0.00000E+00
    0.48507E+05        -0.89673E+04         0.00000E+00
    0.00000E+00         0.00000E+00        -0.16304E+05
 
   -0.70972E+05         0.50352E+05         0.00000E+00
    0.50352E+05        -0.97566E+04         0.00000E+00
    0.00000E+00         0.00000E+00        -0.16146E+05
 
   -0.69329E+05         0.52155E+05         0.00000E+00
    0.52155E+05        -0.10575E+05         0.00000E+00
    0.00000E+00         0.00000E+00        -0.15981E+05
 
   -0.67624E+05         0.53916E+05         0.00000E+00
    0.53916E+05        -0.11422E+05         0.00000E+00
    0.00000E+00         0.00000E+00        -0.15809E+05
 
   -0.65858E+05         0.55632E+05         0.00000E+00
    0.55632E+05        -0.12296E+05         0.00000E+00
    0.00000E+00         0.00000E+00        -0.15631E+05
 
   -0.64031E+05         0.57302E+05         0.00000E+00
    0.57302E+05        -0.13197E+05         0.00000E+00
    0.00000E+00         0.00000E+00        -0.15445E+05
 
   -0.62144E+05         0.58925E+05         0.00000E+00
    0.58925E+05        -0.14124E+05         0.00000E+00
    0.00000E+00         0.00000E+00        -0.15254E+05
 
   -0.60199E+05         0.60498E+05         0.00000E+00
    0.60498E+05        -0.15076E+05         0.00000E+00
    0.00000E+00         0.00000E+00        -0.15055E+05
 
   -0.58198E+05         0.62021E+05         0.00000E+00
    0.62021E+05        -0.16052E+05         0.00000E+00
    0.00000E+00         0.00000E+00        -0.14850E+05
 
   -0.56140E+05         0.63492E+05         0.00000E+00
    0.63492E+05        -0.17052E+05         0.00000E+00
    0.00000E+00         0.00000E+00        -0.14638E+05
 
   -0.54028E+05         0.64909E+05         0.00000E+00
    0.64909E+05        -0.18075E+05         0.00000E+00
    0.00000E+00         0.00000E+00        -0.14421E+05
 
   -0.51862E+05         0.66272E+05         0.00000E+00
    0.66272E+05        -0.19120E+05         0.00000E+00
    0.00000E+00         0.00000E+00        -0.14196E+05
 
   -0.49644E+05         0.67578E+05         0.00000E+00
    0.67578E+05        -0.20185E+05         0.00000E+00
    0.00000E+00         0.00000E+00        -0.13966E+05
 
   -0.47376E+05         0.68827E+05         0.00000E+00
    0.68827E+05        -0.21271E+05         0.00000E+00
    0.00000E+00         0.00000E+00        -0.13729E+05
 
   -0.45058E+05         0.70018E+05         0.00000E+00
    0.70018E+05        -0.22376E+05         0.00000E+00
    0.00000E+00         0.00000E+00        -0.13487E+05
 
   -0.42693E+05         0.71149E+05         0.00000E+00
    0.71149E+05        -0.23499E+05         0.00000E+00
    0.00000E+00         0.00000E+00        -0.13238E+05
 
   -0.40280E+05         0.72218E+05         0.00000E+00
    0.72218E+05        -0.24639E+05         0.00000E+00
    0.00000E+00         0.00000E+00        -0.12984E+05
 
   -0.37822E+05         0.73225E+05         0.00000E+00
    0.73225E+05        -0.25796E+05         0.00000E+00
    0.00000E+00         0.00000E+00        -0.12724E+05
 
   -0.35321E+05         0.74169E+05         0.00000E+00
    0.74169E+05        -0.26968E+05         0.00000E+00
    0.00000E+00         0.00000E+00        -0.12458E+05
 
   -0.32777E+05         0.75049E+05         0.00000E+00
    0.75049E+05        -0.28154E+05         0.00000E+00
    0.00000E+00         0.00000E+00        -0.12186E+05
 
   -0.30193E+05         0.75863E+05         0.00000E+00
    0.75863E+05        -0.29354E+05         0.00000E+00
    0.00000E+00         0.00000E+00        -0.11909E+05
 
   -0.27569E+05         0.76610E+05         0.00000E+00
    0.76610E+05        -0.30567E+05         0.00000E+00
    0.00000E+00         0.00000E+00        -0.11627E+05
 
   -0.24908E+05         0.77290E+05         0.00000E+00
    0.77290E+05        -0.31790E+05         0.00000E+00
    0.00000E+00         0.00000E+00        -0.11340E+05
 
   -0.22210E+05         0.77902E+05         0.00000E+00
    0.77902E+05        -0.33025E+05         0.00000E+00
    0.00000E+00         0.00000E+00        -0.11047E+05
 
   -0.19478E+05         0.78444E+05         0.00000E+00
    0.78444E+05        -0.34268E+05         0.00000E+00
    0.00000E+00         0.00000E+00        -0.10749E+05
 
   -0.16713E+05         0.78915E+05         0.00000E+00
    0.78915E+05        -0.35520E+05         0.00000E+00
    0.00000E+00         0.00000E+00        -0.10446E+05
 
   -0.13916E+05         0.79316E+05         0.00000E+00
    0.79316E+05        -0.36779E+05         0.00000E+00
    0.00000E+00         0.00000E+00        -0.10139E+05
 
   -0.11090E+05         0.79644E+05         0.00000E+00
    0.79644E+05        -0.38044E+05         0.00000E+00
    0.00000E+00         0.00000E+00        -0.98268E+04
 
   -0.78814E+05         0.10559E+04         0.00000E+00
    0.10559E+04         0.98498E+01         0.00000E+00
    0.00000E+00         0.00000E+00        -0.15761E+05
 
   -0.78777E+05         0.31733E+04         0.00000E+00
    0.31733E+04        -0.21135E+02         0.00000E+00
    0.00000E+00         0.00000E+00        -0.15760E+05
 
   -0.78677E+05         0.52909E+04         0.00000E+00
    0.52909E+04        -0.83463E+02         0.00000E+00
    0.00000E+00         0.00000E+00        -0.15752E+05
 
   -0.78515E+05         0.74068E+04         0.00000E+00
    0.74068E+04        -0.17723E+03         0.00000E+00
    0.00000E+00         0.00000E+00        -0.15738E+05
 
   -0.78289E+05         0.95191E+04         0.00000E+00
    0.95191E+04        -0.30251E+03         0.00000E+00
    0.00000E+00         0.00000E+00        -0.15718E+05
 
   -0.78000E+05         0.11626E+05         0.00000E+00
    0.11626E+05        -0.45931E+03         0.00000E+00
    0.00000E+00         0.00000E+00        -0.15692E+05
 
   -0.77649E+05         0.13726E+05         0.00000E+00
    0.13726E+05        -0.64762E+03         0.00000E+00
    0.00000E+00         0.00000E+00        -0.15659E+05
 
   -0.77234E+05         0.15817E+05         0.00000E+00
    0.15817E+05        -0.86740E+03         0.00000E+00
    0.00000E+00         0.00000E+00        -0.15620E+05
 
   -0.76755E+05         0.17897E+05         0.00000E+00
    0.17897E+05        -0.11185E+04         0.00000E+00
    0.00000E+00         0.00000E+00        -0.15575E+05
 
   -0.76214E+05         0.19965E+05         0.00000E+00
    0.19965E+05        -0.14009E+04         0.00000E+00
    0.00000E+00         0.00000E+00        -0.15523E+05
 
   -0.75610E+05         0.22018E+05         0.00000E+00
    0.22018E+05        -0.17144E+04         0.00000E+00
    0.00000E+00         0.00000E+00        -0.15465E+05
 
   -0.74943E+05         0.24055E+05         0.00000E+00
    0.24055E+05        -0.20588E+04         0.00000E+00
    0.00000E+00         0.00000E+00        -0.15400E+05
 
   -0.74214E+05         0.26073E+05         0.00000E+00
    0.26073E+05        -0.24338E+04         0.00000E+00
    0.00000E+00         0.00000E+00        -0.15330E+05
 
   -0.73423E+05         0.28072E+05         0.00000E+00
    0.28072E+05        -0.28392E+04         0.00000E+00
    0.00000E+00         0.00000E+00        -0.15252E+05
 
   -0.72570E+05         0.30050E+05         0.00000E+00
    0.30050E+05        -0.32747E+04         0.00000E+00
    0.00000E+00         0.00000E+00        -0.15169E+05
 
   -0.71655E+05         0.32004E+05         0.00000E+00
    0.32004E+05        -0.37400E+04         0.00000E+00
    0.00000E+00         0.00000E+00        -0.15079E+05
 
   -0.70680E+05         0.33933E+05         0.00000E+00
    0.33933E+05        -0.42347E+04         0.00000E+00
    0.00000E+00         0.00000E+00        -0.14983E+05
 
   -0.69645E+05         0.35836E+05         0.00000E+00
    0.35836E+05        -0.47583E+04         0.00000E+00
    0.00000E+00         0.00000E+00        -0.14881E+05
 
   -0.68549E+05         0.37710E+05         0.00000E+00
    0.37710E+05        -0.53106E+04         0.00000E+00
    0.00000E+00         0.00000E+00        -0.14772E+05
 
   -0.67394E+05         0.39554E+05         0.00000E+00
    0.39554E+05        -0.58910E+04         0.00000E+00
    0.00000E+00         0.00000E+00        -0.14657E+05
 
   -0.66181E+05         0.41366E+05         0.00000E+00
    0.41366E+05        -0.64990E+04         0.00000E+00
    0.00000E+00         0.00000E+00        -0.14536E+05
 
   -0.64910E+05         0.43145E+05         0.00000E+00
    0.43145E+05        -0.71342E+04         0.00000E+00
    0.00000E+00         0.00000E+00        -0.14409E+05
 
   -0.63582E+05         0.44889E+05         0.00000E+00
    0.44889E+05        -0.77961E+04         0.00000E+00
    0.00000E+00         0.00000E+00        -0.14276E+05
 
   -0.62197E+05         0.46596E+05         0.00000E+00
    0.46596E+05        -0.84839E+04         0.00000E+00
    0.00000E+00         0.00000E+00        -0.14136E+05
 
   -0.60756E+05         0.48265E+05         0.00000E+00
    0.48265E+05        -0.91973E+04         0.00000E+00
    0.00000E+00         0.00000E+00        -0.13991E+05
 
   -0.59261E+05         0.49895E+05         0.00000E+00
    0.49895E+05        -0.99356E+04         0.00000E+00
    0.00000E+00         0.00000E+00        -0.13839E+05
 
   -0.57712E+05         0.51483E+05         0.00000E+00
    0.51483E+05        -0.10698E+05         0.00000E+00
    0.00000E+00         0.00000E+00        -0.13682E+05
 
   -0.56110E+05         0.53029E+05         0.00000E+00
    0.53029E+05        -0.11484E+05         0.00000E+00
    0.00000E+00         0.00000E+00        -0.13519E+05
 
   -0.54456E+05         0.54531E+05         0.00000E+00
    0.54531E+05        -0.12293E+05         0.00000E+00
    0.00000E+00         0.00000E+00        -0.13350E+05
 
   -0.52751E+05         0.55988E+05         0.00000E+00
    0.55988E+05        -0.13125E+05         0.00000E+00
    0.00000E+00         0.00000E+00        -0.13175E+05
 
   -0.50996E+05         0.57398E+05         0.00000E+00
    0.57398E+05        -0.13978E+05         0.00000E+00
    0.00000E+00         0.00000E+00        -0.12995E+05
 
   -0.49192E+05         0.58760E+05         0.00000E+00
    0.58760E+05        -0.14851E+05         0.00000E+00
    0.00000E+00         0.00000E+00        -0.12809E+05
 
   -0.47340E+05         0.60072E+05         0.00000E+00
    0.60072E+05        -0.15745E+05         0.00000E+00
    0.00000E+00         0.00000E+00        -0.12617E+05
 
   -0.45441E+05         0.61334E+05         0.00000E+00
    0.61334E+05        -0.16659E+05         0.00000E+00
    0.00000E+00         0.00000E+00        -0.12420E+05
 
   -0.43497E+05         0.62544E+05         0.00000E+00
    0.62544E+05        -0.17591E+05         0.00000E+00
    0.00000E+00         0.00000E+00        -0.12217E+05
 
   -0.41508E+05         0.63700E+05         0.00000E+00
    0.63700E+05        -0.18540E+05         0.00000E+00
    0.00000E+00         0.00000E+00        -0.12010E+05
 
   -0.39475E+05         0.64803E+05         0.00000E+00
    0.64803E+05        -0.19507E+05         0.00000E+00
    0.00000E+00         0.00000E+00        -0.11796E+05
 
   -0.37401E+05         0.65849E+05         0.00000E+00
    0.65849E+05        -0.20490E+05         0.00000E+00
    0.00000E+00         0.00000E+00        -0.11578E+05
 
   -0.35285E+05         0.66840E+05         0.00000E+00
    0.66840E+05        -0.21488E+05         0.00000E+00
    0.00000E+00         0.00000E+00        -0.11355E+05
 
   -0.33130E+05         0.67772E+05         0.00000E+00
    0.67772E+05        -0.22501E+05         0.00000E+00
    0.00000E+00         0.00000E+00        -0.11126E+05
 
   -0.30936E+05         0.68646E+05         0.00000E+00
    0.68646E+05        -0.23527E+05         0.00000E+00
    0.00000E+00         0.00000E+00        -0.10893E+05
 
   -0.28706E+05         0.69459E+05         0.00000E+00
    0.69459E+05        -0.24566E+05         0.00000E+00
    0.00000E+00         0.00000E+00        -0.10654E+05
 
   -0.26439E+05         0.70212E+05         0.00000E+00
    0.70212E+05        -0.25618E+05         0.00000E+00
    0.00000E+00         0.00000E+00        -0.10411E+05
 
   -0.24139E+05         0.70904E+05         0.00000E+00
    0.70904E+05        -0.26680E+05         0.00000E+00
    0.00000E+00         0.00000E+00        -0.10164E+05
 
   -0.21805E+05         0.71532E+05         0.00000E+00
    0.71532E+05        -0.27752E+05         0.00000E+00
    0.00000E+00         0.00000E+00        -0.99114E+04
 
   -0.19440E+05         0.72097E+05         0.00000E+00
    0.72097E+05        -0.28834E+05         0.00000E+00
    0.00000E+00         0.00000E+00        -0.96547E+04
 
   -0.17044E+05         0.72598E+05         0.00000E+00
    0.72598E+05        -0.29923E+05         0.00000E+00
    0.00000E+00         0.00000E+00        -0.93936E+04
 
   -0.14620E+05         0.73033E+05         0.00000E+00
    0.73033E+05        -0.31021E+05         0.00000E+00
    0.00000E+00         0.00000E+00        -0.91282E+04
 
   -0.12169E+05         0.73402E+05         0.00000E+00
    0.73402E+05        -0.32124E+05         0.00000E+00
    0.00000E+00         0.00000E+00        -0.88586E+04
 
   -0.96919E+04         0.73704E+05         0.00000E+00
    0.73704E+05        -0.33233E+05         0.00000E+00
    0.00000E+00         0.00000E+00        -0.85850E+04
 
   -0.68601E+05         0.98409E+03         0.00000E+00
    0.98409E+03         0.84966E+01         0.00000E+00
    0.00000E+00         0.00000E+00        -0.13718E+05
 
   -0.68560E+05         0.29562E+04         0.00000E+00
    0.29562E+04        -0.18247E+02         0.00000E+00
    0.00000E+00         0.00000E+00        -0.13716E+05
 
   -0.68466E+05         0.49278E+04         0.00000E+00
    0.49278E+04        -0.72027E+02         0.00000E+00
    0.00000E+00         0.00000E+00        -0.13708E+05
 
   -0.68317E+05         0.68974E+04         0.00000E+00
    0.68974E+04        -0.15293E+03         0.00000E+00
    0.00000E+00         0.00000E+00        -0.13694E+05
 
   -0.68114E+05         0.88632E+04         0.00000E+00
    0.88632E+04        -0.26100E+03         0.00000E+00
    0.00000E+00         0.00000E+00        -0.13675E+05
 
   -0.67856E+05         0.10824E+05         0.00000E+00
    0.10824E+05        -0.39628E+03         0.00000E+00
    0.00000E+00         0.00000E+00        -0.13650E+05
 
   -0.67544E+05         0.12777E+05         0.00000E+00
    0.12777E+05        -0.55874E+03         0.00000E+00
    0.00000E+00         0.00000E+00        -0.13621E+05
 
   -0.67178E+05         0.14722E+05         0.00000E+00
    0.14722E+05        -0.74834E+03         0.00000E+00
    0.00000E+00         0.00000E+00        -0.13585E+05
 
   -0.66756E+05         0.16657E+05         0.00000E+00
    0.16657E+05        -0.96503E+03         0.00000E+00
    0.00000E+00         0.00000E+00        -0.13544E+05
 
   -0.66281E+05         0.18579E+05         0.00000E+00
    0.18579E+05        -0.12087E+04         0.00000E+00
    0.00000E+00         0.00000E+00        -0.13498E+05
 
   -0.65751E+05         0.20488E+05         0.00000E+00
    0.20488E+05        -0.14792E+04         0.00000E+00
    0.00000E+00         0.00000E+00        -0.13446E+05
 
   -0.65168E+05         0.22382E+05         0.00000E+00
    0.22382E+05        -0.17764E+04         0.00000E+00
    0.00000E+00         0.00000E+00        -0.13389E+05
 
   -0.64530E+05         0.24258E+05         0.00000E+00
    0.24258E+05        -0.21001E+04         0.00000E+00
    0.00000E+00         0.00000E+00        -0.13326E+05
 
   -0.63838E+05         0.26117E+05         0.00000E+00
    0.26117E+05        -0.24502E+04         0.00000E+00
    0.00000E+00         0.00000E+00        -0.13258E+05
 
   -0.63094E+05         0.27955E+05         0.00000E+00
    0.27955E+05        -0.28262E+04         0.00000E+00
    0.00000E+00         0.00000E+00        -0.13184E+05
 
   -0.62296E+05         0.29771E+05         0.00000E+00
    0.29771E+05        -0.32280E+04         0.00000E+00
    0.00000E+00         0.00000E+00        -0.13105E+05
 
   -0.61445E+05         0.31564E+05         0.00000E+00
    0.31564E+05        -0.36553E+04         0.00000E+00
    0.00000E+00         0.00000E+00        -0.13020E+05
 
   -0.60543E+05         0.33332E+05         0.00000E+00
    0.33332E+05        -0.41078E+04         0.00000E+00
    0.00000E+00         0.00000E+00        -0.12930E+05
 
   -0.59588E+05         0.35074E+05         0.00000E+00
    0.35074E+05        -0.45850E+04         0.00000E+00
    0.00000E+00         0.00000E+00        -0.12835E+05
 
   -0.58583E+05         0.36788E+05         0.00000E+00
    0.36788E+05        -0.50867E+04         0.00000E+00
    0.00000E+00         0.00000E+00        -0.12734E+05
 
   -0.57526E+05         0.38472E+05         0.00000E+00
    0.38472E+05        -0.56125E+04         0.00000E+00
    0.00000E+00         0.00000E+00        -0.12628E+05
 
   -0.56420E+05         0.40125E+05         0.00000E+00
    0.40125E+05        -0.61618E+04         0.00000E+00
    0.00000E+00         0.00000E+00        -0.12516E+05
 
   -0.55264E+05         0.41746E+05         0.00000E+00
    0.41746E+05        -0.67343E+04         0.00000E+00
    0.00000E+00         0.00000E+00        -0.12400E+05
 
   -0.54059E+05         0.43333E+05         0.00000E+00
    0.43333E+05        -0.73295E+04         0.00000E+00
    0.00000E+00         0.00000E+00        -0.12278E+05
 
   -0.52806E+05         0.44885E+05         0.00000E+00
    0.44885E+05        -0.79469E+04         0.00000E+00
    0.00000E+00         0.00000E+00        -0.12150E+05
 
   -0.51505E+05         0.46399E+05         0.00000E+00
    0.46399E+05        -0.85860E+04         0.00000E+00
    0.00000E+00         0.00000E+00        -0.12018E+05
 
   -0.50157E+05         0.47876E+05         0.00000E+00
    0.47876E+05        -0.92462E+04         0.00000E+00
    0.00000E+00         0.00000E+00        -0.11881E+05
 
   -0.48764E+05         0.49313E+05         0.00000E+00
    0.49313E+05        -0.99271E+04         0.00000E+00
    0.00000E+00         0.00000E+00        -0.11738E+05
 
   -0.47325E+05         0.50709E+05         0.00000E+00
    0.50709E+05        -0.10628E+05         0.00000E+00
    0.00000E+00         0.00000E+00        -0.11591E+05
 
   -0.45842E+05         0.52063E+05         0.00000E+00
    0.52063E+05        -0.11349E+05         0.00000E+00
    0.00000E+00         0.00000E+00        -0.11438E+05
 
   -0.44316E+05         0.53374E+05         0.00000E+00
    0.53374E+05        -0.12088E+05         0.00000E+00
    0.00000E+00         0.00000E+00        -0.11281E+05
 
   -0.42747E+05         0.54640E+05         0.00000E+00
    0.54640E+05        -0.12845E+05         0.00000E+00
    0.00000E+00         0.00000E+00        -0.11118E+05
 
   -0.41136E+05         0.55859E+05         0.00000E+00
    0.55859E+05        -0.13621E+05         0.00000E+00
    0.00000E+00         0.00000E+00        -0.10951E+05
 
   -0.39485E+05         0.57032E+05         0.00000E+00
    0.57032E+05        -0.14413E+05         0.00000E+00
    0.00000E+00         0.00000E+00        -0.10780E+05
 
   -0.37794E+05         0.58157E+05         0.00000E+00
    0.58157E+05        -0.15221E+05         0.00000E+00
    0.00000E+00         0.00000E+00        -0.10603E+05
 
   -0.36064E+05         0.59232E+05         0.00000E+00
    0.59232E+05        -0.16045E+05         0.00000E+00
    0.00000E+00         0.00000E+00        -0.10422E+05
 
   -0.34297E+05         0.60256E+05         0.00000E+00
    0.60256E+05        -0.16884E+05         0.00000E+00
    0.00000E+00         0.00000E+00        -0.10236E+05
 
   -0.32492E+05         0.61229E+05         0.00000E+00
    0.61229E+05        -0.17737E+05         0.00000E+00
    0.00000E+00         0.00000E+00        -0.10046E+05
 
   -0.30653E+05         0.62149E+05         0.00000E+00
    0.62149E+05        -0.18604E+05         0.00000E+00
    0.00000E+00         0.00000E+00        -0.98514E+04
 
   -0.28779E+05         0.63015E+05         0.00000E+00
    0.63015E+05        -0.19483E+05         0.00000E+00
    0.00000E+00         0.00000E+00        -0.96525E+04
 
   -0.26871E+05         0.63827E+05         0.00000E+00
    0.63827E+05        -0.20375E+05         0.00000E+00
    0.00000E+00         0.00000E+00        -0.94493E+04
 
   -0.24932E+05         0.64583E+05         0.00000E+00
    0.64583E+05        -0.21278E+05         0.00000E+00
    0.00000E+00         0.00000E+00        -0.92419E+04
 
   -0.22961E+05         0.65282E+05         0.00000E+00
    0.65282E+05        -0.22191E+05         0.00000E+00
    0.00000E+00         0.00000E+00        -0.90304E+04
 
   -0.20961E+05         0.65923E+05         0.00000E+00
    0.65923E+05        -0.23113E+05         0.00000E+00
    0.00000E+00         0.00000E+00        -0.88149E+04
 
   -0.18932E+05         0.66507E+05         0.00000E+00
    0.66507E+05        -0.24045E+05         0.00000E+00
    0.00000E+00         0.00000E+00        -0.85955E+04
 
   -0.16876E+05         0.67031E+05         0.00000E+00
    0.67031E+05        -0.24985E+05         0.00000E+00
    0.00000E+00         0.00000E+00        -0.83722E+04
 
   -0.14794E+05         0.67495E+05         0.00000E+00
    0.67495E+05        -0.25932E+05         0.00000E+00
    0.00000E+00         0.00000E+00        -0.81452E+04
 
   -0.12687E+05         0.67898E+05         0.00000E+00
    0.67898E+05        -0.26885E+05         0.00000E+00
    0.00000E+00         0.00000E+00        -0.79144E+04
 
   -0.10557E+05         0.68239E+05         0.00000E+00
    0.68239E+05        -0.27844E+05         0.00000E+00
    0.00000E+00         0.00000E+00        -0.76801E+04
 
   -0.84042E+04         0.68519E+05         0.00000E+00
    0.68519E+05        -0.28808E+05         0.00000E+00
    0.00000E+00         0.00000E+00        -0.74424E+04
 
   -0.59061E+05         0.92235E+03         0.00000E+00
    0.92235E+03         0.72649E+01         0.00000E+00
    0.00000E+00         0.00000E+00        -0.11811E+05
 
   -0.59020E+05         0.27695E+04         0.00000E+00
    0.27695E+04        -0.15618E+02         0.00000E+00
    0.00000E+00         0.00000E+00        -0.11807E+05
 
   -0.58933E+05         0.46157E+04         0.00000E+00
    0.46157E+04        -0.61620E+02         0.00000E+00
    0.00000E+00         0.00000E+00        -0.11799E+05
 
   -0.58799E+05         0.64596E+04         0.00000E+00
    0.64596E+04        -0.13081E+03         0.00000E+00
    0.00000E+00         0.00000E+00        -0.11786E+05
 
   -0.58619E+05         0.82996E+04         0.00000E+00
    0.82996E+04        -0.22323E+03         0.00000E+00
    0.00000E+00         0.00000E+00        -0.11768E+05
 
   -0.58392E+05         0.10134E+05         0.00000E+00
    0.10134E+05        -0.33890E+03         0.00000E+00
    0.00000E+00         0.00000E+00        -0.11746E+05
 
   -0.58119E+05         0.11962E+05         0.00000E+00
    0.11962E+05        -0.47781E+03         0.00000E+00
    0.00000E+00         0.00000E+00        -0.11719E+05
 
   -0.57799E+05         0.13781E+05         0.00000E+00
    0.13781E+05        -0.63993E+03         0.00000E+00
    0.00000E+00         0.00000E+00        -0.11688E+05
 
   -0.57432E+05         0.15591E+05         0.00000E+00
    0.15591E+05        -0.82521E+03         0.00000E+00
    0.00000E+00         0.00000E+00        -0.11652E+05
 
   -0.57020E+05         0.17388E+05         0.00000E+00
    0.17388E+05        -0.10336E+04         0.00000E+00
    0.00000E+00         0.00000E+00        -0.11611E+05
 
   -0.56560E+05         0.19173E+05         0.00000E+00
    0.19173E+05        -0.12649E+04         0.00000E+00
    0.00000E+00         0.00000E+00        -0.11565E+05
 
   -0.56055E+05         0.20944E+05         0.00000E+00
    0.20944E+05        -0.15191E+04         0.00000E+00
    0.00000E+00         0.00000E+00        -0.11515E+05
 
   -0.55503E+05         0.22698E+05         0.00000E+00
    0.22698E+05        -0.17959E+04         0.00000E+00
    0.00000E+00         0.00000E+00        -0.11460E+05
 
   -0.54905E+05         0.24435E+05         0.00000E+00
    0.24435E+05        -0.20953E+04         0.00000E+00
    0.00000E+00         0.00000E+00        -0.11400E+05
 
   -0.54262E+05         0.26153E+05         0.00000E+00
    0.26153E+05        -0.24170E+04         0.00000E+00
    0.00000E+00         0.00000E+00        -0.11336E+05
 
   -0.53573E+05         0.27851E+05         0.00000E+00
    0.27851E+05        -0.27607E+04         0.00000E+00
    0.00000E+00         0.00000E+00        -0.11267E+05
 
   -0.52840E+05         0.29526E+05         0.00000E+00
    0.29526E+05        -0.31264E+04         0.00000E+00
    0.00000E+00         0.00000E+00        -0.11193E+05
 
   -0.52061E+05         0.31179E+05         0.00000E+00
    0.31179E+05        -0.35136E+04         0.00000E+00
    0.00000E+00         0.00000E+00        -0.11115E+05
 
   -0.51239E+05         0.32806E+05         0.00000E+00
    0.32806E+05        -0.39221E+04         0.00000E+00
    0.00000E+00         0.00000E+00        -0.11032E+05
 
   -0.50372E+05         0.34407E+05         0.00000E+00
    0.34407E+05        -0.43515E+04         0.00000E+00
    0.00000E+00         0.00000E+00        -0.10945E+05
 
   -0.49462E+05         0.35981E+05         0.00000E+00
    0.35981E+05        -0.48016E+04         0.00000E+00
    0.00000E+00         0.00000E+00        -0.10853E+05
 
   -0.48509E+05         0.37526E+05         0.00000E+00
    0.37526E+05        -0.52721E+04         0.00000E+00
    0.00000E+00         0.00000E+00        -0.10756E+05
 
   -0.47514E+05         0.39040E+05         0.00000E+00
    0.39040E+05        -0.57624E+04         0.00000E+00
    0.00000E+00         0.00000E+00        -0.10655E+05
 
   -0.46476E+05         0.40523E+05         0.00000E+00
    0.40523E+05        -0.62723E+04         0.00000E+00
    0.00000E+00         0.00000E+00        -0.10550E+05
 
   -0.45397E+05         0.41972E+05         0.00000E+00
    0.41972E+05        -0.68013E+04         0.00000E+00
    0.00000E+00         0.00000E+00        -0.10440E+05
 
   -0.44278E+05         0.43387E+05         0.00000E+00
    0.43387E+05        -0.73490E+04         0.00000E+00
    0.00000E+00         0.00000E+00        -0.10325E+05
 
   -0.43118E+05         0.44766E+05         0.00000E+00
    0.44766E+05        -0.79149E+04         0.00000E+00
    0.00000E+00         0.00000E+00        -0.10207E+05
 
   -0.41919E+05         0.46109E+05         0.00000E+00
    0.46109E+05        -0.84986E+04         0.00000E+00
    0.00000E+00         0.00000E+00        -0.10084E+05
 
   -0.40681E+05         0.47413E+05         0.00000E+00
    0.47413E+05        -0.90997E+04         0.00000E+00
    0.00000E+00         0.00000E+00        -0.99562E+04
 
   -0.39405E+05         0.48678E+05         0.00000E+00
    0.48678E+05        -0.97176E+04         0.00000E+00
    0.00000E+00         0.00000E+00        -0.98246E+04
 
   -0.38092E+05         0.49902E+05         0.00000E+00
    0.49902E+05        -0.10352E+05         0.00000E+00
    0.00000E+00         0.00000E+00        -0.96887E+04
 
   -0.36742E+05         0.51084E+05         0.00000E+00
    0.51084E+05        -0.11002E+05         0.00000E+00
    0.00000E+00         0.00000E+00        -0.95487E+04
 
   -0.35356E+05         0.52224E+05         0.00000E+00
    0.52224E+05        -0.11667E+05         0.00000E+00
    0.00000E+00         0.00000E+00        -0.94047E+04
 
   -0.33936E+05         0.53319E+05         0.00000E+00
    0.53319E+05        -0.12347E+05         0.00000E+00
    0.00000E+00         0.00000E+00        -0.92565E+04
 
   -0.32481E+05         0.54369E+05         0.00000E+00
    0.54369E+05        -0.13041E+05         0.00000E+00
    0.00000E+00         0.00000E+00        -0.91044E+04
 
   -0.30993E+05         0.55373E+05         0.00000E+00
    0.55373E+05        -0.13748E+05         0.00000E+00
    0.00000E+00         0.00000E+00        -0.89483E+04
 
   -0.29473E+05         0.56329E+05         0.00000E+00
    0.56329E+05        -0.14468E+05         0.00000E+00
    0.00000E+00         0.00000E+00        -0.87883E+04
 
   -0.27921E+05         0.57238E+05         0.00000E+00
    0.57238E+05        -0.15201E+05         0.00000E+00
    0.00000E+00         0.00000E+00        -0.86245E+04
 
   -0.26339E+05         0.58097E+05         0.00000E+00
    0.58097E+05        -0.15945E+05         0.00000E+00
    0.00000E+00         0.00000E+00        -0.84569E+04
 
   -0.24728E+05         0.58905E+05         0.00000E+00
    0.58905E+05        -0.16701E+05         0.00000E+00
    0.00000E+00         0.00000E+00        -0.82857E+04
 
   -0.23087E+05         0.59663E+05         0.00000E+00
    0.59663E+05        -0.17467E+05         0.00000E+00
    0.00000E+00         0.00000E+00        -0.81107E+04
 
   -0.21419E+05         0.60368E+05         0.00000E+00
    0.60368E+05        -0.18242E+05         0.00000E+00
    0.00000E+00         0.00000E+00        -0.79323E+04
 
   -0.19725E+05         0.61020E+05         0.00000E+00
    0.61020E+05        -0.19027E+05         0.00000E+00
    0.00000E+00         0.00000E+00        -0.77503E+04
 
   -0.18005E+05         0.61619E+05         0.00000E+00
    0.61619E+05        -0.19819E+05         0.00000E+00
    0.00000E+00         0.00000E+00        -0.75649E+04
 
   -0.16261E+05         0.62163E+05         0.00000E+00
    0.62163E+05        -0.20620E+05         0.00000E+00
    0.00000E+00         0.00000E+00        -0.73761E+04
 
   -0.14493E+05         0.62651E+05         0.00000E+00
    0.62651E+05        -0.21428E+05         0.00000E+00
    0.00000E+00         0.00000E+00        -0.71841E+04
 
   -0.12703E+05         0.63083E+05         0.00000E+00
    0.63083E+05        -0.22241E+05         0.00000E+00
    0.00000E+00         0.00000E+00        -0.69889E+04
 
   -0.10892E+05         0.63459E+05         0.00000E+00
    0.63459E+05        -0.23061E+05         0.00000E+00
    0.00000E+00         0.00000E+00        -0.67905E+04
 
   -0.90611E+04         0.63777E+05         0.00000E+00
    0.63777E+05        -0.23885E+05         0.00000E+00
    0.00000E+00         0.00000E+00        -0.65891E+04
 
   -0.72113E+04         0.64036E+05         0.00000E+00
    0.64036E+05        -0.24713E+05         0.00000E+00
    0.00000E+00         0.00000E+00        -0.63848E+04
 
   -0.50098E+05         0.86983E+03         0.00000E+00
    0.86983E+03         0.61300E+01         0.00000E+00
    0.00000E+00         0.00000E+00        -0.10018E+05
 
   -0.50058E+05         0.26108E+04         0.00000E+00
    0.26108E+04        -0.13193E+02         0.00000E+00
    0.00000E+00         0.00000E+00        -0.10014E+05
 
   -0.49980E+05         0.43504E+04         0.00000E+00
    0.43504E+04        -0.52025E+02         0.00000E+00
    0.00000E+00         0.00000E+00        -0.10006E+05
 
   -0.49862E+05         0.60875E+04         0.00000E+00
    0.60875E+04        -0.11042E+03         0.00000E+00
    0.00000E+00         0.00000E+00        -0.99945E+04
 
   -0.49705E+05         0.78206E+04         0.00000E+00
    0.78206E+04        -0.18841E+03         0.00000E+00
    0.00000E+00         0.00000E+00        -0.99787E+04
 
   -0.49509E+05         0.95482E+04         0.00000E+00
    0.95482E+04        -0.28601E+03         0.00000E+00
    0.00000E+00         0.00000E+00        -0.99591E+04
 
   -0.49274E+05         0.11269E+05         0.00000E+00
    0.11269E+05        -0.40322E+03         0.00000E+00
    0.00000E+00         0.00000E+00        -0.99355E+04
 
   -0.48999E+05         0.12982E+05         0.00000E+00
    0.12982E+05        -0.54000E+03         0.00000E+00
    0.00000E+00         0.00000E+00        -0.99079E+04
 
   -0.48686E+05         0.14685E+05         0.00000E+00
    0.14685E+05        -0.69632E+03         0.00000E+00
    0.00000E+00         0.00000E+00        -0.98764E+04
 
   -0.48333E+05         0.16376E+05         0.00000E+00
    0.16376E+05        -0.87211E+03         0.00000E+00
    0.00000E+00         0.00000E+00        -0.98409E+04
 
   -0.47940E+05         0.18056E+05         0.00000E+00
    0.18056E+05        -0.10673E+04         0.00000E+00
    0.00000E+00         0.00000E+00        -0.98015E+04
 
   -0.47509E+05         0.19721E+05         0.00000E+00
    0.19721E+05        -0.12817E+04         0.00000E+00
    0.00000E+00         0.00000E+00        -0.97582E+04
 
   -0.47039E+05         0.21372E+05         0.00000E+00
    0.21372E+05        -0.15153E+04         0.00000E+00
    0.00000E+00         0.00000E+00        -0.97109E+04
 
   -0.46530E+05         0.23006E+05         0.00000E+00
    0.23006E+05        -0.17680E+04         0.00000E+00
    0.00000E+00         0.00000E+00        -0.96597E+04
 
   -0.45983E+05         0.24621E+05         0.00000E+00
    0.24621E+05        -0.20394E+04         0.00000E+00
    0.00000E+00         0.00000E+00        -0.96045E+04
 
   -0.45397E+05         0.26218E+05         0.00000E+00
    0.26218E+05        -0.23296E+04         0.00000E+00
    0.00000E+00         0.00000E+00        -0.95454E+04
 
   -0.44774E+05         0.27793E+05         0.00000E+00
    0.27793E+05        -0.26382E+04         0.00000E+00
    0.00000E+00         0.00000E+00        -0.94824E+04
 
   -0.44113E+05         0.29347E+05         0.00000E+00
    0.29347E+05        -0.29650E+04         0.00000E+00
    0.00000E+00         0.00000E+00        -0.94155E+04
 
   -0.43414E+05         0.30877E+05         0.00000E+00
    0.30877E+05        -0.33098E+04         0.00000E+00
    0.00000E+00         0.00000E+00        -0.93447E+04
 
   -0.42678E+05         0.32382E+05         0.00000E+00
    0.32382E+05        -0.36725E+04         0.00000E+00
    0.00000E+00         0.00000E+00        -0.92701E+04
 
   -0.41905E+05         0.33862E+05         0.00000E+00
    0.33862E+05        -0.40525E+04         0.00000E+00
    0.00000E+00         0.00000E+00        -0.91916E+04
 
   -0.41097E+05         0.35313E+05         0.00000E+00
    0.35313E+05        -0.44498E+04         0.00000E+00
    0.00000E+00         0.00000E+00        -0.91093E+04
 
   -0.40252E+05         0.36737E+05         0.00000E+00
    0.36737E+05        -0.48640E+04         0.00000E+00
    0.00000E+00         0.00000E+00        -0.90232E+04
 
   -0.39372E+05         0.38130E+05         0.00000E+00
    0.38130E+05        -0.52947E+04         0.00000E+00
    0.00000E+00         0.00000E+00        -0.89333E+04
 
   -0.38457E+05         0.39492E+05         0.00000E+00
    0.39492E+05        -0.57416E+04         0.00000E+00
    0.00000E+00         0.00000E+00        -0.88397E+04
 
   -0.37507E+05         0.40822E+05         0.00000E+00
    0.40822E+05        -0.62044E+04         0.00000E+00
    0.00000E+00         0.00000E+00        -0.87423E+04
 
   -0.36524E+05         0.42118E+05         0.00000E+00
    0.42118E+05        -0.66827E+04         0.00000E+00
    0.00000E+00         0.00000E+00        -0.86413E+04
 
   -0.35507E+05         0.43380E+05         0.00000E+00
    0.43380E+05        -0.71761E+04         0.00000E+00
    0.00000E+00         0.00000E+00        -0.85366E+04
 
   -0.34457E+05         0.44605E+05         0.00000E+00
    0.44605E+05        -0.76841E+04         0.00000E+00
    0.00000E+00         0.00000E+00        -0.84283E+04
 
   -0.33376E+05         0.45793E+05         0.00000E+00
    0.45793E+05        -0.82065E+04         0.00000E+00
    0.00000E+00         0.00000E+00        -0.83164E+04
 
   -0.32262E+05         0.46943E+05         0.00000E+00
    0.46943E+05        -0.87427E+04         0.00000E+00
    0.00000E+00         0.00000E+00        -0.82010E+04
 
   -0.31118E+05         0.48054E+05         0.00000E+00
    0.48054E+05        -0.92924E+04         0.00000E+00
    0.00000E+00         0.00000E+00        -0.80821E+04
 
   -0.29944E+05         0.49124E+05         0.00000E+00
    0.49124E+05        -0.98549E+04         0.00000E+00
    0.00000E+00         0.00000E+00        -0.79597E+04
 
   -0.28739E+05         0.50153E+05         0.00000E+00
    0.50153E+05        -0.10430E+05         0.00000E+00
    0.00000E+00         0.00000E+00        -0.78339E+04
 
   -0.27507E+05         0.51139E+05         0.00000E+00
    0.51139E+05        -0.11017E+05         0.00000E+00
    0.00000E+00         0.00000E+00        -0.77047E+04
 
   -0.26246E+05         0.52082E+05         0.00000E+00
    0.52082E+05        -0.11616E+05         0.00000E+00
    0.00000E+00         0.00000E+00        -0.75722E+04
 
   -0.24957E+05         0.52980E+05         0.00000E+00
    0.52980E+05        -0.12225E+05         0.00000E+00
    0.00000E+00         0.00000E+00        -0.74365E+04
 
   -0.23642E+05         0.53833E+05         0.00000E+00
    0.53833E+05        -0.12845E+05         0.00000E+00
    0.00000E+00         0.00000E+00        -0.72975E+04
 
   -0.22301E+05         0.54639E+05         0.00000E+00
    0.54639E+05        -0.13475E+05         0.00000E+00
    0.00000E+00         0.00000E+00        -0.71553E+04
 
   -0.20936E+05         0.55399E+05         0.00000E+00
    0.55399E+05        -0.14115E+05         0.00000E+00
    0.00000E+00         0.00000E+00        -0.70101E+04
 
   -0.19546E+05         0.56109E+05         0.00000E+00
    0.56109E+05        -0.14763E+05         0.00000E+00
    0.00000E+00         0.00000E+00        -0.68617E+04
 
   -0.18133E+05         0.56771E+05         0.00000E+00
    0.56771E+05        -0.15419E+05         0.00000E+00
    0.00000E+00         0.00000E+00        -0.67104E+04
 
   -0.16697E+05         0.57383E+05         0.00000E+00
    0.57383E+05        -0.16083E+05         0.00000E+00
    0.00000E+00         0.00000E+00        -0.65562E+04
 
   -0.15240E+05         0.57945E+05         0.00000E+00
    0.57945E+05        -0.16755E+05         0.00000E+00
    0.00000E+00         0.00000E+00        -0.63990E+04
 
   -0.13763E+05         0.58455E+05         0.00000E+00
    0.58455E+05        -0.17433E+05         0.00000E+00
    0.00000E+00         0.00000E+00        -0.62391E+04
 
   -0.12266E+05         0.58913E+05         0.00000E+00
    0.58913E+05        -0.18116E+05         0.00000E+00
    0.00000E+00         0.00000E+00        -0.60764E+04
 
   -0.10750E+05         0.59318E+05         0.00000E+00
    0.59318E+05        -0.18805E+05         0.00000E+00
    0.00000E+00         0.00000E+00        -0.59110E+04
 
   -0.92159E+04         0.59670E+05         0.00000E+00
    0.59670E+05        -0.19499E+05         0.00000E+00
    0.00000E+00         0.00000E+00        -0.57430E+04
 
   -0.76654E+04         0.59968E+05         0.00000E+00
    0.59968E+05        -0.20197E+05         0.00000E+00
    0.00000E+00         0.00000E+00        -0.55724E+04
 
   -0.60992E+04         0.60211E+05         0.00000E+00
    0.60211E+05        -0.20898E+05         0.00000E+00
    0.00000E+00         0.00000E+00        -0.53994E+04
 
   -0.41620E+05         0.82586E+03         0.00000E+00
    0.82586E+03         0.50717E+01         0.00000E+00
    0.00000E+00         0.00000E+00        -0.83231E+04
 
   -0.41584E+05         0.24779E+04         0.00000E+00
    0.24779E+04        -0.10927E+02         0.00000E+00
    0.00000E+00         0.00000E+00        -0.83191E+04
 
   -0.41516E+05         0.41285E+04         0.00000E+00
    0.41285E+04        -0.43068E+02         0.00000E+00
    0.00000E+00         0.00000E+00        -0.83118E+04
 
   -0.41416E+05         0.57763E+04         0.00000E+00
    0.57763E+04        -0.91392E+02         0.00000E+00
    0.00000E+00         0.00000E+00        -0.83014E+04
 
   -0.41283E+05         0.74199E+04         0.00000E+00
    0.74199E+04        -0.15593E+03         0.00000E+00
    0.00000E+00         0.00000E+00        -0.82877E+04
 
   -0.41117E+05         0.90581E+04         0.00000E+00
    0.90581E+04        -0.23668E+03         0.00000E+00
    0.00000E+00         0.00000E+00        -0.82708E+04
 
   -0.40919E+05         0.10690E+05         0.00000E+00
    0.10690E+05        -0.33365E+03         0.00000E+00
    0.00000E+00         0.00000E+00        -0.82506E+04
 
   -0.40689E+05         0.12313E+05         0.00000E+00
    0.12313E+05        -0.44681E+03         0.00000E+00
    0.00000E+00         0.00000E+00        -0.82271E+04
 
   -0.40426E+05         0.13927E+05         0.00000E+00
    0.13927E+05        -0.57612E+03         0.00000E+00
    0.00000E+00         0.00000E+00        -0.82004E+04
 
   -0.40131E+05         0.15530E+05         0.00000E+00
    0.15530E+05        -0.72155E+03         0.00000E+00
    0.00000E+00         0.00000E+00        -0.81704E+04
 
   -0.39803E+05         0.17121E+05         0.00000E+00
    0.17121E+05        -0.88300E+03         0.00000E+00
    0.00000E+00         0.00000E+00        -0.81372E+04
 
   -0.39443E+05         0.18699E+05         0.00000E+00
    0.18699E+05        -0.10604E+04         0.00000E+00
    0.00000E+00         0.00000E+00        -0.81007E+04
 
   -0.39051E+05         0.20263E+05         0.00000E+00
    0.20263E+05        -0.12537E+04         0.00000E+00
    0.00000E+00         0.00000E+00        -0.80609E+04
 
   -0.38627E+05         0.21810E+05         0.00000E+00
    0.21810E+05        -0.14627E+04         0.00000E+00
    0.00000E+00         0.00000E+00        -0.80179E+04
 
   -0.38171E+05         0.23340E+05         0.00000E+00
    0.23340E+05        -0.16873E+04         0.00000E+00
    0.00000E+00         0.00000E+00        -0.79716E+04
 
   -0.37683E+05         0.24852E+05         0.00000E+00
    0.24852E+05        -0.19273E+04         0.00000E+00
    0.00000E+00         0.00000E+00        -0.79221E+04
 
   -0.37164E+05         0.26344E+05         0.00000E+00
    0.26344E+05        -0.21827E+04         0.00000E+00
    0.00000E+00         0.00000E+00        -0.78694E+04
 
   -0.36614E+05         0.27814E+05         0.00000E+00
    0.27814E+05        -0.24531E+04         0.00000E+00
    0.00000E+00         0.00000E+00        -0.78134E+04
 
   -0.36033E+05         0.29263E+05         0.00000E+00
    0.29263E+05        -0.27385E+04         0.00000E+00
    0.00000E+00         0.00000E+00        -0.77543E+04
 
   -0.35421E+05         0.30688E+05         0.00000E+00
    0.30688E+05        -0.30386E+04         0.00000E+00
    0.00000E+00         0.00000E+00        -0.76919E+04
 
   -0.34779E+05         0.32088E+05         0.00000E+00
    0.32088E+05        -0.33533E+04         0.00000E+00
    0.00000E+00         0.00000E+00        -0.76264E+04
 
   -0.34106E+05         0.33462E+05         0.00000E+00
    0.33462E+05        -0.36821E+04         0.00000E+00
    0.00000E+00         0.00000E+00        -0.75577E+04
 
   -0.33404E+05         0.34809E+05         0.00000E+00
    0.34809E+05        -0.40250E+04         0.00000E+00
    0.00000E+00         0.00000E+00        -0.74859E+04
 
   -0.32673E+05         0.36127E+05         0.00000E+00
    0.36127E+05        -0.43816E+04         0.00000E+00
    0.00000E+00         0.00000E+00        -0.74109E+04
 
   -0.31913E+05         0.37416E+05         0.00000E+00
    0.37416E+05        -0.47517E+04         0.00000E+00
    0.00000E+00         0.00000E+00        -0.73329E+04
 
   -0.31124E+05         0.38674E+05         0.00000E+00
    0.38674E+05        -0.51350E+04         0.00000E+00
    0.00000E+00         0.00000E+00        -0.72518E+04
 
   -0.30307E+05         0.39900E+05         0.00000E+00
    0.39900E+05        -0.55311E+04         0.00000E+00
    0.00000E+00         0.00000E+00        -0.71676E+04
 
   -0.29462E+05         0.41094E+05         0.00000E+00
    0.41094E+05        -0.59398E+04         0.00000E+00
    0.00000E+00         0.00000E+00        -0.70804E+04
 
   -0.28591E+05         0.42253E+05         0.00000E+00
    0.42253E+05        -0.63607E+04         0.00000E+00
    0.00000E+00         0.00000E+00        -0.69903E+04
 
   -0.27692E+05         0.43377E+05         0.00000E+00
    0.43377E+05        -0.67935E+04         0.00000E+00
    0.00000E+00         0.00000E+00        -0.68972E+04
 
   -0.26768E+05         0.44464E+05         0.00000E+00
    0.44464E+05        -0.72378E+04         0.00000E+00
    0.00000E+00         0.00000E+00        -0.68011E+04
 
   -0.25818E+05         0.45515E+05         0.00000E+00
    0.45515E+05        -0.76932E+04         0.00000E+00
    0.00000E+00         0.00000E+00        -0.67022E+04
 
   -0.24843E+05         0.46527E+05         0.00000E+00
    0.46527E+05        -0.81595E+04         0.00000E+00
    0.00000E+00         0.00000E+00        -0.66004E+04
 
   -0.23843E+05         0.47500E+05         0.00000E+00
    0.47500E+05        -0.86361E+04         0.00000E+00
    0.00000E+00         0.00000E+00        -0.64958E+04
 
   -0.22819E+05         0.48432E+05         0.00000E+00
    0.48432E+05        -0.91228E+04         0.00000E+00
    0.00000E+00         0.00000E+00        -0.63884E+04
 
   -0.21772E+05         0.49323E+05         0.00000E+00
    0.49323E+05        -0.96190E+04         0.00000E+00
    0.00000E+00         0.00000E+00        -0.62783E+04
 
   -0.20703E+05         0.50173E+05         0.00000E+00
    0.50173E+05        -0.10124E+05         0.00000E+00
    0.00000E+00         0.00000E+00        -0.61654E+04
 
   -0.19611E+05         0.50979E+05         0.00000E+00
    0.50979E+05        -0.10638E+05         0.00000E+00
    0.00000E+00         0.00000E+00        -0.60500E+04
 
   -0.18499E+05         0.51741E+05         0.00000E+00
    0.51741E+05        -0.11161E+05         0.00000E+00
    0.00000E+00         0.00000E+00        -0.59319E+04
 
   -0.17365E+05         0.52458E+05         0.00000E+00
    0.52458E+05        -0.11691E+05         0.00000E+00
    0.00000E+00         0.00000E+00        -0.58112E+04
 
   -0.16212E+05         0.53130E+05         0.00000E+00
    0.53130E+05        -0.12229E+05         0.00000E+00
    0.00000E+00         0.00000E+00        -0.56880E+04
 
   -0.15039E+05         0.53755E+05         0.00000E+00
    0.53755E+05        -0.12773E+05         0.00000E+00
    0.00000E+00         0.00000E+00        -0.55623E+04
 
   -0.13847E+05         0.54333E+05         0.00000E+00
    0.54333E+05        -0.13324E+05         0.00000E+00
    0.00000E+00         0.00000E+00        -0.54343E+04
 
   -0.12638E+05         0.54864E+05         0.00000E+00
    0.54864E+05        -0.13881E+05         0.00000E+00
    0.00000E+00         0.00000E+00        -0.53038E+04
 
   -0.11412E+05         0.55345E+05         0.00000E+00
    0.55345E+05        -0.14443E+05         0.00000E+00
    0.00000E+00         0.00000E+00        -0.51710E+04
 
   -0.10170E+05         0.55778E+05         0.00000E+00
    0.55778E+05        -0.15010E+05         0.00000E+00
    0.00000E+00         0.00000E+00        -0.50360E+04
 
   -0.89124E+04         0.56160E+05         0.00000E+00
    0.56160E+05        -0.15581E+05         0.00000E+00
    0.00000E+00         0.00000E+00        -0.48987E+04
 
   -0.76400E+04         0.56492E+05         0.00000E+00
    0.56492E+05        -0.16157E+05         0.00000E+00
    0.00000E+00         0.00000E+00        -0.47593E+04
 
   -0.63539E+04         0.56773E+05         0.00000E+00
    0.56773E+05        -0.16735E+05         0.00000E+00
    0.00000E+00         0.00000E+00        -0.46178E+04
 
   -0.50547E+04         0.57003E+05         0.00000E+00
    0.57003E+05        -0.17317E+05         0.00000E+00
    0.00000E+00         0.00000E+00        -0.44743E+04
 
   -0.33545E+05         0.78993E+03         0.00000E+00
    0.78993E+03         0.40735E+01         0.00000E+00
    0.00000E+00         0.00000E+00        -0.67083E+04
 
   -0.33514E+05         0.23695E+04         0.00000E+00
    0.23695E+04        -0.87830E+01         0.00000E+00
    0.00000E+00         0.00000E+00        -0.67046E+04
 
   -0.33457E+05         0.39473E+04         0.00000E+00
    0.39473E+04        -0.34605E+02         0.00000E+00
    0.00000E+00         0.00000E+00        -0.66984E+04
 
   -0.33374E+05         0.55221E+04         0.00000E+00
    0.55221E+04        -0.73424E+02         0.00000E+00
    0.00000E+00         0.00000E+00        -0.66896E+04
 
   -0.33265E+05         0.70928E+04         0.00000E+00
    0.70928E+04        -0.12526E+03         0.00000E+00
    0.00000E+00         0.00000E+00        -0.66781E+04
 
   -0.33130E+05         0.86580E+04         0.00000E+00
    0.86580E+04        -0.19012E+03         0.00000E+00
    0.00000E+00         0.00000E+00        -0.66641E+04
 
   -0.32969E+05         0.10216E+05         0.00000E+00
    0.10216E+05        -0.26800E+03         0.00000E+00
    0.00000E+00         0.00000E+00        -0.66475E+04
 
   -0.32782E+05         0.11767E+05         0.00000E+00
    0.11767E+05        -0.35888E+03         0.00000E+00
    0.00000E+00         0.00000E+00        -0.66282E+04
 
   -0.32569E+05         0.13308E+05         0.00000E+00
    0.13308E+05        -0.46274E+03         0.00000E+00
    0.00000E+00         0.00000E+00        -0.66063E+04
 
   -0.32330E+05         0.14839E+05         0.00000E+00
    0.14839E+05        -0.57953E+03         0.00000E+00
    0.00000E+00         0.00000E+00        -0.65818E+04
 
   -0.32064E+05         0.16359E+05         0.00000E+00
    0.16359E+05        -0.70920E+03         0.00000E+00
    0.00000E+00         0.00000E+00        -0.65547E+04
 
   -0.31773E+05         0.17865E+05         0.00000E+00
    0.17865E+05        -0.85168E+03         0.00000E+00
    0.00000E+00         0.00000E+00        -0.65250E+04
 
   -0.31456E+05         0.19357E+05         0.00000E+00
    0.19357E+05        -0.10069E+04         0.00000E+00
    0.00000E+00         0.00000E+00        -0.64926E+04
 
   -0.31114E+05         0.20834E+05         0.00000E+00
    0.20834E+05        -0.11748E+04         0.00000E+00
    0.00000E+00         0.00000E+00        -0.64577E+04
 
   -0.30745E+05         0.22294E+05         0.00000E+00
    0.22294E+05        -0.13552E+04         0.00000E+00
    0.00000E+00         0.00000E+00        -0.64201E+04
 
   -0.30352E+05         0.23736E+05         0.00000E+00
    0.23736E+05        -0.15480E+04         0.00000E+00
    0.00000E+00         0.00000E+00        -0.63799E+04
 
   -0.29933E+05         0.25160E+05         0.00000E+00
    0.25160E+05        -0.17531E+04         0.00000E+00
    0.00000E+00         0.00000E+00        -0.63372E+04
 
   -0.29489E+05         0.26563E+05         0.00000E+00
    0.26563E+05        -0.19704E+04         0.00000E+00
    0.00000E+00         0.00000E+00        -0.62918E+04
 
   -0.29020E+05         0.27945E+05         0.00000E+00
    0.27945E+05        -0.21997E+04         0.00000E+00
    0.00000E+00         0.00000E+00        -0.62439E+04
 
   -0.28526E+05         0.29304E+05         0.00000E+00
    0.29304E+05        -0.24408E+04         0.00000E+00
    0.00000E+00         0.00000E+00        -0.61934E+04
 
   -0.28008E+05         0.30639E+05         0.00000E+00
    0.30639E+05        -0.26936E+04         0.00000E+00
    0.00000E+00         0.00000E+00        -0.61404E+04
 
   -0.27466E+05         0.31949E+05         0.00000E+00
    0.31949E+05        -0.29579E+04         0.00000E+00
    0.00000E+00         0.00000E+00        -0.60848E+04
 
   -0.26900E+05         0.33234E+05         0.00000E+00
    0.33234E+05        -0.32335E+04         0.00000E+00
    0.00000E+00         0.00000E+00        -0.60268E+04
 
   -0.26311E+05         0.34491E+05         0.00000E+00
    0.34491E+05        -0.35201E+04         0.00000E+00
    0.00000E+00         0.00000E+00        -0.59662E+04
 
   -0.25698E+05         0.35720E+05         0.00000E+00
    0.35720E+05        -0.38176E+04         0.00000E+00
    0.00000E+00         0.00000E+00        -0.59031E+04
 
   -0.25062E+05         0.36919E+05         0.00000E+00
    0.36919E+05        -0.41257E+04         0.00000E+00
    0.00000E+00         0.00000E+00        -0.58376E+04
 
   -0.24404E+05         0.38088E+05         0.00000E+00
    0.38088E+05        -0.44442E+04         0.00000E+00
    0.00000E+00         0.00000E+00        -0.57696E+04
 
   -0.23723E+05         0.39225E+05         0.00000E+00
    0.39225E+05        -0.47728E+04         0.00000E+00
    0.00000E+00         0.00000E+00        -0.56992E+04
 
   -0.23021E+05         0.40330E+05         0.00000E+00
    0.40330E+05        -0.51112E+04         0.00000E+00
    0.00000E+00         0.00000E+00        -0.56265E+04
 
   -0.22297E+05         0.41401E+05         0.00000E+00
    0.41401E+05        -0.54593E+04         0.00000E+00
    0.00000E+00         0.00000E+00        -0.55513E+04
 
   -0.21552E+05         0.42438E+05         0.00000E+00
    0.42438E+05        -0.58166E+04         0.00000E+00
    0.00000E+00         0.00000E+00        -0.54738E+04
 
   -0.20787E+05         0.43439E+05         0.00000E+00
    0.43439E+05        -0.61830E+04         0.00000E+00
    0.00000E+00         0.00000E+00        -0.53940E+04
 
   -0.20001E+05         0.44403E+05         0.00000E+00
    0.44403E+05        -0.65580E+04         0.00000E+00
    0.00000E+00         0.00000E+00        -0.53119E+04
 
   -0.19196E+05         0.45330E+05         0.00000E+00
    0.45330E+05        -0.69415E+04         0.00000E+00
    0.00000E+00         0.00000E+00        -0.52275E+04
 
   -0.18371E+05         0.46218E+05         0.00000E+00
    0.46218E+05        -0.73330E+04         0.00000E+00
    0.00000E+00         0.00000E+00        -0.51409E+04
 
   -0.17528E+05         0.47067E+05         0.00000E+00
    0.47067E+05        -0.77322E+04         0.00000E+00
    0.00000E+00         0.00000E+00        -0.50521E+04
 
   -0.16667E+05         0.47876E+05         0.00000E+00
    0.47876E+05        -0.81389E+04         0.00000E+00
    0.00000E+00         0.00000E+00        -0.49611E+04
 
   -0.15788E+05         0.48643E+05         0.00000E+00
    0.48643E+05        -0.85526E+04         0.00000E+00
    0.00000E+00         0.00000E+00        -0.48680E+04
 
   -0.14891E+05         0.49369E+05         0.00000E+00
    0.49369E+05        -0.89730E+04         0.00000E+00
    0.00000E+00         0.00000E+00        -0.47728E+04
 
   -0.13978E+05         0.50052E+05         0.00000E+00
    0.50052E+05        -0.93997E+04         0.00000E+00
    0.00000E+00         0.00000E+00        -0.46756E+04
 
   -0.13049E+05         0.50692E+05         0.00000E+00
    0.50692E+05        -0.98323E+04         0.00000E+00
    0.00000E+00         0.00000E+00        -0.45763E+04
 
   -0.12105E+05         0.51287E+05         0.00000E+00
    0.51287E+05        -0.10271E+05         0.00000E+00
    0.00000E+00         0.00000E+00        -0.44751E+04
 
   -0.11145E+05         0.51838E+05         0.00000E+00
    0.51838E+05        -0.10714E+05         0.00000E+00
    0.00000E+00         0.00000E+00        -0.43719E+04
 
   -0.10172E+05         0.52342E+05         0.00000E+00
    0.52342E+05        -0.11162E+05         0.00000E+00
    0.00000E+00         0.00000E+00        -0.42668E+04
 
   -0.91846E+04         0.52801E+05         0.00000E+00
    0.52801E+05        -0.11615E+05         0.00000E+00
    0.00000E+00         0.00000E+00        -0.41598E+04
 
   -0.81843E+04         0.53212E+05         0.00000E+00
    0.53212E+05        -0.12071E+05         0.00000E+00
    0.00000E+00         0.00000E+00        -0.40511E+04
 
   -0.71716E+04         0.53576E+05         0.00000E+00
    0.53576E+05        -0.12531E+05         0.00000E+00
    0.00000E+00         0.00000E+00        -0.39406E+04
 
   -0.61473E+04         0.53892E+05         0.00000E+00
    0.53892E+05        -0.12994E+05         0.00000E+00
    0.00000E+00         0.00000E+00        -0.38283E+04
 
   -0.51118E+04         0.54159E+05         0.00000E+00
    0.54159E+05        -0.13460E+05         0.00000E+00
    0.00000E+00         0.00000E+00        -0.37144E+04
 
   -0.40661E+04         0.54377E+05         0.00000E+00
    0.54377E+05        -0.13928E+05         0.00000E+00
    0.00000E+00         0.00000E+00        -0.35988E+04
 
   -0.25794E+05         0.76165E+03         0.00000E+00
    0.76165E+03         0.31211E+01         0.00000E+00
    0.00000E+00         0.00000E+00        -0.51581E+04
 
   -0.25769E+05         0.22841E+04         0.00000E+00
    0.22841E+04        -0.67316E+01         0.00000E+00
    0.00000E+00         0.00000E+00        -0.51551E+04
 
   -0.25724E+05         0.38047E+04         0.00000E+00
    0.38047E+04        -0.26519E+02         0.00000E+00
    0.00000E+00         0.00000E+00        -0.51501E+04
 
   -0.25659E+05         0.53221E+04         0.00000E+00
    0.53221E+04        -0.56264E+02         0.00000E+00
    0.00000E+00         0.00000E+00        -0.51430E+04
 
   -0.25574E+05         0.68354E+04         0.00000E+00
    0.68354E+04        -0.95982E+02         0.00000E+00
    0.00000E+00         0.00000E+00        -0.51340E+04
 
   -0.25470E+05         0.83431E+04         0.00000E+00
    0.83431E+04        -0.14568E+03         0.00000E+00
    0.00000E+00         0.00000E+00        -0.51230E+04
 
   -0.25345E+05         0.98443E+04         0.00000E+00
    0.98443E+04        -0.20535E+03         0.00000E+00
    0.00000E+00         0.00000E+00        -0.51100E+04
 
   -0.25200E+05         0.11338E+05         0.00000E+00
    0.11338E+05        -0.27499E+03         0.00000E+00
    0.00000E+00         0.00000E+00        -0.50950E+04
 
   -0.25036E+05         0.12822E+05         0.00000E+00
    0.12822E+05        -0.35457E+03         0.00000E+00
    0.00000E+00         0.00000E+00        -0.50780E+04
 
   -0.24851E+05         0.14296E+05         0.00000E+00
    0.14296E+05        -0.44407E+03         0.00000E+00
    0.00000E+00         0.00000E+00        -0.50590E+04
 
   -0.24646E+05         0.15758E+05         0.00000E+00
    0.15758E+05        -0.54344E+03         0.00000E+00
    0.00000E+00         0.00000E+00        -0.50380E+04
 
   -0.24422E+05         0.17208E+05         0.00000E+00
    0.17208E+05        -0.65263E+03         0.00000E+00
    0.00000E+00         0.00000E+00        -0.50149E+04
 
   -0.24178E+05         0.18645E+05         0.00000E+00
    0.18645E+05        -0.77159E+03         0.00000E+00
    0.00000E+00         0.00000E+00        -0.49899E+04
 
   -0.23914E+05         0.20066E+05         0.00000E+00
    0.20066E+05        -0.90025E+03         0.00000E+00
    0.00000E+00         0.00000E+00        -0.49629E+04
 
   -0.23631E+05         0.21471E+05         0.00000E+00
    0.21471E+05        -0.10385E+04         0.00000E+00
    0.00000E+00         0.00000E+00        -0.49338E+04
 
   -0.23328E+05         0.22859E+05         0.00000E+00
    0.22859E+05        -0.11864E+04         0.00000E+00
    0.00000E+00         0.00000E+00        -0.49028E+04
 
   -0.23005E+05         0.24228E+05         0.00000E+00
    0.24228E+05        -0.13436E+04         0.00000E+00
    0.00000E+00         0.00000E+00        -0.48698E+04
 
   -0.22664E+05         0.25578E+05         0.00000E+00
    0.25578E+05        -0.15102E+04         0.00000E+00
    0.00000E+00         0.00000E+00        -0.48348E+04
 
   -0.22303E+05         0.26907E+05         0.00000E+00
    0.26907E+05        -0.16860E+04         0.00000E+00
    0.00000E+00         0.00000E+00        -0.47978E+04
 
   -0.21924E+05         0.28214E+05         0.00000E+00
    0.28214E+05        -0.18709E+04         0.00000E+00
    0.00000E+00         0.00000E+00        -0.47589E+04
 
   -0.21525E+05         0.29498E+05         0.00000E+00
    0.29498E+05        -0.20648E+04         0.00000E+00
    0.00000E+00         0.00000E+00        -0.47180E+04
 
   -0.21108E+05         0.30758E+05         0.00000E+00
    0.30758E+05        -0.22675E+04         0.00000E+00
    0.00000E+00         0.00000E+00        -0.46752E+04
 
   -0.20673E+05         0.31993E+05         0.00000E+00
    0.31993E+05        -0.24789E+04         0.00000E+00
    0.00000E+00         0.00000E+00        -0.46304E+04
 
   -0.20220E+05         0.33202E+05         0.00000E+00
    0.33202E+05        -0.26988E+04         0.00000E+00
    0.00000E+00         0.00000E+00        -0.45838E+04
 
   -0.19749E+05         0.34383E+05         0.00000E+00
    0.34383E+05        -0.29270E+04         0.00000E+00
    0.00000E+00         0.00000E+00        -0.45352E+04
 
   -0.19260E+05         0.35536E+05         0.00000E+00
    0.35536E+05        -0.31634E+04         0.00000E+00
    0.00000E+00         0.00000E+00        -0.44847E+04
 
   -0.18754E+05         0.36660E+05         0.00000E+00
    0.36660E+05        -0.34078E+04         0.00000E+00
    0.00000E+00         0.00000E+00        -0.44324E+04
 
   -0.18231E+05         0.37753E+05         0.00000E+00
    0.37753E+05        -0.36600E+04         0.00000E+00
    0.00000E+00         0.00000E+00        -0.43782E+04
 
   -0.17691E+05         0.38815E+05         0.00000E+00
    0.38815E+05        -0.39198E+04         0.00000E+00
    0.00000E+00         0.00000E+00        -0.43222E+04
 
   -0.17135E+05         0.39844E+05         0.00000E+00
    0.39844E+05        -0.41870E+04         0.00000E+00
    0.00000E+00         0.00000E+00        -0.42643E+04
 
   -0.16562E+05         0.40840E+05         0.00000E+00
    0.40840E+05        -0.44613E+04         0.00000E+00
    0.00000E+00         0.00000E+00        -0.42047E+04
 
   -0.15974E+05         0.41802E+05         0.00000E+00
    0.41802E+05        -0.47426E+04         0.00000E+00
    0.00000E+00         0.00000E+00        -0.41433E+04
 
   -0.15370E+05         0.42729E+05         0.00000E+00
    0.42729E+05        -0.50305E+04         0.00000E+00
    0.00000E+00         0.00000E+00        -0.40801E+04
 
   -0.14751E+05         0.43619E+05         0.00000E+00
    0.43619E+05        -0.53250E+04         0.00000E+00
    0.00000E+00         0.00000E+00        -0.40152E+04
 
   -0.14117E+05         0.44472E+05         0.00000E+00
    0.44472E+05        -0.56257E+04         0.00000E+00
    0.00000E+00         0.00000E+00        -0.39485E+04
 
   -0.13469E+05         0.45288E+05         0.00000E+00
    0.45288E+05        -0.59323E+04         0.00000E+00
    0.00000E+00         0.00000E+00        -0.38802E+04
 
   -0.12807E+05         0.46065E+05         0.00000E+00
    0.46065E+05        -0.62446E+04         0.00000E+00
    0.00000E+00         0.00000E+00        -0.38103E+04
 
   -0.12131E+05         0.46802E+05         0.00000E+00
    0.46802E+05        -0.65624E+04         0.00000E+00
    0.00000E+00         0.00000E+00        -0.37387E+04
 
   -0.11442E+05         0.47499E+05         0.00000E+00
    0.47499E+05        -0.68853E+04         0.00000E+00
    0.00000E+00         0.00000E+00        -0.36654E+04
 
   -0.10740E+05         0.48155E+05         0.00000E+00
    0.48155E+05        -0.72131E+04         0.00000E+00
    0.00000E+00         0.00000E+00        -0.35907E+04
 
   -0.10026E+05         0.48769E+05         0.00000E+00
    0.48769E+05        -0.75455E+04         0.00000E+00
    0.00000E+00         0.00000E+00        -0.35143E+04
 
   -0.93001E+04         0.49341E+05         0.00000E+00
    0.49341E+05        -0.78822E+04         0.00000E+00
    0.00000E+00         0.00000E+00        -0.34365E+04
 
   -0.85628E+04         0.49869E+05         0.00000E+00
    0.49869E+05        -0.82229E+04         0.00000E+00
    0.00000E+00         0.00000E+00        -0.33571E+04
 
   -0.78144E+04         0.50354E+05         0.00000E+00
    0.50354E+05        -0.85673E+04         0.00000E+00
    0.00000E+00         0.00000E+00        -0.32763E+04
 
   -0.70556E+04         0.50794E+05         0.00000E+00
    0.50794E+05        -0.89150E+04         0.00000E+00
    0.00000E+00         0.00000E+00        -0.31941E+04
 
   -0.62869E+04         0.51189E+05         0.00000E+00
    0.51189E+05        -0.92658E+04         0.00000E+00
    0.00000E+00         0.00000E+00        -0.31105E+04
 
   -0.55086E+04         0.51538E+05         0.00000E+00
    0.51538E+05        -0.96193E+04         0.00000E+00
    0.00000E+00         0.00000E+00        -0.30256E+04
 
   -0.47213E+04         0.51841E+05         0.00000E+00
    0.51841E+05        -0.99752E+04         0.00000E+00
    0.00000E+00         0.00000E+00        -0.29393E+04
 
   -0.39256E+04         0.52097E+05         0.00000E+00
    0.52097E+05        -0.10333E+05         0.00000E+00
    0.00000E+00         0.00000E+00        -0.28518E+04
 
   -0.31220E+04         0.52306E+05         0.00000E+00
    0.52306E+05        -0.10693E+05         0.00000E+00
    0.00000E+00         0.00000E+00        -0.27630E+04
 
   -0.18290E+05         0.74072E+03         0.00000E+00
    0.74072E+03         0.22025E+01         0.00000E+00
    0.00000E+00         0.00000E+00        -0.36575E+04
 
   -0.18272E+05         0.22209E+04         0.00000E+00
    0.22209E+04        -0.47473E+01         0.00000E+00
    0.00000E+00         0.00000E+00        -0.36552E+04
 
   -0.18239E+05         0.36991E+04         0.00000E+00
    0.36991E+04        -0.18707E+02         0.00000E+00
    0.00000E+00         0.00000E+00        -0.36516E+04
 
   -0.18193E+05         0.51742E+04         0.00000E+00
    0.51742E+04        -0.39695E+02         0.00000E+00
    0.00000E+00         0.00000E+00        -0.36465E+04
 
   -0.18133E+05         0.66449E+04         0.00000E+00
    0.66449E+04        -0.67722E+02         0.00000E+00
    0.00000E+00         0.00000E+00        -0.36401E+04
 
   -0.18058E+05         0.81102E+04         0.00000E+00
    0.81102E+04        -0.10280E+03         0.00000E+00
    0.00000E+00         0.00000E+00        -0.36322E+04
 
   -0.17970E+05         0.95688E+04         0.00000E+00
    0.95688E+04        -0.14492E+03         0.00000E+00
    0.00000E+00         0.00000E+00        -0.36229E+04
 
   -0.17867E+05         0.11020E+05         0.00000E+00
    0.11020E+05        -0.19407E+03         0.00000E+00
    0.00000E+00         0.00000E+00        -0.36122E+04
 
   -0.17750E+05         0.12462E+05         0.00000E+00
    0.12462E+05        -0.25026E+03         0.00000E+00
    0.00000E+00         0.00000E+00        -0.36001E+04
 
   -0.17619E+05         0.13893E+05         0.00000E+00
    0.13893E+05        -0.31345E+03         0.00000E+00
    0.00000E+00         0.00000E+00        -0.35865E+04
 
   -0.17474E+05         0.15314E+05         0.00000E+00
    0.15314E+05        -0.38363E+03         0.00000E+00
    0.00000E+00         0.00000E+00        -0.35716E+04
 
   -0.17315E+05         0.16722E+05         0.00000E+00
    0.16722E+05        -0.46076E+03         0.00000E+00
    0.00000E+00         0.00000E+00        -0.35552E+04
 
   -0.17142E+05         0.18117E+05         0.00000E+00
    0.18117E+05        -0.54479E+03         0.00000E+00
    0.00000E+00         0.00000E+00        -0.35374E+04
 
   -0.16955E+05         0.19497E+05         0.00000E+00
    0.19497E+05        -0.63569E+03         0.00000E+00
    0.00000E+00         0.00000E+00        -0.35182E+04
 
   -0.16754E+05         0.20861E+05         0.00000E+00
    0.20861E+05        -0.73341E+03         0.00000E+00
    0.00000E+00         0.00000E+00        -0.34976E+04
 
   -0.16540E+05         0.22209E+05         0.00000E+00
    0.22209E+05        -0.83788E+03         0.00000E+00
    0.00000E+00         0.00000E+00        -0.34755E+04
 
   -0.16311E+05         0.23538E+05         0.00000E+00
    0.23538E+05        -0.94904E+03         0.00000E+00
    0.00000E+00         0.00000E+00        -0.34521E+04
 
   -0.16069E+05         0.24848E+05         0.00000E+00
    0.24848E+05        -0.10668E+04         0.00000E+00
    0.00000E+00         0.00000E+00        -0.34272E+04
 
   -0.15814E+05         0.26138E+05         0.00000E+00
    0.26138E+05        -0.11911E+04         0.00000E+00
    0.00000E+00         0.00000E+00        -0.34010E+04
 
   -0.15545E+05         0.27407E+05         0.00000E+00
    0.27407E+05        -0.13219E+04         0.00000E+00
    0.00000E+00         0.00000E+00        -0.33734E+04
 
   -0.15263E+05         0.28653E+05         0.00000E+00
    0.28653E+05        -0.14590E+04         0.00000E+00
    0.00000E+00         0.00000E+00        -0.33444E+04
 
   -0.14968E+05         0.29876E+05         0.00000E+00
    0.29876E+05        -0.16024E+04         0.00000E+00
    0.00000E+00         0.00000E+00        -0.33140E+04
 
   -0.14659E+05         0.31074E+05         0.00000E+00
    0.31074E+05        -0.17520E+04         0.00000E+00
    0.00000E+00         0.00000E+00        -0.32822E+04
 
   -0.14338E+05         0.32247E+05         0.00000E+00
    0.32247E+05        -0.19076E+04         0.00000E+00
    0.00000E+00         0.00000E+00        -0.32491E+04
 
   -0.14004E+05         0.33393E+05         0.00000E+00
    0.33393E+05        -0.20691E+04         0.00000E+00
    0.00000E+00         0.00000E+00        -0.32147E+04
 
   -0.13658E+05         0.34511E+05         0.00000E+00
    0.34511E+05        -0.22365E+04         0.00000E+00
    0.00000E+00         0.00000E+00        -0.31789E+04
 
   -0.13299E+05         0.35601E+05         0.00000E+00
    0.35601E+05        -0.24095E+04         0.00000E+00
    0.00000E+00         0.00000E+00        -0.31417E+04
 
   -0.12928E+05         0.36661E+05         0.00000E+00
    0.36661E+05        -0.25881E+04         0.00000E+00
    0.00000E+00         0.00000E+00        -0.31033E+04
 
   -0.12546E+05         0.37691E+05         0.00000E+00
    0.37691E+05        -0.27720E+04         0.00000E+00
    0.00000E+00         0.00000E+00        -0.30636E+04
 
   -0.12151E+05         0.38690E+05         0.00000E+00
    0.38690E+05        -0.29613E+04         0.00000E+00
    0.00000E+00         0.00000E+00        -0.30225E+04
 
   -0.11745E+05         0.39655E+05         0.00000E+00
    0.39655E+05        -0.31556E+04         0.00000E+00
    0.00000E+00         0.00000E+00        -0.29802E+04
 
   -0.11328E+05         0.40588E+05         0.00000E+00
    0.40588E+05        -0.33549E+04         0.00000E+00
    0.00000E+00         0.00000E+00        -0.29366E+04
 
   -0.10900E+05         0.41486E+05         0.00000E+00
    0.41486E+05        -0.35589E+04         0.00000E+00
    0.00000E+00         0.00000E+00        -0.28918E+04
 
   -0.10461E+05         0.42350E+05         0.00000E+00
    0.42350E+05        -0.37676E+04         0.00000E+00
    0.00000E+00         0.00000E+00        -0.28458E+04
 
   -0.10012E+05         0.43177E+05         0.00000E+00
    0.43177E+05        -0.39807E+04         0.00000E+00
    0.00000E+00         0.00000E+00        -0.27985E+04
 
   -0.95521E+04         0.43967E+05         0.00000E+00
    0.43967E+05        -0.41981E+04         0.00000E+00
    0.00000E+00         0.00000E+00        -0.27500E+04
 
   -0.90824E+04         0.44720E+05         0.00000E+00
    0.44720E+05        -0.44195E+04         0.00000E+00
    0.00000E+00         0.00000E+00        -0.27004E+04
 
   -0.86031E+04         0.45435E+05         0.00000E+00
    0.45435E+05        -0.46448E+04         0.00000E+00
    0.00000E+00         0.00000E+00        -0.26496E+04
 
   -0.81145E+04         0.46111E+05         0.00000E+00
    0.46111E+05        -0.48738E+04         0.00000E+00
    0.00000E+00         0.00000E+00        -0.25976E+04
 
   -0.76167E+04         0.46746E+05         0.00000E+00
    0.46746E+05        -0.51062E+04         0.00000E+00
    0.00000E+00         0.00000E+00        -0.25446E+04
 
   -0.71102E+04         0.47341E+05         0.00000E+00
    0.47341E+05        -0.53420E+04         0.00000E+00
    0.00000E+00         0.00000E+00        -0.24904E+04
 
   -0.65952E+04         0.47895E+05         0.00000E+00
    0.47895E+05        -0.55808E+04         0.00000E+00
    0.00000E+00         0.00000E+00        -0.24352E+04
 
   -0.60721E+04         0.48407E+05         0.00000E+00
    0.48407E+05        -0.58224E+04         0.00000E+00
    0.00000E+00         0.00000E+00        -0.23789E+04
 
   -0.55412E+04         0.48877E+05         0.00000E+00
    0.48877E+05        -0.60667E+04         0.00000E+00
    0.00000E+00         0.00000E+00        -0.23216E+04
 
   -0.50029E+04         0.49303E+05         0.00000E+00
    0.49303E+05        -0.63133E+04         0.00000E+00
    0.00000E+00         0.00000E+00        -0.22633E+04
 
   -0.44575E+04         0.49686E+05         0.00000E+00
    0.49686E+05        -0.65622E+04         0.00000E+00
    0.00000E+00         0.00000E+00        -0.22039E+04
 
   -0.39053E+04         0.50024E+05         0.00000E+00
    0.50024E+05        -0.68130E+04         0.00000E+00
    0.00000E+00         0.00000E+00        -0.21437E+04
 
   -0.33468E+04         0.50318E+05         0.00000E+00
    0.50318E+05        -0.70655E+04         0.00000E+00
    0.00000E+00         0.00000E+00        -0.20825E+04
 
   -0.27822E+04         0.50566E+05         0.00000E+00
    0.50566E+05        -0.73195E+04         0.00000E+00
    0.00000E+00         0.00000E+00        -0.20203E+04
 
   -0.22121E+04         0.50768E+05         0.00000E+00
    0.50768E+05        -0.75746E+04         0.00000E+00
    0.00000E+00         0.00000E+00        -0.19573E+04
 
   -0.10961E+05         0.72694E+03         0.00000E+00
    0.72694E+03         0.13070E+01         0.00000E+00
    0.00000E+00         0.00000E+00        -0.21918E+04
 
   -0.10950E+05         0.21793E+04         0.00000E+00
    0.21793E+04        -0.28081E+01         0.00000E+00
    0.00000E+00         0.00000E+00        -0.21905E+04
 
   -0.10931E+05         0.36296E+04         0.00000E+00
    0.36296E+04        -0.11081E+02         0.00000E+00
    0.00000E+00         0.00000E+00        -0.21883E+04
 
   -0.10903E+05         0.50766E+04         0.00000E+00
    0.50766E+04        -0.23527E+02         0.00000E+00
    0.00000E+00         0.00000E+00        -0.21853E+04
 
   -0.10867E+05         0.65193E+04         0.00000E+00
    0.65193E+04        -0.40155E+02         0.00000E+00
    0.00000E+00         0.00000E+00        -0.21815E+04
 
   -0.10823E+05         0.79565E+04         0.00000E+00
    0.79565E+04        -0.60974E+02         0.00000E+00
    0.00000E+00         0.00000E+00        -0.21768E+04
 
   -0.10770E+05         0.93871E+04         0.00000E+00
    0.93871E+04        -0.85987E+02         0.00000E+00
    0.00000E+00         0.00000E+00        -0.21713E+04
 
   -0.10709E+05         0.10810E+05         0.00000E+00
    0.10810E+05        -0.11519E+03         0.00000E+00
    0.00000E+00         0.00000E+00        -0.21649E+04
 
   -0.10640E+05         0.12224E+05         0.00000E+00
    0.12224E+05        -0.14859E+03         0.00000E+00
    0.00000E+00         0.00000E+00        -0.21577E+04
 
   -0.10562E+05         0.13628E+05         0.00000E+00
    0.13628E+05        -0.18616E+03         0.00000E+00
    0.00000E+00         0.00000E+00        -0.21496E+04
 
   -0.10476E+05         0.15021E+05         0.00000E+00
    0.15021E+05        -0.22791E+03         0.00000E+00
    0.00000E+00         0.00000E+00        -0.21407E+04
 
   -0.10381E+05         0.16401E+05         0.00000E+00
    0.16401E+05        -0.27381E+03         0.00000E+00
    0.00000E+00         0.00000E+00        -0.21310E+04
 
   -0.10278E+05         0.17769E+05         0.00000E+00
    0.17769E+05        -0.32385E+03         0.00000E+00
    0.00000E+00         0.00000E+00        -0.21204E+04
 
   -0.10167E+05         0.19121E+05         0.00000E+00
    0.19121E+05        -0.37799E+03         0.00000E+00
    0.00000E+00         0.00000E+00        -0.21090E+04
 
   -0.10047E+05         0.20458E+05         0.00000E+00
    0.20458E+05        -0.43622E+03         0.00000E+00
    0.00000E+00         0.00000E+00        -0.20967E+04
 
   -0.99192E+04         0.21779E+05         0.00000E+00
    0.21779E+05        -0.49850E+03         0.00000E+00
    0.00000E+00         0.00000E+00        -0.20835E+04
 
   -0.97830E+04         0.23082E+05         0.00000E+00
    0.23082E+05        -0.56479E+03         0.00000E+00
    0.00000E+00         0.00000E+00        -0.20696E+04
 
   -0.96386E+04         0.24366E+05         0.00000E+00
    0.24366E+05        -0.63506E+03         0.00000E+00
    0.00000E+00         0.00000E+00        -0.20547E+04
 
   -0.94862E+04         0.25630E+05         0.00000E+00
    0.25630E+05        -0.70926E+03         0.00000E+00
    0.00000E+00         0.00000E+00        -0.20391E+04
 
   -0.93256E+04         0.26873E+05         0.00000E+00
    0.26873E+05        -0.78734E+03         0.00000E+00
    0.00000E+00         0.00000E+00        -0.20226E+04
 
   -0.91571E+04         0.28094E+05         0.00000E+00
    0.28094E+05        -0.86925E+03         0.00000E+00
    0.00000E+00         0.00000E+00        -0.20053E+04
 
   -0.89807E+04         0.29291E+05         0.00000E+00
    0.29291E+05        -0.95493E+03         0.00000E+00
    0.00000E+00         0.00000E+00        -0.19871E+04
 
   -0.87964E+04         0.30465E+05         0.00000E+00
    0.30465E+05        -0.10443E+04         0.00000E+00
    0.00000E+00         0.00000E+00        -0.19682E+04
 
   -0.86044E+04         0.31614E+05         0.00000E+00
    0.31614E+05        -0.11374E+04         0.00000E+00
    0.00000E+00         0.00000E+00        -0.19484E+04
 
   -0.84048E+04         0.32737E+05         0.00000E+00
    0.32737E+05        -0.12340E+04         0.00000E+00
    0.00000E+00         0.00000E+00        -0.19278E+04
 
   -0.81976E+04         0.33832E+05         0.00000E+00
    0.33832E+05        -0.13341E+04         0.00000E+00
    0.00000E+00         0.00000E+00        -0.19063E+04
 
   -0.79829E+04         0.34899E+05         0.00000E+00
    0.34899E+05        -0.14377E+04         0.00000E+00
    0.00000E+00         0.00000E+00        -0.18841E+04
 
   -0.77610E+04         0.35938E+05         0.00000E+00
    0.35938E+05        -0.15446E+04         0.00000E+00
    0.00000E+00         0.00000E+00        -0.18611E+04
 
   -0.75318E+04         0.36946E+05         0.00000E+00
    0.36946E+05        -0.16548E+04         0.00000E+00
    0.00000E+00         0.00000E+00        -0.18373E+04
 
   -0.72955E+04         0.37924E+05         0.00000E+00
    0.37924E+05        -0.17682E+04         0.00000E+00
    0.00000E+00         0.00000E+00        -0.18128E+04
 
   -0.70523E+04         0.38869E+05         0.00000E+00
    0.38869E+05        -0.18847E+04         0.00000E+00
    0.00000E+00         0.00000E+00        -0.17874E+04
 
   -0.68023E+04         0.39783E+05         0.00000E+00
    0.39783E+05        -0.20042E+04         0.00000E+00
    0.00000E+00         0.00000E+00        -0.17613E+04
 
   -0.65456E+04         0.40662E+05         0.00000E+00
    0.40662E+05        -0.21265E+04         0.00000E+00
    0.00000E+00         0.00000E+00        -0.17344E+04
 
   -0.62824E+04         0.41507E+05         0.00000E+00
    0.41507E+05        -0.22517E+04         0.00000E+00
    0.00000E+00         0.00000E+00        -0.17068E+04
 
   -0.60128E+04         0.42317E+05         0.00000E+00
    0.42317E+05        -0.23796E+04         0.00000E+00
    0.00000E+00         0.00000E+00        -0.16785E+04
 
   -0.57370E+04         0.43091E+05         0.00000E+00
    0.43091E+05        -0.25100E+04         0.00000E+00
    0.00000E+00         0.00000E+00        -0.16494E+04
 
   -0.54552E+04         0.43828E+05         0.00000E+00
    0.43828E+05        -0.26429E+04         0.00000E+00
    0.00000E+00         0.00000E+00        -0.16196E+04
 
   -0.51674E+04         0.44527E+05         0.00000E+00
    0.44527E+05        -0.27782E+04         0.00000E+00
    0.00000E+00         0.00000E+00        -0.15891E+04
 
   -0.48740E+04         0.45189E+05         0.00000E+00
    0.45189E+05        -0.29157E+04         0.00000E+00
    0.00000E+00         0.00000E+00        -0.15580E+04
 
   -0.45751E+04         0.45811E+05         0.00000E+00
    0.45811E+05        -0.30554E+04         0.00000E+00
    0.00000E+00         0.00000E+00        -0.15261E+04
 
   -0.42709E+04         0.46393E+05         0.00000E+00
    0.46393E+05        -0.31970E+04         0.00000E+00
    0.00000E+00         0.00000E+00        -0.14936E+04
 
   -0.39615E+04         0.46935E+05         0.00000E+00
    0.46935E+05        -0.33405E+04         0.00000E+00
    0.00000E+00         0.00000E+00        -0.14604E+04
 
   -0.36472E+04         0.47436E+05         0.00000E+00
    0.47436E+05        -0.34857E+04         0.00000E+00
    0.00000E+00         0.00000E+00        -0.14266E+04
 
   -0.33281E+04         0.47895E+05         0.00000E+00
    0.47895E+05        -0.36326E+04         0.00000E+00
    0.00000E+00         0.00000E+00        -0.13921E+04
 
   -0.30045E+04         0.48313E+05         0.00000E+00
    0.48313E+05        -0.37809E+04         0.00000E+00
    0.00000E+00         0.00000E+00        -0.13571E+04
 
   -0.26766E+04         0.48687E+05         0.00000E+00
    0.48687E+05        -0.39305E+04         0.00000E+00
    0.00000E+00         0.00000E+00        -0.13214E+04
 
   -0.23446E+04         0.49018E+05         0.00000E+00
    0.49018E+05        -0.40813E+04         0.00000E+00
    0.00000E+00         0.00000E+00        -0.12852E+04
 
   -0.20088E+04         0.49305E+05         0.00000E+00
    0.49305E+05        -0.42332E+04         0.00000E+00
    0.00000E+00         0.00000E+00        -0.12484E+04
 
   -0.16693E+04         0.49548E+05         0.00000E+00
    0.49548E+05        -0.43859E+04         0.00000E+00
    0.00000E+00         0.00000E+00        -0.12110E+04
 
   -0.13264E+04         0.49746E+05         0.00000E+00
    0.49746E+05        -0.45394E+04         0.00000E+00
    0.00000E+00         0.00000E+00        -0.11732E+04
 
   -0.37348E+04         0.72018E+03         0.00000E+00
    0.72018E+03         0.42496E+00         0.00000E+00
    0.00000E+00         0.00000E+00        -0.74688E+03
 
   -0.37319E+04         0.21588E+04         0.00000E+00
    0.21588E+04        -0.89427E+00         0.00000E+00
    0.00000E+00         0.00000E+00        -0.74655E+03
 
   -0.37262E+04         0.35953E+04         0.00000E+00
    0.35953E+04        -0.35622E+01         0.00000E+00
    0.00000E+00         0.00000E+00        -0.74595E+03
 
   -0.37178E+04         0.50285E+04         0.00000E+00
    0.50285E+04        -0.75905E+01         0.00000E+00
    0.00000E+00         0.00000E+00        -0.74508E+03
 
   -0.37067E+04         0.64573E+04         0.00000E+00
    0.64573E+04        -0.12989E+02         0.00000E+00
    0.00000E+00         0.00000E+00        -0.74393E+03
 
   -0.36928E+04         0.78806E+04         0.00000E+00
    0.78806E+04        -0.19768E+02         0.00000E+00
    0.00000E+00         0.00000E+00        -0.74251E+03
 
   -0.36761E+04         0.92973E+04         0.00000E+00
    0.92973E+04        -0.27935E+02         0.00000E+00
    0.00000E+00         0.00000E+00        -0.74081E+03
 
   -0.36566E+04         0.10706E+05         0.00000E+00
    0.10706E+05        -0.37496E+02         0.00000E+00
    0.00000E+00         0.00000E+00        -0.73883E+03
 
   -0.36344E+04         0.12106E+05         0.00000E+00
    0.12106E+05        -0.48457E+02         0.00000E+00
    0.00000E+00         0.00000E+00        -0.73656E+03
 
   -0.36093E+04         0.13496E+05         0.00000E+00
    0.13496E+05        -0.60821E+02         0.00000E+00
    0.00000E+00         0.00000E+00        -0.73402E+03
 
   -0.35813E+04         0.14875E+05         0.00000E+00
    0.14875E+05        -0.74591E+02         0.00000E+00
    0.00000E+00         0.00000E+00        -0.73118E+03
 
   -0.35506E+04         0.16242E+05         0.00000E+00
    0.16242E+05        -0.89767E+02         0.00000E+00
    0.00000E+00         0.00000E+00        -0.72807E+03
 
   -0.35169E+04         0.17595E+05         0.00000E+00
    0.17595E+05        -0.10635E+03         0.00000E+00
    0.00000E+00         0.00000E+00        -0.72466E+03
 
   -0.34805E+04         0.18934E+05         0.00000E+00
    0.18934E+05        -0.12433E+03         0.00000E+00
    0.00000E+00         0.00000E+00        -0.72096E+03
 
   -0.34412E+04         0.20258E+05         0.00000E+00
    0.20258E+05        -0.14372E+03         0.00000E+00
    0.00000E+00         0.00000E+00        -0.71698E+03
 
   -0.33990E+04         0.21565E+05         0.00000E+00
    0.21565E+05        -0.16450E+03         0.00000E+00
    0.00000E+00         0.00000E+00        -0.71270E+03
 
   -0.33540E+04         0.22854E+05         0.00000E+00
    0.22854E+05        -0.18666E+03         0.00000E+00
    0.00000E+00         0.00000E+00        -0.70813E+03
 
   -0.33062E+04         0.24125E+05         0.00000E+00
    0.24125E+05        -0.21020E+03         0.00000E+00
    0.00000E+00         0.00000E+00        -0.70328E+03
 
   -0.32555E+04         0.25376E+05         0.00000E+00
    0.25376E+05        -0.23511E+03         0.00000E+00
    0.00000E+00         0.00000E+00        -0.69813E+03
 
   -0.32020E+04         0.26606E+05         0.00000E+00
    0.26606E+05        -0.26138E+03         0.00000E+00
    0.00000E+00         0.00000E+00        -0.69268E+03
 
   -0.31458E+04         0.27814E+05         0.00000E+00
    0.27814E+05        -0.28898E+03         0.00000E+00
    0.00000E+00         0.00000E+00        -0.68695E+03
 
   -0.30867E+04         0.28999E+05         0.00000E+00
    0.28999E+05        -0.31792E+03         0.00000E+00
    0.00000E+00         0.00000E+00        -0.68093E+03
 
   -0.30249E+04         0.30160E+05         0.00000E+00
    0.30160E+05        -0.34816E+03         0.00000E+00
    0.00000E+00         0.00000E+00        -0.67461E+03
 
   -0.29603E+04         0.31297E+05         0.00000E+00
    0.31297E+05        -0.37969E+03         0.00000E+00
    0.00000E+00         0.00000E+00        -0.66801E+03
 
   -0.28931E+04         0.32407E+05         0.00000E+00
    0.32407E+05        -0.41249E+03         0.00000E+00
    0.00000E+00         0.00000E+00        -0.66111E+03
 
   -0.28231E+04         0.33491E+05         0.00000E+00
    0.33491E+05        -0.44654E+03         0.00000E+00
    0.00000E+00         0.00000E+00        -0.65393E+03
 
   -0.27505E+04         0.34547E+05         0.00000E+00
    0.34547E+05        -0.48182E+03         0.00000E+00
    0.00000E+00         0.00000E+00        -0.64646E+03
 
   -0.26753E+04         0.35574E+05         0.00000E+00
    0.35574E+05        -0.51830E+03         0.00000E+00
    0.00000E+00         0.00000E+00        -0.63871E+03
 
   -0.25974E+04         0.36572E+05         0.00000E+00
    0.36572E+05        -0.55595E+03         0.00000E+00
    0.00000E+00         0.00000E+00        -0.63068E+03
 
   -0.25171E+04         0.37539E+05         0.00000E+00
    0.37539E+05        -0.59474E+03         0.00000E+00
    0.00000E+00         0.00000E+00        -0.62236E+03
 
   -0.24342E+04         0.38474E+05         0.00000E+00
    0.38474E+05        -0.63465E+03         0.00000E+00
    0.00000E+00         0.00000E+00        -0.61377E+03
 
   -0.23488E+04         0.39377E+05         0.00000E+00
    0.39377E+05        -0.67565E+03         0.00000E+00
    0.00000E+00         0.00000E+00        -0.60490E+03
 
   -0.22611E+04         0.40247E+05         0.00000E+00
    0.40247E+05        -0.71769E+03         0.00000E+00
    0.00000E+00         0.00000E+00        -0.59575E+03
 
   -0.21709E+04         0.41083E+05         0.00000E+00
    0.41083E+05        -0.76075E+03         0.00000E+00
    0.00000E+00         0.00000E+00        -0.58634E+03
 
   -0.20785E+04         0.41883E+05         0.00000E+00
    0.41883E+05        -0.80480E+03         0.00000E+00
    0.00000E+00         0.00000E+00        -0.57666E+03
 
   -0.19838E+04         0.42649E+05         0.00000E+00
    0.42649E+05        -0.84979E+03         0.00000E+00
    0.00000E+00         0.00000E+00        -0.56671E+03
 
   -0.18868E+04         0.43377E+05         0.00000E+00
    0.43377E+05        -0.89568E+03         0.00000E+00
    0.00000E+00         0.00000E+00        -0.55650E+03
 
   -0.17877E+04         0.44069E+05         0.00000E+00
    0.44069E+05        -0.94244E+03         0.00000E+00
    0.00000E+00         0.00000E+00        -0.54604E+03
 
   -0.16866E+04         0.44723E+05         0.00000E+00
    0.44723E+05        -0.99002E+03         0.00000E+00
    0.00000E+00         0.00000E+00        -0.53532E+03
 
   -0.15834E+04         0.45338E+05         0.00000E+00
    0.45338E+05        -0.10384E+04         0.00000E+00
    0.00000E+00         0.00000E+00        -0.52435E+03
 
   -0.14782E+04         0.45914E+05         0.00000E+00
    0.45914E+05        -0.10875E+04         0.00000E+00
    0.00000E+00         0.00000E+00        -0.51313E+03
 
   -0.13711E+04         0.46450E+05         0.00000E+00
    0.46450E+05        -0.11373E+04         0.00000E+00
    0.00000E+00         0.00000E+00        -0.50168E+03
 
   -0.12622E+04         0.46945E+05         0.00000E+00
    0.46945E+05        -0.11877E+04         0.00000E+00
    0.00000E+00         0.00000E+00        -0.48999E+03
 
   -0.11516E+04         0.47399E+05         0.00000E+00
    0.47399E+05        -0.12387E+04         0.00000E+00
    0.00000E+00         0.00000E+00        -0.47807E+03
 
   -0.10393E+04         0.47811E+05         0.00000E+00
    0.47811E+05        -0.12903E+04         0.00000E+00
    0.00000E+00         0.00000E+00        -0.46592E+03
 
   -0.92537E+03         0.48181E+05         0.00000E+00
    0.48181E+05        -0.13424E+04         0.00000E+00
    0.00000E+00         0.00000E+00        -0.45355E+03
 
   -0.80994E+03         0.48509E+05         0.00000E+00
    0.48509E+05        -0.13949E+04         0.00000E+00
    0.00000E+00         0.00000E+00        -0.44096E+03
 
   -0.69308E+03         0.48792E+05         0.00000E+00
    0.48792E+05        -0.14478E+04         0.00000E+00
    0.00000E+00         0.00000E+00        -0.42817E+03
 
   -0.57486E+03         0.49032E+05         0.00000E+00
    0.49032E+05        -0.15010E+04         0.00000E+00
    0.00000E+00         0.00000E+00        -0.41517E+03
 
   -0.45538E+03         0.49228E+05         0.00000E+00
    0.49228E+05        -0.15545E+04         0.00000E+00
    0.00000E+00         0.00000E+00        -0.40198E+03
 
    0.34574E+04         0.72038E+03         0.00000E+00
    0.72038E+03        -0.45262E+00         0.00000E+00
    0.00000E+00         0.00000E+00         0.69139E+03
 
    0.34522E+04         0.21593E+04         0.00000E+00
    0.21593E+04         0.10124E+01         0.00000E+00
    0.00000E+00         0.00000E+00         0.69065E+03
 
    0.34441E+04         0.35960E+04         0.00000E+00
    0.35960E+04         0.39243E+01         0.00000E+00
    0.00000E+00         0.00000E+00         0.68961E+03
 
    0.34332E+04         0.50294E+04         0.00000E+00
    0.50294E+04         0.82731E+01         0.00000E+00
    0.00000E+00         0.00000E+00         0.68829E+03
 
    0.34194E+04         0.64583E+04         0.00000E+00
    0.64583E+04         0.14048E+02         0.00000E+00
    0.00000E+00         0.00000E+00         0.68669E+03
 
    0.34028E+04         0.78817E+04         0.00000E+00
    0.78817E+04         0.21237E+02         0.00000E+00
    0.00000E+00         0.00000E+00         0.68480E+03
 
    0.33833E+04         0.92983E+04         0.00000E+00
    0.92983E+04         0.29828E+02         0.00000E+00
    0.00000E+00         0.00000E+00         0.68263E+03
 
    0.33611E+04         0.10707E+05         0.00000E+00
    0.10707E+05         0.39805E+02         0.00000E+00
    0.00000E+00         0.00000E+00         0.68018E+03
 
    0.33361E+04         0.12107E+05         0.00000E+00
    0.12107E+05         0.51156E+02         0.00000E+00
    0.00000E+00         0.00000E+00         0.67745E+03
 
    0.33084E+04         0.13497E+05         0.00000E+00
    0.13497E+05         0.63864E+02         0.00000E+00
    0.00000E+00         0.00000E+00         0.67445E+03
 
    0.32780E+04         0.14876E+05         0.00000E+00
    0.14876E+05         0.77912E+02         0.00000E+00
    0.00000E+00         0.00000E+00         0.67118E+03
 
    0.32449E+04         0.16242E+05         0.00000E+00
    0.16242E+05         0.93283E+02         0.00000E+00
    0.00000E+00         0.00000E+00         0.66763E+03
 
    0.32092E+04         0.17595E+05         0.00000E+00
    0.17595E+05         0.10996E+03         0.00000E+00
    0.00000E+00         0.00000E+00         0.66382E+03
 
    0.31708E+04         0.18934E+05         0.00000E+00
    0.18934E+05         0.12792E+03         0.00000E+00
    0.00000E+00         0.00000E+00         0.65975E+03
 
    0.31299E+04         0.20257E+05         0.00000E+00
    0.20257E+05         0.14715E+03         0.00000E+00
    0.00000E+00         0.00000E+00         0.65541E+03
 
    0.30865E+04         0.21564E+05         0.00000E+00
    0.21564E+05         0.16762E+03         0.00000E+00
    0.00000E+00         0.00000E+00         0.65082E+03
 
    0.30405E+04         0.22853E+05         0.00000E+00
    0.22853E+05         0.18932E+03         0.00000E+00
    0.00000E+00         0.00000E+00         0.64597E+03
 
    0.29921E+04         0.24123E+05         0.00000E+00
    0.24123E+05         0.21221E+03         0.00000E+00
    0.00000E+00         0.00000E+00         0.64086E+03
 
    0.29412E+04         0.25373E+05         0.00000E+00
    0.25373E+05         0.23629E+03         0.00000E+00
    0.00000E+00         0.00000E+00         0.63551E+03
 
    0.28880E+04         0.26603E+05         0.00000E+00
    0.26603E+05         0.26152E+03         0.00000E+00
    0.00000E+00         0.00000E+00         0.62991E+03
 
    0.28324E+04         0.27810E+05         0.00000E+00
    0.27810E+05         0.28788E+03         0.00000E+00
    0.00000E+00         0.00000E+00         0.62406E+03
 
    0.27745E+04         0.28995E+05         0.00000E+00
    0.28995E+05         0.31535E+03         0.00000E+00
    0.00000E+00         0.00000E+00         0.61798E+03
 
    0.27144E+04         0.30156E+05         0.00000E+00
    0.30156E+05         0.34389E+03         0.00000E+00
    0.00000E+00         0.00000E+00         0.61165E+03
 
    0.26520E+04         0.31292E+05         0.00000E+00
    0.31292E+05         0.37349E+03         0.00000E+00
    0.00000E+00         0.00000E+00         0.60509E+03
 
    0.25874E+04         0.32402E+05         0.00000E+00
    0.32402E+05         0.40411E+03         0.00000E+00
    0.00000E+00         0.00000E+00         0.59831E+03
 
    0.25207E+04         0.33485E+05         0.00000E+00
    0.33485E+05         0.43574E+03         0.00000E+00
    0.00000E+00         0.00000E+00         0.59129E+03
 
    0.24519E+04         0.34540E+05         0.00000E+00
    0.34540E+05         0.46833E+03         0.00000E+00
    0.00000E+00         0.00000E+00         0.58405E+03
 
    0.23811E+04         0.35567E+05         0.00000E+00
    0.35567E+05         0.50186E+03         0.00000E+00
    0.00000E+00         0.00000E+00         0.57659E+03
 
    0.23083E+04         0.36563E+05         0.00000E+00
    0.36563E+05         0.53630E+03         0.00000E+00
    0.00000E+00         0.00000E+00         0.56891E+03
 
    0.22335E+04         0.37530E+05         0.00000E+00
    0.37530E+05         0.57162E+03         0.00000E+00
    0.00000E+00         0.00000E+00         0.56103E+03
 
    0.21568E+04         0.38464E+05         0.00000E+00
    0.38464E+05         0.60779E+03         0.00000E+00
    0.00000E+00         0.00000E+00         0.55293E+03
 
    0.20783E+04         0.39367E+05         0.00000E+00
    0.39367E+05         0.64477E+03         0.00000E+00
    0.00000E+00         0.00000E+00         0.54462E+03
 
    0.19980E+04         0.40236E+05         0.00000E+00
    0.40236E+05         0.68255E+03         0.00000E+00
    0.00000E+00         0.00000E+00         0.53611E+03
 
    0.19160E+04         0.41071E+05         0.00000E+00
    0.41071E+05         0.72107E+03         0.00000E+00
    0.00000E+00         0.00000E+00         0.52741E+03
 
    0.18322E+04         0.41871E+05         0.00000E+00
    0.41871E+05         0.76032E+03         0.00000E+00
    0.00000E+00         0.00000E+00         0.51851E+03
 
    0.17469E+04         0.42636E+05         0.00000E+00
    0.42636E+05         0.80025E+03         0.00000E+00
    0.00000E+00         0.00000E+00         0.50942E+03
 
    0.16599E+04         0.43364E+05         0.00000E+00
    0.43364E+05         0.84084E+03         0.00000E+00
    0.00000E+00         0.00000E+00         0.50014E+03
 
    0.15714E+04         0.44055E+05         0.00000E+00
    0.44055E+05         0.88205E+03         0.00000E+00
    0.00000E+00         0.00000E+00         0.49069E+03
 
    0.14814E+04         0.44708E+05         0.00000E+00
    0.44708E+05         0.92383E+03         0.00000E+00
    0.00000E+00         0.00000E+00         0.48105E+03
 
    0.13900E+04         0.45323E+05         0.00000E+00
    0.45323E+05         0.96617E+03         0.00000E+00
    0.00000E+00         0.00000E+00         0.47124E+03
 
    0.12972E+04         0.45898E+05         0.00000E+00
    0.45898E+05         0.10090E+04         0.00000E+00
    0.00000E+00         0.00000E+00         0.46125E+03
 
    0.12032E+04         0.46433E+05         0.00000E+00
    0.46433E+05         0.10523E+04         0.00000E+00
    0.00000E+00         0.00000E+00         0.45110E+03
 
    0.11078E+04         0.46928E+05         0.00000E+00
    0.46928E+05         0.10961E+04         0.00000E+00
    0.00000E+00         0.00000E+00         0.44079E+03
 
    0.10113E+04         0.47382E+05         0.00000E+00
    0.47382E+05         0.11403E+04         0.00000E+00
    0.00000E+00         0.00000E+00         0.43032E+03
 
    0.91363E+03         0.47794E+05         0.00000E+00
    0.47794E+05         0.11848E+04         0.00000E+00
    0.00000E+00         0.00000E+00         0.41969E+03
 
    0.81487E+03         0.48163E+05         0.00000E+00
    0.48163E+05         0.12297E+04         0.00000E+00
    0.00000E+00         0.00000E+00         0.40892E+03
 
    0.71509E+03         0.48490E+05         0.00000E+00
    0.48490E+05         0.12749E+04         0.00000E+00
    0.00000E+00         0.00000E+00         0.39799E+03
 
    0.61434E+03         0.48774E+05         0.00000E+00
    0.48774E+05         0.13203E+04         0.00000E+00
    0.00000E+00         0.00000E+00         0.38693E+03
 
    0.51267E+03         0.49013E+05         0.00000E+00
    0.49013E+05         0.13660E+04         0.00000E+00
    0.00000E+00         0.00000E+00         0.37573E+03
 
    0.41015E+03         0.49209E+05         0.00000E+00
    0.49209E+05         0.14118E+04         0.00000E+00
    0.00000E+00         0.00000E+00         0.36439E+03
 
    0.10686E+05         0.72754E+03         0.00000E+00
    0.72754E+03        -0.13343E+01         0.00000E+00
    0.00000E+00         0.00000E+00         0.21370E+04
 
    0.10673E+05         0.21807E+04         0.00000E+00
    0.21807E+04         0.29293E+01         0.00000E+00
    0.00000E+00         0.00000E+00         0.21351E+04
 
    0.10650E+05         0.36317E+04         0.00000E+00
    0.36317E+04         0.11449E+02         0.00000E+00
    0.00000E+00         0.00000E+00         0.21324E+04
 
    0.10620E+05         0.50792E+04         0.00000E+00
    0.50792E+04         0.24215E+02         0.00000E+00
    0.00000E+00         0.00000E+00         0.21288E+04
 
    0.10581E+05         0.65222E+04         0.00000E+00
    0.65222E+04         0.41217E+02         0.00000E+00
    0.00000E+00         0.00000E+00         0.21244E+04
 
    0.10533E+05         0.79596E+04         0.00000E+00
    0.79596E+04         0.62439E+02         0.00000E+00
    0.00000E+00         0.00000E+00         0.21192E+04
 
    0.10477E+05         0.93902E+04         0.00000E+00
    0.93902E+04         0.87864E+02         0.00000E+00
    0.00000E+00         0.00000E+00         0.21131E+04
 
    0.10413E+05         0.10813E+05         0.00000E+00
    0.10813E+05         0.11747E+03         0.00000E+00
    0.00000E+00         0.00000E+00         0.21061E+04
 
    0.10340E+05         0.12227E+05         0.00000E+00
    0.12227E+05         0.15123E+03         0.00000E+00
    0.00000E+00         0.00000E+00         0.20983E+04
 
    0.10260E+05         0.13630E+05         0.00000E+00
    0.13630E+05         0.18912E+03         0.00000E+00
    0.00000E+00         0.00000E+00         0.20897E+04
 
    0.10170E+05         0.15022E+05         0.00000E+00
    0.15022E+05         0.23111E+03         0.00000E+00
    0.00000E+00         0.00000E+00         0.20803E+04
 
    0.10073E+05         0.16402E+05         0.00000E+00
    0.16402E+05         0.27717E+03         0.00000E+00
    0.00000E+00         0.00000E+00         0.20700E+04
 
    0.99674E+04         0.17769E+05         0.00000E+00
    0.17769E+05         0.32724E+03         0.00000E+00
    0.00000E+00         0.00000E+00         0.20589E+04
 
    0.98538E+04         0.19120E+05         0.00000E+00
    0.19120E+05         0.38131E+03         0.00000E+00
    0.00000E+00         0.00000E+00         0.20470E+04
 
    0.97321E+04         0.20457E+05         0.00000E+00
    0.20457E+05         0.43931E+03         0.00000E+00
    0.00000E+00         0.00000E+00         0.20343E+04
 
    0.96026E+04         0.21776E+05         0.00000E+00
    0.21776E+05         0.50121E+03         0.00000E+00
    0.00000E+00         0.00000E+00         0.20208E+04
 
    0.94651E+04         0.23077E+05         0.00000E+00
    0.23077E+05         0.56696E+03         0.00000E+00
    0.00000E+00         0.00000E+00         0.20064E+04
 
    0.93198E+04         0.24360E+05         0.00000E+00
    0.24360E+05         0.63649E+03         0.00000E+00
    0.00000E+00         0.00000E+00         0.19913E+04
 
    0.91669E+04         0.25622E+05         0.00000E+00
    0.25622E+05         0.70976E+03         0.00000E+00
    0.00000E+00         0.00000E+00         0.19753E+04
 
    0.90063E+04         0.26864E+05         0.00000E+00
    0.26864E+05         0.78670E+03         0.00000E+00
    0.00000E+00         0.00000E+00         0.19586E+04
 
    0.88383E+04         0.28083E+05         0.00000E+00
    0.28083E+05         0.86726E+03         0.00000E+00
    0.00000E+00         0.00000E+00         0.19411E+04
 
    0.86628E+04         0.29279E+05         0.00000E+00
    0.29279E+05         0.95136E+03         0.00000E+00
    0.00000E+00         0.00000E+00         0.19228E+04
 
    0.84800E+04         0.30451E+05         0.00000E+00
    0.30451E+05         0.10389E+04         0.00000E+00
    0.00000E+00         0.00000E+00         0.19038E+04
 
    0.82899E+04         0.31598E+05         0.00000E+00
    0.31598E+05         0.11299E+04         0.00000E+00
    0.00000E+00         0.00000E+00         0.18840E+04
 
    0.80929E+04         0.32719E+05         0.00000E+00
    0.32719E+05         0.12242E+04         0.00000E+00
    0.00000E+00         0.00000E+00         0.18634E+04
 
    0.78888E+04         0.33813E+05         0.00000E+00
    0.33813E+05         0.13218E+04         0.00000E+00
    0.00000E+00         0.00000E+00         0.18421E+04
 
    0.76779E+04         0.34878E+05         0.00000E+00
    0.34878E+05         0.14225E+04         0.00000E+00
    0.00000E+00         0.00000E+00         0.18201E+04
 
    0.74602E+04         0.35914E+05         0.00000E+00
    0.35914E+05         0.15264E+04         0.00000E+00
    0.00000E+00         0.00000E+00         0.17973E+04
 
    0.72360E+04         0.36921E+05         0.00000E+00
    0.36921E+05         0.16332E+04         0.00000E+00
    0.00000E+00         0.00000E+00         0.17738E+04
 
    0.70053E+04         0.37896E+05         0.00000E+00
    0.37896E+05         0.17430E+04         0.00000E+00
    0.00000E+00         0.00000E+00         0.17497E+04
 
    0.67683E+04         0.38840E+05         0.00000E+00
    0.38840E+05         0.18555E+04         0.00000E+00
    0.00000E+00         0.00000E+00         0.17248E+04
 
    0.65252E+04         0.39751E+05         0.00000E+00
    0.39751E+05         0.19708E+04         0.00000E+00
    0.00000E+00         0.00000E+00         0.16992E+04
 
    0.62760E+04         0.40629E+05         0.00000E+00
    0.40629E+05         0.20888E+04         0.00000E+00
    0.00000E+00         0.00000E+00         0.16729E+04
 
    0.60209E+04         0.41472E+05         0.00000E+00
    0.41472E+05         0.22092E+04         0.00000E+00
    0.00000E+00         0.00000E+00         0.16460E+04
 
    0.57601E+04         0.42280E+05         0.00000E+00
    0.42280E+05         0.23321E+04         0.00000E+00
    0.00000E+00         0.00000E+00         0.16184E+04
 
    0.54938E+04         0.43052E+05         0.00000E+00
    0.43052E+05         0.24573E+04         0.00000E+00
    0.00000E+00         0.00000E+00         0.15902E+04
 
    0.52221E+04         0.43787E+05         0.00000E+00
    0.43787E+05         0.25848E+04         0.00000E+00
    0.00000E+00         0.00000E+00         0.15614E+04
 
    0.49451E+04         0.44485E+05         0.00000E+00
    0.44485E+05         0.27143E+04         0.00000E+00
    0.00000E+00         0.00000E+00         0.15319E+04
 
    0.46631E+04         0.45144E+05         0.00000E+00
    0.45144E+05         0.28458E+04         0.00000E+00
    0.00000E+00         0.00000E+00         0.15018E+04
 
    0.43762E+04         0.45764E+05         0.00000E+00
    0.45764E+05         0.29793E+04         0.00000E+00
    0.00000E+00         0.00000E+00         0.14711E+04
 
    0.40846E+04         0.46345E+05         0.00000E+00
    0.46345E+05         0.31144E+04         0.00000E+00
    0.00000E+00         0.00000E+00         0.14398E+04
 
    0.37885E+04         0.46886E+05         0.00000E+00
    0.46886E+05         0.32513E+04         0.00000E+00
    0.00000E+00         0.00000E+00         0.14080E+04
 
    0.34880E+04         0.47385E+05         0.00000E+00
    0.47385E+05         0.33897E+04         0.00000E+00
    0.00000E+00         0.00000E+00         0.13755E+04
 
    0.31834E+04         0.47843E+05         0.00000E+00
    0.47843E+05         0.35294E+04         0.00000E+00
    0.00000E+00         0.00000E+00         0.13426E+04
 
    0.28748E+04         0.48259E+05         0.00000E+00
    0.48259E+05         0.36705E+04         0.00000E+00
    0.00000E+00         0.00000E+00         0.13091E+04
 
    0.25625E+04         0.48632E+05         0.00000E+00
    0.48632E+05         0.38127E+04         0.00000E+00
    0.00000E+00         0.00000E+00         0.12750E+04
 
    0.22466E+04         0.48962E+05         0.00000E+00
    0.48962E+05         0.39560E+04         0.00000E+00
    0.00000E+00         0.00000E+00         0.12405E+04
 
    0.19273E+04         0.49248E+05         0.00000E+00
    0.49248E+05         0.41001E+04         0.00000E+00
    0.00000E+00         0.00000E+00         0.12055E+04
 
    0.16048E+04         0.49490E+05         0.00000E+00
    0.49490E+05         0.42451E+04         0.00000E+00
    0.00000E+00         0.00000E+00         0.11700E+04
 
    0.12793E+04         0.49688E+05         0.00000E+00
    0.49688E+05         0.43907E+04         0.00000E+00
    0.00000E+00         0.00000E+00         0.11340E+04
 
    0.18021E+05         0.74173E+03         0.00000E+00
    0.74173E+03        -0.22286E+01         0.00000E+00
    0.00000E+00         0.00000E+00         0.36038E+04
 
    0.17999E+05         0.22233E+04         0.00000E+00
    0.22233E+04         0.48733E+01         0.00000E+00
    0.00000E+00         0.00000E+00         0.36008E+04
 
    0.17963E+05         0.37026E+04         0.00000E+00
    0.37026E+04         0.19080E+02         0.00000E+00
    0.00000E+00         0.00000E+00         0.35964E+04
 
    0.17912E+05         0.51784E+04         0.00000E+00
    0.51784E+04         0.40384E+02         0.00000E+00
    0.00000E+00         0.00000E+00         0.35906E+04
 
    0.17848E+05         0.66497E+04         0.00000E+00
    0.66497E+04         0.68773E+02         0.00000E+00
    0.00000E+00         0.00000E+00         0.35833E+04
 
    0.17769E+05         0.81152E+04         0.00000E+00
    0.81152E+04         0.10423E+03         0.00000E+00
    0.00000E+00         0.00000E+00         0.35746E+04
 
    0.17676E+05         0.95738E+04         0.00000E+00
    0.95738E+04         0.14673E+03         0.00000E+00
    0.00000E+00         0.00000E+00         0.35646E+04
 
    0.17569E+05         0.11024E+05         0.00000E+00
    0.11024E+05         0.19625E+03         0.00000E+00
    0.00000E+00         0.00000E+00         0.35531E+04
 
    0.17448E+05         0.12466E+05         0.00000E+00
    0.12466E+05         0.25274E+03         0.00000E+00
    0.00000E+00         0.00000E+00         0.35402E+04
 
    0.17313E+05         0.13897E+05         0.00000E+00
    0.13897E+05         0.31618E+03         0.00000E+00
    0.00000E+00         0.00000E+00         0.35259E+04
 
    0.17164E+05         0.15316E+05         0.00000E+00
    0.15316E+05         0.38651E+03         0.00000E+00
    0.00000E+00         0.00000E+00         0.35102E+04
 
    0.17002E+05         0.16723E+05         0.00000E+00
    0.16723E+05         0.46368E+03         0.00000E+00
    0.00000E+00         0.00000E+00         0.34931E+04
 
    0.16825E+05         0.18117E+05         0.00000E+00
    0.18117E+05         0.54765E+03         0.00000E+00
    0.00000E+00         0.00000E+00         0.34746E+04
 
    0.16635E+05         0.19495E+05         0.00000E+00
    0.19495E+05         0.63833E+03         0.00000E+00
    0.00000E+00         0.00000E+00         0.34547E+04
 
    0.16432E+05         0.20858E+05         0.00000E+00
    0.20858E+05         0.73567E+03         0.00000E+00
    0.00000E+00         0.00000E+00         0.34335E+04
 
    0.16215E+05         0.22203E+05         0.00000E+00
    0.22203E+05         0.83960E+03         0.00000E+00
    0.00000E+00         0.00000E+00         0.34109E+04
 
    0.15984E+05         0.23530E+05         0.00000E+00
    0.23530E+05         0.95003E+03         0.00000E+00
    0.00000E+00         0.00000E+00         0.33869E+04
 
    0.15741E+05         0.24838E+05         0.00000E+00
    0.24838E+05         0.10669E+04         0.00000E+00
    0.00000E+00         0.00000E+00         0.33616E+04
 
    0.15484E+05         0.26125E+05         0.00000E+00
    0.26125E+05         0.11900E+04         0.00000E+00
    0.00000E+00         0.00000E+00         0.33349E+04
 
    0.15215E+05         0.27391E+05         0.00000E+00
    0.27391E+05         0.13195E+04         0.00000E+00
    0.00000E+00         0.00000E+00         0.33069E+04
 
    0.14933E+05         0.28635E+05         0.00000E+00
    0.28635E+05         0.14550E+04         0.00000E+00
    0.00000E+00         0.00000E+00         0.32776E+04
 
    0.14638E+05         0.29855E+05         0.00000E+00
    0.29855E+05         0.15966E+04         0.00000E+00
    0.00000E+00         0.00000E+00         0.32469E+04
 
    0.14331E+05         0.31050E+05         0.00000E+00
    0.31050E+05         0.17440E+04         0.00000E+00
    0.00000E+00         0.00000E+00         0.32150E+04
 
    0.14011E+05         0.32219E+05         0.00000E+00
    0.32219E+05         0.18973E+04         0.00000E+00
    0.00000E+00         0.00000E+00         0.31817E+04
 
    0.13680E+05         0.33362E+05         0.00000E+00
    0.33362E+05         0.20562E+04         0.00000E+00
    0.00000E+00         0.00000E+00         0.31472E+04
 
    0.13336E+05         0.34478E+05         0.00000E+00
    0.34478E+05         0.22207E+04         0.00000E+00
    0.00000E+00         0.00000E+00         0.31114E+04
 
    0.12981E+05         0.35564E+05         0.00000E+00
    0.35564E+05         0.23906E+04         0.00000E+00
    0.00000E+00         0.00000E+00         0.30743E+04
 
    0.12614E+05         0.36621E+05         0.00000E+00
    0.36621E+05         0.25658E+04         0.00000E+00
    0.00000E+00         0.00000E+00         0.30360E+04
 
    0.12237E+05         0.37648E+05         0.00000E+00
    0.37648E+05         0.27461E+04         0.00000E+00
    0.00000E+00         0.00000E+00         0.29965E+04
 
    0.11848E+05         0.38643E+05         0.00000E+00
    0.38643E+05         0.29313E+04         0.00000E+00
    0.00000E+00         0.00000E+00         0.29558E+04
 
    0.11448E+05         0.39605E+05         0.00000E+00
    0.39605E+05         0.31214E+04         0.00000E+00
    0.00000E+00         0.00000E+00         0.29139E+04
 
    0.11038E+05         0.40534E+05         0.00000E+00
    0.40534E+05         0.33162E+04         0.00000E+00
    0.00000E+00         0.00000E+00         0.28708E+04
 
    0.10617E+05         0.41429E+05         0.00000E+00
    0.41429E+05         0.35154E+04         0.00000E+00
    0.00000E+00         0.00000E+00         0.28265E+04
 
    0.10187E+05         0.42289E+05         0.00000E+00
    0.42289E+05         0.37190E+04         0.00000E+00
    0.00000E+00         0.00000E+00         0.27811E+04
 
    0.97462E+04         0.43113E+05         0.00000E+00
    0.43113E+05         0.39268E+04         0.00000E+00
    0.00000E+00         0.00000E+00         0.27346E+04
 
    0.92962E+04         0.43901E+05         0.00000E+00
    0.43901E+05         0.41386E+04         0.00000E+00
    0.00000E+00         0.00000E+00         0.26870E+04
 
    0.88370E+04         0.44651E+05         0.00000E+00
    0.44651E+05         0.43541E+04         0.00000E+00
    0.00000E+00         0.00000E+00         0.26382E+04
 
    0.83688E+04         0.45362E+05         0.00000E+00
    0.45362E+05         0.45733E+04         0.00000E+00
    0.00000E+00         0.00000E+00         0.25884E+04
 
    0.78919E+04         0.46035E+05         0.00000E+00
    0.46035E+05         0.47959E+04         0.00000E+00
    0.00000E+00         0.00000E+00         0.25376E+04
 
    0.74066E+04         0.46667E+05         0.00000E+00
    0.46667E+05         0.50218E+04         0.00000E+00
    0.00000E+00         0.00000E+00         0.24857E+04
 
    0.69133E+04         0.47260E+05         0.00000E+00
    0.47260E+05         0.52507E+04         0.00000E+00
    0.00000E+00         0.00000E+00         0.24328E+04
 
    0.64121E+04         0.47811E+05         0.00000E+00
    0.47811E+05         0.54824E+04         0.00000E+00
    0.00000E+00         0.00000E+00         0.23789E+04
 
    0.59035E+04         0.48321E+05         0.00000E+00
    0.48321E+05         0.57168E+04         0.00000E+00
    0.00000E+00         0.00000E+00         0.23240E+04
 
    0.53877E+04         0.48788E+05         0.00000E+00
    0.48788E+05         0.59536E+04         0.00000E+00
    0.00000E+00         0.00000E+00         0.22683E+04
 
    0.48651E+04         0.49212E+05         0.00000E+00
    0.49212E+05         0.61926E+04         0.00000E+00
    0.00000E+00         0.00000E+00         0.22115E+04
 
    0.43360E+04         0.49593E+05         0.00000E+00
    0.49593E+05         0.64336E+04         0.00000E+00
    0.00000E+00         0.00000E+00         0.21539E+04
 
    0.38007E+04         0.49929E+05         0.00000E+00
    0.49929E+05         0.66764E+04         0.00000E+00
    0.00000E+00         0.00000E+00         0.20954E+04
 
    0.32596E+04         0.50221E+05         0.00000E+00
    0.50221E+05         0.69208E+04         0.00000E+00
    0.00000E+00         0.00000E+00         0.20361E+04
 
    0.27130E+04         0.50468E+05         0.00000E+00
    0.50468E+05         0.71665E+04         0.00000E+00
    0.00000E+00         0.00000E+00         0.19759E+04
 
    0.21613E+04         0.50669E+05         0.00000E+00
    0.50669E+05         0.74133E+04         0.00000E+00
    0.00000E+00         0.00000E+00         0.19149E+04
 
    0.25534E+05         0.76308E+03         0.00000E+00
    0.76308E+03        -0.31440E+01         0.00000E+00
    0.00000E+00         0.00000E+00         0.51062E+04
 
    0.25504E+05         0.22874E+04         0.00000E+00
    0.22874E+04         0.68617E+01         0.00000E+00
    0.00000E+00         0.00000E+00         0.51021E+04
 
    0.25453E+05         0.38094E+04         0.00000E+00
    0.38094E+04         0.26888E+02         0.00000E+00
    0.00000E+00         0.00000E+00         0.50960E+04
 
    0.25382E+05         0.53280E+04         0.00000E+00
    0.53280E+04         0.56930E+02         0.00000E+00
    0.00000E+00         0.00000E+00         0.50878E+04
 
    0.25292E+05         0.68419E+04         0.00000E+00
    0.68419E+04         0.96975E+02         0.00000E+00
    0.00000E+00         0.00000E+00         0.50777E+04
 
    0.25181E+05         0.83499E+04         0.00000E+00
    0.83499E+04         0.14700E+03         0.00000E+00
    0.00000E+00         0.00000E+00         0.50656E+04
 
    0.25050E+05         0.98509E+04         0.00000E+00
    0.98509E+04         0.20698E+03         0.00000E+00
    0.00000E+00         0.00000E+00         0.50514E+04
 
    0.24900E+05         0.11344E+05         0.00000E+00
    0.11344E+05         0.27688E+03         0.00000E+00
    0.00000E+00         0.00000E+00         0.50353E+04
 
    0.24729E+05         0.12827E+05         0.00000E+00
    0.12827E+05         0.35666E+03         0.00000E+00
    0.00000E+00         0.00000E+00         0.50172E+04
 
    0.24539E+05         0.14300E+05         0.00000E+00
    0.14300E+05         0.44625E+03         0.00000E+00
    0.00000E+00         0.00000E+00         0.49971E+04
 
    0.24330E+05         0.15761E+05         0.00000E+00
    0.15761E+05         0.54561E+03         0.00000E+00
    0.00000E+00         0.00000E+00         0.49750E+04
 
    0.24100E+05         0.17209E+05         0.00000E+00
    0.17209E+05         0.65466E+03         0.00000E+00
    0.00000E+00         0.00000E+00         0.49510E+04
 
    0.23851E+05         0.18643E+05         0.00000E+00
    0.18643E+05         0.77333E+03         0.00000E+00
    0.00000E+00         0.00000E+00         0.49250E+04
 
    0.23583E+05         0.20062E+05         0.00000E+00
    0.20062E+05         0.90153E+03         0.00000E+00
    0.00000E+00         0.00000E+00         0.48970E+04
 
    0.23296E+05         0.21464E+05         0.00000E+00
    0.21464E+05         0.10392E+04         0.00000E+00
    0.00000E+00         0.00000E+00         0.48670E+04
 
    0.22990E+05         0.22849E+05         0.00000E+00
    0.22849E+05         0.11861E+04         0.00000E+00
    0.00000E+00         0.00000E+00         0.48352E+04
 
    0.22664E+05         0.24215E+05         0.00000E+00
    0.24215E+05         0.13424E+04         0.00000E+00
    0.00000E+00         0.00000E+00         0.48014E+04
 
    0.22320E+05         0.25562E+05         0.00000E+00
    0.25562E+05         0.15077E+04         0.00000E+00
    0.00000E+00         0.00000E+00         0.47656E+04
 
    0.21958E+05         0.26887E+05         0.00000E+00
    0.26887E+05         0.16820E+04         0.00000E+00
    0.00000E+00         0.00000E+00         0.47280E+04
 
    0.21577E+05         0.28190E+05         0.00000E+00
    0.28190E+05         0.18651E+04         0.00000E+00
    0.00000E+00         0.00000E+00         0.46884E+04
 
    0.21178E+05         0.29471E+05         0.00000E+00
    0.29471E+05         0.20570E+04         0.00000E+00
    0.00000E+00         0.00000E+00         0.46470E+04
 
    0.20761E+05         0.30726E+05         0.00000E+00
    0.30726E+05         0.22575E+04         0.00000E+00
    0.00000E+00         0.00000E+00         0.46037E+04
 
    0.20326E+05         0.31957E+05         0.00000E+00
    0.31957E+05         0.24663E+04         0.00000E+00
    0.00000E+00         0.00000E+00         0.45585E+04
 
    0.19874E+05         0.33161E+05         0.00000E+00
    0.33161E+05         0.26834E+04         0.00000E+00
    0.00000E+00         0.00000E+00         0.45116E+04
 
    0.19405E+05         0.34338E+05         0.00000E+00
    0.34338E+05         0.29086E+04         0.00000E+00
    0.00000E+00         0.00000E+00         0.44627E+04
 
    0.18919E+05         0.35487E+05         0.00000E+00
    0.35487E+05         0.31416E+04         0.00000E+00
    0.00000E+00         0.00000E+00         0.44121E+04
 
    0.18416E+05         0.36606E+05         0.00000E+00
    0.36606E+05         0.33824E+04         0.00000E+00
    0.00000E+00         0.00000E+00         0.43597E+04
 
    0.17897E+05         0.37694E+05         0.00000E+00
    0.37694E+05         0.36307E+04         0.00000E+00
    0.00000E+00         0.00000E+00         0.43055E+04
 
    0.17362E+05         0.38751E+05         0.00000E+00
    0.38751E+05         0.38862E+04         0.00000E+00
    0.00000E+00         0.00000E+00         0.42496E+04
 
    0.16811E+05         0.39776E+05         0.00000E+00
    0.39776E+05         0.41489E+04         0.00000E+00
    0.00000E+00         0.00000E+00         0.41919E+04
 
    0.16244E+05         0.40767E+05         0.00000E+00
    0.40767E+05         0.44185E+04         0.00000E+00
    0.00000E+00         0.00000E+00         0.41326E+04
 
    0.15663E+05         0.41724E+05         0.00000E+00
    0.41724E+05         0.46947E+04         0.00000E+00
    0.00000E+00         0.00000E+00         0.40715E+04
 
    0.15067E+05         0.42646E+05         0.00000E+00
    0.42646E+05         0.49773E+04         0.00000E+00
    0.00000E+00         0.00000E+00         0.40088E+04
 
    0.14456E+05         0.43531E+05         0.00000E+00
    0.43531E+05         0.52661E+04         0.00000E+00
    0.00000E+00         0.00000E+00         0.39445E+04
 
    0.13832E+05         0.44380E+05         0.00000E+00
    0.44380E+05         0.55609E+04         0.00000E+00
    0.00000E+00         0.00000E+00         0.38786E+04
 
    0.13194E+05         0.45191E+05         0.00000E+00
    0.45191E+05         0.58614E+04         0.00000E+00
    0.00000E+00         0.00000E+00         0.38110E+04
 
    0.12542E+05         0.45964E+05         0.00000E+00
    0.45964E+05         0.61673E+04         0.00000E+00
    0.00000E+00         0.00000E+00         0.37419E+04
 
    0.11878E+05         0.46697E+05         0.00000E+00
    0.46697E+05         0.64783E+04         0.00000E+00
    0.00000E+00         0.00000E+00         0.36713E+04
 
    0.11202E+05         0.47389E+05         0.00000E+00
    0.47389E+05         0.67943E+04         0.00000E+00
    0.00000E+00         0.00000E+00         0.35992E+04
 
    0.10513E+05         0.48041E+05         0.00000E+00
    0.48041E+05         0.71149E+04         0.00000E+00
    0.00000E+00         0.00000E+00         0.35256E+04
 
    0.98129E+04         0.48651E+05         0.00000E+00
    0.48651E+05         0.74399E+04         0.00000E+00
    0.00000E+00         0.00000E+00         0.34506E+04
 
    0.91016E+04         0.49219E+05         0.00000E+00
    0.49219E+05         0.77689E+04         0.00000E+00
    0.00000E+00         0.00000E+00         0.33741E+04
 
    0.83796E+04         0.49744E+05         0.00000E+00
    0.49744E+05         0.81017E+04         0.00000E+00
    0.00000E+00         0.00000E+00         0.32963E+04
 
    0.76474E+04         0.50225E+05         0.00000E+00
    0.50225E+05         0.84380E+04         0.00000E+00
    0.00000E+00         0.00000E+00         0.32171E+04
 
    0.69053E+04         0.50662E+05         0.00000E+00
    0.50662E+05         0.87774E+04         0.00000E+00
    0.00000E+00         0.00000E+00         0.31366E+04
 
    0.61540E+04         0.51055E+05         0.00000E+00
    0.51055E+05         0.91198E+04         0.00000E+00
    0.00000E+00         0.00000E+00         0.30548E+04
 
    0.53939E+04         0.51401E+05         0.00000E+00
    0.51401E+05         0.94646E+04         0.00000E+00
    0.00000E+00         0.00000E+00         0.29717E+04
 
    0.46254E+04         0.51702E+05         0.00000E+00
    0.51702E+05         0.98117E+04         0.00000E+00
    0.00000E+00         0.00000E+00         0.28874E+04
 
    0.38490E+04         0.51956E+05         0.00000E+00
    0.51956E+05         0.10161E+05         0.00000E+00
    0.00000E+00         0.00000E+00         0.28020E+04
 
    0.30654E+04         0.52164E+05         0.00000E+00
    0.52164E+05         0.10511E+05         0.00000E+00
    0.00000E+00         0.00000E+00         0.27153E+04
 
    0.33298E+05         0.79179E+03         0.00000E+00
    0.79179E+03        -0.40895E+01         0.00000E+00
    0.00000E+00         0.00000E+00         0.66588E+04
 
    0.33259E+05         0.23737E+04         0.00000E+00
    0.23737E+04         0.89123E+01         0.00000E+00
    0.00000E+00         0.00000E+00         0.66535E+04
 
    0.33193E+05         0.39533E+04         0.00000E+00
    0.39533E+04         0.34946E+02         0.00000E+00
    0.00000E+00         0.00000E+00         0.66457E+04
 
    0.33102E+05         0.55293E+04         0.00000E+00
    0.55293E+04         0.74010E+02         0.00000E+00
    0.00000E+00         0.00000E+00         0.66353E+04
 
    0.32985E+05         0.71006E+04         0.00000E+00
    0.71006E+04         0.12609E+03         0.00000E+00
    0.00000E+00         0.00000E+00         0.66222E+04
 
    0.32842E+05         0.86660E+04         0.00000E+00
    0.86660E+04         0.19117E+03         0.00000E+00
    0.00000E+00         0.00000E+00         0.66066E+04
 
    0.32672E+05         0.10224E+05         0.00000E+00
    0.10224E+05         0.26921E+03         0.00000E+00
    0.00000E+00         0.00000E+00         0.65883E+04
 
    0.32477E+05         0.11774E+05         0.00000E+00
    0.11774E+05         0.36017E+03         0.00000E+00
    0.00000E+00         0.00000E+00         0.65675E+04
 
    0.32256E+05         0.13314E+05         0.00000E+00
    0.13314E+05         0.46400E+03         0.00000E+00
    0.00000E+00         0.00000E+00         0.65441E+04
 
    0.32010E+05         0.14843E+05         0.00000E+00
    0.14843E+05         0.58063E+03         0.00000E+00
    0.00000E+00         0.00000E+00         0.65181E+04
 
    0.31737E+05         0.16360E+05         0.00000E+00
    0.16360E+05         0.70999E+03         0.00000E+00
    0.00000E+00         0.00000E+00         0.64894E+04
 
    0.31439E+05         0.17864E+05         0.00000E+00
    0.17864E+05         0.85200E+03         0.00000E+00
    0.00000E+00         0.00000E+00         0.64583E+04
 
    0.31116E+05         0.19353E+05         0.00000E+00
    0.19353E+05         0.10065E+04         0.00000E+00
    0.00000E+00         0.00000E+00         0.64245E+04
 
    0.30768E+05         0.20826E+05         0.00000E+00
    0.20826E+05         0.11735E+04         0.00000E+00
    0.00000E+00         0.00000E+00         0.63882E+04
 
    0.30394E+05         0.22283E+05         0.00000E+00
    0.22283E+05         0.13528E+04         0.00000E+00
    0.00000E+00         0.00000E+00         0.63494E+04
 
    0.29995E+05         0.23721E+05         0.00000E+00
    0.23721E+05         0.15443E+04         0.00000E+00
    0.00000E+00         0.00000E+00         0.63080E+04
 
    0.29572E+05         0.25140E+05         0.00000E+00
    0.25140E+05         0.17479E+04         0.00000E+00
    0.00000E+00         0.00000E+00         0.62640E+04
 
    0.29125E+05         0.26538E+05         0.00000E+00
    0.26538E+05         0.19634E+04         0.00000E+00
    0.00000E+00         0.00000E+00         0.62176E+04
 
    0.28653E+05         0.27915E+05         0.00000E+00
    0.27915E+05         0.21906E+04         0.00000E+00
    0.00000E+00         0.00000E+00         0.61687E+04
 
    0.28157E+05         0.29269E+05         0.00000E+00
    0.29269E+05         0.24293E+04         0.00000E+00
    0.00000E+00         0.00000E+00         0.61173E+04
 
    0.27637E+05         0.30599E+05         0.00000E+00
    0.30599E+05         0.26795E+04         0.00000E+00
    0.00000E+00         0.00000E+00         0.60634E+04
 
    0.27094E+05         0.31904E+05         0.00000E+00
    0.31904E+05         0.29408E+04         0.00000E+00
    0.00000E+00         0.00000E+00         0.60071E+04
 
    0.26528E+05         0.33182E+05         0.00000E+00
    0.33182E+05         0.32132E+04         0.00000E+00
    0.00000E+00         0.00000E+00         0.59483E+04
 
    0.25939E+05         0.34434E+05         0.00000E+00
    0.34434E+05         0.34963E+04         0.00000E+00
    0.00000E+00         0.00000E+00         0.58871E+04
 
    0.25328E+05         0.35657E+05         0.00000E+00
    0.35657E+05         0.37900E+04         0.00000E+00
    0.00000E+00         0.00000E+00         0.58236E+04
 
    0.24694E+05         0.36850E+05         0.00000E+00
    0.36850E+05         0.40940E+04         0.00000E+00
    0.00000E+00         0.00000E+00         0.57577E+04
 
    0.24039E+05         0.38013E+05         0.00000E+00
    0.38013E+05         0.44081E+04         0.00000E+00
    0.00000E+00         0.00000E+00         0.56894E+04
 
    0.23362E+05         0.39144E+05         0.00000E+00
    0.39144E+05         0.47321E+04         0.00000E+00
    0.00000E+00         0.00000E+00         0.56188E+04
 
    0.22664E+05         0.40243E+05         0.00000E+00
    0.40243E+05         0.50655E+04         0.00000E+00
    0.00000E+00         0.00000E+00         0.55460E+04
 
    0.21946E+05         0.41307E+05         0.00000E+00
    0.41307E+05         0.54083E+04         0.00000E+00
    0.00000E+00         0.00000E+00         0.54709E+04
 
    0.21207E+05         0.42338E+05         0.00000E+00
    0.42338E+05         0.57601E+04         0.00000E+00
    0.00000E+00         0.00000E+00         0.53935E+04
 
    0.20449E+05         0.43332E+05         0.00000E+00
    0.43332E+05         0.61206E+04         0.00000E+00
    0.00000E+00         0.00000E+00         0.53139E+04
 
    0.19671E+05         0.44291E+05         0.00000E+00
    0.44291E+05         0.64895E+04         0.00000E+00
    0.00000E+00         0.00000E+00         0.52322E+04
 
    0.18875E+05         0.45211E+05         0.00000E+00
    0.45211E+05         0.68666E+04         0.00000E+00
    0.00000E+00         0.00000E+00         0.51483E+04
 
    0.18060E+05         0.46094E+05         0.00000E+00
    0.46094E+05         0.72514E+04         0.00000E+00
    0.00000E+00         0.00000E+00         0.50623E+04
 
    0.17227E+05         0.46937E+05         0.00000E+00
    0.46937E+05         0.76437E+04         0.00000E+00
    0.00000E+00         0.00000E+00         0.49742E+04
 
    0.16377E+05         0.47740E+05         0.00000E+00
    0.47740E+05         0.80431E+04         0.00000E+00
    0.00000E+00         0.00000E+00         0.48841E+04
 
    0.15510E+05         0.48502E+05         0.00000E+00
    0.48502E+05         0.84493E+04         0.00000E+00
    0.00000E+00         0.00000E+00         0.47920E+04
 
    0.14627E+05         0.49222E+05         0.00000E+00
    0.49222E+05         0.88619E+04         0.00000E+00
    0.00000E+00         0.00000E+00         0.46978E+04
 
    0.13728E+05         0.49900E+05         0.00000E+00
    0.49900E+05         0.92806E+04         0.00000E+00
    0.00000E+00         0.00000E+00         0.46018E+04
 
    0.12814E+05         0.50534E+05         0.00000E+00
    0.50534E+05         0.97051E+04         0.00000E+00
    0.00000E+00         0.00000E+00         0.45038E+04
 
    0.11885E+05         0.51125E+05         0.00000E+00
    0.51125E+05         0.10135E+05         0.00000E+00
    0.00000E+00         0.00000E+00         0.44040E+04
 
    0.10943E+05         0.51671E+05         0.00000E+00
    0.51671E+05         0.10569E+05         0.00000E+00
    0.00000E+00         0.00000E+00         0.43024E+04
 
    0.99863E+04         0.52171E+05         0.00000E+00
    0.52171E+05         0.11009E+05         0.00000E+00
    0.00000E+00         0.00000E+00         0.41990E+04
 
    0.90172E+04         0.52625E+05         0.00000E+00
    0.52625E+05         0.11452E+05         0.00000E+00
    0.00000E+00         0.00000E+00         0.40939E+04
 
    0.80359E+04         0.53033E+05         0.00000E+00
    0.53033E+05         0.11899E+05         0.00000E+00
    0.00000E+00         0.00000E+00         0.39870E+04
 
    0.70430E+04         0.53394E+05         0.00000E+00
    0.53394E+05         0.12350E+05         0.00000E+00
    0.00000E+00         0.00000E+00         0.38786E+04
 
    0.60391E+04         0.53707E+05         0.00000E+00
    0.53707E+05         0.12803E+05         0.00000E+00
    0.00000E+00         0.00000E+00         0.37685E+04
 
    0.50249E+04         0.53971E+05         0.00000E+00
    0.53971E+05         0.13259E+05         0.00000E+00
    0.00000E+00         0.00000E+00         0.36568E+04
 
    0.40010E+04         0.54187E+05         0.00000E+00
    0.54187E+05         0.13717E+05         0.00000E+00
    0.00000E+00         0.00000E+00         0.35437E+04
 
    0.41387E+05         0.82812E+03         0.00000E+00
    0.82812E+03        -0.50746E+01         0.00000E+00
    0.00000E+00         0.00000E+00         0.82764E+04
 
    0.41340E+05         0.24829E+04         0.00000E+00
    0.24829E+04         0.11044E+02         0.00000E+00
    0.00000E+00         0.00000E+00         0.82702E+04
 
    0.41260E+05         0.41354E+04         0.00000E+00
    0.41354E+04         0.43332E+02         0.00000E+00
    0.00000E+00         0.00000E+00         0.82607E+04
 
    0.41148E+05         0.57844E+04         0.00000E+00
    0.57844E+04         0.91791E+02         0.00000E+00
    0.00000E+00         0.00000E+00         0.82479E+04
 
    0.41004E+05         0.74285E+04         0.00000E+00
    0.74285E+04         0.15641E+03         0.00000E+00
    0.00000E+00         0.00000E+00         0.82320E+04
 
    0.40827E+05         0.90665E+04         0.00000E+00
    0.90665E+04         0.23717E+03         0.00000E+00
    0.00000E+00         0.00000E+00         0.82128E+04
 
    0.40618E+05         0.10697E+05         0.00000E+00
    0.10697E+05         0.33403E+03         0.00000E+00
    0.00000E+00         0.00000E+00         0.81904E+04
 
    0.40377E+05         0.12319E+05         0.00000E+00
    0.12319E+05         0.44695E+03         0.00000E+00
    0.00000E+00         0.00000E+00         0.81647E+04
 
    0.40104E+05         0.13931E+05         0.00000E+00
    0.13931E+05         0.57586E+03         0.00000E+00
    0.00000E+00         0.00000E+00         0.81359E+04
 
    0.39798E+05         0.15532E+05         0.00000E+00
    0.15532E+05         0.72068E+03         0.00000E+00
    0.00000E+00         0.00000E+00         0.81038E+04
 
    0.39461E+05         0.17120E+05         0.00000E+00
    0.17120E+05         0.88133E+03         0.00000E+00
    0.00000E+00         0.00000E+00         0.80685E+04
 
    0.39092E+05         0.18694E+05         0.00000E+00
    0.18694E+05         0.10577E+04         0.00000E+00
    0.00000E+00         0.00000E+00         0.80300E+04
 
    0.38692E+05         0.20253E+05         0.00000E+00
    0.20253E+05         0.12497E+04         0.00000E+00
    0.00000E+00         0.00000E+00         0.79883E+04
 
    0.38260E+05         0.21796E+05         0.00000E+00
    0.21796E+05         0.14571E+04         0.00000E+00
    0.00000E+00         0.00000E+00         0.79434E+04
 
    0.37797E+05         0.23321E+05         0.00000E+00
    0.23321E+05         0.16799E+04         0.00000E+00
    0.00000E+00         0.00000E+00         0.78953E+04
 
    0.37303E+05         0.24827E+05         0.00000E+00
    0.24827E+05         0.19179E+04         0.00000E+00
    0.00000E+00         0.00000E+00         0.78441E+04
 
    0.36778E+05         0.26313E+05         0.00000E+00
    0.26313E+05         0.21709E+04         0.00000E+00
    0.00000E+00         0.00000E+00         0.77898E+04
 
    0.36223E+05         0.27778E+05         0.00000E+00
    0.27778E+05         0.24387E+04         0.00000E+00
    0.00000E+00         0.00000E+00         0.77323E+04
 
    0.35637E+05         0.29220E+05         0.00000E+00
    0.29220E+05         0.27211E+04         0.00000E+00
    0.00000E+00         0.00000E+00         0.76716E+04
 
    0.35022E+05         0.30638E+05         0.00000E+00
    0.30638E+05         0.30179E+04         0.00000E+00
    0.00000E+00         0.00000E+00         0.76079E+04
 
    0.34377E+05         0.32032E+05         0.00000E+00
    0.32032E+05         0.33289E+04         0.00000E+00
    0.00000E+00         0.00000E+00         0.75412E+04
 
    0.33703E+05         0.33399E+05         0.00000E+00
    0.33399E+05         0.36539E+04         0.00000E+00
    0.00000E+00         0.00000E+00         0.74713E+04
 
    0.33000E+05         0.34738E+05         0.00000E+00
    0.34738E+05         0.39925E+04         0.00000E+00
    0.00000E+00         0.00000E+00         0.73985E+04
 
    0.32268E+05         0.36050E+05         0.00000E+00
    0.36050E+05         0.43446E+04         0.00000E+00
    0.00000E+00         0.00000E+00         0.73226E+04
 
    0.31509E+05         0.37331E+05         0.00000E+00
    0.37331E+05         0.47099E+04         0.00000E+00
    0.00000E+00         0.00000E+00         0.72438E+04
 
    0.30722E+05         0.38582E+05         0.00000E+00
    0.38582E+05         0.50880E+04         0.00000E+00
    0.00000E+00         0.00000E+00         0.71620E+04
 
    0.29908E+05         0.39800E+05         0.00000E+00
    0.39800E+05         0.54787E+04         0.00000E+00
    0.00000E+00         0.00000E+00         0.70772E+04
 
    0.29067E+05         0.40986E+05         0.00000E+00
    0.40986E+05         0.58816E+04         0.00000E+00
    0.00000E+00         0.00000E+00         0.69896E+04
 
    0.28199E+05         0.42137E+05         0.00000E+00
    0.42137E+05         0.62965E+04         0.00000E+00
    0.00000E+00         0.00000E+00         0.68992E+04
 
    0.27306E+05         0.43253E+05         0.00000E+00
    0.43253E+05         0.67229E+04         0.00000E+00
    0.00000E+00         0.00000E+00         0.68059E+04
 
    0.26388E+05         0.44334E+05         0.00000E+00
    0.44334E+05         0.71606E+04         0.00000E+00
    0.00000E+00         0.00000E+00         0.67098E+04
 
    0.25446E+05         0.45376E+05         0.00000E+00
    0.45376E+05         0.76091E+04         0.00000E+00
    0.00000E+00         0.00000E+00         0.66109E+04
 
    0.24479E+05         0.46381E+05         0.00000E+00
    0.46381E+05         0.80682E+04         0.00000E+00
    0.00000E+00         0.00000E+00         0.65094E+04
 
    0.23488E+05         0.47346E+05         0.00000E+00
    0.47346E+05         0.85373E+04         0.00000E+00
    0.00000E+00         0.00000E+00         0.64051E+04
 
    0.22475E+05         0.48271E+05         0.00000E+00
    0.48271E+05         0.90162E+04         0.00000E+00
    0.00000E+00         0.00000E+00         0.62982E+04
 
    0.21439E+05         0.49155E+05         0.00000E+00
    0.49155E+05         0.95044E+04         0.00000E+00
    0.00000E+00         0.00000E+00         0.61887E+04
 
    0.20382E+05         0.49997E+05         0.00000E+00
    0.49997E+05         0.10002E+05         0.00000E+00
    0.00000E+00         0.00000E+00         0.60767E+04
 
    0.19303E+05         0.50796E+05         0.00000E+00
    0.50796E+05         0.10507E+05         0.00000E+00
    0.00000E+00         0.00000E+00         0.59621E+04
 
    0.18205E+05         0.51552E+05         0.00000E+00
    0.51552E+05         0.11021E+05         0.00000E+00
    0.00000E+00         0.00000E+00         0.58451E+04
 
    0.17086E+05         0.52263E+05         0.00000E+00
    0.52263E+05         0.11542E+05         0.00000E+00
    0.00000E+00         0.00000E+00         0.57256E+04
 
    0.15949E+05         0.52928E+05         0.00000E+00
    0.52928E+05         0.12070E+05         0.00000E+00
    0.00000E+00         0.00000E+00         0.56038E+04
 
    0.14793E+05         0.53548E+05         0.00000E+00
    0.53548E+05         0.12605E+05         0.00000E+00
    0.00000E+00         0.00000E+00         0.54796E+04
 
    0.13620E+05         0.54120E+05         0.00000E+00
    0.54120E+05         0.13146E+05         0.00000E+00
    0.00000E+00         0.00000E+00         0.53532E+04
 
    0.12429E+05         0.54645E+05         0.00000E+00
    0.54645E+05         0.13693E+05         0.00000E+00
    0.00000E+00         0.00000E+00         0.52245E+04
 
    0.11223E+05         0.55122E+05         0.00000E+00
    0.55122E+05         0.14245E+05         0.00000E+00
    0.00000E+00         0.00000E+00         0.50937E+04
 
    0.10002E+05         0.55549E+05         0.00000E+00
    0.55549E+05         0.14802E+05         0.00000E+00
    0.00000E+00         0.00000E+00         0.49607E+04
 
    0.87655E+04         0.55928E+05         0.00000E+00
    0.55928E+05         0.15363E+05         0.00000E+00
    0.00000E+00         0.00000E+00         0.48257E+04
 
    0.75157E+04         0.56256E+05         0.00000E+00
    0.56256E+05         0.15927E+05         0.00000E+00
    0.00000E+00         0.00000E+00         0.46886E+04
 
    0.62530E+04         0.56533E+05         0.00000E+00
    0.56533E+05         0.16495E+05         0.00000E+00
    0.00000E+00         0.00000E+00         0.45497E+04
 
    0.49782E+04         0.56760E+05         0.00000E+00
    0.56760E+05         0.17066E+05         0.00000E+00
    0.00000E+00         0.00000E+00         0.44088E+04
 
    0.49881E+05         0.87240E+03         0.00000E+00
    0.87240E+03        -0.61097E+01         0.00000E+00
    0.00000E+00         0.00000E+00         0.99749E+04
 
    0.49825E+05         0.26161E+04         0.00000E+00
    0.26161E+04         0.13279E+02         0.00000E+00
    0.00000E+00         0.00000E+00         0.99677E+04
 
    0.49731E+05         0.43576E+04         0.00000E+00
    0.43576E+04         0.52130E+02         0.00000E+00
    0.00000E+00         0.00000E+00         0.99566E+04
 
    0.49598E+05         0.60956E+04         0.00000E+00
    0.60956E+04         0.11046E+03         0.00000E+00
    0.00000E+00         0.00000E+00         0.99416E+04
 
    0.49426E+05         0.78286E+04         0.00000E+00
    0.78286E+04         0.18825E+03         0.00000E+00
    0.00000E+00         0.00000E+00         0.99228E+04
 
    0.49215E+05         0.95554E+04         0.00000E+00
    0.95554E+04         0.28549E+03         0.00000E+00
    0.00000E+00         0.00000E+00         0.99000E+04
 
    0.48965E+05         0.11274E+05         0.00000E+00
    0.11274E+05         0.40213E+03         0.00000E+00
    0.00000E+00         0.00000E+00         0.98734E+04
 
    0.48676E+05         0.12985E+05         0.00000E+00
    0.12985E+05         0.53813E+03         0.00000E+00
    0.00000E+00         0.00000E+00         0.98429E+04
 
    0.48349E+05         0.14684E+05         0.00000E+00
    0.14684E+05         0.69342E+03         0.00000E+00
    0.00000E+00         0.00000E+00         0.98084E+04
 
    0.47983E+05         0.16372E+05         0.00000E+00
    0.16372E+05         0.86790E+03         0.00000E+00
    0.00000E+00         0.00000E+00         0.97701E+04
 
    0.47578E+05         0.18047E+05         0.00000E+00
    0.18047E+05         0.10615E+04         0.00000E+00
    0.00000E+00         0.00000E+00         0.97280E+04
 
    0.47135E+05         0.19708E+05         0.00000E+00
    0.19708E+05         0.12740E+04         0.00000E+00
    0.00000E+00         0.00000E+00         0.96819E+04
 
    0.46655E+05         0.21353E+05         0.00000E+00
    0.21353E+05         0.15054E+04         0.00000E+00
    0.00000E+00         0.00000E+00         0.96320E+04
 
    0.46136E+05         0.22980E+05         0.00000E+00
    0.22980E+05         0.17554E+04         0.00000E+00
    0.00000E+00         0.00000E+00         0.95782E+04
 
    0.45579E+05         0.24590E+05         0.00000E+00
    0.24590E+05         0.20240E+04         0.00000E+00
    0.00000E+00         0.00000E+00         0.95206E+04
 
    0.44985E+05         0.26179E+05         0.00000E+00
    0.26179E+05         0.23109E+04         0.00000E+00
    0.00000E+00         0.00000E+00         0.94592E+04
 
    0.44354E+05         0.27747E+05         0.00000E+00
    0.27747E+05         0.26159E+04         0.00000E+00
    0.00000E+00         0.00000E+00         0.93940E+04
 
    0.43686E+05         0.29293E+05         0.00000E+00
    0.29293E+05         0.29388E+04         0.00000E+00
    0.00000E+00         0.00000E+00         0.93250E+04
 
    0.42982E+05         0.30815E+05         0.00000E+00
    0.30815E+05         0.32793E+04         0.00000E+00
    0.00000E+00         0.00000E+00         0.92522E+04
 
    0.42241E+05         0.32313E+05         0.00000E+00
    0.32313E+05         0.36373E+04         0.00000E+00
    0.00000E+00         0.00000E+00         0.91757E+04
 
    0.41465E+05         0.33783E+05         0.00000E+00
    0.33783E+05         0.40124E+04         0.00000E+00
    0.00000E+00         0.00000E+00         0.90955E+04
 
    0.40654E+05         0.35227E+05         0.00000E+00
    0.35227E+05         0.44043E+04         0.00000E+00
    0.00000E+00         0.00000E+00         0.90116E+04
 
    0.39807E+05         0.36641E+05         0.00000E+00
    0.36641E+05         0.48128E+04         0.00000E+00
    0.00000E+00         0.00000E+00         0.89240E+04
 
    0.38926E+05         0.38026E+05         0.00000E+00
    0.38026E+05         0.52375E+04         0.00000E+00
    0.00000E+00         0.00000E+00         0.88328E+04
 
    0.38012E+05         0.39379E+05         0.00000E+00
    0.39379E+05         0.56781E+04         0.00000E+00
    0.00000E+00         0.00000E+00         0.87380E+04
 
    0.37064E+05         0.40699E+05         0.00000E+00
    0.40699E+05         0.61343E+04         0.00000E+00
    0.00000E+00         0.00000E+00         0.86396E+04
 
    0.36083E+05         0.41986E+05         0.00000E+00
    0.41986E+05         0.66057E+04         0.00000E+00
    0.00000E+00         0.00000E+00         0.85376E+04
 
    0.35069E+05         0.43239E+05         0.00000E+00
    0.43239E+05         0.70918E+04         0.00000E+00
    0.00000E+00         0.00000E+00         0.84322E+04
 
    0.34024E+05         0.44455E+05         0.00000E+00
    0.44455E+05         0.75924E+04         0.00000E+00
    0.00000E+00         0.00000E+00         0.83233E+04
 
    0.32948E+05         0.45634E+05         0.00000E+00
    0.45634E+05         0.81069E+04         0.00000E+00
    0.00000E+00         0.00000E+00         0.82110E+04
 
    0.31841E+05         0.46775E+05         0.00000E+00
    0.46775E+05         0.86351E+04         0.00000E+00
    0.00000E+00         0.00000E+00         0.80953E+04
 
    0.30705E+05         0.47877E+05         0.00000E+00
    0.47877E+05         0.91764E+04         0.00000E+00
    0.00000E+00         0.00000E+00         0.79762E+04
 
    0.29539E+05         0.48938E+05         0.00000E+00
    0.48938E+05         0.97304E+04         0.00000E+00
    0.00000E+00         0.00000E+00         0.78538E+04
 
    0.28345E+05         0.49958E+05         0.00000E+00
    0.49958E+05         0.10297E+05         0.00000E+00
    0.00000E+00         0.00000E+00         0.77282E+04
 
    0.27123E+05         0.50936E+05         0.00000E+00
    0.50936E+05         0.10875E+05         0.00000E+00
    0.00000E+00         0.00000E+00         0.75994E+04
 
    0.25873E+05         0.51870E+05         0.00000E+00
    0.51870E+05         0.11464E+05         0.00000E+00
    0.00000E+00         0.00000E+00         0.74675E+04
 
    0.24598E+05         0.52760E+05         0.00000E+00
    0.52760E+05         0.12064E+05         0.00000E+00
    0.00000E+00         0.00000E+00         0.73324E+04
 
    0.23297E+05         0.53605E+05         0.00000E+00
    0.53605E+05         0.12674E+05         0.00000E+00
    0.00000E+00         0.00000E+00         0.71943E+04
 
    0.21972E+05         0.54403E+05         0.00000E+00
    0.54403E+05         0.13294E+05         0.00000E+00
    0.00000E+00         0.00000E+00         0.70531E+04
 
    0.20622E+05         0.55155E+05         0.00000E+00
    0.55155E+05         0.13923E+05         0.00000E+00
    0.00000E+00         0.00000E+00         0.69091E+04
 
    0.19250E+05         0.55858E+05         0.00000E+00
    0.55858E+05         0.14561E+05         0.00000E+00
    0.00000E+00         0.00000E+00         0.67621E+04
 
    0.17855E+05         0.56513E+05         0.00000E+00
    0.56513E+05         0.15207E+05         0.00000E+00
    0.00000E+00         0.00000E+00         0.66123E+04
 
    0.16439E+05         0.57118E+05         0.00000E+00
    0.57118E+05         0.15860E+05         0.00000E+00
    0.00000E+00         0.00000E+00         0.64598E+04
 
    0.15003E+05         0.57673E+05         0.00000E+00
    0.57673E+05         0.16520E+05         0.00000E+00
    0.00000E+00         0.00000E+00         0.63045E+04
 
    0.13547E+05         0.58177E+05         0.00000E+00
    0.58177E+05         0.17187E+05         0.00000E+00
    0.00000E+00         0.00000E+00         0.61467E+04
 
    0.12072E+05         0.58630E+05         0.00000E+00
    0.58630E+05         0.17859E+05         0.00000E+00
    0.00000E+00         0.00000E+00         0.59862E+04
 
    0.10580E+05         0.59030E+05         0.00000E+00
    0.59030E+05         0.18536E+05         0.00000E+00
    0.00000E+00         0.00000E+00         0.58232E+04
 
    0.90712E+04         0.59377E+05         0.00000E+00
    0.59377E+05         0.19218E+05         0.00000E+00
    0.00000E+00         0.00000E+00         0.56578E+04
 
    0.75467E+04         0.59670E+05         0.00000E+00
    0.59670E+05         0.19903E+05         0.00000E+00
    0.00000E+00         0.00000E+00         0.54900E+04
 
    0.60075E+04         0.59909E+05         0.00000E+00
    0.59909E+05         0.20592E+05         0.00000E+00
    0.00000E+00         0.00000E+00         0.53199E+04
 
    0.58860E+05         0.92506E+03         0.00000E+00
    0.92506E+03        -0.72064E+01         0.00000E+00
    0.00000E+00         0.00000E+00         0.11771E+05
 
    0.58797E+05         0.27746E+04         0.00000E+00
    0.27746E+04         0.15639E+02         0.00000E+00
    0.00000E+00         0.00000E+00         0.11763E+05
 
    0.58689E+05         0.46221E+04         0.00000E+00
    0.46221E+04         0.61439E+02         0.00000E+00
    0.00000E+00         0.00000E+00         0.11750E+05
 
    0.58535E+05         0.64660E+04         0.00000E+00
    0.64660E+04         0.13021E+03         0.00000E+00
    0.00000E+00         0.00000E+00         0.11733E+05
 
    0.58334E+05         0.83050E+04         0.00000E+00
    0.83050E+04         0.22196E+03         0.00000E+00
    0.00000E+00         0.00000E+00         0.11711E+05
 
    0.58088E+05         0.10138E+05         0.00000E+00
    0.10138E+05         0.33666E+03         0.00000E+00
    0.00000E+00         0.00000E+00         0.11685E+05
 
    0.57796E+05         0.11962E+05         0.00000E+00
    0.11962E+05         0.47428E+03         0.00000E+00
    0.00000E+00         0.00000E+00         0.11654E+05
 
    0.57458E+05         0.13778E+05         0.00000E+00
    0.13778E+05         0.63475E+03         0.00000E+00
    0.00000E+00         0.00000E+00         0.11619E+05
 
    0.57074E+05         0.15582E+05         0.00000E+00
    0.15582E+05         0.81801E+03         0.00000E+00
    0.00000E+00         0.00000E+00         0.11578E+05
 
    0.56645E+05         0.17374E+05         0.00000E+00
    0.17374E+05         0.10239E+04         0.00000E+00
    0.00000E+00         0.00000E+00         0.11534E+05
 
    0.56170E+05         0.19153E+05         0.00000E+00
    0.19153E+05         0.12524E+04         0.00000E+00
    0.00000E+00         0.00000E+00         0.11484E+05
 
    0.55650E+05         0.20917E+05         0.00000E+00
    0.20917E+05         0.15034E+04         0.00000E+00
    0.00000E+00         0.00000E+00         0.11431E+05
 
    0.55085E+05         0.22664E+05         0.00000E+00
    0.22664E+05         0.17765E+04         0.00000E+00
    0.00000E+00         0.00000E+00         0.11372E+05
 
    0.54475E+05         0.24393E+05         0.00000E+00
    0.24393E+05         0.20718E+04         0.00000E+00
    0.00000E+00         0.00000E+00         0.11309E+05
 
    0.53820E+05         0.26102E+05         0.00000E+00
    0.26102E+05         0.23889E+04         0.00000E+00
    0.00000E+00         0.00000E+00         0.11242E+05
 
    0.53121E+05         0.27791E+05         0.00000E+00
    0.27791E+05         0.27277E+04         0.00000E+00
    0.00000E+00         0.00000E+00         0.11170E+05
 
    0.52378E+05         0.29457E+05         0.00000E+00
    0.29457E+05         0.30880E+04         0.00000E+00
    0.00000E+00         0.00000E+00         0.11093E+05
 
    0.51592E+05         0.31100E+05         0.00000E+00
    0.31100E+05         0.34694E+04         0.00000E+00
    0.00000E+00         0.00000E+00         0.11012E+05
 
    0.50762E+05         0.32718E+05         0.00000E+00
    0.32718E+05         0.38717E+04         0.00000E+00
    0.00000E+00         0.00000E+00         0.10927E+05
 
    0.49890E+05         0.34309E+05         0.00000E+00
    0.34309E+05         0.42945E+04         0.00000E+00
    0.00000E+00         0.00000E+00         0.10837E+05
 
    0.48975E+05         0.35872E+05         0.00000E+00
    0.35872E+05         0.47377E+04         0.00000E+00
    0.00000E+00         0.00000E+00         0.10743E+05
 
    0.48019E+05         0.37407E+05         0.00000E+00
    0.37407E+05         0.52007E+04         0.00000E+00
    0.00000E+00         0.00000E+00         0.10644E+05
 
    0.47021E+05         0.38910E+05         0.00000E+00
    0.38910E+05         0.56834E+04         0.00000E+00
    0.00000E+00         0.00000E+00         0.10541E+05
 
    0.45982E+05         0.40382E+05         0.00000E+00
    0.40382E+05         0.61852E+04         0.00000E+00
    0.00000E+00         0.00000E+00         0.10433E+05
 
    0.44903E+05         0.41821E+05         0.00000E+00
    0.41821E+05         0.67059E+04         0.00000E+00
    0.00000E+00         0.00000E+00         0.10322E+05
 
    0.43785E+05         0.43226E+05         0.00000E+00
    0.43226E+05         0.72449E+04         0.00000E+00
    0.00000E+00         0.00000E+00         0.10206E+05
 
    0.42628E+05         0.44595E+05         0.00000E+00
    0.44595E+05         0.78019E+04         0.00000E+00
    0.00000E+00         0.00000E+00         0.10086E+05
 
    0.41432E+05         0.45926E+05         0.00000E+00
    0.45926E+05         0.83764E+04         0.00000E+00
    0.00000E+00         0.00000E+00         0.99617E+04
 
    0.40199E+05         0.47220E+05         0.00000E+00
    0.47220E+05         0.89680E+04         0.00000E+00
    0.00000E+00         0.00000E+00         0.98334E+04
 
    0.38929E+05         0.48475E+05         0.00000E+00
    0.48475E+05         0.95761E+04         0.00000E+00
    0.00000E+00         0.00000E+00         0.97010E+04
 
    0.37623E+05         0.49688E+05         0.00000E+00
    0.49688E+05         0.10200E+05         0.00000E+00
    0.00000E+00         0.00000E+00         0.95646E+04
 
    0.36281E+05         0.50860E+05         0.00000E+00
    0.50860E+05         0.10840E+05         0.00000E+00
    0.00000E+00         0.00000E+00         0.94242E+04
 
    0.34905E+05         0.51990E+05         0.00000E+00
    0.51990E+05         0.11495E+05         0.00000E+00
    0.00000E+00         0.00000E+00         0.92799E+04
 
    0.33495E+05         0.53075E+05         0.00000E+00
    0.53075E+05         0.12164E+05         0.00000E+00
    0.00000E+00         0.00000E+00         0.91318E+04
 
    0.32052E+05         0.54115E+05         0.00000E+00
    0.54115E+05         0.12847E+05         0.00000E+00
    0.00000E+00         0.00000E+00         0.89798E+04
 
    0.30577E+05         0.55110E+05         0.00000E+00
    0.55110E+05         0.13544E+05         0.00000E+00
    0.00000E+00         0.00000E+00         0.88241E+04
 
    0.29070E+05         0.56057E+05         0.00000E+00
    0.56057E+05         0.14253E+05         0.00000E+00
    0.00000E+00         0.00000E+00         0.86647E+04
 
    0.27534E+05         0.56956E+05         0.00000E+00
    0.56956E+05         0.14974E+05         0.00000E+00
    0.00000E+00         0.00000E+00         0.85016E+04
 
    0.25968E+05         0.57806E+05         0.00000E+00
    0.57806E+05         0.15707E+05         0.00000E+00
    0.00000E+00         0.00000E+00         0.83350E+04
 
    0.24374E+05         0.58606E+05         0.00000E+00
    0.58606E+05         0.16451E+05         0.00000E+00
    0.00000E+00         0.00000E+00         0.81649E+04
 
    0.22752E+05         0.59355E+05         0.00000E+00
    0.59355E+05         0.17205E+05         0.00000E+00
    0.00000E+00         0.00000E+00         0.79914E+04
 
    0.21104E+05         0.60052E+05         0.00000E+00
    0.60052E+05         0.17968E+05         0.00000E+00
    0.00000E+00         0.00000E+00         0.78145E+04
 
    0.19431E+05         0.60697E+05         0.00000E+00
    0.60697E+05         0.18740E+05         0.00000E+00
    0.00000E+00         0.00000E+00         0.76343E+04
 
    0.17734E+05         0.61288E+05         0.00000E+00
    0.61288E+05         0.19521E+05         0.00000E+00
    0.00000E+00         0.00000E+00         0.74509E+04
 
    0.16013E+05         0.61824E+05         0.00000E+00
    0.61824E+05         0.20309E+05         0.00000E+00
    0.00000E+00         0.00000E+00         0.72643E+04
 
    0.14270E+05         0.62306E+05         0.00000E+00
    0.62306E+05         0.21103E+05         0.00000E+00
    0.00000E+00         0.00000E+00         0.70747E+04
 
    0.12506E+05         0.62732E+05         0.00000E+00
    0.62732E+05         0.21904E+05         0.00000E+00
    0.00000E+00         0.00000E+00         0.68821E+04
 
    0.10722E+05         0.63102E+05         0.00000E+00
    0.63102E+05         0.22710E+05         0.00000E+00
    0.00000E+00         0.00000E+00         0.66865E+04
 
    0.89199E+04         0.63414E+05         0.00000E+00
    0.63414E+05         0.23521E+05         0.00000E+00
    0.00000E+00         0.00000E+00         0.64882E+04
 
    0.71000E+04         0.63669E+05         0.00000E+00
    0.63669E+05         0.24335E+05         0.00000E+00
    0.00000E+00         0.00000E+00         0.62871E+04
 
    0.68413E+05         0.98661E+03         0.00000E+00
    0.98661E+03        -0.83785E+01         0.00000E+00
    0.00000E+00         0.00000E+00         0.13681E+05
 
    0.68344E+05         0.29600E+04         0.00000E+00
    0.29600E+04         0.18154E+02         0.00000E+00
    0.00000E+00         0.00000E+00         0.13672E+05
 
    0.68222E+05         0.49315E+04         0.00000E+00
    0.49315E+04         0.71369E+02         0.00000E+00
    0.00000E+00         0.00000E+00         0.13659E+05
 
    0.68046E+05         0.68995E+04         0.00000E+00
    0.68995E+04         0.15130E+03         0.00000E+00
    0.00000E+00         0.00000E+00         0.13639E+05
 
    0.67817E+05         0.88625E+04         0.00000E+00
    0.88625E+04         0.25795E+03         0.00000E+00
    0.00000E+00         0.00000E+00         0.13615E+05
 
    0.67535E+05         0.10819E+05         0.00000E+00
    0.10819E+05         0.39132E+03         0.00000E+00
    0.00000E+00         0.00000E+00         0.13585E+05
 
    0.67199E+05         0.12767E+05         0.00000E+00
    0.12767E+05         0.55135E+03         0.00000E+00
    0.00000E+00         0.00000E+00         0.13550E+05
 
    0.66809E+05         0.14706E+05         0.00000E+00
    0.14706E+05         0.73800E+03         0.00000E+00
    0.00000E+00         0.00000E+00         0.13509E+05
 
    0.66367E+05         0.16633E+05         0.00000E+00
    0.16633E+05         0.95117E+03         0.00000E+00
    0.00000E+00         0.00000E+00         0.13464E+05
 
    0.65871E+05         0.18548E+05         0.00000E+00
    0.18548E+05         0.11907E+04         0.00000E+00
    0.00000E+00         0.00000E+00         0.13412E+05
 
    0.65323E+05         0.20448E+05         0.00000E+00
    0.20448E+05         0.14566E+04         0.00000E+00
    0.00000E+00         0.00000E+00         0.13356E+05
 
    0.64721E+05         0.22332E+05         0.00000E+00
    0.22332E+05         0.17486E+04         0.00000E+00
    0.00000E+00         0.00000E+00         0.13294E+05
 
    0.64067E+05         0.24199E+05         0.00000E+00
    0.24199E+05         0.20665E+04         0.00000E+00
    0.00000E+00         0.00000E+00         0.13227E+05
 
    0.63361E+05         0.26047E+05         0.00000E+00
    0.26047E+05         0.24101E+04         0.00000E+00
    0.00000E+00         0.00000E+00         0.13154E+05
 
    0.62602E+05         0.27874E+05         0.00000E+00
    0.27874E+05         0.27793E+04         0.00000E+00
    0.00000E+00         0.00000E+00         0.13076E+05
 
    0.61792E+05         0.29679E+05         0.00000E+00
    0.29679E+05         0.31737E+04         0.00000E+00
    0.00000E+00         0.00000E+00         0.12993E+05
 
    0.60931E+05         0.31461E+05         0.00000E+00
    0.31461E+05         0.35930E+04         0.00000E+00
    0.00000E+00         0.00000E+00         0.12905E+05
 
    0.60019E+05         0.33217E+05         0.00000E+00
    0.33217E+05         0.40370E+04         0.00000E+00
    0.00000E+00         0.00000E+00         0.12811E+05
 
    0.59057E+05         0.34947E+05         0.00000E+00
    0.34947E+05         0.45054E+04         0.00000E+00
    0.00000E+00         0.00000E+00         0.12712E+05
 
    0.58045E+05         0.36649E+05         0.00000E+00
    0.36649E+05         0.49977E+04         0.00000E+00
    0.00000E+00         0.00000E+00         0.12608E+05
 
    0.56983E+05         0.38321E+05         0.00000E+00
    0.38321E+05         0.55137E+04         0.00000E+00
    0.00000E+00         0.00000E+00         0.12499E+05
 
    0.55873E+05         0.39962E+05         0.00000E+00
    0.39962E+05         0.60528E+04         0.00000E+00
    0.00000E+00         0.00000E+00         0.12385E+05
 
    0.54714E+05         0.41571E+05         0.00000E+00
    0.41571E+05         0.66148E+04         0.00000E+00
    0.00000E+00         0.00000E+00         0.12266E+05
 
    0.53508E+05         0.43145E+05         0.00000E+00
    0.43145E+05         0.71992E+04         0.00000E+00
    0.00000E+00         0.00000E+00         0.12141E+05
 
    0.52255E+05         0.44685E+05         0.00000E+00
    0.44685E+05         0.78054E+04         0.00000E+00
    0.00000E+00         0.00000E+00         0.12012E+05
 
    0.50956E+05         0.46188E+05         0.00000E+00
    0.46188E+05         0.84331E+04         0.00000E+00
    0.00000E+00         0.00000E+00         0.11878E+05
 
    0.49611E+05         0.47652E+05         0.00000E+00
    0.47652E+05         0.90817E+04         0.00000E+00
    0.00000E+00         0.00000E+00         0.11739E+05
 
    0.48222E+05         0.49078E+05         0.00000E+00
    0.49078E+05         0.97508E+04         0.00000E+00
    0.00000E+00         0.00000E+00         0.11594E+05
 
    0.46788E+05         0.50462E+05         0.00000E+00
    0.50462E+05         0.10440E+05         0.00000E+00
    0.00000E+00         0.00000E+00         0.11446E+05
 
    0.45312E+05         0.51805E+05         0.00000E+00
    0.51805E+05         0.11148E+05         0.00000E+00
    0.00000E+00         0.00000E+00         0.11292E+05
 
    0.43793E+05         0.53104E+05         0.00000E+00
    0.53104E+05         0.11875E+05         0.00000E+00
    0.00000E+00         0.00000E+00         0.11134E+05
 
    0.42233E+05         0.54359E+05         0.00000E+00
    0.54359E+05         0.12620E+05         0.00000E+00
    0.00000E+00         0.00000E+00         0.10971E+05
 
    0.40633E+05         0.55568E+05         0.00000E+00
    0.55568E+05         0.13382E+05         0.00000E+00
    0.00000E+00         0.00000E+00         0.10803E+05
 
    0.38993E+05         0.56730E+05         0.00000E+00
    0.56730E+05         0.14162E+05         0.00000E+00
    0.00000E+00         0.00000E+00         0.10631E+05
 
    0.37314E+05         0.57844E+05         0.00000E+00
    0.57844E+05         0.14957E+05         0.00000E+00
    0.00000E+00         0.00000E+00         0.10454E+05
 
    0.35598E+05         0.58908E+05         0.00000E+00
    0.58908E+05         0.15768E+05         0.00000E+00
    0.00000E+00         0.00000E+00         0.10273E+05
 
    0.33846E+05         0.59923E+05         0.00000E+00
    0.59923E+05         0.16594E+05         0.00000E+00
    0.00000E+00         0.00000E+00         0.10088E+05
 
    0.32058E+05         0.60886E+05         0.00000E+00
    0.60886E+05         0.17434E+05         0.00000E+00
    0.00000E+00         0.00000E+00         0.98984E+04
 
    0.30236E+05         0.61796E+05         0.00000E+00
    0.61796E+05         0.18288E+05         0.00000E+00
    0.00000E+00         0.00000E+00         0.97047E+04
 
    0.28381E+05         0.62653E+05         0.00000E+00
    0.62653E+05         0.19154E+05         0.00000E+00
    0.00000E+00         0.00000E+00         0.95069E+04
 
    0.26493E+05         0.63455E+05         0.00000E+00
    0.63455E+05         0.20032E+05         0.00000E+00
    0.00000E+00         0.00000E+00         0.93050E+04
 
    0.24575E+05         0.64202E+05         0.00000E+00
    0.64202E+05         0.20921E+05         0.00000E+00
    0.00000E+00         0.00000E+00         0.90992E+04
 
    0.22627E+05         0.64893E+05         0.00000E+00
    0.64893E+05         0.21820E+05         0.00000E+00
    0.00000E+00         0.00000E+00         0.88896E+04
 
    0.20651E+05         0.65526E+05         0.00000E+00
    0.65526E+05         0.22729E+05         0.00000E+00
    0.00000E+00         0.00000E+00         0.86761E+04
 
    0.18648E+05         0.66102E+05         0.00000E+00
    0.66102E+05         0.23647E+05         0.00000E+00
    0.00000E+00         0.00000E+00         0.84590E+04
 
    0.16618E+05         0.66618E+05         0.00000E+00
    0.66618E+05         0.24573E+05         0.00000E+00
    0.00000E+00         0.00000E+00         0.82382E+04
 
    0.14564E+05         0.67075E+05         0.00000E+00
    0.67075E+05         0.25505E+05         0.00000E+00
    0.00000E+00         0.00000E+00         0.80140E+04
 
    0.12487E+05         0.67471E+05         0.00000E+00
    0.67471E+05         0.26444E+05         0.00000E+00
    0.00000E+00         0.00000E+00         0.77863E+04
 
    0.10388E+05         0.67806E+05         0.00000E+00
    0.67806E+05         0.27388E+05         0.00000E+00
    0.00000E+00         0.00000E+00         0.75553E+04
 
    0.82680E+04         0.68080E+05         0.00000E+00
    0.68080E+05         0.28337E+05         0.00000E+00
    0.00000E+00         0.00000E+00         0.73210E+04
 
    0.78632E+05         0.10577E+04         0.00000E+00
    0.10577E+04        -0.96416E+01         0.00000E+00
    0.00000E+00         0.00000E+00         0.15724E+05
 
    0.78558E+05         0.31742E+04         0.00000E+00
    0.31742E+04         0.20856E+02         0.00000E+00
    0.00000E+00         0.00000E+00         0.15716E+05
 
    0.78423E+05         0.52890E+04         0.00000E+00
    0.52890E+04         0.82054E+02         0.00000E+00
    0.00000E+00         0.00000E+00         0.15701E+05
 
    0.78226E+05         0.74005E+04         0.00000E+00
    0.74005E+04         0.17400E+03         0.00000E+00
    0.00000E+00         0.00000E+00         0.15680E+05
 
    0.77968E+05         0.95071E+04         0.00000E+00
    0.95071E+04         0.29672E+03         0.00000E+00
    0.00000E+00         0.00000E+00         0.15653E+05
 
    0.77648E+05         0.11607E+05         0.00000E+00
    0.11607E+05         0.45020E+03         0.00000E+00
    0.00000E+00         0.00000E+00         0.15620E+05
 
    0.77267E+05         0.13698E+05         0.00000E+00
    0.13698E+05         0.63440E+03         0.00000E+00
    0.00000E+00         0.00000E+00         0.15580E+05
 
    0.76824E+05         0.15780E+05         0.00000E+00
    0.15780E+05         0.84926E+03         0.00000E+00
    0.00000E+00         0.00000E+00         0.15535E+05
 
    0.76320E+05         0.17849E+05         0.00000E+00
    0.17849E+05         0.10947E+04         0.00000E+00
    0.00000E+00         0.00000E+00         0.15483E+05
 
    0.75755E+05         0.19906E+05         0.00000E+00
    0.19906E+05         0.13706E+04         0.00000E+00
    0.00000E+00         0.00000E+00         0.15425E+05
 
    0.75128E+05         0.21947E+05         0.00000E+00
    0.21947E+05         0.16767E+04         0.00000E+00
    0.00000E+00         0.00000E+00         0.15361E+05
 
    0.74441E+05         0.23971E+05         0.00000E+00
    0.23971E+05         0.20130E+04         0.00000E+00
    0.00000E+00         0.00000E+00         0.15291E+05
 
    0.73693E+05         0.25977E+05         0.00000E+00
    0.25977E+05         0.23791E+04         0.00000E+00
    0.00000E+00         0.00000E+00         0.15214E+05
 
    0.72885E+05         0.27962E+05         0.00000E+00
    0.27962E+05         0.27750E+04         0.00000E+00
    0.00000E+00         0.00000E+00         0.15132E+05
 
    0.72016E+05         0.29926E+05         0.00000E+00
    0.29926E+05         0.32002E+04         0.00000E+00
    0.00000E+00         0.00000E+00         0.15043E+05
 
    0.71088E+05         0.31866E+05         0.00000E+00
    0.31866E+05         0.36545E+04         0.00000E+00
    0.00000E+00         0.00000E+00         0.14949E+05
 
    0.70101E+05         0.33781E+05         0.00000E+00
    0.33781E+05         0.41376E+04         0.00000E+00
    0.00000E+00         0.00000E+00         0.14848E+05
 
    0.69056E+05         0.35669E+05         0.00000E+00
    0.35669E+05         0.46492E+04         0.00000E+00
    0.00000E+00         0.00000E+00         0.14741E+05
 
    0.67952E+05         0.37528E+05         0.00000E+00
    0.37528E+05         0.51888E+04         0.00000E+00
    0.00000E+00         0.00000E+00         0.14628E+05
 
    0.66791E+05         0.39358E+05         0.00000E+00
    0.39358E+05         0.57560E+04         0.00000E+00
    0.00000E+00         0.00000E+00         0.14509E+05
 
    0.65572E+05         0.41156E+05         0.00000E+00
    0.41156E+05         0.63505E+04         0.00000E+00
    0.00000E+00         0.00000E+00         0.14385E+05
 
    0.64298E+05         0.42921E+05         0.00000E+00
    0.42921E+05         0.69717E+04         0.00000E+00
    0.00000E+00         0.00000E+00         0.14254E+05
 
    0.62967E+05         0.44651E+05         0.00000E+00
    0.44651E+05         0.76192E+04         0.00000E+00
    0.00000E+00         0.00000E+00         0.14117E+05
 
    0.61582E+05         0.46345E+05         0.00000E+00
    0.46345E+05         0.82924E+04         0.00000E+00
    0.00000E+00         0.00000E+00         0.13975E+05
 
    0.60143E+05         0.48000E+05         0.00000E+00
    0.48000E+05         0.89910E+04         0.00000E+00
    0.00000E+00         0.00000E+00         0.13827E+05
 
    0.58650E+05         0.49617E+05         0.00000E+00
    0.49617E+05         0.97142E+04         0.00000E+00
    0.00000E+00         0.00000E+00         0.13673E+05
 
    0.57105E+05         0.51193E+05         0.00000E+00
    0.51193E+05         0.10461E+05         0.00000E+00
    0.00000E+00         0.00000E+00         0.13513E+05
 
    0.55508E+05         0.52726E+05         0.00000E+00
    0.52726E+05         0.11232E+05         0.00000E+00
    0.00000E+00         0.00000E+00         0.13348E+05
 
    0.53860E+05         0.54216E+05         0.00000E+00
    0.54216E+05         0.12026E+05         0.00000E+00
    0.00000E+00         0.00000E+00         0.13177E+05
 
    0.52163E+05         0.55660E+05         0.00000E+00
    0.55660E+05         0.12842E+05         0.00000E+00
    0.00000E+00         0.00000E+00         0.13001E+05
 
    0.50416E+05         0.57059E+05         0.00000E+00
    0.57059E+05         0.13679E+05         0.00000E+00
    0.00000E+00         0.00000E+00         0.12819E+05
 
    0.48622E+05         0.58409E+05         0.00000E+00
    0.58409E+05         0.14538E+05         0.00000E+00
    0.00000E+00         0.00000E+00         0.12632E+05
 
    0.46782E+05         0.59710E+05         0.00000E+00
    0.59710E+05         0.15416E+05         0.00000E+00
    0.00000E+00         0.00000E+00         0.12440E+05
 
    0.44896E+05         0.60961E+05         0.00000E+00
    0.60961E+05         0.16314E+05         0.00000E+00
    0.00000E+00         0.00000E+00         0.12242E+05
 
    0.42965E+05         0.62160E+05         0.00000E+00
    0.62160E+05         0.17230E+05         0.00000E+00
    0.00000E+00         0.00000E+00         0.12039E+05
 
    0.40991E+05         0.63306E+05         0.00000E+00
    0.63306E+05         0.18165E+05         0.00000E+00
    0.00000E+00         0.00000E+00         0.11831E+05
 
    0.38974E+05         0.64399E+05         0.00000E+00
    0.64399E+05         0.19116E+05         0.00000E+00
    0.00000E+00         0.00000E+00         0.11618E+05
 
    0.36917E+05         0.65435E+05         0.00000E+00
    0.65435E+05         0.20084E+05         0.00000E+00
    0.00000E+00         0.00000E+00         0.11400E+05
 
    0.34820E+05         0.66416E+05         0.00000E+00
    0.66416E+05         0.21067E+05         0.00000E+00
    0.00000E+00         0.00000E+00         0.11177E+05
 
    0.32685E+05         0.67339E+05         0.00000E+00
    0.67339E+05         0.22064E+05         0.00000E+00
    0.00000E+00         0.00000E+00         0.10950E+05
 
    0.30513E+05         0.68203E+05         0.00000E+00
    0.68203E+05         0.23076E+05         0.00000E+00
    0.00000E+00         0.00000E+00         0.10718E+05
 
    0.28305E+05         0.69008E+05         0.00000E+00
    0.69008E+05         0.24100E+05         0.00000E+00
    0.00000E+00         0.00000E+00         0.10481E+05
 
    0.26062E+05         0.69752E+05         0.00000E+00
    0.69752E+05         0.25136E+05         0.00000E+00
    0.00000E+00         0.00000E+00         0.10240E+05
 
    0.23787E+05         0.70434E+05         0.00000E+00
    0.70434E+05         0.26183E+05         0.00000E+00
    0.00000E+00         0.00000E+00         0.99940E+04
 
    0.21480E+05         0.71054E+05         0.00000E+00
    0.71054E+05         0.27240E+05         0.00000E+00
    0.00000E+00         0.00000E+00         0.97441E+04
 
    0.19143E+05         0.71611E+05         0.00000E+00
    0.71611E+05         0.28307E+05         0.00000E+00
    0.00000E+00         0.00000E+00         0.94899E+04
 
    0.16777E+05         0.72103E+05         0.00000E+00
    0.72103E+05         0.29381E+05         0.00000E+00
    0.00000E+00         0.00000E+00         0.92317E+04
 
    0.14385E+05         0.72530E+05         0.00000E+00
    0.72530E+05         0.30463E+05         0.00000E+00
    0.00000E+00         0.00000E+00         0.89695E+04
 
    0.11967E+05         0.72892E+05         0.00000E+00
    0.72892E+05         0.31551E+05         0.00000E+00
    0.00000E+00         0.00000E+00         0.87034E+04
 
    0.95246E+04         0.73187E+05         0.00000E+00
    0.73187E+05         0.32643E+05         0.00000E+00
    0.00000E+00         0.00000E+00         0.84336E+04
 
    0.89616E+05         0.11390E+04         0.00000E+00
    0.11390E+04        -0.11015E+02         0.00000E+00
    0.00000E+00         0.00000E+00         0.17921E+05
 
    0.89540E+05         0.34195E+04         0.00000E+00
    0.34195E+04         0.23786E+02         0.00000E+00
    0.00000E+00         0.00000E+00         0.17913E+05
 
    0.89393E+05         0.56987E+04         0.00000E+00
    0.56987E+04         0.93655E+02         0.00000E+00
    0.00000E+00         0.00000E+00         0.17897E+05
 
    0.89176E+05         0.79748E+04         0.00000E+00
    0.79748E+04         0.19866E+03         0.00000E+00
    0.00000E+00         0.00000E+00         0.17875E+05
 
    0.88888E+05         0.10246E+05         0.00000E+00
    0.10246E+05         0.33884E+03         0.00000E+00
    0.00000E+00         0.00000E+00         0.17845E+05
 
    0.88531E+05         0.12510E+05         0.00000E+00
    0.12510E+05         0.51418E+03         0.00000E+00
    0.00000E+00         0.00000E+00         0.17809E+05
 
    0.88102E+05         0.14766E+05         0.00000E+00
    0.14766E+05         0.72466E+03         0.00000E+00
    0.00000E+00         0.00000E+00         0.17765E+05
 
    0.87604E+05         0.17011E+05         0.00000E+00
    0.17011E+05         0.97020E+03         0.00000E+00
    0.00000E+00         0.00000E+00         0.17715E+05
 
    0.87035E+05         0.19244E+05         0.00000E+00
    0.19244E+05         0.12507E+04         0.00000E+00
    0.00000E+00         0.00000E+00         0.17657E+05
 
    0.86396E+05         0.21463E+05         0.00000E+00
    0.21463E+05         0.15660E+04         0.00000E+00
    0.00000E+00         0.00000E+00         0.17592E+05
 
    0.85687E+05         0.23666E+05         0.00000E+00
    0.23666E+05         0.19160E+04         0.00000E+00
    0.00000E+00         0.00000E+00         0.17521E+05
 
    0.84909E+05         0.25850E+05         0.00000E+00
    0.25850E+05         0.23005E+04         0.00000E+00
    0.00000E+00         0.00000E+00         0.17442E+05
 
    0.84061E+05         0.28015E+05         0.00000E+00
    0.28015E+05         0.27191E+04         0.00000E+00
    0.00000E+00         0.00000E+00         0.17356E+05
 
    0.83144E+05         0.30159E+05         0.00000E+00
    0.30159E+05         0.31717E+04         0.00000E+00
    0.00000E+00         0.00000E+00         0.17263E+05
 
    0.82158E+05         0.32279E+05         0.00000E+00
    0.32279E+05         0.36579E+04         0.00000E+00
    0.00000E+00         0.00000E+00         0.17163E+05
 
    0.81104E+05         0.34374E+05         0.00000E+00
    0.34374E+05         0.41773E+04         0.00000E+00
    0.00000E+00         0.00000E+00         0.17056E+05
 
    0.79983E+05         0.36442E+05         0.00000E+00
    0.36442E+05         0.47297E+04         0.00000E+00
    0.00000E+00         0.00000E+00         0.16942E+05
 
    0.78794E+05         0.38481E+05         0.00000E+00
    0.38481E+05         0.53146E+04         0.00000E+00
    0.00000E+00         0.00000E+00         0.16822E+05
 
    0.77539E+05         0.40490E+05         0.00000E+00
    0.40490E+05         0.59316E+04         0.00000E+00
    0.00000E+00         0.00000E+00         0.16694E+05
 
    0.76217E+05         0.42467E+05         0.00000E+00
    0.42467E+05         0.65802E+04         0.00000E+00
    0.00000E+00         0.00000E+00         0.16559E+05
 
    0.74831E+05         0.44409E+05         0.00000E+00
    0.44409E+05         0.72599E+04         0.00000E+00
    0.00000E+00         0.00000E+00         0.16418E+05
 
    0.73380E+05         0.46316E+05         0.00000E+00
    0.46316E+05         0.79702E+04         0.00000E+00
    0.00000E+00         0.00000E+00         0.16270E+05
 
    0.71865E+05         0.48185E+05         0.00000E+00
    0.48185E+05         0.87105E+04         0.00000E+00
    0.00000E+00         0.00000E+00         0.16115E+05
 
    0.70287E+05         0.50015E+05         0.00000E+00
    0.50015E+05         0.94802E+04         0.00000E+00
    0.00000E+00         0.00000E+00         0.15953E+05
 
    0.68647E+05         0.51804E+05         0.00000E+00
    0.51804E+05         0.10279E+05         0.00000E+00
    0.00000E+00         0.00000E+00         0.15785E+05
 
    0.66947E+05         0.53551E+05         0.00000E+00
    0.53551E+05         0.11105E+05         0.00000E+00
    0.00000E+00         0.00000E+00         0.15610E+05
 
    0.65186E+05         0.55254E+05         0.00000E+00
    0.55254E+05         0.11960E+05         0.00000E+00
    0.00000E+00         0.00000E+00         0.15429E+05
 
    0.63366E+05         0.56912E+05         0.00000E+00
    0.56912E+05         0.12841E+05         0.00000E+00
    0.00000E+00         0.00000E+00         0.15241E+05
 
    0.61487E+05         0.58522E+05         0.00000E+00
    0.58522E+05         0.13748E+05         0.00000E+00
    0.00000E+00         0.00000E+00         0.15047E+05
 
    0.59552E+05         0.60084E+05         0.00000E+00
    0.60084E+05         0.14680E+05         0.00000E+00
    0.00000E+00         0.00000E+00         0.14847E+05
 
    0.57561E+05         0.61595E+05         0.00000E+00
    0.61595E+05         0.15638E+05         0.00000E+00
    0.00000E+00         0.00000E+00         0.14640E+05
 
    0.55515E+05         0.63055E+05         0.00000E+00
    0.63055E+05         0.16618E+05         0.00000E+00
    0.00000E+00         0.00000E+00         0.14427E+05
 
    0.53416E+05         0.64462E+05         0.00000E+00
    0.64462E+05         0.17622E+05         0.00000E+00
    0.00000E+00         0.00000E+00         0.14208E+05
 
    0.51265E+05         0.65814E+05         0.00000E+00
    0.65814E+05         0.18648E+05         0.00000E+00
    0.00000E+00         0.00000E+00         0.13983E+05
 
    0.49062E+05         0.67111E+05         0.00000E+00
    0.67111E+05         0.19696E+05         0.00000E+00
    0.00000E+00         0.00000E+00         0.13752E+05
 
    0.46810E+05         0.68351E+05         0.00000E+00
    0.68351E+05         0.20763E+05         0.00000E+00
    0.00000E+00         0.00000E+00         0.13515E+05
 
    0.44509E+05         0.69532E+05         0.00000E+00
    0.69532E+05         0.21850E+05         0.00000E+00
    0.00000E+00         0.00000E+00         0.13272E+05
 
    0.42162E+05         0.70653E+05         0.00000E+00
    0.70653E+05         0.22956E+05         0.00000E+00
    0.00000E+00         0.00000E+00         0.13024E+05
 
    0.39769E+05         0.71714E+05         0.00000E+00
    0.71714E+05         0.24079E+05         0.00000E+00
    0.00000E+00         0.00000E+00         0.12770E+05
 
    0.37332E+05         0.72712E+05         0.00000E+00
    0.72712E+05         0.25219E+05         0.00000E+00
    0.00000E+00         0.00000E+00         0.12510E+05
 
    0.34852E+05         0.73648E+05         0.00000E+00
    0.73648E+05         0.26374E+05         0.00000E+00
    0.00000E+00         0.00000E+00         0.12245E+05
 
    0.32332E+05         0.74518E+05         0.00000E+00
    0.74518E+05         0.27544E+05         0.00000E+00
    0.00000E+00         0.00000E+00         0.11975E+05
 
    0.29772E+05         0.75324E+05         0.00000E+00
    0.75324E+05         0.28728E+05         0.00000E+00
    0.00000E+00         0.00000E+00         0.11700E+05
 
    0.27174E+05         0.76063E+05         0.00000E+00
    0.76063E+05         0.29924E+05         0.00000E+00
    0.00000E+00         0.00000E+00         0.11420E+05
 
    0.24540E+05         0.76734E+05         0.00000E+00
    0.76734E+05         0.31132E+05         0.00000E+00
    0.00000E+00         0.00000E+00         0.11134E+05
 
    0.21871E+05         0.77337E+05         0.00000E+00
    0.77337E+05         0.32350E+05         0.00000E+00
    0.00000E+00         0.00000E+00         0.10844E+05
 
    0.19169E+05         0.77870E+05         0.00000E+00
    0.77870E+05         0.33578E+05         0.00000E+00
    0.00000E+00         0.00000E+00         0.10549E+05
 
    0.16437E+05         0.78333E+05         0.00000E+00
    0.78333E+05         0.34813E+05         0.00000E+00
    0.00000E+00         0.00000E+00         0.10250E+05
 
    0.13674E+05         0.78725E+05         0.00000E+00
    0.78725E+05         0.36056E+05         0.00000E+00
    0.00000E+00         0.00000E+00         0.99461E+04
 
    0.10884E+05         0.79045E+05         0.00000E+00
    0.79045E+05         0.37305E+05         0.00000E+00
    0.00000E+00         0.00000E+00         0.96378E+04
 
    0.10148E+06         0.12315E+04         0.00000E+00
    0.12315E+04        -0.12522E+02         0.00000E+00
    0.00000E+00         0.00000E+00         0.20293E+05
 
    0.10140E+06         0.36988E+04         0.00000E+00
    0.36988E+04         0.26995E+02         0.00000E+00
    0.00000E+00         0.00000E+00         0.20285E+05
 
    0.10124E+06         0.61652E+04         0.00000E+00
    0.61652E+04         0.10637E+03         0.00000E+00
    0.00000E+00         0.00000E+00         0.20270E+05
 
    0.10101E+06         0.86288E+04         0.00000E+00
    0.86288E+04         0.22570E+03         0.00000E+00
    0.00000E+00         0.00000E+00         0.20246E+05
 
    0.10069E+06         0.11088E+05         0.00000E+00
    0.11088E+05         0.38502E+03         0.00000E+00
    0.00000E+00         0.00000E+00         0.20215E+05
 
    0.10029E+06         0.13540E+05         0.00000E+00
    0.13540E+05         0.58435E+03         0.00000E+00
    0.00000E+00         0.00000E+00         0.20175E+05
 
    0.99815E+05         0.15983E+05         0.00000E+00
    0.15983E+05         0.82366E+03         0.00000E+00
    0.00000E+00         0.00000E+00         0.20128E+05
 
    0.99258E+05         0.18415E+05         0.00000E+00
    0.18415E+05         0.11029E+04         0.00000E+00
    0.00000E+00         0.00000E+00         0.20072E+05
 
    0.98621E+05         0.20834E+05         0.00000E+00
    0.20834E+05         0.14218E+04         0.00000E+00
    0.00000E+00         0.00000E+00         0.20009E+05
 
    0.97904E+05         0.23238E+05         0.00000E+00
    0.23238E+05         0.17805E+04         0.00000E+00
    0.00000E+00         0.00000E+00         0.19937E+05
 
    0.97108E+05         0.25625E+05         0.00000E+00
    0.25625E+05         0.21785E+04         0.00000E+00
    0.00000E+00         0.00000E+00         0.19857E+05
 
    0.96232E+05         0.27993E+05         0.00000E+00
    0.27993E+05         0.26157E+04         0.00000E+00
    0.00000E+00         0.00000E+00         0.19770E+05
 
    0.95278E+05         0.30340E+05         0.00000E+00
    0.30340E+05         0.30919E+04         0.00000E+00
    0.00000E+00         0.00000E+00         0.19674E+05
 
    0.94244E+05         0.32664E+05         0.00000E+00
    0.32664E+05         0.36066E+04         0.00000E+00
    0.00000E+00         0.00000E+00         0.19570E+05
 
    0.93133E+05         0.34963E+05         0.00000E+00
    0.34963E+05         0.41596E+04         0.00000E+00
    0.00000E+00         0.00000E+00         0.19458E+05
 
    0.91943E+05         0.37234E+05         0.00000E+00
    0.37234E+05         0.47505E+04         0.00000E+00
    0.00000E+00         0.00000E+00         0.19339E+05
 
    0.90677E+05         0.39477E+05         0.00000E+00
    0.39477E+05         0.53787E+04         0.00000E+00
    0.00000E+00         0.00000E+00         0.19211E+05
 
    0.89334E+05         0.41688E+05         0.00000E+00
    0.41688E+05         0.60439E+04         0.00000E+00
    0.00000E+00         0.00000E+00         0.19076E+05
 
    0.87915E+05         0.43867E+05         0.00000E+00
    0.43867E+05         0.67455E+04         0.00000E+00
    0.00000E+00         0.00000E+00         0.18932E+05
 
    0.86422E+05         0.46010E+05         0.00000E+00
    0.46010E+05         0.74831E+04         0.00000E+00
    0.00000E+00         0.00000E+00         0.18781E+05
 
    0.84854E+05         0.48117E+05         0.00000E+00
    0.48117E+05         0.82559E+04         0.00000E+00
    0.00000E+00         0.00000E+00         0.18622E+05
 
    0.83212E+05         0.50185E+05         0.00000E+00
    0.50185E+05         0.90635E+04         0.00000E+00
    0.00000E+00         0.00000E+00         0.18455E+05
 
    0.81499E+05         0.52213E+05         0.00000E+00
    0.52213E+05         0.99051E+04         0.00000E+00
    0.00000E+00         0.00000E+00         0.18281E+05
 
    0.79713E+05         0.54198E+05         0.00000E+00
    0.54198E+05         0.10780E+05         0.00000E+00
    0.00000E+00         0.00000E+00         0.18099E+05
 
    0.77857E+05         0.56140E+05         0.00000E+00
    0.56140E+05         0.11688E+05         0.00000E+00
    0.00000E+00         0.00000E+00         0.17909E+05
 
    0.75931E+05         0.58035E+05         0.00000E+00
    0.58035E+05         0.12628E+05         0.00000E+00
    0.00000E+00         0.00000E+00         0.17712E+05
 
    0.73937E+05         0.59883E+05         0.00000E+00
    0.59883E+05         0.13598E+05         0.00000E+00
    0.00000E+00         0.00000E+00         0.17507E+05
 
    0.71876E+05         0.61681E+05         0.00000E+00
    0.61681E+05         0.14600E+05         0.00000E+00
    0.00000E+00         0.00000E+00         0.17295E+05
 
    0.69749E+05         0.63428E+05         0.00000E+00
    0.63428E+05         0.15630E+05         0.00000E+00
    0.00000E+00         0.00000E+00         0.17076E+05
 
    0.67556E+05         0.65123E+05         0.00000E+00
    0.65123E+05         0.16690E+05         0.00000E+00
    0.00000E+00         0.00000E+00         0.16849E+05
 
    0.65301E+05         0.66763E+05         0.00000E+00
    0.66763E+05         0.17777E+05         0.00000E+00
    0.00000E+00         0.00000E+00         0.16616E+05
 
    0.62982E+05         0.68347E+05         0.00000E+00
    0.68347E+05         0.18892E+05         0.00000E+00
    0.00000E+00         0.00000E+00         0.16375E+05
 
    0.60603E+05         0.69874E+05         0.00000E+00
    0.69874E+05         0.20032E+05         0.00000E+00
    0.00000E+00         0.00000E+00         0.16127E+05
 
    0.58165E+05         0.71342E+05         0.00000E+00
    0.71342E+05         0.21197E+05         0.00000E+00
    0.00000E+00         0.00000E+00         0.15872E+05
 
    0.55669E+05         0.72750E+05         0.00000E+00
    0.72750E+05         0.22386E+05         0.00000E+00
    0.00000E+00         0.00000E+00         0.15611E+05
 
    0.53116E+05         0.74095E+05         0.00000E+00
    0.74095E+05         0.23599E+05         0.00000E+00
    0.00000E+00         0.00000E+00         0.15343E+05
 
    0.50508E+05         0.75378E+05         0.00000E+00
    0.75378E+05         0.24833E+05         0.00000E+00
    0.00000E+00         0.00000E+00         0.15068E+05
 
    0.47846E+05         0.76595E+05         0.00000E+00
    0.76595E+05         0.26088E+05         0.00000E+00
    0.00000E+00         0.00000E+00         0.14787E+05
 
    0.45133E+05         0.77747E+05         0.00000E+00
    0.77747E+05         0.27364E+05         0.00000E+00
    0.00000E+00         0.00000E+00         0.14499E+05
 
    0.42369E+05         0.78831E+05         0.00000E+00
    0.78831E+05         0.28658E+05         0.00000E+00
    0.00000E+00         0.00000E+00         0.14205E+05
 
    0.39558E+05         0.79847E+05         0.00000E+00
    0.79847E+05         0.29969E+05         0.00000E+00
    0.00000E+00         0.00000E+00         0.13905E+05
 
    0.36699E+05         0.80793E+05         0.00000E+00
    0.80793E+05         0.31298E+05         0.00000E+00
    0.00000E+00         0.00000E+00         0.13599E+05
 
    0.33795E+05         0.81668E+05         0.00000E+00
    0.81668E+05         0.32641E+05         0.00000E+00
    0.00000E+00         0.00000E+00         0.13287E+05
 
    0.30848E+05         0.82471E+05         0.00000E+00
    0.82471E+05         0.33999E+05         0.00000E+00
    0.00000E+00         0.00000E+00         0.12969E+05
 
    0.27860E+05         0.83200E+05         0.00000E+00
    0.83200E+05         0.35370E+05         0.00000E+00
    0.00000E+00         0.00000E+00         0.12646E+05
 
    0.24832E+05         0.83856E+05         0.00000E+00
    0.83856E+05         0.36753E+05         0.00000E+00
    0.00000E+00         0.00000E+00         0.12317E+05
 
    0.21766E+05         0.84436E+05         0.00000E+00
    0.84436E+05         0.38146E+05         0.00000E+00
    0.00000E+00         0.00000E+00         0.11982E+05
 
    0.18665E+05         0.84939E+05         0.00000E+00
    0.84939E+05         0.39549E+05         0.00000E+00
    0.00000E+00         0.00000E+00         0.11643E+05
 
    0.15530E+05         0.85366E+05         0.00000E+00
    0.85366E+05         0.40959E+05         0.00000E+00
    0.00000E+00         0.00000E+00         0.11298E+05
 
    0.12363E+05         0.85715E+05         0.00000E+00
    0.85715E+05         0.42377E+05         0.00000E+00
    0.00000E+00         0.00000E+00         0.10948E+05
 
    0.11433E+06         0.13364E+04         0.00000E+00
    0.13364E+04        -0.14190E+02         0.00000E+00
    0.00000E+00         0.00000E+00         0.22863E+05
 
    0.11426E+06         0.40155E+04         0.00000E+00
    0.40155E+04         0.30546E+02         0.00000E+00
    0.00000E+00         0.00000E+00         0.22857E+05
 
    0.11409E+06         0.66944E+04         0.00000E+00
    0.66944E+04         0.12045E+03         0.00000E+00
    0.00000E+00         0.00000E+00         0.22842E+05
 
    0.11384E+06         0.93710E+04         0.00000E+00
    0.93710E+04         0.25563E+03         0.00000E+00
    0.00000E+00         0.00000E+00         0.22818E+05
 
    0.11349E+06         0.12043E+05         0.00000E+00
    0.12043E+05         0.43616E+03         0.00000E+00
    0.00000E+00         0.00000E+00         0.22785E+05
 
    0.11305E+06         0.14708E+05         0.00000E+00
    0.14708E+05         0.66205E+03         0.00000E+00
    0.00000E+00         0.00000E+00         0.22743E+05
 
    0.11253E+06         0.17364E+05         0.00000E+00
    0.17364E+05         0.93326E+03         0.00000E+00
    0.00000E+00         0.00000E+00         0.22692E+05
 
    0.11191E+06         0.20008E+05         0.00000E+00
    0.20008E+05         0.12497E+04         0.00000E+00
    0.00000E+00         0.00000E+00         0.22631E+05
 
    0.11120E+06         0.22639E+05         0.00000E+00
    0.22639E+05         0.16113E+04         0.00000E+00
    0.00000E+00         0.00000E+00         0.22562E+05
 
    0.11040E+06         0.25253E+05         0.00000E+00
    0.25253E+05         0.20178E+04         0.00000E+00
    0.00000E+00         0.00000E+00         0.22483E+05
 
    0.10951E+06         0.27850E+05         0.00000E+00
    0.27850E+05         0.24690E+04         0.00000E+00
    0.00000E+00         0.00000E+00         0.22396E+05
 
    0.10853E+06         0.30426E+05         0.00000E+00
    0.30426E+05         0.29646E+04         0.00000E+00
    0.00000E+00         0.00000E+00         0.22299E+05
 
    0.10746E+06         0.32979E+05         0.00000E+00
    0.32979E+05         0.35043E+04         0.00000E+00
    0.00000E+00         0.00000E+00         0.22193E+05
 
    0.10630E+06         0.35507E+05         0.00000E+00
    0.35507E+05         0.40877E+04         0.00000E+00
    0.00000E+00         0.00000E+00         0.22078E+05
 
    0.10505E+06         0.38008E+05         0.00000E+00
    0.38008E+05         0.47144E+04         0.00000E+00
    0.00000E+00         0.00000E+00         0.21954E+05
 
    0.10372E+06         0.40480E+05         0.00000E+00
    0.40480E+05         0.53839E+04         0.00000E+00
    0.00000E+00         0.00000E+00         0.21820E+05
 
    0.10230E+06         0.42921E+05         0.00000E+00
    0.42921E+05         0.60958E+04         0.00000E+00
    0.00000E+00         0.00000E+00         0.21678E+05
 
    0.10079E+06         0.45327E+05         0.00000E+00
    0.45327E+05         0.68495E+04         0.00000E+00
    0.00000E+00         0.00000E+00         0.21527E+05
 
    0.99190E+05         0.47698E+05         0.00000E+00
    0.47698E+05         0.76444E+04         0.00000E+00
    0.00000E+00         0.00000E+00         0.21367E+05
 
    0.97510E+05         0.50031E+05         0.00000E+00
    0.50031E+05         0.84798E+04         0.00000E+00
    0.00000E+00         0.00000E+00         0.21198E+05
 
    0.95745E+05         0.52324E+05         0.00000E+00
    0.52324E+05         0.93552E+04         0.00000E+00
    0.00000E+00         0.00000E+00         0.21020E+05
 
    0.93897E+05         0.54575E+05         0.00000E+00
    0.54575E+05         0.10270E+05         0.00000E+00
    0.00000E+00         0.00000E+00         0.20833E+05
 
    0.91967E+05         0.56782E+05         0.00000E+00
    0.56782E+05         0.11223E+05         0.00000E+00
    0.00000E+00         0.00000E+00         0.20638E+05
 
    0.89956E+05         0.58943E+05         0.00000E+00
    0.58943E+05         0.12213E+05         0.00000E+00
    0.00000E+00         0.00000E+00         0.20434E+05
 
    0.87865E+05         0.61056E+05         0.00000E+00
    0.61056E+05         0.13241E+05         0.00000E+00
    0.00000E+00         0.00000E+00         0.20221E+05
 
    0.85696E+05         0.63119E+05         0.00000E+00
    0.63119E+05         0.14305E+05         0.00000E+00
    0.00000E+00         0.00000E+00         0.20000E+05
 
    0.83449E+05         0.65130E+05         0.00000E+00
    0.65130E+05         0.15403E+05         0.00000E+00
    0.00000E+00         0.00000E+00         0.19770E+05
 
    0.81126E+05         0.67088E+05         0.00000E+00
    0.67088E+05         0.16536E+05         0.00000E+00
    0.00000E+00         0.00000E+00         0.19532E+05
 
    0.78728E+05         0.68990E+05         0.00000E+00
    0.68990E+05         0.17702E+05         0.00000E+00
    0.00000E+00         0.00000E+00         0.19286E+05
 
    0.76256E+05         0.70834E+05         0.00000E+00
    0.70834E+05         0.18901E+05         0.00000E+00
    0.00000E+00         0.00000E+00         0.19031E+05
 
    0.73713E+05         0.72620E+05         0.00000E+00
    0.72620E+05         0.20130E+05         0.00000E+00
    0.00000E+00         0.00000E+00         0.18769E+05
 
    0.71099E+05         0.74344E+05         0.00000E+00
    0.74344E+05         0.21390E+05         0.00000E+00
    0.00000E+00         0.00000E+00         0.18498E+05
 
    0.68417E+05         0.76007E+05         0.00000E+00
    0.76007E+05         0.22680E+05         0.00000E+00
    0.00000E+00         0.00000E+00         0.18219E+05
 
    0.65667E+05         0.77605E+05         0.00000E+00
    0.77605E+05         0.23997E+05         0.00000E+00
    0.00000E+00         0.00000E+00         0.17933E+05
 
    0.62851E+05         0.79137E+05         0.00000E+00
    0.79137E+05         0.25341E+05         0.00000E+00
    0.00000E+00         0.00000E+00         0.17638E+05
 
    0.59972E+05         0.80602E+05         0.00000E+00
    0.80602E+05         0.26711E+05         0.00000E+00
    0.00000E+00         0.00000E+00         0.17337E+05
 
    0.57030E+05         0.81998E+05         0.00000E+00
    0.81998E+05         0.28106E+05         0.00000E+00
    0.00000E+00         0.00000E+00         0.17027E+05
 
    0.54028E+05         0.83324E+05         0.00000E+00
    0.83324E+05         0.29525E+05         0.00000E+00
    0.00000E+00         0.00000E+00         0.16711E+05
 
    0.50967E+05         0.84579E+05         0.00000E+00
    0.84579E+05         0.30966E+05         0.00000E+00
    0.00000E+00         0.00000E+00         0.16386E+05
 
    0.47849E+05         0.85760E+05         0.00000E+00
    0.85760E+05         0.32428E+05         0.00000E+00
    0.00000E+00         0.00000E+00         0.16055E+05
 
    0.44676E+05         0.86866E+05         0.00000E+00
    0.86866E+05         0.33909E+05         0.00000E+00
    0.00000E+00         0.00000E+00         0.15717E+05
 
    0.41451E+05         0.87897E+05         0.00000E+00
    0.87897E+05         0.35410E+05         0.00000E+00
    0.00000E+00         0.00000E+00         0.15372E+05
 
    0.38174E+05         0.88850E+05         0.00000E+00
    0.88850E+05         0.36927E+05         0.00000E+00
    0.00000E+00         0.00000E+00         0.15020E+05
 
    0.34848E+05         0.89725E+05         0.00000E+00
    0.89725E+05         0.38461E+05         0.00000E+00
    0.00000E+00         0.00000E+00         0.14662E+05
 
    0.31475E+05         0.90521E+05         0.00000E+00
    0.90521E+05         0.40009E+05         0.00000E+00
    0.00000E+00         0.00000E+00         0.14297E+05
 
    0.28057E+05         0.91236E+05         0.00000E+00
    0.91236E+05         0.41571E+05         0.00000E+00
    0.00000E+00         0.00000E+00         0.13926E+05
 
    0.24596E+05         0.91869E+05         0.00000E+00
    0.91869E+05         0.43144E+05         0.00000E+00
    0.00000E+00         0.00000E+00         0.13548E+05
 
    0.21095E+05         0.92419E+05         0.00000E+00
    0.92419E+05         0.44728E+05         0.00000E+00
    0.00000E+00         0.00000E+00         0.13165E+05
 
    0.17555E+05         0.92885E+05         0.00000E+00
    0.92885E+05         0.46321E+05         0.00000E+00
    0.00000E+00         0.00000E+00         0.12775E+05
 
    0.13978E+05         0.93266E+05         0.00000E+00
    0.93266E+05         0.47922E+05         0.00000E+00
    0.00000E+00         0.00000E+00         0.12380E+05
 
    0.12831E+06         0.14550E+04         0.00000E+00
    0.14550E+04        -0.16056E+02         0.00000E+00
    0.00000E+00         0.00000E+00         0.25659E+05
 
    0.12824E+06         0.43739E+04         0.00000E+00
    0.43739E+04         0.34521E+02         0.00000E+00
    0.00000E+00         0.00000E+00         0.25655E+05
 
    0.12807E+06         0.72934E+04         0.00000E+00
    0.72934E+04         0.13620E+03         0.00000E+00
    0.00000E+00         0.00000E+00         0.25642E+05
 
    0.12780E+06         0.10211E+05         0.00000E+00
    0.10211E+05         0.28912E+03         0.00000E+00
    0.00000E+00         0.00000E+00         0.25618E+05
 
    0.12743E+06         0.13124E+05         0.00000E+00
    0.13124E+05         0.49335E+03         0.00000E+00
    0.00000E+00         0.00000E+00         0.25584E+05
 
    0.12695E+06         0.16030E+05         0.00000E+00
    0.16030E+05         0.74893E+03         0.00000E+00
    0.00000E+00         0.00000E+00         0.25539E+05
 
    0.12637E+06         0.18927E+05         0.00000E+00
    0.18927E+05         0.10558E+04         0.00000E+00
    0.00000E+00         0.00000E+00         0.25485E+05
 
    0.12569E+06         0.21812E+05         0.00000E+00
    0.21812E+05         0.14139E+04         0.00000E+00
    0.00000E+00         0.00000E+00         0.25420E+05
 
    0.12490E+06         0.24682E+05         0.00000E+00
    0.24682E+05         0.18230E+04         0.00000E+00
    0.00000E+00         0.00000E+00         0.25345E+05
 
    0.12401E+06         0.27535E+05         0.00000E+00
    0.27535E+05         0.22829E+04         0.00000E+00
    0.00000E+00         0.00000E+00         0.25259E+05
 
    0.12302E+06         0.30368E+05         0.00000E+00
    0.30368E+05         0.27933E+04         0.00000E+00
    0.00000E+00         0.00000E+00         0.25163E+05
 
    0.12193E+06         0.33180E+05         0.00000E+00
    0.33180E+05         0.33540E+04         0.00000E+00
    0.00000E+00         0.00000E+00         0.25057E+05
 
    0.12074E+06         0.35966E+05         0.00000E+00
    0.35966E+05         0.39644E+04         0.00000E+00
    0.00000E+00         0.00000E+00         0.24940E+05
 
    0.11944E+06         0.38726E+05         0.00000E+00
    0.38726E+05         0.46242E+04         0.00000E+00
    0.00000E+00         0.00000E+00         0.24813E+05
 
    0.11805E+06         0.41456E+05         0.00000E+00
    0.41456E+05         0.53330E+04         0.00000E+00
    0.00000E+00         0.00000E+00         0.24676E+05
 
    0.11655E+06         0.44154E+05         0.00000E+00
    0.44154E+05         0.60900E+04         0.00000E+00
    0.00000E+00         0.00000E+00         0.24528E+05
 
    0.11496E+06         0.46818E+05         0.00000E+00
    0.46818E+05         0.68948E+04         0.00000E+00
    0.00000E+00         0.00000E+00         0.24371E+05
 
    0.11327E+06         0.49445E+05         0.00000E+00
    0.49445E+05         0.77467E+04         0.00000E+00
    0.00000E+00         0.00000E+00         0.24203E+05
 
    0.11148E+06         0.52033E+05         0.00000E+00
    0.52033E+05         0.86450E+04         0.00000E+00
    0.00000E+00         0.00000E+00         0.24025E+05
 
    0.10960E+06         0.54579E+05         0.00000E+00
    0.54579E+05         0.95889E+04         0.00000E+00
    0.00000E+00         0.00000E+00         0.23837E+05
 
    0.10762E+06         0.57082E+05         0.00000E+00
    0.57082E+05         0.10578E+05         0.00000E+00
    0.00000E+00         0.00000E+00         0.23639E+05
 
    0.10554E+06         0.59539E+05         0.00000E+00
    0.59539E+05         0.11611E+05         0.00000E+00
    0.00000E+00         0.00000E+00         0.23431E+05
 
    0.10338E+06         0.61948E+05         0.00000E+00
    0.61948E+05         0.12687E+05         0.00000E+00
    0.00000E+00         0.00000E+00         0.23213E+05
 
    0.10112E+06         0.64306E+05         0.00000E+00
    0.64306E+05         0.13805E+05         0.00000E+00
    0.00000E+00         0.00000E+00         0.22985E+05
 
    0.98774E+05         0.66612E+05         0.00000E+00
    0.66612E+05         0.14965E+05         0.00000E+00
    0.00000E+00         0.00000E+00         0.22748E+05
 
    0.96339E+05         0.68864E+05         0.00000E+00
    0.68864E+05         0.16165E+05         0.00000E+00
    0.00000E+00         0.00000E+00         0.22501E+05
 
    0.93816E+05         0.71058E+05         0.00000E+00
    0.71058E+05         0.17404E+05         0.00000E+00
    0.00000E+00         0.00000E+00         0.22244E+05
 
    0.91207E+05         0.73194E+05         0.00000E+00
    0.73194E+05         0.18682E+05         0.00000E+00
    0.00000E+00         0.00000E+00         0.21978E+05
 
    0.88514E+05         0.75270E+05         0.00000E+00
    0.75270E+05         0.19997E+05         0.00000E+00
    0.00000E+00         0.00000E+00         0.21702E+05
 
    0.85738E+05         0.77283E+05         0.00000E+00
    0.77283E+05         0.21348E+05         0.00000E+00
    0.00000E+00         0.00000E+00         0.21417E+05
 
    0.82882E+05         0.79231E+05         0.00000E+00
    0.79231E+05         0.22734E+05         0.00000E+00
    0.00000E+00         0.00000E+00         0.21123E+05
 
    0.79946E+05         0.81113E+05         0.00000E+00
    0.81113E+05         0.24154E+05         0.00000E+00
    0.00000E+00         0.00000E+00         0.20820E+05
 
    0.76932E+05         0.82927E+05         0.00000E+00
    0.82927E+05         0.25607E+05         0.00000E+00
    0.00000E+00         0.00000E+00         0.20508E+05
 
    0.73843E+05         0.84670E+05         0.00000E+00
    0.84670E+05         0.27091E+05         0.00000E+00
    0.00000E+00         0.00000E+00         0.20187E+05
 
    0.70680E+05         0.86342E+05         0.00000E+00
    0.86342E+05         0.28605E+05         0.00000E+00
    0.00000E+00         0.00000E+00         0.19857E+05
 
    0.67445E+05         0.87941E+05         0.00000E+00
    0.87941E+05         0.30148E+05         0.00000E+00
    0.00000E+00         0.00000E+00         0.19519E+05
 
    0.64140E+05         0.89465E+05         0.00000E+00
    0.89465E+05         0.31718E+05         0.00000E+00
    0.00000E+00         0.00000E+00         0.19172E+05
 
    0.60767E+05         0.90912E+05         0.00000E+00
    0.90912E+05         0.33315E+05         0.00000E+00
    0.00000E+00         0.00000E+00         0.18816E+05
 
    0.57328E+05         0.92281E+05         0.00000E+00
    0.92281E+05         0.34936E+05         0.00000E+00
    0.00000E+00         0.00000E+00         0.18453E+05
 
    0.53825E+05         0.93570E+05         0.00000E+00
    0.93570E+05         0.36581E+05         0.00000E+00
    0.00000E+00         0.00000E+00         0.18081E+05
 
    0.50259E+05         0.94778E+05         0.00000E+00
    0.94778E+05         0.38249E+05         0.00000E+00
    0.00000E+00         0.00000E+00         0.17702E+05
 
    0.46634E+05         0.95904E+05         0.00000E+00
    0.95904E+05         0.39937E+05         0.00000E+00
    0.00000E+00         0.00000E+00         0.17314E+05
 
    0.42952E+05         0.96945E+05         0.00000E+00
    0.96945E+05         0.41644E+05         0.00000E+00
    0.00000E+00         0.00000E+00         0.16919E+05
 
    0.39214E+05         0.97901E+05         0.00000E+00
    0.97901E+05         0.43369E+05         0.00000E+00
    0.00000E+00         0.00000E+00         0.16517E+05
 
    0.35422E+05         0.98771E+05         0.00000E+00
    0.98771E+05         0.45110E+05         0.00000E+00
    0.00000E+00         0.00000E+00         0.16107E+05
 
    0.31580E+05         0.99552E+05         0.00000E+00
    0.99552E+05         0.46867E+05         0.00000E+00
    0.00000E+00         0.00000E+00         0.15689E+05
 
    0.27689E+05         0.10024E+06         0.00000E+00
    0.10024E+06         0.48637E+05         0.00000E+00
    0.00000E+00         0.00000E+00         0.15265E+05
 
    0.23752E+05         0.10085E+06         0.00000E+00
    0.10085E+06         0.50418E+05         0.00000E+00
    0.00000E+00         0.00000E+00         0.14834E+05
 
    0.19772E+05         0.10136E+06         0.00000E+00
    0.10136E+06         0.52210E+05         0.00000E+00
    0.00000E+00         0.00000E+00         0.14396E+05
 
    0.15749E+05         0.10178E+06         0.00000E+00
    0.10178E+06         0.54010E+05         0.00000E+00
    0.00000E+00         0.00000E+00         0.13952E+05
 
    0.14356E+06         0.15890E+04         0.00000E+00
    0.15890E+04        -0.18163E+02         0.00000E+00
    0.00000E+00         0.00000E+00         0.28709E+05
 
    0.14351E+06         0.47792E+04         0.00000E+00
    0.47792E+04         0.39023E+02         0.00000E+00
    0.00000E+00         0.00000E+00         0.28709E+05
 
    0.14334E+06         0.79708E+04         0.00000E+00
    0.79708E+04         0.15401E+03         0.00000E+00
    0.00000E+00         0.00000E+00         0.28698E+05
 
    0.14305E+06         0.11161E+05         0.00000E+00
    0.11161E+05         0.32698E+03         0.00000E+00
    0.00000E+00         0.00000E+00         0.28675E+05
 
    0.14265E+06         0.14347E+05         0.00000E+00
    0.14347E+05         0.55799E+03         0.00000E+00
    0.00000E+00         0.00000E+00         0.28641E+05
 
    0.14213E+06         0.17526E+05         0.00000E+00
    0.17526E+05         0.84707E+03         0.00000E+00
    0.00000E+00         0.00000E+00         0.28595E+05
 
    0.14149E+06         0.20696E+05         0.00000E+00
    0.20696E+05         0.11942E+04         0.00000E+00
    0.00000E+00         0.00000E+00         0.28537E+05
 
    0.14074E+06         0.23852E+05         0.00000E+00
    0.23852E+05         0.15991E+04         0.00000E+00
    0.00000E+00         0.00000E+00         0.28468E+05
 
    0.13987E+06         0.26993E+05         0.00000E+00
    0.26993E+05         0.20617E+04         0.00000E+00
    0.00000E+00         0.00000E+00         0.28387E+05
 
    0.13889E+06         0.30115E+05         0.00000E+00
    0.30115E+05         0.25818E+04         0.00000E+00
    0.00000E+00         0.00000E+00         0.28294E+05
 
    0.13779E+06         0.33216E+05         0.00000E+00
    0.33216E+05         0.31588E+04         0.00000E+00
    0.00000E+00         0.00000E+00         0.28190E+05
 
    0.13657E+06         0.36293E+05         0.00000E+00
    0.36293E+05         0.37926E+04         0.00000E+00
    0.00000E+00         0.00000E+00         0.28073E+05
 
    0.13525E+06         0.39343E+05         0.00000E+00
    0.39343E+05         0.44825E+04         0.00000E+00
    0.00000E+00         0.00000E+00         0.27946E+05
 
    0.13380E+06         0.42364E+05         0.00000E+00
    0.42364E+05         0.52280E+04         0.00000E+00
    0.00000E+00         0.00000E+00         0.27806E+05
 
    0.13225E+06         0.45352E+05         0.00000E+00
    0.45352E+05         0.60286E+04         0.00000E+00
    0.00000E+00         0.00000E+00         0.27655E+05
 
    0.13058E+06         0.48305E+05         0.00000E+00
    0.48305E+05         0.68836E+04         0.00000E+00
    0.00000E+00         0.00000E+00         0.27493E+05
 
    0.12880E+06         0.51220E+05         0.00000E+00
    0.51220E+05         0.77923E+04         0.00000E+00
    0.00000E+00         0.00000E+00         0.27318E+05
 
    0.12691E+06         0.54095E+05         0.00000E+00
    0.54095E+05         0.87539E+04         0.00000E+00
    0.00000E+00         0.00000E+00         0.27133E+05
 
    0.12491E+06         0.56927E+05         0.00000E+00
    0.56927E+05         0.97675E+04         0.00000E+00
    0.00000E+00         0.00000E+00         0.26936E+05
 
    0.12280E+06         0.59713E+05         0.00000E+00
    0.59713E+05         0.10832E+05         0.00000E+00
    0.00000E+00         0.00000E+00         0.26727E+05
 
    0.12059E+06         0.62451E+05         0.00000E+00
    0.62451E+05         0.11948E+05         0.00000E+00
    0.00000E+00         0.00000E+00         0.26508E+05
 
    0.11827E+06         0.65139E+05         0.00000E+00
    0.65139E+05         0.13112E+05         0.00000E+00
    0.00000E+00         0.00000E+00         0.26277E+05
 
    0.11585E+06         0.67774E+05         0.00000E+00
    0.67774E+05         0.14325E+05         0.00000E+00
    0.00000E+00         0.00000E+00         0.26034E+05
 
    0.11332E+06         0.70354E+05         0.00000E+00
    0.70354E+05         0.15585E+05         0.00000E+00
    0.00000E+00         0.00000E+00         0.25781E+05
 
    0.11069E+06         0.72875E+05         0.00000E+00
    0.72875E+05         0.16892E+05         0.00000E+00
    0.00000E+00         0.00000E+00         0.25517E+05
 
    0.10797E+06         0.75337E+05         0.00000E+00
    0.75337E+05         0.18243E+05         0.00000E+00
    0.00000E+00         0.00000E+00         0.25242E+05
 
    0.10514E+06         0.77737E+05         0.00000E+00
    0.77737E+05         0.19638E+05         0.00000E+00
    0.00000E+00         0.00000E+00         0.24956E+05
 
    0.10222E+06         0.80073E+05         0.00000E+00
    0.80073E+05         0.21076E+05         0.00000E+00
    0.00000E+00         0.00000E+00         0.24659E+05
 
    0.99203E+05         0.82342E+05         0.00000E+00
    0.82342E+05         0.22555E+05         0.00000E+00
    0.00000E+00         0.00000E+00         0.24352E+05
 
    0.96095E+05         0.84542E+05         0.00000E+00
    0.84542E+05         0.24075E+05         0.00000E+00
    0.00000E+00         0.00000E+00         0.24034E+05
 
    0.92895E+05         0.86672E+05         0.00000E+00
    0.86672E+05         0.25633E+05         0.00000E+00
    0.00000E+00         0.00000E+00         0.23706E+05
 
    0.89608E+05         0.88729E+05         0.00000E+00
    0.88729E+05         0.27229E+05         0.00000E+00
    0.00000E+00         0.00000E+00         0.23367E+05
 
    0.86233E+05         0.90711E+05         0.00000E+00
    0.90711E+05         0.28862E+05         0.00000E+00
    0.00000E+00         0.00000E+00         0.23019E+05
 
    0.82773E+05         0.92617E+05         0.00000E+00
    0.92617E+05         0.30528E+05         0.00000E+00
    0.00000E+00         0.00000E+00         0.22660E+05
 
    0.79231E+05         0.94444E+05         0.00000E+00
    0.94444E+05         0.32229E+05         0.00000E+00
    0.00000E+00         0.00000E+00         0.22292E+05
 
    0.75608E+05         0.96192E+05         0.00000E+00
    0.96192E+05         0.33961E+05         0.00000E+00
    0.00000E+00         0.00000E+00         0.21914E+05
 
    0.71906E+05         0.97857E+05         0.00000E+00
    0.97857E+05         0.35724E+05         0.00000E+00
    0.00000E+00         0.00000E+00         0.21526E+05
 
    0.68129E+05         0.99439E+05         0.00000E+00
    0.99439E+05         0.37516E+05         0.00000E+00
    0.00000E+00         0.00000E+00         0.21129E+05
 
    0.64277E+05         0.10093E+06         0.00000E+00
    0.10093E+06         0.39335E+05         0.00000E+00
    0.00000E+00         0.00000E+00         0.20722E+05
 
    0.60353E+05         0.10234E+06         0.00000E+00
    0.10234E+06         0.41181E+05         0.00000E+00
    0.00000E+00         0.00000E+00         0.20307E+05
 
    0.56360E+05         0.10367E+06         0.00000E+00
    0.10367E+06         0.43050E+05         0.00000E+00
    0.00000E+00         0.00000E+00         0.19882E+05
 
    0.52300E+05         0.10490E+06         0.00000E+00
    0.10490E+06         0.44943E+05         0.00000E+00
    0.00000E+00         0.00000E+00         0.19449E+05
 
    0.48175E+05         0.10604E+06         0.00000E+00
    0.10604E+06         0.46858E+05         0.00000E+00
    0.00000E+00         0.00000E+00         0.19007E+05
 
    0.43988E+05         0.10708E+06         0.00000E+00
    0.10708E+06         0.48792E+05         0.00000E+00
    0.00000E+00         0.00000E+00         0.18556E+05
 
    0.39741E+05         0.10803E+06         0.00000E+00
    0.10803E+06         0.50744E+05         0.00000E+00
    0.00000E+00         0.00000E+00         0.18097E+05
 
    0.35437E+05         0.10889E+06         0.00000E+00
    0.10889E+06         0.52712E+05         0.00000E+00
    0.00000E+00         0.00000E+00         0.17630E+05
 
    0.31078E+05         0.10965E+06         0.00000E+00
    0.10965E+06         0.54696E+05         0.00000E+00
    0.00000E+00         0.00000E+00         0.17155E+05
 
    0.26667E+05         0.11031E+06         0.00000E+00
    0.11031E+06         0.56693E+05         0.00000E+00
    0.00000E+00         0.00000E+00         0.16672E+05
 
    0.22206E+05         0.11087E+06         0.00000E+00
    0.11087E+06         0.58701E+05         0.00000E+00
    0.00000E+00         0.00000E+00         0.16181E+05
 
    0.17698E+05         0.11133E+06         0.00000E+00
    0.11133E+06         0.60719E+05         0.00000E+00
    0.00000E+00         0.00000E+00         0.15683E+05
 
    0.16026E+06         0.17406E+04         0.00000E+00
    0.17406E+04        -0.20566E+02         0.00000E+00
    0.00000E+00         0.00000E+00         0.32047E+05
 
    0.16022E+06         0.52377E+04         0.00000E+00
    0.52377E+04         0.44183E+02         0.00000E+00
    0.00000E+00         0.00000E+00         0.32052E+05
 
    0.16005E+06         0.87374E+04         0.00000E+00
    0.87374E+04         0.17439E+03         0.00000E+00
    0.00000E+00         0.00000E+00         0.32045E+05
 
    0.15975E+06         0.12236E+05         0.00000E+00
    0.12236E+05         0.37024E+03         0.00000E+00
    0.00000E+00         0.00000E+00         0.32024E+05
 
    0.15932E+06         0.15731E+05         0.00000E+00
    0.15731E+05         0.63180E+03         0.00000E+00
    0.00000E+00         0.00000E+00         0.31990E+05
 
    0.15876E+06         0.19219E+05         0.00000E+00
    0.19219E+05         0.95906E+03         0.00000E+00
    0.00000E+00         0.00000E+00         0.31943E+05
 
    0.15806E+06         0.22696E+05         0.00000E+00
    0.22696E+05         0.13519E+04         0.00000E+00
    0.00000E+00         0.00000E+00         0.31883E+05
 
    0.15724E+06         0.26160E+05         0.00000E+00
    0.26160E+05         0.18102E+04         0.00000E+00
    0.00000E+00         0.00000E+00         0.31809E+05
 
    0.15628E+06         0.29607E+05         0.00000E+00
    0.29607E+05         0.23337E+04         0.00000E+00
    0.00000E+00         0.00000E+00         0.31723E+05
 
    0.15519E+06         0.33033E+05         0.00000E+00
    0.33033E+05         0.29220E+04         0.00000E+00
    0.00000E+00         0.00000E+00         0.31623E+05
 
    0.15397E+06         0.36436E+05         0.00000E+00
    0.36436E+05         0.35746E+04         0.00000E+00
    0.00000E+00         0.00000E+00         0.31510E+05
 
    0.15263E+06         0.39812E+05         0.00000E+00
    0.39812E+05         0.42911E+04         0.00000E+00
    0.00000E+00         0.00000E+00         0.31383E+05
 
    0.15115E+06         0.43159E+05         0.00000E+00
    0.43159E+05         0.50709E+04         0.00000E+00
    0.00000E+00         0.00000E+00         0.31244E+05
 
    0.14954E+06         0.46473E+05         0.00000E+00
    0.46473E+05         0.59133E+04         0.00000E+00
    0.00000E+00         0.00000E+00         0.31091E+05
 
    0.14781E+06         0.49751E+05         0.00000E+00
    0.49751E+05         0.68176E+04         0.00000E+00
    0.00000E+00         0.00000E+00         0.30925E+05
 
    0.14595E+06         0.52990E+05         0.00000E+00
    0.52990E+05         0.77830E+04         0.00000E+00
    0.00000E+00         0.00000E+00         0.30747E+05
 
    0.14396E+06         0.56188E+05         0.00000E+00
    0.56188E+05         0.88086E+04         0.00000E+00
    0.00000E+00         0.00000E+00         0.30555E+05
 
    0.14186E+06         0.59341E+05         0.00000E+00
    0.59341E+05         0.98935E+04         0.00000E+00
    0.00000E+00         0.00000E+00         0.30350E+05
 
    0.13962E+06         0.62446E+05         0.00000E+00
    0.62446E+05         0.11037E+05         0.00000E+00
    0.00000E+00         0.00000E+00         0.30132E+05
 
    0.13727E+06         0.65501E+05         0.00000E+00
    0.65501E+05         0.12237E+05         0.00000E+00
    0.00000E+00         0.00000E+00         0.29902E+05
 
    0.13480E+06         0.68502E+05         0.00000E+00
    0.68502E+05         0.13494E+05         0.00000E+00
    0.00000E+00         0.00000E+00         0.29658E+05
 
    0.13221E+06         0.71448E+05         0.00000E+00
    0.71448E+05         0.14806E+05         0.00000E+00
    0.00000E+00         0.00000E+00         0.29402E+05
 
    0.12950E+06         0.74336E+05         0.00000E+00
    0.74336E+05         0.16172E+05         0.00000E+00
    0.00000E+00         0.00000E+00         0.29134E+05
 
    0.12667E+06         0.77162E+05         0.00000E+00
    0.77162E+05         0.17590E+05         0.00000E+00
    0.00000E+00         0.00000E+00         0.28853E+05
 
    0.12374E+06         0.79924E+05         0.00000E+00
    0.79924E+05         0.19059E+05         0.00000E+00
    0.00000E+00         0.00000E+00         0.28559E+05
 
    0.12069E+06         0.82621E+05         0.00000E+00
    0.82621E+05         0.20579E+05         0.00000E+00
    0.00000E+00         0.00000E+00         0.28254E+05
 
    0.11753E+06         0.85248E+05         0.00000E+00
    0.85248E+05         0.22147E+05         0.00000E+00
    0.00000E+00         0.00000E+00         0.27936E+05
 
    0.11427E+06         0.87805E+05         0.00000E+00
    0.87805E+05         0.23763E+05         0.00000E+00
    0.00000E+00         0.00000E+00         0.27606E+05
 
    0.11090E+06         0.90289E+05         0.00000E+00
    0.90289E+05         0.25425E+05         0.00000E+00
    0.00000E+00         0.00000E+00         0.27264E+05
 
    0.10742E+06         0.92697E+05         0.00000E+00
    0.92697E+05         0.27131E+05         0.00000E+00
    0.00000E+00         0.00000E+00         0.26911E+05
 
    0.10385E+06         0.95028E+05         0.00000E+00
    0.95028E+05         0.28879E+05         0.00000E+00
    0.00000E+00         0.00000E+00         0.26545E+05
 
    0.10017E+06         0.97278E+05         0.00000E+00
    0.97278E+05         0.30670E+05         0.00000E+00
    0.00000E+00         0.00000E+00         0.26169E+05
 
    0.96403E+05         0.99447E+05         0.00000E+00
    0.99447E+05         0.32500E+05         0.00000E+00
    0.00000E+00         0.00000E+00         0.25781E+05
 
    0.92538E+05         0.10153E+06         0.00000E+00
    0.10153E+06         0.34368E+05         0.00000E+00
    0.00000E+00         0.00000E+00         0.25381E+05
 
    0.88580E+05         0.10353E+06         0.00000E+00
    0.10353E+06         0.36274E+05         0.00000E+00
    0.00000E+00         0.00000E+00         0.24971E+05
 
    0.84533E+05         0.10544E+06         0.00000E+00
    0.10544E+06         0.38214E+05         0.00000E+00
    0.00000E+00         0.00000E+00         0.24549E+05
 
    0.80398E+05         0.10726E+06         0.00000E+00
    0.10726E+06         0.40188E+05         0.00000E+00
    0.00000E+00         0.00000E+00         0.24117E+05
 
    0.76178E+05         0.10899E+06         0.00000E+00
    0.10899E+06         0.42194E+05         0.00000E+00
    0.00000E+00         0.00000E+00         0.23674E+05
 
    0.71876E+05         0.11063E+06         0.00000E+00
    0.11063E+06         0.44230E+05         0.00000E+00
    0.00000E+00         0.00000E+00         0.23221E+05
 
    0.67494E+05         0.11217E+06         0.00000E+00
    0.11217E+06         0.46295E+05         0.00000E+00
    0.00000E+00         0.00000E+00         0.22758E+05
 
    0.63034E+05         0.11362E+06         0.00000E+00
    0.11362E+06         0.48386E+05         0.00000E+00
    0.00000E+00         0.00000E+00         0.22284E+05
 
    0.58500E+05         0.11496E+06         0.00000E+00
    0.11496E+06         0.50503E+05         0.00000E+00
    0.00000E+00         0.00000E+00         0.21801E+05
 
    0.53893E+05         0.11621E+06         0.00000E+00
    0.11621E+06         0.52643E+05         0.00000E+00
    0.00000E+00         0.00000E+00         0.21307E+05
 
    0.49216E+05         0.11736E+06         0.00000E+00
    0.11736E+06         0.54805E+05         0.00000E+00
    0.00000E+00         0.00000E+00         0.20804E+05
 
    0.44473E+05         0.11840E+06         0.00000E+00
    0.11840E+06         0.56987E+05         0.00000E+00
    0.00000E+00         0.00000E+00         0.20292E+05
 
    0.39665E+05         0.11934E+06         0.00000E+00
    0.11934E+06         0.59188E+05         0.00000E+00
    0.00000E+00         0.00000E+00         0.19771E+05
 
    0.34796E+05         0.12017E+06         0.00000E+00
    0.12017E+06         0.61404E+05         0.00000E+00
    0.00000E+00         0.00000E+00         0.19240E+05
 
    0.29868E+05         0.12090E+06         0.00000E+00
    0.12090E+06         0.63635E+05         0.00000E+00
    0.00000E+00         0.00000E+00         0.18701E+05
 
    0.24884E+05         0.12151E+06         0.00000E+00
    0.12151E+06         0.65879E+05         0.00000E+00
    0.00000E+00         0.00000E+00         0.18153E+05
 
    0.19847E+05         0.12202E+06         0.00000E+00
    0.12202E+06         0.68134E+05         0.00000E+00
    0.00000E+00         0.00000E+00         0.17596E+05
 
    0.17858E+06         0.19125E+04         0.00000E+00
    0.19125E+04        -0.23333E+02         0.00000E+00
    0.00000E+00         0.00000E+00         0.35711E+05
 
    0.17857E+06         0.57575E+04         0.00000E+00
    0.57575E+04         0.50171E+02         0.00000E+00
    0.00000E+00         0.00000E+00         0.35723E+05
 
    0.17841E+06         0.96062E+04         0.00000E+00
    0.96062E+04         0.19796E+03         0.00000E+00
    0.00000E+00         0.00000E+00         0.35721E+05
 
    0.17809E+06         0.13455E+05         0.00000E+00
    0.13455E+05         0.42020E+03         0.00000E+00
    0.00000E+00         0.00000E+00         0.35703E+05
 
    0.17764E+06         0.17300E+05         0.00000E+00
    0.17300E+05         0.71695E+03         0.00000E+00
    0.00000E+00         0.00000E+00         0.35671E+05
 
    0.17703E+06         0.21137E+05         0.00000E+00
    0.21137E+05         0.10882E+04         0.00000E+00
    0.00000E+00         0.00000E+00         0.35623E+05
 
    0.17627E+06         0.24963E+05         0.00000E+00
    0.24963E+05         0.15336E+04         0.00000E+00
    0.00000E+00         0.00000E+00         0.35561E+05
 
    0.17536E+06         0.28773E+05         0.00000E+00
    0.28773E+05         0.20532E+04         0.00000E+00
    0.00000E+00         0.00000E+00         0.35483E+05
 
    0.17431E+06         0.32565E+05         0.00000E+00
    0.32565E+05         0.26464E+04         0.00000E+00
    0.00000E+00         0.00000E+00         0.35391E+05
 
    0.17311E+06         0.36335E+05         0.00000E+00
    0.36335E+05         0.33127E+04         0.00000E+00
    0.00000E+00         0.00000E+00         0.35284E+05
 
    0.17176E+06         0.40078E+05         0.00000E+00
    0.40078E+05         0.40517E+04         0.00000E+00
    0.00000E+00         0.00000E+00         0.35162E+05
 
    0.17026E+06         0.43792E+05         0.00000E+00
    0.43792E+05         0.48627E+04         0.00000E+00
    0.00000E+00         0.00000E+00         0.35025E+05
 
    0.16862E+06         0.47473E+05         0.00000E+00
    0.47473E+05         0.57449E+04         0.00000E+00
    0.00000E+00         0.00000E+00         0.34873E+05
 
    0.16683E+06         0.51117E+05         0.00000E+00
    0.51117E+05         0.66976E+04         0.00000E+00
    0.00000E+00         0.00000E+00         0.34706E+05
 
    0.16490E+06         0.54721E+05         0.00000E+00
    0.54721E+05         0.77197E+04         0.00000E+00
    0.00000E+00         0.00000E+00         0.34524E+05
 
    0.16283E+06         0.58281E+05         0.00000E+00
    0.58281E+05         0.88103E+04         0.00000E+00
    0.00000E+00         0.00000E+00         0.34327E+05
 
    0.16061E+06         0.61795E+05         0.00000E+00
    0.61795E+05         0.99685E+04         0.00000E+00
    0.00000E+00         0.00000E+00         0.34116E+05
 
    0.15826E+06         0.65259E+05         0.00000E+00
    0.65259E+05         0.11193E+05         0.00000E+00
    0.00000E+00         0.00000E+00         0.33891E+05
 
    0.15577E+06         0.68669E+05         0.00000E+00
    0.68669E+05         0.12483E+05         0.00000E+00
    0.00000E+00         0.00000E+00         0.33650E+05
 
    0.15314E+06         0.72024E+05         0.00000E+00
    0.72024E+05         0.13836E+05         0.00000E+00
    0.00000E+00         0.00000E+00         0.33396E+05
 
    0.15038E+06         0.75319E+05         0.00000E+00
    0.75319E+05         0.15252E+05         0.00000E+00
    0.00000E+00         0.00000E+00         0.33127E+05
 
    0.14749E+06         0.78552E+05         0.00000E+00
    0.78552E+05         0.16729E+05         0.00000E+00
    0.00000E+00         0.00000E+00         0.32843E+05
 
    0.14446E+06         0.81720E+05         0.00000E+00
    0.81720E+05         0.18267E+05         0.00000E+00
    0.00000E+00         0.00000E+00         0.32546E+05
 
    0.14131E+06         0.84820E+05         0.00000E+00
    0.84820E+05         0.19862E+05         0.00000E+00
    0.00000E+00         0.00000E+00         0.32235E+05
 
    0.13803E+06         0.87849E+05         0.00000E+00
    0.87849E+05         0.21514E+05         0.00000E+00
    0.00000E+00         0.00000E+00         0.31909E+05
 
    0.13463E+06         0.90805E+05         0.00000E+00
    0.90805E+05         0.23222E+05         0.00000E+00
    0.00000E+00         0.00000E+00         0.31570E+05
 
    0.13110E+06         0.93685E+05         0.00000E+00
    0.93685E+05         0.24983E+05         0.00000E+00
    0.00000E+00         0.00000E+00         0.31218E+05
 
    0.12746E+06         0.96486E+05         0.00000E+00
    0.96486E+05         0.26797E+05         0.00000E+00
    0.00000E+00         0.00000E+00         0.30851E+05
 
    0.12370E+06         0.99207E+05         0.00000E+00
    0.99207E+05         0.28661E+05         0.00000E+00
    0.00000E+00         0.00000E+00         0.30472E+05
 
    0.11982E+06         0.10184E+06         0.00000E+00
    0.10184E+06         0.30574E+05         0.00000E+00
    0.00000E+00         0.00000E+00         0.30079E+05
 
    0.11583E+06         0.10440E+06         0.00000E+00
    0.10440E+06         0.32533E+05         0.00000E+00
    0.00000E+00         0.00000E+00         0.29674E+05
 
    0.11174E+06         0.10686E+06         0.00000E+00
    0.10686E+06         0.34539E+05         0.00000E+00
    0.00000E+00         0.00000E+00         0.29255E+05
 
    0.10753E+06         0.10923E+06         0.00000E+00
    0.10923E+06         0.36588E+05         0.00000E+00
    0.00000E+00         0.00000E+00         0.28824E+05
 
    0.10322E+06         0.11151E+06         0.00000E+00
    0.11151E+06         0.38679E+05         0.00000E+00
    0.00000E+00         0.00000E+00         0.28380E+05
 
    0.98808E+05         0.11370E+06         0.00000E+00
    0.11370E+06         0.40810E+05         0.00000E+00
    0.00000E+00         0.00000E+00         0.27924E+05
 
    0.94296E+05         0.11579E+06         0.00000E+00
    0.11579E+06         0.42979E+05         0.00000E+00
    0.00000E+00         0.00000E+00         0.27455E+05
 
    0.89687E+05         0.11778E+06         0.00000E+00
    0.11778E+06         0.45185E+05         0.00000E+00
    0.00000E+00         0.00000E+00         0.26974E+05
 
    0.84984E+05         0.11968E+06         0.00000E+00
    0.11968E+06         0.47426E+05         0.00000E+00
    0.00000E+00         0.00000E+00         0.26482E+05
 
    0.80189E+05         0.12147E+06         0.00000E+00
    0.12147E+06         0.49700E+05         0.00000E+00
    0.00000E+00         0.00000E+00         0.25978E+05
 
    0.75306E+05         0.12315E+06         0.00000E+00
    0.12315E+06         0.52004E+05         0.00000E+00
    0.00000E+00         0.00000E+00         0.25462E+05
 
    0.70337E+05         0.12473E+06         0.00000E+00
    0.12473E+06         0.54338E+05         0.00000E+00
    0.00000E+00         0.00000E+00         0.24935E+05
 
    0.65285E+05         0.12621E+06         0.00000E+00
    0.12621E+06         0.56700E+05         0.00000E+00
    0.00000E+00         0.00000E+00         0.24397E+05
 
    0.60153E+05         0.12757E+06         0.00000E+00
    0.12757E+06         0.59087E+05         0.00000E+00
    0.00000E+00         0.00000E+00         0.23848E+05
 
    0.54943E+05         0.12883E+06         0.00000E+00
    0.12883E+06         0.61498E+05         0.00000E+00
    0.00000E+00         0.00000E+00         0.23288E+05
 
    0.49659E+05         0.12997E+06         0.00000E+00
    0.12997E+06         0.63930E+05         0.00000E+00
    0.00000E+00         0.00000E+00         0.22718E+05
 
    0.44303E+05         0.13100E+06         0.00000E+00
    0.13100E+06         0.66382E+05         0.00000E+00
    0.00000E+00         0.00000E+00         0.22137E+05
 
    0.38879E+05         0.13191E+06         0.00000E+00
    0.13191E+06         0.68853E+05         0.00000E+00
    0.00000E+00         0.00000E+00         0.21546E+05
 
    0.33389E+05         0.13271E+06         0.00000E+00
    0.13271E+06         0.71339E+05         0.00000E+00
    0.00000E+00         0.00000E+00         0.20946E+05
 
    0.27836E+05         0.13339E+06         0.00000E+00
    0.13339E+06         0.73840E+05         0.00000E+00
    0.00000E+00         0.00000E+00         0.20335E+05
 
    0.22224E+05         0.13395E+06         0.00000E+00
    0.13395E+06         0.76352E+05         0.00000E+00
    0.00000E+00         0.00000E+00         0.19715E+05
 
    0.19876E+06         0.21079E+04         0.00000E+00
    0.21079E+04        -0.26549E+02         0.00000E+00
    0.00000E+00         0.00000E+00         0.39746E+05
 
    0.19877E+06         0.63484E+04         0.00000E+00
    0.63484E+04         0.57200E+02         0.00000E+00
    0.00000E+00         0.00000E+00         0.39766E+05
 
    0.19862E+06         0.10594E+05         0.00000E+00
    0.10594E+05         0.22550E+03         0.00000E+00
    0.00000E+00         0.00000E+00         0.39770E+05
 
    0.19830E+06         0.14839E+05         0.00000E+00
    0.14839E+05         0.47848E+03         0.00000E+00
    0.00000E+00         0.00000E+00         0.39757E+05
 
    0.19782E+06         0.19081E+05         0.00000E+00
    0.19081E+05         0.81614E+03         0.00000E+00
    0.00000E+00         0.00000E+00         0.39726E+05
 
    0.19716E+06         0.23314E+05         0.00000E+00
    0.23314E+05         0.12383E+04         0.00000E+00
    0.00000E+00         0.00000E+00         0.39679E+05
 
    0.19633E+06         0.27535E+05         0.00000E+00
    0.27535E+05         0.17448E+04         0.00000E+00
    0.00000E+00         0.00000E+00         0.39615E+05
 
    0.19533E+06         0.31739E+05         0.00000E+00
    0.31739E+05         0.23352E+04         0.00000E+00
    0.00000E+00         0.00000E+00         0.39534E+05
 
    0.19417E+06         0.35921E+05         0.00000E+00
    0.35921E+05         0.30089E+04         0.00000E+00
    0.00000E+00         0.00000E+00         0.39436E+05
 
    0.19284E+06         0.40078E+05         0.00000E+00
    0.40078E+05         0.37654E+04         0.00000E+00
    0.00000E+00         0.00000E+00         0.39321E+05
 
    0.19134E+06         0.44205E+05         0.00000E+00
    0.44205E+05         0.46038E+04         0.00000E+00
    0.00000E+00         0.00000E+00         0.39189E+05
 
    0.18968E+06         0.48299E+05         0.00000E+00
    0.48299E+05         0.55234E+04         0.00000E+00
    0.00000E+00         0.00000E+00         0.39040E+05
 
    0.18785E+06         0.52355E+05         0.00000E+00
    0.52355E+05         0.65232E+04         0.00000E+00
    0.00000E+00         0.00000E+00         0.38874E+05
 
    0.18586E+06         0.56370E+05         0.00000E+00
    0.56370E+05         0.76021E+04         0.00000E+00
    0.00000E+00         0.00000E+00         0.38692E+05
 
    0.18370E+06         0.60340E+05         0.00000E+00
    0.60340E+05         0.87590E+04         0.00000E+00
    0.00000E+00         0.00000E+00         0.38493E+05
 
    0.18139E+06         0.64260E+05         0.00000E+00
    0.64260E+05         0.99927E+04         0.00000E+00
    0.00000E+00         0.00000E+00         0.38277E+05
 
    0.17892E+06         0.68127E+05         0.00000E+00
    0.68127E+05         0.11302E+05         0.00000E+00
    0.00000E+00         0.00000E+00         0.38044E+05
 
    0.17629E+06         0.71938E+05         0.00000E+00
    0.71938E+05         0.12685E+05         0.00000E+00
    0.00000E+00         0.00000E+00         0.37796E+05
 
    0.17351E+06         0.75690E+05         0.00000E+00
    0.75690E+05         0.14141E+05         0.00000E+00
    0.00000E+00         0.00000E+00         0.37530E+05
 
    0.17058E+06         0.79377E+05         0.00000E+00
    0.79377E+05         0.15667E+05         0.00000E+00
    0.00000E+00         0.00000E+00         0.37249E+05
 
    0.16750E+06         0.82999E+05         0.00000E+00
    0.82999E+05         0.17264E+05         0.00000E+00
    0.00000E+00         0.00000E+00         0.36952E+05
 
    0.16426E+06         0.86550E+05         0.00000E+00
    0.86550E+05         0.18928E+05         0.00000E+00
    0.00000E+00         0.00000E+00         0.36638E+05
 
    0.16089E+06         0.90029E+05         0.00000E+00
    0.90029E+05         0.20658E+05         0.00000E+00
    0.00000E+00         0.00000E+00         0.36309E+05
 
    0.15737E+06         0.93431E+05         0.00000E+00
    0.93431E+05         0.22453E+05         0.00000E+00
    0.00000E+00         0.00000E+00         0.35964E+05
 
    0.15371E+06         0.96755E+05         0.00000E+00
    0.96755E+05         0.24311E+05         0.00000E+00
    0.00000E+00         0.00000E+00         0.35604E+05
 
    0.14991E+06         0.99997E+05         0.00000E+00
    0.99997E+05         0.26229E+05         0.00000E+00
    0.00000E+00         0.00000E+00         0.35228E+05
 
    0.14598E+06         0.10315E+06         0.00000E+00
    0.10315E+06         0.28206E+05         0.00000E+00
    0.00000E+00         0.00000E+00         0.34837E+05
 
    0.14192E+06         0.10622E+06         0.00000E+00
    0.10622E+06         0.30240E+05         0.00000E+00
    0.00000E+00         0.00000E+00         0.34431E+05
 
    0.13772E+06         0.10920E+06         0.00000E+00
    0.10920E+06         0.32330E+05         0.00000E+00
    0.00000E+00         0.00000E+00         0.34010E+05
 
    0.13340E+06         0.11209E+06         0.00000E+00
    0.11209E+06         0.34473E+05         0.00000E+00
    0.00000E+00         0.00000E+00         0.33575E+05
 
    0.12896E+06         0.11489E+06         0.00000E+00
    0.11489E+06         0.36667E+05         0.00000E+00
    0.00000E+00         0.00000E+00         0.33125E+05
 
    0.12439E+06         0.11758E+06         0.00000E+00
    0.11758E+06         0.38911E+05         0.00000E+00
    0.00000E+00         0.00000E+00         0.32660E+05
 
    0.11971E+06         0.12018E+06         0.00000E+00
    0.12018E+06         0.41202E+05         0.00000E+00
    0.00000E+00         0.00000E+00         0.32182E+05
 
    0.11491E+06         0.12267E+06         0.00000E+00
    0.12267E+06         0.43538E+05         0.00000E+00
    0.00000E+00         0.00000E+00         0.31689E+05
 
    0.10999E+06         0.12506E+06         0.00000E+00
    0.12506E+06         0.45918E+05         0.00000E+00
    0.00000E+00         0.00000E+00         0.31182E+05
 
    0.10497E+06         0.12735E+06         0.00000E+00
    0.12735E+06         0.48340E+05         0.00000E+00
    0.00000E+00         0.00000E+00         0.30662E+05
 
    0.99844E+05         0.12953E+06         0.00000E+00
    0.12953E+06         0.50801E+05         0.00000E+00
    0.00000E+00         0.00000E+00         0.30129E+05
 
    0.94612E+05         0.13160E+06         0.00000E+00
    0.13160E+06         0.53299E+05         0.00000E+00
    0.00000E+00         0.00000E+00         0.29582E+05
 
    0.89279E+05         0.13355E+06         0.00000E+00
    0.13355E+06         0.55833E+05         0.00000E+00
    0.00000E+00         0.00000E+00         0.29022E+05
 
    0.83849E+05         0.13540E+06         0.00000E+00
    0.13540E+06         0.58400E+05         0.00000E+00
    0.00000E+00         0.00000E+00         0.28450E+05
 
    0.78325E+05         0.13713E+06         0.00000E+00
    0.13713E+06         0.60999E+05         0.00000E+00
    0.00000E+00         0.00000E+00         0.27865E+05
 
    0.72709E+05         0.13874E+06         0.00000E+00
    0.13874E+06         0.63628E+05         0.00000E+00
    0.00000E+00         0.00000E+00         0.27267E+05
 
    0.67004E+05         0.14023E+06         0.00000E+00
    0.14023E+06         0.66284E+05         0.00000E+00
    0.00000E+00         0.00000E+00         0.26658E+05
 
    0.61214E+05         0.14160E+06         0.00000E+00
    0.14160E+06         0.68966E+05         0.00000E+00
    0.00000E+00         0.00000E+00         0.26036E+05
 
    0.55342E+05         0.14285E+06         0.00000E+00
    0.14285E+06         0.71671E+05         0.00000E+00
    0.00000E+00         0.00000E+00         0.25403E+05
 
    0.49391E+05         0.14398E+06         0.00000E+00
    0.14398E+06         0.74397E+05         0.00000E+00
    0.00000E+00         0.00000E+00         0.24758E+05
 
    0.43363E+05         0.14498E+06         0.00000E+00
    0.14498E+06         0.77143E+05         0.00000E+00
    0.00000E+00         0.00000E+00         0.24101E+05
 
    0.37262E+05         0.14586E+06         0.00000E+00
    0.14586E+06         0.79907E+05         0.00000E+00
    0.00000E+00         0.00000E+00         0.23434E+05
 
    0.31092E+05         0.14661E+06         0.00000E+00
    0.14661E+06         0.82686E+05         0.00000E+00
    0.00000E+00         0.00000E+00         0.22755E+05
 
    0.24854E+05         0.14723E+06         0.00000E+00
    0.14723E+06         0.85478E+05         0.00000E+00
    0.00000E+00         0.00000E+00         0.22067E+05
 
    0.22104E+06         0.23312E+04         0.00000E+00
    0.23312E+04        -0.30316E+02         0.00000E+00
    0.00000E+00         0.00000E+00         0.44202E+05
 
    0.22110E+06         0.70227E+04         0.00000E+00
    0.70227E+04         0.65538E+02         0.00000E+00
    0.00000E+00         0.00000E+00         0.44233E+05
 
    0.22096E+06         0.11720E+05         0.00000E+00
    0.11720E+05         0.25798E+03         0.00000E+00
    0.00000E+00         0.00000E+00         0.44244E+05
 
    0.22063E+06         0.16418E+05         0.00000E+00
    0.16418E+05         0.54708E+03         0.00000E+00
    0.00000E+00         0.00000E+00         0.44236E+05
 
    0.22011E+06         0.21111E+05         0.00000E+00
    0.21111E+05         0.93271E+03         0.00000E+00
    0.00000E+00         0.00000E+00         0.44209E+05
 
    0.21940E+06         0.25794E+05         0.00000E+00
    0.25794E+05         0.14146E+04         0.00000E+00
    0.00000E+00         0.00000E+00         0.44162E+05
 
    0.21849E+06         0.30463E+05         0.00000E+00
    0.30463E+05         0.19923E+04         0.00000E+00
    0.00000E+00         0.00000E+00         0.44096E+05
 
    0.21739E+06         0.35112E+05         0.00000E+00
    0.35112E+05         0.26653E+04         0.00000E+00
    0.00000E+00         0.00000E+00         0.44011E+05
 
    0.21610E+06         0.39736E+05         0.00000E+00
    0.39736E+05         0.34327E+04         0.00000E+00
    0.00000E+00         0.00000E+00         0.43907E+05
 
    0.21462E+06         0.44331E+05         0.00000E+00
    0.44331E+05         0.42938E+04         0.00000E+00
    0.00000E+00         0.00000E+00         0.43783E+05
 
    0.21295E+06         0.48892E+05         0.00000E+00
    0.48892E+05         0.52476E+04         0.00000E+00
    0.00000E+00         0.00000E+00         0.43640E+05
 
    0.21110E+06         0.53414E+05         0.00000E+00
    0.53414E+05         0.62928E+04         0.00000E+00
    0.00000E+00         0.00000E+00         0.43478E+05
 
    0.20906E+06         0.57893E+05         0.00000E+00
    0.57893E+05         0.74283E+04         0.00000E+00
    0.00000E+00         0.00000E+00         0.43297E+05
 
    0.20683E+06         0.62323E+05         0.00000E+00
    0.62323E+05         0.86528E+04         0.00000E+00
    0.00000E+00         0.00000E+00         0.43097E+05
 
    0.20443E+06         0.66702E+05         0.00000E+00
    0.66702E+05         0.99647E+04         0.00000E+00
    0.00000E+00         0.00000E+00         0.42878E+05
 
    0.20184E+06         0.71025E+05         0.00000E+00
    0.71025E+05         0.11362E+05         0.00000E+00
    0.00000E+00         0.00000E+00         0.42641E+05
 
    0.19908E+06         0.75287E+05         0.00000E+00
    0.75287E+05         0.12844E+05         0.00000E+00
    0.00000E+00         0.00000E+00         0.42385E+05
 
    0.19614E+06         0.79485E+05         0.00000E+00
    0.79485E+05         0.14409E+05         0.00000E+00
    0.00000E+00         0.00000E+00         0.42110E+05
 
    0.19303E+06         0.83615E+05         0.00000E+00
    0.83615E+05         0.16054E+05         0.00000E+00
    0.00000E+00         0.00000E+00         0.41817E+05
 
    0.18975E+06         0.87673E+05         0.00000E+00
    0.87673E+05         0.17778E+05         0.00000E+00
    0.00000E+00         0.00000E+00         0.41506E+05
 
    0.18631E+06         0.91656E+05         0.00000E+00
    0.91656E+05         0.19579E+05         0.00000E+00
    0.00000E+00         0.00000E+00         0.41177E+05
 
    0.18270E+06         0.95559E+05         0.00000E+00
    0.95559E+05         0.21455E+05         0.00000E+00
    0.00000E+00         0.00000E+00         0.40830E+05
 
    0.17892E+06         0.99381E+05         0.00000E+00
    0.99381E+05         0.23404E+05         0.00000E+00
    0.00000E+00         0.00000E+00         0.40466E+05
 
    0.17499E+06         0.10312E+06         0.00000E+00
    0.10312E+06         0.25424E+05         0.00000E+00
    0.00000E+00         0.00000E+00         0.40084E+05
 
    0.17091E+06         0.10676E+06         0.00000E+00
    0.10676E+06         0.27512E+05         0.00000E+00
    0.00000E+00         0.00000E+00         0.39684E+05
 
    0.16667E+06         0.11032E+06         0.00000E+00
    0.11032E+06         0.29667E+05         0.00000E+00
    0.00000E+00         0.00000E+00         0.39268E+05
 
    0.16228E+06         0.11378E+06         0.00000E+00
    0.11378E+06         0.31886E+05         0.00000E+00
    0.00000E+00         0.00000E+00         0.38834E+05
 
    0.15775E+06         0.11714E+06         0.00000E+00
    0.11714E+06         0.34168E+05         0.00000E+00
    0.00000E+00         0.00000E+00         0.38384E+05
 
    0.15308E+06         0.12040E+06         0.00000E+00
    0.12040E+06         0.36509E+05         0.00000E+00
    0.00000E+00         0.00000E+00         0.37917E+05
 
    0.14826E+06         0.12357E+06         0.00000E+00
    0.12357E+06         0.38908E+05         0.00000E+00
    0.00000E+00         0.00000E+00         0.37434E+05
 
    0.14331E+06         0.12662E+06         0.00000E+00
    0.12662E+06         0.41363E+05         0.00000E+00
    0.00000E+00         0.00000E+00         0.36935E+05
 
    0.13823E+06         0.12957E+06         0.00000E+00
    0.12957E+06         0.43871E+05         0.00000E+00
    0.00000E+00         0.00000E+00         0.36420E+05
 
    0.13302E+06         0.13241E+06         0.00000E+00
    0.13241E+06         0.46430E+05         0.00000E+00
    0.00000E+00         0.00000E+00         0.35889E+05
 
    0.12768E+06         0.13513E+06         0.00000E+00
    0.13513E+06         0.49038E+05         0.00000E+00
    0.00000E+00         0.00000E+00         0.35343E+05
 
    0.12222E+06         0.13774E+06         0.00000E+00
    0.13774E+06         0.51692E+05         0.00000E+00
    0.00000E+00         0.00000E+00         0.34782E+05
 
    0.11663E+06         0.14024E+06         0.00000E+00
    0.14024E+06         0.54391E+05         0.00000E+00
    0.00000E+00         0.00000E+00         0.34205E+05
 
    0.11094E+06         0.14262E+06         0.00000E+00
    0.14262E+06         0.57132E+05         0.00000E+00
    0.00000E+00         0.00000E+00         0.33614E+05
 
    0.10513E+06         0.14487E+06         0.00000E+00
    0.14487E+06         0.59913E+05         0.00000E+00
    0.00000E+00         0.00000E+00         0.33008E+05
 
    0.99206E+05         0.14701E+06         0.00000E+00
    0.14701E+06         0.62732E+05         0.00000E+00
    0.00000E+00         0.00000E+00         0.32388E+05
 
    0.93179E+05         0.14902E+06         0.00000E+00
    0.14902E+06         0.65586E+05         0.00000E+00
    0.00000E+00         0.00000E+00         0.31753E+05
 
    0.87049E+05         0.15090E+06         0.00000E+00
    0.15090E+06         0.68474E+05         0.00000E+00
    0.00000E+00         0.00000E+00         0.31105E+05
 
    0.80819E+05         0.15266E+06         0.00000E+00
    0.15266E+06         0.71394E+05         0.00000E+00
    0.00000E+00         0.00000E+00         0.30443E+05
 
    0.74493E+05         0.15429E+06         0.00000E+00
    0.15429E+06         0.74342E+05         0.00000E+00
    0.00000E+00         0.00000E+00         0.29767E+05
 
    0.68072E+05         0.15579E+06         0.00000E+00
    0.15579E+06         0.77318E+05         0.00000E+00
    0.00000E+00         0.00000E+00         0.29078E+05
 
    0.61562E+05         0.15716E+06         0.00000E+00
    0.15716E+06         0.80319E+05         0.00000E+00
    0.00000E+00         0.00000E+00         0.28376E+05
 
    0.54965E+05         0.15839E+06         0.00000E+00
    0.15839E+06         0.83343E+05         0.00000E+00
    0.00000E+00         0.00000E+00         0.27661E+05
 
    0.48283E+05         0.15949E+06         0.00000E+00
    0.15949E+06         0.86388E+05         0.00000E+00
    0.00000E+00         0.00000E+00         0.26934E+05
 
    0.41522E+05         0.16046E+06         0.00000E+00
    0.16046E+06         0.89451E+05         0.00000E+00
    0.00000E+00         0.00000E+00         0.26195E+05
 
    0.34682E+05         0.16128E+06         0.00000E+00
    0.16128E+06         0.92531E+05         0.00000E+00
    0.00000E+00         0.00000E+00         0.25443E+05
 
    0.27769E+05         0.16196E+06         0.00000E+00
    0.16196E+06         0.95626E+05         0.00000E+00
    0.00000E+00         0.00000E+00         0.24679E+05
 
    0.24574E+06         0.25876E+04         0.00000E+00
    0.25876E+04        -0.34760E+02         0.00000E+00
    0.00000E+00         0.00000E+00         0.49141E+05
 
    0.24584E+06         0.77958E+04         0.00000E+00
    0.77958E+04         0.75519E+02         0.00000E+00
    0.00000E+00         0.00000E+00         0.49183E+05
 
    0.24572E+06         0.13010E+05         0.00000E+00
    0.13010E+05         0.29663E+03         0.00000E+00
    0.00000E+00         0.00000E+00         0.49203E+05
 
    0.24538E+06         0.18225E+05         0.00000E+00
    0.18225E+05         0.62847E+03         0.00000E+00
    0.00000E+00         0.00000E+00         0.49202E+05
 
    0.24482E+06         0.23433E+05         0.00000E+00
    0.23433E+05         0.10708E+04         0.00000E+00
    0.00000E+00         0.00000E+00         0.49178E+05
 
    0.24403E+06         0.28629E+05         0.00000E+00
    0.28629E+05         0.16230E+04         0.00000E+00
    0.00000E+00         0.00000E+00         0.49131E+05
 
    0.24303E+06         0.33808E+05         0.00000E+00
    0.33808E+05         0.22845E+04         0.00000E+00
    0.00000E+00         0.00000E+00         0.49063E+05
 
    0.24181E+06         0.38962E+05         0.00000E+00
    0.38962E+05         0.30543E+04         0.00000E+00
    0.00000E+00         0.00000E+00         0.48973E+05
 
    0.24037E+06         0.44088E+05         0.00000E+00
    0.44088E+05         0.39315E+04         0.00000E+00
    0.00000E+00         0.00000E+00         0.48861E+05
 
    0.23872E+06         0.49178E+05         0.00000E+00
    0.49178E+05         0.49149E+04         0.00000E+00
    0.00000E+00         0.00000E+00         0.48727E+05
 
    0.23686E+06         0.54228E+05         0.00000E+00
    0.54228E+05         0.60030E+04         0.00000E+00
    0.00000E+00         0.00000E+00         0.48572E+05
 
    0.23478E+06         0.59233E+05         0.00000E+00
    0.59233E+05         0.71944E+04         0.00000E+00
    0.00000E+00         0.00000E+00         0.48395E+05
 
    0.23249E+06         0.64187E+05         0.00000E+00
    0.64187E+05         0.84875E+04         0.00000E+00
    0.00000E+00         0.00000E+00         0.48196E+05
 
    0.23000E+06         0.69085E+05         0.00000E+00
    0.69085E+05         0.98804E+04         0.00000E+00
    0.00000E+00         0.00000E+00         0.47976E+05
 
    0.22730E+06         0.73922E+05         0.00000E+00
    0.73922E+05         0.11371E+05         0.00000E+00
    0.00000E+00         0.00000E+00         0.47734E+05
 
    0.22440E+06         0.78694E+05         0.00000E+00
    0.78694E+05         0.12958E+05         0.00000E+00
    0.00000E+00         0.00000E+00         0.47472E+05
 
    0.22130E+06         0.83397E+05         0.00000E+00
    0.83397E+05         0.14639E+05         0.00000E+00
    0.00000E+00         0.00000E+00         0.47188E+05
 
    0.21801E+06         0.88025E+05         0.00000E+00
    0.88025E+05         0.16412E+05         0.00000E+00
    0.00000E+00         0.00000E+00         0.46884E+05
 
    0.21452E+06         0.92575E+05         0.00000E+00
    0.92575E+05         0.18274E+05         0.00000E+00
    0.00000E+00         0.00000E+00         0.46560E+05
 
    0.21085E+06         0.97042E+05         0.00000E+00
    0.97042E+05         0.20224E+05         0.00000E+00
    0.00000E+00         0.00000E+00         0.46215E+05
 
    0.20699E+06         0.10142E+06         0.00000E+00
    0.10142E+06         0.22258E+05         0.00000E+00
    0.00000E+00         0.00000E+00         0.45850E+05
 
    0.20295E+06         0.10571E+06         0.00000E+00
    0.10571E+06         0.24375E+05         0.00000E+00
    0.00000E+00         0.00000E+00         0.45465E+05
 
    0.19873E+06         0.10991E+06         0.00000E+00
    0.10991E+06         0.26572E+05         0.00000E+00
    0.00000E+00         0.00000E+00         0.45060E+05
 
    0.19434E+06         0.11401E+06         0.00000E+00
    0.11401E+06         0.28846E+05         0.00000E+00
    0.00000E+00         0.00000E+00         0.44636E+05
 
    0.18977E+06         0.11801E+06         0.00000E+00
    0.11801E+06         0.31195E+05         0.00000E+00
    0.00000E+00         0.00000E+00         0.44193E+05
 
    0.18504E+06         0.12191E+06         0.00000E+00
    0.12191E+06         0.33616E+05         0.00000E+00
    0.00000E+00         0.00000E+00         0.43731E+05
 
    0.18014E+06         0.12570E+06         0.00000E+00
    0.12570E+06         0.36107E+05         0.00000E+00
    0.00000E+00         0.00000E+00         0.43250E+05
 
    0.17509E+06         0.12938E+06         0.00000E+00
    0.12938E+06         0.38665E+05         0.00000E+00
    0.00000E+00         0.00000E+00         0.42750E+05
 
    0.16987E+06         0.13295E+06         0.00000E+00
    0.13295E+06         0.41288E+05         0.00000E+00
    0.00000E+00         0.00000E+00         0.42233E+05
 
    0.16451E+06         0.13640E+06         0.00000E+00
    0.13640E+06         0.43973E+05         0.00000E+00
    0.00000E+00         0.00000E+00         0.41697E+05
 
    0.15900E+06         0.13974E+06         0.00000E+00
    0.13974E+06         0.46717E+05         0.00000E+00
    0.00000E+00         0.00000E+00         0.41143E+05
 
    0.15334E+06         0.14296E+06         0.00000E+00
    0.14296E+06         0.49518E+05         0.00000E+00
    0.00000E+00         0.00000E+00         0.40572E+05
 
    0.14755E+06         0.14605E+06         0.00000E+00
    0.14605E+06         0.52374E+05         0.00000E+00
    0.00000E+00         0.00000E+00         0.39984E+05
 
    0.14161E+06         0.14902E+06         0.00000E+00
    0.14902E+06         0.55281E+05         0.00000E+00
    0.00000E+00         0.00000E+00         0.39379E+05
 
    0.13555E+06         0.15187E+06         0.00000E+00
    0.15187E+06         0.58238E+05         0.00000E+00
    0.00000E+00         0.00000E+00         0.38757E+05
 
    0.12935E+06         0.15459E+06         0.00000E+00
    0.15459E+06         0.61242E+05         0.00000E+00
    0.00000E+00         0.00000E+00         0.38119E+05
 
    0.12303E+06         0.15717E+06         0.00000E+00
    0.15717E+06         0.64290E+05         0.00000E+00
    0.00000E+00         0.00000E+00         0.37464E+05
 
    0.11659E+06         0.15963E+06         0.00000E+00
    0.15963E+06         0.67380E+05         0.00000E+00
    0.00000E+00         0.00000E+00         0.36793E+05
 
    0.11002E+06         0.16195E+06         0.00000E+00
    0.16195E+06         0.70510E+05         0.00000E+00
    0.00000E+00         0.00000E+00         0.36107E+05
 
    0.10335E+06         0.16414E+06         0.00000E+00
    0.16414E+06         0.73677E+05         0.00000E+00
    0.00000E+00         0.00000E+00         0.35405E+05
 
    0.96557E+05         0.16620E+06         0.00000E+00
    0.16620E+06         0.76879E+05         0.00000E+00
    0.00000E+00         0.00000E+00         0.34687E+05
 
    0.89660E+05         0.16811E+06         0.00000E+00
    0.16811E+06         0.80114E+05         0.00000E+00
    0.00000E+00         0.00000E+00         0.33955E+05
 
    0.82659E+05         0.16988E+06         0.00000E+00
    0.16988E+06         0.83380E+05         0.00000E+00
    0.00000E+00         0.00000E+00         0.33208E+05
 
    0.75556E+05         0.17152E+06         0.00000E+00
    0.17152E+06         0.86674E+05         0.00000E+00
    0.00000E+00         0.00000E+00         0.32446E+05
 
    0.68356E+05         0.17301E+06         0.00000E+00
    0.17301E+06         0.89995E+05         0.00000E+00
    0.00000E+00         0.00000E+00         0.31670E+05
 
    0.61060E+05         0.17436E+06         0.00000E+00
    0.17436E+06         0.93340E+05         0.00000E+00
    0.00000E+00         0.00000E+00         0.30880E+05
 
    0.53674E+05         0.17556E+06         0.00000E+00
    0.17556E+06         0.96706E+05         0.00000E+00
    0.00000E+00         0.00000E+00         0.30076E+05
 
    0.46199E+05         0.17661E+06         0.00000E+00
    0.17661E+06         0.10009E+06         0.00000E+00
    0.00000E+00         0.00000E+00         0.29258E+05
 
    0.38640E+05         0.17752E+06         0.00000E+00
    0.17752E+06         0.10350E+06         0.00000E+00
    0.00000E+00         0.00000E+00         0.28428E+05
 
    0.30999E+05         0.17827E+06         0.00000E+00
    0.17827E+06         0.10692E+06         0.00000E+00
    0.00000E+00         0.00000E+00         0.27583E+05
 
    0.27321E+06         0.28836E+04         0.00000E+00
    0.28836E+04        -0.40032E+02         0.00000E+00
    0.00000E+00         0.00000E+00         0.54634E+05
 
    0.27336E+06         0.86865E+04         0.00000E+00
    0.86865E+04         0.87557E+02         0.00000E+00
    0.00000E+00         0.00000E+00         0.54689E+05
 
    0.27325E+06         0.14495E+05         0.00000E+00
    0.14495E+05         0.34290E+03         0.00000E+00
    0.00000E+00         0.00000E+00         0.54719E+05
 
    0.27289E+06         0.20302E+05         0.00000E+00
    0.20302E+05         0.72565E+03         0.00000E+00
    0.00000E+00         0.00000E+00         0.54723E+05
 
    0.27227E+06         0.26100E+05         0.00000E+00
    0.26100E+05         0.12352E+04         0.00000E+00
    0.00000E+00         0.00000E+00         0.54702E+05
 
    0.27141E+06         0.31883E+05         0.00000E+00
    0.31883E+05         0.18708E+04         0.00000E+00
    0.00000E+00         0.00000E+00         0.54655E+05
 
    0.27029E+06         0.37643E+05         0.00000E+00
    0.37643E+05         0.26312E+04         0.00000E+00
    0.00000E+00         0.00000E+00         0.54584E+05
 
    0.26892E+06         0.43373E+05         0.00000E+00
    0.43373E+05         0.35154E+04         0.00000E+00
    0.00000E+00         0.00000E+00         0.54487E+05
 
    0.26730E+06         0.49067E+05         0.00000E+00
    0.49067E+05         0.45217E+04         0.00000E+00
    0.00000E+00         0.00000E+00         0.54365E+05
 
    0.26544E+06         0.54719E+05         0.00000E+00
    0.54719E+05         0.56485E+04         0.00000E+00
    0.00000E+00         0.00000E+00         0.54219E+05
 
    0.26334E+06         0.60323E+05         0.00000E+00
    0.60323E+05         0.68940E+04         0.00000E+00
    0.00000E+00         0.00000E+00         0.54047E+05
 
    0.26100E+06         0.65871E+05         0.00000E+00
    0.65871E+05         0.82561E+04         0.00000E+00
    0.00000E+00         0.00000E+00         0.53851E+05
 
    0.25842E+06         0.71360E+05         0.00000E+00
    0.71360E+05         0.97328E+04         0.00000E+00
    0.00000E+00         0.00000E+00         0.53631E+05
 
    0.25561E+06         0.76782E+05         0.00000E+00
    0.76782E+05         0.11322E+05         0.00000E+00
    0.00000E+00         0.00000E+00         0.53387E+05
 
    0.25257E+06         0.82132E+05         0.00000E+00
    0.82132E+05         0.13020E+05         0.00000E+00
    0.00000E+00         0.00000E+00         0.53119E+05
 
    0.24931E+06         0.87406E+05         0.00000E+00
    0.87406E+05         0.14826E+05         0.00000E+00
    0.00000E+00         0.00000E+00         0.52827E+05
 
    0.24582E+06         0.92598E+05         0.00000E+00
    0.92598E+05         0.16737E+05         0.00000E+00
    0.00000E+00         0.00000E+00         0.52511E+05
 
    0.24212E+06         0.97704E+05         0.00000E+00
    0.97704E+05         0.18749E+05         0.00000E+00
    0.00000E+00         0.00000E+00         0.52173E+05
 
    0.23820E+06         0.10272E+06         0.00000E+00
    0.10272E+06         0.20860E+05         0.00000E+00
    0.00000E+00         0.00000E+00         0.51811E+05
 
    0.23407E+06         0.10764E+06         0.00000E+00
    0.10764E+06         0.23068E+05         0.00000E+00
    0.00000E+00         0.00000E+00         0.51427E+05
 
    0.22973E+06         0.11246E+06         0.00000E+00
    0.11246E+06         0.25369E+05         0.00000E+00
    0.00000E+00         0.00000E+00         0.51021E+05
 
    0.22520E+06         0.11717E+06         0.00000E+00
    0.11717E+06         0.27760E+05         0.00000E+00
    0.00000E+00         0.00000E+00         0.50592E+05
 
    0.22047E+06         0.12178E+06         0.00000E+00
    0.12178E+06         0.30238E+05         0.00000E+00
    0.00000E+00         0.00000E+00         0.50142E+05
 
    0.21555E+06         0.12628E+06         0.00000E+00
    0.12628E+06         0.32800E+05         0.00000E+00
    0.00000E+00         0.00000E+00         0.49670E+05
 
    0.21044E+06         0.13066E+06         0.00000E+00
    0.13066E+06         0.35444E+05         0.00000E+00
    0.00000E+00         0.00000E+00         0.49177E+05
 
    0.20515E+06         0.13493E+06         0.00000E+00
    0.13493E+06         0.38165E+05         0.00000E+00
    0.00000E+00         0.00000E+00         0.48662E+05
 
    0.19968E+06         0.13907E+06         0.00000E+00
    0.13907E+06         0.40962E+05         0.00000E+00
    0.00000E+00         0.00000E+00         0.48128E+05
 
    0.19403E+06         0.14309E+06         0.00000E+00
    0.14309E+06         0.43830E+05         0.00000E+00
    0.00000E+00         0.00000E+00         0.47573E+05
 
    0.18822E+06         0.14699E+06         0.00000E+00
    0.14699E+06         0.46768E+05         0.00000E+00
    0.00000E+00         0.00000E+00         0.46998E+05
 
    0.18224E+06         0.15075E+06         0.00000E+00
    0.15075E+06         0.49771E+05         0.00000E+00
    0.00000E+00         0.00000E+00         0.46403E+05
 
    0.17611E+06         0.15439E+06         0.00000E+00
    0.15439E+06         0.52837E+05         0.00000E+00
    0.00000E+00         0.00000E+00         0.45789E+05
 
    0.16982E+06         0.15789E+06         0.00000E+00
    0.15789E+06         0.55963E+05         0.00000E+00
    0.00000E+00         0.00000E+00         0.45156E+05
 
    0.16337E+06         0.16126E+06         0.00000E+00
    0.16126E+06         0.59147E+05         0.00000E+00
    0.00000E+00         0.00000E+00         0.44504E+05
 
    0.15678E+06         0.16449E+06         0.00000E+00
    0.16449E+06         0.62384E+05         0.00000E+00
    0.00000E+00         0.00000E+00         0.43833E+05
 
    0.15005E+06         0.16758E+06         0.00000E+00
    0.16758E+06         0.65673E+05         0.00000E+00
    0.00000E+00         0.00000E+00         0.43145E+05
 
    0.14318E+06         0.17054E+06         0.00000E+00
    0.17054E+06         0.69011E+05         0.00000E+00
    0.00000E+00         0.00000E+00         0.42438E+05
 
    0.13617E+06         0.17334E+06         0.00000E+00
    0.17334E+06         0.72395E+05         0.00000E+00
    0.00000E+00         0.00000E+00         0.41714E+05
 
    0.12904E+06         0.17601E+06         0.00000E+00
    0.17601E+06         0.75823E+05         0.00000E+00
    0.00000E+00         0.00000E+00         0.40972E+05
 
    0.12177E+06         0.17853E+06         0.00000E+00
    0.17853E+06         0.79291E+05         0.00000E+00
    0.00000E+00         0.00000E+00         0.40213E+05
 
    0.11439E+06         0.18090E+06         0.00000E+00
    0.18090E+06         0.82798E+05         0.00000E+00
    0.00000E+00         0.00000E+00         0.39437E+05
 
    0.10688E+06         0.18313E+06         0.00000E+00
    0.18313E+06         0.86341E+05         0.00000E+00
    0.00000E+00         0.00000E+00         0.38645E+05
 
    0.99266E+05         0.18520E+06         0.00000E+00
    0.18520E+06         0.89917E+05         0.00000E+00
    0.00000E+00         0.00000E+00         0.37837E+05
 
    0.91535E+05         0.18713E+06         0.00000E+00
    0.18713E+06         0.93525E+05         0.00000E+00
    0.00000E+00         0.00000E+00         0.37012E+05
 
    0.83696E+05         0.18890E+06         0.00000E+00
    0.18890E+06         0.97163E+05         0.00000E+00
    0.00000E+00         0.00000E+00         0.36172E+05
 
    0.75752E+05         0.19052E+06         0.00000E+00
    0.19052E+06         0.10083E+06         0.00000E+00
    0.00000E+00         0.00000E+00         0.35316E+05
 
    0.67707E+05         0.19198E+06         0.00000E+00
    0.19198E+06         0.10452E+06         0.00000E+00
    0.00000E+00         0.00000E+00         0.34445E+05
 
    0.59563E+05         0.19329E+06         0.00000E+00
    0.19329E+06         0.10823E+06         0.00000E+00
    0.00000E+00         0.00000E+00         0.33558E+05
 
    0.51324E+05         0.19444E+06         0.00000E+00
    0.19444E+06         0.11196E+06         0.00000E+00
    0.00000E+00         0.00000E+00         0.32657E+05
 
    0.42994E+05         0.19543E+06         0.00000E+00
    0.19543E+06         0.11571E+06         0.00000E+00
    0.00000E+00         0.00000E+00         0.31741E+05
 
    0.34574E+05         0.19627E+06         0.00000E+00
    0.19627E+06         0.11948E+06         0.00000E+00
    0.00000E+00         0.00000E+00         0.30811E+05
 
    0.30388E+06         0.32274E+04         0.00000E+00
    0.32274E+04        -0.46310E+02         0.00000E+00
    0.00000E+00         0.00000E+00         0.60767E+05
 
    0.30407E+06         0.97181E+04         0.00000E+00
    0.97181E+04         0.10215E+03         0.00000E+00
    0.00000E+00         0.00000E+00         0.60835E+05
 
    0.30397E+06         0.16213E+05         0.00000E+00
    0.16213E+05         0.39856E+03         0.00000E+00
    0.00000E+00         0.00000E+00         0.60873E+05
 
    0.30357E+06         0.22702E+05         0.00000E+00
    0.22702E+05         0.84219E+03         0.00000E+00
    0.00000E+00         0.00000E+00         0.60883E+05
 
    0.30288E+06         0.29178E+05         0.00000E+00
    0.29178E+05         0.14320E+04         0.00000E+00
    0.00000E+00         0.00000E+00         0.60863E+05
 
    0.30190E+06         0.35633E+05         0.00000E+00
    0.35633E+05         0.21666E+04         0.00000E+00
    0.00000E+00         0.00000E+00         0.60814E+05
 
    0.30064E+06         0.42058E+05         0.00000E+00
    0.42058E+05         0.30445E+04         0.00000E+00
    0.00000E+00         0.00000E+00         0.60736E+05
 
    0.29908E+06         0.48445E+05         0.00000E+00
    0.48445E+05         0.40639E+04         0.00000E+00
    0.00000E+00         0.00000E+00         0.60630E+05
 
    0.29725E+06         0.54787E+05         0.00000E+00
    0.54787E+05         0.52226E+04         0.00000E+00
    0.00000E+00         0.00000E+00         0.60494E+05
 
    0.29514E+06         0.61076E+05         0.00000E+00
    0.61076E+05         0.65183E+04         0.00000E+00
    0.00000E+00         0.00000E+00         0.60331E+05
 
    0.29275E+06         0.67305E+05         0.00000E+00
    0.67305E+05         0.79486E+04         0.00000E+00
    0.00000E+00         0.00000E+00         0.60139E+05
 
    0.29009E+06         0.73468E+05         0.00000E+00
    0.73468E+05         0.95107E+04         0.00000E+00
    0.00000E+00         0.00000E+00         0.59920E+05
 
    0.28716E+06         0.79557E+05         0.00000E+00
    0.79557E+05         0.11202E+05         0.00000E+00
    0.00000E+00         0.00000E+00         0.59673E+05
 
    0.28397E+06         0.85567E+05         0.00000E+00
    0.85567E+05         0.13019E+05         0.00000E+00
    0.00000E+00         0.00000E+00         0.59399E+05
 
    0.28053E+06         0.91491E+05         0.00000E+00
    0.91491E+05         0.14959E+05         0.00000E+00
    0.00000E+00         0.00000E+00         0.59098E+05
 
    0.27683E+06         0.97324E+05         0.00000E+00
    0.97324E+05         0.17019E+05         0.00000E+00
    0.00000E+00         0.00000E+00         0.58770E+05
 
    0.27289E+06         0.10306E+06         0.00000E+00
    0.10306E+06         0.19194E+05         0.00000E+00
    0.00000E+00         0.00000E+00         0.58416E+05
 
    0.26870E+06         0.10869E+06         0.00000E+00
    0.10869E+06         0.21483E+05         0.00000E+00
    0.00000E+00         0.00000E+00         0.58036E+05
 
    0.26427E+06         0.11422E+06         0.00000E+00
    0.11422E+06         0.23881E+05         0.00000E+00
    0.00000E+00         0.00000E+00         0.57631E+05
 
    0.25962E+06         0.11964E+06         0.00000E+00
    0.11964E+06         0.26384E+05         0.00000E+00
    0.00000E+00         0.00000E+00         0.57200E+05
 
    0.25473E+06         0.12493E+06         0.00000E+00
    0.12493E+06         0.28989E+05         0.00000E+00
    0.00000E+00         0.00000E+00         0.56745E+05
 
    0.24963E+06         0.13011E+06         0.00000E+00
    0.13011E+06         0.31693E+05         0.00000E+00
    0.00000E+00         0.00000E+00         0.56265E+05
 
    0.24431E+06         0.13517E+06         0.00000E+00
    0.13517E+06         0.34491E+05         0.00000E+00
    0.00000E+00         0.00000E+00         0.55761E+05
 
    0.23879E+06         0.14009E+06         0.00000E+00
    0.14009E+06         0.37381E+05         0.00000E+00
    0.00000E+00         0.00000E+00         0.55234E+05
 
    0.23306E+06         0.14489E+06         0.00000E+00
    0.14489E+06         0.40357E+05         0.00000E+00
    0.00000E+00         0.00000E+00         0.54683E+05
 
    0.22713E+06         0.14955E+06         0.00000E+00
    0.14955E+06         0.43417E+05         0.00000E+00
    0.00000E+00         0.00000E+00         0.54109E+05
 
    0.22101E+06         0.15407E+06         0.00000E+00
    0.15407E+06         0.46557E+05         0.00000E+00
    0.00000E+00         0.00000E+00         0.53513E+05
 
    0.21470E+06         0.15846E+06         0.00000E+00
    0.15846E+06         0.49773E+05         0.00000E+00
    0.00000E+00         0.00000E+00         0.52895E+05
 
    0.20821E+06         0.16270E+06         0.00000E+00
    0.16270E+06         0.53061E+05         0.00000E+00
    0.00000E+00         0.00000E+00         0.52255E+05
 
    0.20155E+06         0.16680E+06         0.00000E+00
    0.16680E+06         0.56419E+05         0.00000E+00
    0.00000E+00         0.00000E+00         0.51594E+05
 
    0.19471E+06         0.17075E+06         0.00000E+00
    0.17075E+06         0.59843E+05         0.00000E+00
    0.00000E+00         0.00000E+00         0.50911E+05
 
    0.18771E+06         0.17455E+06         0.00000E+00
    0.17455E+06         0.63329E+05         0.00000E+00
    0.00000E+00         0.00000E+00         0.50208E+05
 
    0.18055E+06         0.17820E+06         0.00000E+00
    0.17820E+06         0.66874E+05         0.00000E+00
    0.00000E+00         0.00000E+00         0.49485E+05
 
    0.17324E+06         0.18170E+06         0.00000E+00
    0.18170E+06         0.70475E+05         0.00000E+00
    0.00000E+00         0.00000E+00         0.48742E+05
 
    0.16577E+06         0.18504E+06         0.00000E+00
    0.18504E+06         0.74128E+05         0.00000E+00
    0.00000E+00         0.00000E+00         0.47979E+05
 
    0.15815E+06         0.18824E+06         0.00000E+00
    0.18824E+06         0.77831E+05         0.00000E+00
    0.00000E+00         0.00000E+00         0.47197E+05
 
    0.15040E+06         0.19127E+06         0.00000E+00
    0.19127E+06         0.81581E+05         0.00000E+00
    0.00000E+00         0.00000E+00         0.46396E+05
 
    0.14251E+06         0.19415E+06         0.00000E+00
    0.19415E+06         0.85375E+05         0.00000E+00
    0.00000E+00         0.00000E+00         0.45577E+05
 
    0.13448E+06         0.19687E+06         0.00000E+00
    0.19687E+06         0.89210E+05         0.00000E+00
    0.00000E+00         0.00000E+00         0.44739E+05
 
    0.12633E+06         0.19943E+06         0.00000E+00
    0.19943E+06         0.93084E+05         0.00000E+00
    0.00000E+00         0.00000E+00         0.43883E+05
 
    0.11805E+06         0.20183E+06         0.00000E+00
    0.20183E+06         0.96994E+05         0.00000E+00
    0.00000E+00         0.00000E+00         0.43010E+05
 
    0.10966E+06         0.20407E+06         0.00000E+00
    0.20407E+06         0.10094E+06         0.00000E+00
    0.00000E+00         0.00000E+00         0.42119E+05
 
    0.10114E+06         0.20614E+06         0.00000E+00
    0.20614E+06         0.10491E+06         0.00000E+00
    0.00000E+00         0.00000E+00         0.41210E+05
 
    0.92510E+05         0.20805E+06         0.00000E+00
    0.20805E+06         0.10892E+06         0.00000E+00
    0.00000E+00         0.00000E+00         0.40285E+05
 
    0.83770E+05         0.20980E+06         0.00000E+00
    0.20980E+06         0.11295E+06         0.00000E+00
    0.00000E+00         0.00000E+00         0.39344E+05
 
    0.74924E+05         0.21139E+06         0.00000E+00
    0.21139E+06         0.11700E+06         0.00000E+00
    0.00000E+00         0.00000E+00         0.38385E+05
 
    0.65973E+05         0.21281E+06         0.00000E+00
    0.21281E+06         0.12108E+06         0.00000E+00
    0.00000E+00         0.00000E+00         0.37411E+05
 
    0.56921E+05         0.21406E+06         0.00000E+00
    0.21406E+06         0.12518E+06         0.00000E+00
    0.00000E+00         0.00000E+00         0.36421E+05
 
    0.47770E+05         0.21514E+06         0.00000E+00
    0.21514E+06         0.12930E+06         0.00000E+00
    0.00000E+00         0.00000E+00         0.35414E+05
 
    0.38524E+05         0.21606E+06         0.00000E+00
    0.21606E+06         0.13344E+06         0.00000E+00
    0.00000E+00         0.00000E+00         0.34393E+05
 
    0.33826E+06         0.36292E+04         0.00000E+00
    0.36292E+04        -0.53801E+02         0.00000E+00
    0.00000E+00         0.00000E+00         0.67642E+05
 
    0.33849E+06         0.10919E+05         0.00000E+00
    0.10919E+05         0.11991E+03         0.00000E+00
    0.00000E+00         0.00000E+00         0.67722E+05
 
    0.33837E+06         0.18209E+05         0.00000E+00
    0.18209E+05         0.46572E+03         0.00000E+00
    0.00000E+00         0.00000E+00         0.67768E+05
 
    0.33791E+06         0.25488E+05         0.00000E+00
    0.25488E+05         0.98230E+03         0.00000E+00
    0.00000E+00         0.00000E+00         0.67779E+05
 
    0.33712E+06         0.32746E+05         0.00000E+00
    0.32746E+05         0.16680E+04         0.00000E+00
    0.00000E+00         0.00000E+00         0.67757E+05
 
    0.33599E+06         0.39973E+05         0.00000E+00
    0.39973E+05         0.25207E+04         0.00000E+00
    0.00000E+00         0.00000E+00         0.67702E+05
 
    0.33452E+06         0.47160E+05         0.00000E+00
    0.47160E+05         0.35382E+04         0.00000E+00
    0.00000E+00         0.00000E+00         0.67613E+05
 
    0.33274E+06         0.54298E+05         0.00000E+00
    0.54298E+05         0.47177E+04         0.00000E+00
    0.00000E+00         0.00000E+00         0.67491E+05
 
    0.33062E+06         0.61378E+05         0.00000E+00
    0.61378E+05         0.60565E+04         0.00000E+00
    0.00000E+00         0.00000E+00         0.67336E+05
 
    0.32819E+06         0.68391E+05         0.00000E+00
    0.68391E+05         0.75513E+04         0.00000E+00
    0.00000E+00         0.00000E+00         0.67149E+05
 
    0.32545E+06         0.75330E+05         0.00000E+00
    0.75330E+05         0.91988E+04         0.00000E+00
    0.00000E+00         0.00000E+00         0.66930E+05
 
    0.32240E+06         0.82185E+05         0.00000E+00
    0.82185E+05         0.10995E+05         0.00000E+00
    0.00000E+00         0.00000E+00         0.66680E+05
 
    0.31905E+06         0.88951E+05         0.00000E+00
    0.88951E+05         0.12937E+05         0.00000E+00
    0.00000E+00         0.00000E+00         0.66398E+05
 
    0.31541E+06         0.95619E+05         0.00000E+00
    0.95619E+05         0.15021E+05         0.00000E+00
    0.00000E+00         0.00000E+00         0.66086E+05
 
    0.31148E+06         0.10218E+06         0.00000E+00
    0.10218E+06         0.17241E+05         0.00000E+00
    0.00000E+00         0.00000E+00         0.65743E+05
 
    0.30726E+06         0.10864E+06         0.00000E+00
    0.10864E+06         0.19595E+05         0.00000E+00
    0.00000E+00         0.00000E+00         0.65371E+05
 
    0.30277E+06         0.11498E+06         0.00000E+00
    0.11498E+06         0.22078E+05         0.00000E+00
    0.00000E+00         0.00000E+00         0.64970E+05
 
    0.29801E+06         0.12119E+06         0.00000E+00
    0.12119E+06         0.24685E+05         0.00000E+00
    0.00000E+00         0.00000E+00         0.64539E+05
 
    0.29299E+06         0.12728E+06         0.00000E+00
    0.12728E+06         0.27412E+05         0.00000E+00
    0.00000E+00         0.00000E+00         0.64080E+05
 
    0.28771E+06         0.13324E+06         0.00000E+00
    0.13324E+06         0.30255E+05         0.00000E+00
    0.00000E+00         0.00000E+00         0.63594E+05
 
    0.28219E+06         0.13906E+06         0.00000E+00
    0.13906E+06         0.33208E+05         0.00000E+00
    0.00000E+00         0.00000E+00         0.63080E+05
 
    0.27643E+06         0.14474E+06         0.00000E+00
    0.14474E+06         0.36268E+05         0.00000E+00
    0.00000E+00         0.00000E+00         0.62539E+05
 
    0.27043E+06         0.15028E+06         0.00000E+00
    0.15028E+06         0.39430E+05         0.00000E+00
    0.00000E+00         0.00000E+00         0.61972E+05
 
    0.26421E+06         0.15566E+06         0.00000E+00
    0.15566E+06         0.42689E+05         0.00000E+00
    0.00000E+00         0.00000E+00         0.61379E+05
 
    0.25776E+06         0.16090E+06         0.00000E+00
    0.16090E+06         0.46042E+05         0.00000E+00
    0.00000E+00         0.00000E+00         0.60761E+05
 
    0.25111E+06         0.16598E+06         0.00000E+00
    0.16598E+06         0.49482E+05         0.00000E+00
    0.00000E+00         0.00000E+00         0.60118E+05
 
    0.24425E+06         0.17090E+06         0.00000E+00
    0.17090E+06         0.53007E+05         0.00000E+00
    0.00000E+00         0.00000E+00         0.59451E+05
 
    0.23719E+06         0.17567E+06         0.00000E+00
    0.17567E+06         0.56612E+05         0.00000E+00
    0.00000E+00         0.00000E+00         0.58760E+05
 
    0.22994E+06         0.18027E+06         0.00000E+00
    0.18027E+06         0.60292E+05         0.00000E+00
    0.00000E+00         0.00000E+00         0.58045E+05
 
    0.22250E+06         0.18471E+06         0.00000E+00
    0.18471E+06         0.64044E+05         0.00000E+00
    0.00000E+00         0.00000E+00         0.57308E+05
 
    0.21488E+06         0.18899E+06         0.00000E+00
    0.18899E+06         0.67863E+05         0.00000E+00
    0.00000E+00         0.00000E+00         0.56548E+05
 
    0.20709E+06         0.19310E+06         0.00000E+00
    0.19310E+06         0.71746E+05         0.00000E+00
    0.00000E+00         0.00000E+00         0.55766E+05
 
    0.19913E+06         0.19704E+06         0.00000E+00
    0.19704E+06         0.75688E+05         0.00000E+00
    0.00000E+00         0.00000E+00         0.54963E+05
 
    0.19101E+06         0.20081E+06         0.00000E+00
    0.20081E+06         0.79687E+05         0.00000E+00
    0.00000E+00         0.00000E+00         0.54139E+05
 
    0.18273E+06         0.20441E+06         0.00000E+00
    0.20441E+06         0.83738E+05         0.00000E+00
    0.00000E+00         0.00000E+00         0.53293E+05
 
    0.17430E+06         0.20784E+06         0.00000E+00
    0.20784E+06         0.87839E+05         0.00000E+00
    0.00000E+00         0.00000E+00         0.52428E+05
 
    0.16572E+06         0.21110E+06         0.00000E+00
    0.21110E+06         0.91986E+05         0.00000E+00
    0.00000E+00         0.00000E+00         0.51542E+05
 
    0.15701E+06         0.21419E+06         0.00000E+00
    0.21419E+06         0.96176E+05         0.00000E+00
    0.00000E+00         0.00000E+00         0.50637E+05
 
    0.14816E+06         0.21711E+06         0.00000E+00
    0.21711E+06         0.10041E+06         0.00000E+00
    0.00000E+00         0.00000E+00         0.49713E+05
 
    0.13917E+06         0.21985E+06         0.00000E+00
    0.21985E+06         0.10467E+06         0.00000E+00
    0.00000E+00         0.00000E+00         0.48770E+05
 
    0.13006E+06         0.22243E+06         0.00000E+00
    0.22243E+06         0.10898E+06         0.00000E+00
    0.00000E+00         0.00000E+00         0.47808E+05
 
    0.12083E+06         0.22482E+06         0.00000E+00
    0.22482E+06         0.11331E+06         0.00000E+00
    0.00000E+00         0.00000E+00         0.46828E+05
 
    0.11147E+06         0.22705E+06         0.00000E+00
    0.22705E+06         0.11768E+06         0.00000E+00
    0.00000E+00         0.00000E+00         0.45829E+05
 
    0.10200E+06         0.22910E+06         0.00000E+00
    0.22910E+06         0.12207E+06         0.00000E+00
    0.00000E+00         0.00000E+00         0.44814E+05
 
    0.92412E+05         0.23098E+06         0.00000E+00
    0.23098E+06         0.12649E+06         0.00000E+00
    0.00000E+00         0.00000E+00         0.43780E+05
 
    0.82716E+05         0.23268E+06         0.00000E+00
    0.23268E+06         0.13093E+06         0.00000E+00
    0.00000E+00         0.00000E+00         0.42729E+05
 
    0.72911E+05         0.23421E+06         0.00000E+00
    0.23421E+06         0.13540E+06         0.00000E+00
    0.00000E+00         0.00000E+00         0.41662E+05
 
    0.63002E+05         0.23556E+06         0.00000E+00
    0.23556E+06         0.13988E+06         0.00000E+00
    0.00000E+00         0.00000E+00         0.40577E+05
 
    0.52989E+05         0.23674E+06         0.00000E+00
    0.23674E+06         0.14439E+06         0.00000E+00
    0.00000E+00         0.00000E+00         0.39476E+05
 
    0.42876E+05         0.23774E+06         0.00000E+00
    0.23774E+06         0.14891E+06         0.00000E+00
    0.00000E+00         0.00000E+00         0.38358E+05
 
    0.37698E+06         0.41014E+04         0.00000E+00
    0.41014E+04        -0.62738E+02         0.00000E+00
    0.00000E+00         0.00000E+00         0.75384E+05
 
    0.37722E+06         0.12324E+05         0.00000E+00
    0.12324E+05         0.14152E+03         0.00000E+00
    0.00000E+00         0.00000E+00         0.75472E+05
 
    0.37705E+06         0.20539E+05         0.00000E+00
    0.20539E+05         0.54678E+03         0.00000E+00
    0.00000E+00         0.00000E+00         0.75520E+05
 
    0.37649E+06         0.28734E+05         0.00000E+00
    0.28734E+05         0.11508E+04         0.00000E+00
    0.00000E+00         0.00000E+00         0.75528E+05
 
    0.37554E+06         0.36897E+05         0.00000E+00
    0.36897E+05         0.19511E+04         0.00000E+00
    0.00000E+00         0.00000E+00         0.75497E+05
 
    0.37419E+06         0.45015E+05         0.00000E+00
    0.45015E+05         0.29445E+04         0.00000E+00
    0.00000E+00         0.00000E+00         0.75428E+05
 
    0.37247E+06         0.53079E+05         0.00000E+00
    0.53079E+05         0.41277E+04         0.00000E+00
    0.00000E+00         0.00000E+00         0.75320E+05
 
    0.37037E+06         0.61077E+05         0.00000E+00
    0.61077E+05         0.54971E+04         0.00000E+00
    0.00000E+00         0.00000E+00         0.75174E+05
 
    0.36790E+06         0.68999E+05         0.00000E+00
    0.68999E+05         0.70487E+04         0.00000E+00
    0.00000E+00         0.00000E+00         0.74990E+05
 
    0.36507E+06         0.76835E+05         0.00000E+00
    0.76835E+05         0.87780E+04         0.00000E+00
    0.00000E+00         0.00000E+00         0.74770E+05
 
    0.36189E+06         0.84577E+05         0.00000E+00
    0.84577E+05         0.10681E+05         0.00000E+00
    0.00000E+00         0.00000E+00         0.74513E+05
 
    0.35835E+06         0.92214E+05         0.00000E+00
    0.92214E+05         0.12752E+05         0.00000E+00
    0.00000E+00         0.00000E+00         0.74221E+05
 
    0.35448E+06         0.99740E+05         0.00000E+00
    0.99740E+05         0.14987E+05         0.00000E+00
    0.00000E+00         0.00000E+00         0.73894E+05
 
    0.35028E+06         0.10715E+06         0.00000E+00
    0.10715E+06         0.17380E+05         0.00000E+00
    0.00000E+00         0.00000E+00         0.73532E+05
 
    0.34575E+06         0.11442E+06         0.00000E+00
    0.11442E+06         0.19927E+05         0.00000E+00
    0.00000E+00         0.00000E+00         0.73136E+05
 
    0.34091E+06         0.12157E+06         0.00000E+00
    0.12157E+06         0.22622E+05         0.00000E+00
    0.00000E+00         0.00000E+00         0.72707E+05
 
    0.33577E+06         0.12857E+06         0.00000E+00
    0.12857E+06         0.25459E+05         0.00000E+00
    0.00000E+00         0.00000E+00         0.72245E+05
 
    0.33032E+06         0.13543E+06         0.00000E+00
    0.13543E+06         0.28433E+05         0.00000E+00
    0.00000E+00         0.00000E+00         0.71751E+05
 
    0.32460E+06         0.14213E+06         0.00000E+00
    0.14213E+06         0.31538E+05         0.00000E+00
    0.00000E+00         0.00000E+00         0.71227E+05
 
    0.31859E+06         0.14868E+06         0.00000E+00
    0.14868E+06         0.34768E+05         0.00000E+00
    0.00000E+00         0.00000E+00         0.70671E+05
 
    0.31231E+06         0.15507E+06         0.00000E+00
    0.15507E+06         0.38119E+05         0.00000E+00
    0.00000E+00         0.00000E+00         0.70086E+05
 
    0.30577E+06         0.16129E+06         0.00000E+00
    0.16129E+06         0.41585E+05         0.00000E+00
    0.00000E+00         0.00000E+00         0.69471E+05
 
    0.29898E+06         0.16734E+06         0.00000E+00
    0.16734E+06         0.45159E+05         0.00000E+00
    0.00000E+00         0.00000E+00         0.68828E+05
 
    0.29195E+06         0.17321E+06         0.00000E+00
    0.17321E+06         0.48836E+05         0.00000E+00
    0.00000E+00         0.00000E+00         0.68157E+05
 
    0.28468E+06         0.17891E+06         0.00000E+00
    0.17891E+06         0.52612E+05         0.00000E+00
    0.00000E+00         0.00000E+00         0.67459E+05
 
    0.27719E+06         0.18444E+06         0.00000E+00
    0.18444E+06         0.56480E+05         0.00000E+00
    0.00000E+00         0.00000E+00         0.66734E+05
 
    0.26948E+06         0.18978E+06         0.00000E+00
    0.18978E+06         0.60435E+05         0.00000E+00
    0.00000E+00         0.00000E+00         0.65983E+05
 
    0.26156E+06         0.19494E+06         0.00000E+00
    0.19494E+06         0.64473E+05         0.00000E+00
    0.00000E+00         0.00000E+00         0.65207E+05
 
    0.25344E+06         0.19991E+06         0.00000E+00
    0.19991E+06         0.68588E+05         0.00000E+00
    0.00000E+00         0.00000E+00         0.64406E+05
 
    0.24513E+06         0.20470E+06         0.00000E+00
    0.20470E+06         0.72775E+05         0.00000E+00
    0.00000E+00         0.00000E+00         0.63581E+05
 
    0.23663E+06         0.20931E+06         0.00000E+00
    0.20931E+06         0.77031E+05         0.00000E+00
    0.00000E+00         0.00000E+00         0.62732E+05
 
    0.22795E+06         0.21372E+06         0.00000E+00
    0.21372E+06         0.81349E+05         0.00000E+00
    0.00000E+00         0.00000E+00         0.61860E+05
 
    0.21910E+06         0.21795E+06         0.00000E+00
    0.21795E+06         0.85727E+05         0.00000E+00
    0.00000E+00         0.00000E+00         0.60966E+05
 
    0.21009E+06         0.22200E+06         0.00000E+00
    0.22200E+06         0.90159E+05         0.00000E+00
    0.00000E+00         0.00000E+00         0.60050E+05
 
    0.20092E+06         0.22585E+06         0.00000E+00
    0.22585E+06         0.94643E+05         0.00000E+00
    0.00000E+00         0.00000E+00         0.59112E+05
 
    0.19160E+06         0.22951E+06         0.00000E+00
    0.22951E+06         0.99173E+05         0.00000E+00
    0.00000E+00         0.00000E+00         0.58154E+05
 
    0.18212E+06         0.23299E+06         0.00000E+00
    0.23299E+06         0.10375E+06         0.00000E+00
    0.00000E+00         0.00000E+00         0.57175E+05
 
    0.17251E+06         0.23628E+06         0.00000E+00
    0.23628E+06         0.10836E+06         0.00000E+00
    0.00000E+00         0.00000E+00         0.56175E+05
 
    0.16277E+06         0.23939E+06         0.00000E+00
    0.23939E+06         0.11302E+06         0.00000E+00
    0.00000E+00         0.00000E+00         0.55156E+05
 
    0.15289E+06         0.24231E+06         0.00000E+00
    0.24231E+06         0.11770E+06         0.00000E+00
    0.00000E+00         0.00000E+00         0.54118E+05
 
    0.14288E+06         0.24504E+06         0.00000E+00
    0.24504E+06         0.12242E+06         0.00000E+00
    0.00000E+00         0.00000E+00         0.53060E+05
 
    0.13275E+06         0.24759E+06         0.00000E+00
    0.24759E+06         0.12717E+06         0.00000E+00
    0.00000E+00         0.00000E+00         0.51984E+05
 
    0.12250E+06         0.24996E+06         0.00000E+00
    0.24996E+06         0.13195E+06         0.00000E+00
    0.00000E+00         0.00000E+00         0.50889E+05
 
    0.11214E+06         0.25214E+06         0.00000E+00
    0.25214E+06         0.13675E+06         0.00000E+00
    0.00000E+00         0.00000E+00         0.49776E+05
 
    0.10166E+06         0.25414E+06         0.00000E+00
    0.25414E+06         0.14157E+06         0.00000E+00
    0.00000E+00         0.00000E+00         0.48646E+05
 
    0.91068E+05         0.25595E+06         0.00000E+00
    0.25595E+06         0.14642E+06         0.00000E+00
    0.00000E+00         0.00000E+00         0.47497E+05
 
    0.80371E+05         0.25759E+06         0.00000E+00
    0.25759E+06         0.15128E+06         0.00000E+00
    0.00000E+00         0.00000E+00         0.46331E+05
 
    0.69568E+05         0.25904E+06         0.00000E+00
    0.25904E+06         0.15617E+06         0.00000E+00
    0.00000E+00         0.00000E+00         0.45148E+05
 
    0.58659E+05         0.26031E+06         0.00000E+00
    0.26031E+06         0.16108E+06         0.00000E+00
    0.00000E+00         0.00000E+00         0.43947E+05
 
    0.47648E+05         0.26140E+06         0.00000E+00
    0.26140E+06         0.16600E+06         0.00000E+00
    0.00000E+00         0.00000E+00         0.42730E+05
 
    0.42077E+06         0.46589E+04         0.00000E+00
    0.46589E+04        -0.73376E+02         0.00000E+00
    0.00000E+00         0.00000E+00         0.84140E+05
 
    0.42097E+06         0.13975E+05         0.00000E+00
    0.13975E+05         0.16781E+03         0.00000E+00
    0.00000E+00         0.00000E+00         0.84229E+05
 
    0.42071E+06         0.23271E+05         0.00000E+00
    0.23271E+05         0.64446E+03         0.00000E+00
    0.00000E+00         0.00000E+00         0.84270E+05
 
    0.41998E+06         0.32532E+05         0.00000E+00
    0.32532E+05         0.13532E+04         0.00000E+00
    0.00000E+00         0.00000E+00         0.84266E+05
 
    0.41879E+06         0.41743E+05         0.00000E+00
    0.41743E+05         0.22900E+04         0.00000E+00
    0.00000E+00         0.00000E+00         0.84216E+05
 
    0.41715E+06         0.50891E+05         0.00000E+00
    0.50891E+05         0.34507E+04         0.00000E+00
    0.00000E+00         0.00000E+00         0.84120E+05
 
    0.41507E+06         0.59964E+05         0.00000E+00
    0.59964E+05         0.48305E+04         0.00000E+00
    0.00000E+00         0.00000E+00         0.83981E+05
 
    0.41256E+06         0.68948E+05         0.00000E+00
    0.68948E+05         0.64242E+04         0.00000E+00
    0.00000E+00         0.00000E+00         0.83798E+05
 
    0.40963E+06         0.77832E+05         0.00000E+00
    0.77832E+05         0.82264E+04         0.00000E+00
    0.00000E+00         0.00000E+00         0.83572E+05
 
    0.40629E+06         0.86605E+05         0.00000E+00
    0.86605E+05         0.10231E+05         0.00000E+00
    0.00000E+00         0.00000E+00         0.83304E+05
 
    0.40254E+06         0.95256E+05         0.00000E+00
    0.95256E+05         0.12433E+05         0.00000E+00
    0.00000E+00         0.00000E+00         0.82994E+05
 
    0.39840E+06         0.10378E+06         0.00000E+00
    0.10378E+06         0.14825E+05         0.00000E+00
    0.00000E+00         0.00000E+00         0.82645E+05
 
    0.39387E+06         0.11215E+06         0.00000E+00
    0.11215E+06         0.17401E+05         0.00000E+00
    0.00000E+00         0.00000E+00         0.82255E+05
 
    0.38898E+06         0.12038E+06         0.00000E+00
    0.12038E+06         0.20155E+05         0.00000E+00
    0.00000E+00         0.00000E+00         0.81827E+05
 
    0.38373E+06         0.12846E+06         0.00000E+00
    0.12846E+06         0.23079E+05         0.00000E+00
    0.00000E+00         0.00000E+00         0.81361E+05
 
    0.37812E+06         0.13636E+06         0.00000E+00
    0.13636E+06         0.26167E+05         0.00000E+00
    0.00000E+00         0.00000E+00         0.80858E+05
 
    0.37219E+06         0.14410E+06         0.00000E+00
    0.14410E+06         0.29412E+05         0.00000E+00
    0.00000E+00         0.00000E+00         0.80319E+05
 
    0.36592E+06         0.15166E+06         0.00000E+00
    0.15166E+06         0.32806E+05         0.00000E+00
    0.00000E+00         0.00000E+00         0.79745E+05
 
    0.35934E+06         0.15903E+06         0.00000E+00
    0.15903E+06         0.36344E+05         0.00000E+00
    0.00000E+00         0.00000E+00         0.79137E+05
 
    0.35246E+06         0.16622E+06         0.00000E+00
    0.16622E+06         0.40017E+05         0.00000E+00
    0.00000E+00         0.00000E+00         0.78496E+05
 
    0.34529E+06         0.17321E+06         0.00000E+00
    0.17321E+06         0.43820E+05         0.00000E+00
    0.00000E+00         0.00000E+00         0.77822E+05
 
    0.33784E+06         0.18001E+06         0.00000E+00
    0.18001E+06         0.47744E+05         0.00000E+00
    0.00000E+00         0.00000E+00         0.77116E+05
 
    0.33012E+06         0.18660E+06         0.00000E+00
    0.18660E+06         0.51784E+05         0.00000E+00
    0.00000E+00         0.00000E+00         0.76380E+05
 
    0.32214E+06         0.19299E+06         0.00000E+00
    0.19299E+06         0.55932E+05         0.00000E+00
    0.00000E+00         0.00000E+00         0.75614E+05
 
    0.31391E+06         0.19918E+06         0.00000E+00
    0.19918E+06         0.60182E+05         0.00000E+00
    0.00000E+00         0.00000E+00         0.74819E+05
 
    0.30545E+06         0.20516E+06         0.00000E+00
    0.20516E+06         0.64527E+05         0.00000E+00
    0.00000E+00         0.00000E+00         0.73996E+05
 
    0.29677E+06         0.21093E+06         0.00000E+00
    0.21093E+06         0.68962E+05         0.00000E+00
    0.00000E+00         0.00000E+00         0.73146E+05
 
    0.28786E+06         0.21649E+06         0.00000E+00
    0.21649E+06         0.73480E+05         0.00000E+00
    0.00000E+00         0.00000E+00         0.72269E+05
 
    0.27876E+06         0.22184E+06         0.00000E+00
    0.22184E+06         0.78075E+05         0.00000E+00
    0.00000E+00         0.00000E+00         0.71366E+05
 
    0.26945E+06         0.22698E+06         0.00000E+00
    0.22698E+06         0.82742E+05         0.00000E+00
    0.00000E+00         0.00000E+00         0.70439E+05
 
    0.25996E+06         0.23191E+06         0.00000E+00
    0.23191E+06         0.87475E+05         0.00000E+00
    0.00000E+00         0.00000E+00         0.69487E+05
 
    0.25029E+06         0.23663E+06         0.00000E+00
    0.23663E+06         0.92269E+05         0.00000E+00
    0.00000E+00         0.00000E+00         0.68512E+05
 
    0.24045E+06         0.24113E+06         0.00000E+00
    0.24113E+06         0.97120E+05         0.00000E+00
    0.00000E+00         0.00000E+00         0.67514E+05
 
    0.23045E+06         0.24543E+06         0.00000E+00
    0.24543E+06         0.10202E+06         0.00000E+00
    0.00000E+00         0.00000E+00         0.66494E+05
 
    0.22029E+06         0.24952E+06         0.00000E+00
    0.24952E+06         0.10697E+06         0.00000E+00
    0.00000E+00         0.00000E+00         0.65452E+05
 
    0.20998E+06         0.25341E+06         0.00000E+00
    0.25341E+06         0.11196E+06         0.00000E+00
    0.00000E+00         0.00000E+00         0.64389E+05
 
    0.19953E+06         0.25709E+06         0.00000E+00
    0.25709E+06         0.11699E+06         0.00000E+00
    0.00000E+00         0.00000E+00         0.63306E+05
 
    0.18895E+06         0.26056E+06         0.00000E+00
    0.26056E+06         0.12206E+06         0.00000E+00
    0.00000E+00         0.00000E+00         0.62202E+05
 
    0.17824E+06         0.26383E+06         0.00000E+00
    0.26383E+06         0.12716E+06         0.00000E+00
    0.00000E+00         0.00000E+00         0.61079E+05
 
    0.16740E+06         0.26691E+06         0.00000E+00
    0.26691E+06         0.13229E+06         0.00000E+00
    0.00000E+00         0.00000E+00         0.59937E+05
 
    0.15643E+06         0.26978E+06         0.00000E+00
    0.26978E+06         0.13744E+06         0.00000E+00
    0.00000E+00         0.00000E+00         0.58775E+05
 
    0.14536E+06         0.27247E+06         0.00000E+00
    0.27247E+06         0.14262E+06         0.00000E+00
    0.00000E+00         0.00000E+00         0.57596E+05
 
    0.13416E+06         0.27495E+06         0.00000E+00
    0.27495E+06         0.14783E+06         0.00000E+00
    0.00000E+00         0.00000E+00         0.56398E+05
 
    0.12286E+06         0.27725E+06         0.00000E+00
    0.27725E+06         0.15305E+06         0.00000E+00
    0.00000E+00         0.00000E+00         0.55182E+05
 
    0.11145E+06         0.27935E+06         0.00000E+00
    0.27935E+06         0.15829E+06         0.00000E+00
    0.00000E+00         0.00000E+00         0.53949E+05
 
    0.99938E+05         0.28127E+06         0.00000E+00
    0.28127E+06         0.16355E+06         0.00000E+00
    0.00000E+00         0.00000E+00         0.52698E+05
 
    0.88319E+05         0.28299E+06         0.00000E+00
    0.28299E+06         0.16883E+06         0.00000E+00
    0.00000E+00         0.00000E+00         0.51430E+05
 
    0.76598E+05         0.28454E+06         0.00000E+00
    0.28454E+06         0.17413E+06         0.00000E+00
    0.00000E+00         0.00000E+00         0.50145E+05
 
    0.64773E+05         0.28589E+06         0.00000E+00
    0.28589E+06         0.17944E+06         0.00000E+00
    0.00000E+00         0.00000E+00         0.48843E+05
 
    0.52848E+05         0.28707E+06         0.00000E+00
    0.28707E+06         0.18477E+06         0.00000E+00
    0.00000E+00         0.00000E+00         0.47523E+05
 
    0.47053E+06         0.53197E+04         0.00000E+00
    0.53197E+04        -0.85981E+02         0.00000E+00
    0.00000E+00         0.00000E+00         0.94090E+05
 
    0.47063E+06         0.15921E+05         0.00000E+00
    0.15921E+05         0.19966E+03         0.00000E+00
    0.00000E+00         0.00000E+00         0.94166E+05
 
    0.47017E+06         0.26482E+05         0.00000E+00
    0.26482E+05         0.76173E+03         0.00000E+00
    0.00000E+00         0.00000E+00         0.94187E+05
 
    0.46917E+06         0.36986E+05         0.00000E+00
    0.36986E+05         0.15951E+04         0.00000E+00
    0.00000E+00         0.00000E+00         0.94154E+05
 
    0.46764E+06         0.47415E+05         0.00000E+00
    0.47415E+05         0.26942E+04         0.00000E+00
    0.00000E+00         0.00000E+00         0.94067E+05
 
    0.46559E+06         0.57755E+05         0.00000E+00
    0.57755E+05         0.40528E+04         0.00000E+00
    0.00000E+00         0.00000E+00         0.93929E+05
 
    0.46303E+06         0.67990E+05         0.00000E+00
    0.67990E+05         0.56644E+04         0.00000E+00
    0.00000E+00         0.00000E+00         0.93739E+05
 
    0.45997E+06         0.78105E+05         0.00000E+00
    0.78105E+05         0.75220E+04         0.00000E+00
    0.00000E+00         0.00000E+00         0.93499E+05
 
    0.45643E+06         0.88088E+05         0.00000E+00
    0.88088E+05         0.96181E+04         0.00000E+00
    0.00000E+00         0.00000E+00         0.93211E+05
 
    0.45242E+06         0.97926E+05         0.00000E+00
    0.97926E+05         0.11945E+05         0.00000E+00
    0.00000E+00         0.00000E+00         0.92874E+05
 
    0.44796E+06         0.10761E+06         0.00000E+00
    0.10761E+06         0.14495E+05         0.00000E+00
    0.00000E+00         0.00000E+00         0.92490E+05
 
    0.44304E+06         0.11712E+06         0.00000E+00
    0.11712E+06         0.17260E+05         0.00000E+00
    0.00000E+00         0.00000E+00         0.92061E+05
 
    0.43770E+06         0.12646E+06         0.00000E+00
    0.12646E+06         0.20232E+05         0.00000E+00
    0.00000E+00         0.00000E+00         0.91587E+05
 
    0.43195E+06         0.13560E+06         0.00000E+00
    0.13560E+06         0.23401E+05         0.00000E+00
    0.00000E+00         0.00000E+00         0.91070E+05
 
    0.42580E+06         0.14455E+06         0.00000E+00
    0.14455E+06         0.26760E+05         0.00000E+00
    0.00000E+00         0.00000E+00         0.90512E+05
 
    0.41926E+06         0.15330E+06         0.00000E+00
    0.15330E+06         0.30300E+05         0.00000E+00
    0.00000E+00         0.00000E+00         0.89912E+05
 
    0.41235E+06         0.16184E+06         0.00000E+00
    0.16184E+06         0.34011E+05         0.00000E+00
    0.00000E+00         0.00000E+00         0.89273E+05
 
    0.40509E+06         0.17016E+06         0.00000E+00
    0.17016E+06         0.37886E+05         0.00000E+00
    0.00000E+00         0.00000E+00         0.88595E+05
 
    0.39749E+06         0.17826E+06         0.00000E+00
    0.17826E+06         0.41915E+05         0.00000E+00
    0.00000E+00         0.00000E+00         0.87880E+05
 
    0.38956E+06         0.18613E+06         0.00000E+00
    0.18613E+06         0.46090E+05         0.00000E+00
    0.00000E+00         0.00000E+00         0.87129E+05
 
    0.38132E+06         0.19377E+06         0.00000E+00
    0.19377E+06         0.50402E+05         0.00000E+00
    0.00000E+00         0.00000E+00         0.86344E+05
 
    0.37278E+06         0.20118E+06         0.00000E+00
    0.20118E+06         0.54843E+05         0.00000E+00
    0.00000E+00         0.00000E+00         0.85525E+05
 
    0.36396E+06         0.20834E+06         0.00000E+00
    0.20834E+06         0.59404E+05         0.00000E+00
    0.00000E+00         0.00000E+00         0.84673E+05
 
    0.35487E+06         0.21527E+06         0.00000E+00
    0.21527E+06         0.64078E+05         0.00000E+00
    0.00000E+00         0.00000E+00         0.83791E+05
 
    0.34553E+06         0.22196E+06         0.00000E+00
    0.22196E+06         0.68857E+05         0.00000E+00
    0.00000E+00         0.00000E+00         0.82878E+05
 
    0.33595E+06         0.22840E+06         0.00000E+00
    0.22840E+06         0.73732E+05         0.00000E+00
    0.00000E+00         0.00000E+00         0.81936E+05
 
    0.32613E+06         0.23460E+06         0.00000E+00
    0.23460E+06         0.78697E+05         0.00000E+00
    0.00000E+00         0.00000E+00         0.80966E+05
 
    0.31610E+06         0.24056E+06         0.00000E+00
    0.24056E+06         0.83743E+05         0.00000E+00
    0.00000E+00         0.00000E+00         0.79969E+05
 
    0.30586E+06         0.24628E+06         0.00000E+00
    0.24628E+06         0.88865E+05         0.00000E+00
    0.00000E+00         0.00000E+00         0.78946E+05
 
    0.29543E+06         0.25176E+06         0.00000E+00
    0.25176E+06         0.94055E+05         0.00000E+00
    0.00000E+00         0.00000E+00         0.77898E+05
 
    0.28482E+06         0.25699E+06         0.00000E+00
    0.25699E+06         0.99308E+05         0.00000E+00
    0.00000E+00         0.00000E+00         0.76825E+05
 
    0.27403E+06         0.26199E+06         0.00000E+00
    0.26199E+06         0.10462E+06         0.00000E+00
    0.00000E+00         0.00000E+00         0.75730E+05
 
    0.26308E+06         0.26676E+06         0.00000E+00
    0.26676E+06         0.10998E+06         0.00000E+00
    0.00000E+00         0.00000E+00         0.74612E+05
 
    0.25198E+06         0.27129E+06         0.00000E+00
    0.27129E+06         0.11538E+06         0.00000E+00
    0.00000E+00         0.00000E+00         0.73473E+05
 
    0.24073E+06         0.27559E+06         0.00000E+00
    0.27559E+06         0.12083E+06         0.00000E+00
    0.00000E+00         0.00000E+00         0.72312E+05
 
    0.22935E+06         0.27966E+06         0.00000E+00
    0.27966E+06         0.12631E+06         0.00000E+00
    0.00000E+00         0.00000E+00         0.71131E+05
 
    0.21783E+06         0.28351E+06         0.00000E+00
    0.28351E+06         0.13182E+06         0.00000E+00
    0.00000E+00         0.00000E+00         0.69931E+05
 
    0.20620E+06         0.28714E+06         0.00000E+00
    0.28714E+06         0.13736E+06         0.00000E+00
    0.00000E+00         0.00000E+00         0.68712E+05
 
    0.19444E+06         0.29055E+06         0.00000E+00
    0.29055E+06         0.14293E+06         0.00000E+00
    0.00000E+00         0.00000E+00         0.67474E+05
 
    0.18258E+06         0.29375E+06         0.00000E+00
    0.29375E+06         0.14852E+06         0.00000E+00
    0.00000E+00         0.00000E+00         0.66218E+05
 
    0.17060E+06         0.29673E+06         0.00000E+00
    0.29673E+06         0.15412E+06         0.00000E+00
    0.00000E+00         0.00000E+00         0.64945E+05
 
    0.15853E+06         0.29952E+06         0.00000E+00
    0.29952E+06         0.15975E+06         0.00000E+00
    0.00000E+00         0.00000E+00         0.63654E+05
 
    0.14635E+06         0.30210E+06         0.00000E+00
    0.30210E+06         0.16539E+06         0.00000E+00
    0.00000E+00         0.00000E+00         0.62347E+05
 
    0.13408E+06         0.30448E+06         0.00000E+00
    0.30448E+06         0.17104E+06         0.00000E+00
    0.00000E+00         0.00000E+00         0.61023E+05
 
    0.12171E+06         0.30666E+06         0.00000E+00
    0.30666E+06         0.17670E+06         0.00000E+00
    0.00000E+00         0.00000E+00         0.59682E+05
 
    0.10925E+06         0.30865E+06         0.00000E+00
    0.30865E+06         0.18238E+06         0.00000E+00
    0.00000E+00         0.00000E+00         0.58326E+05
 
    0.96691E+05         0.31046E+06         0.00000E+00
    0.31046E+06         0.18807E+06         0.00000E+00
    0.00000E+00         0.00000E+00         0.56953E+05
 
    0.84043E+05         0.31207E+06         0.00000E+00
    0.31207E+06         0.19378E+06         0.00000E+00
    0.00000E+00         0.00000E+00         0.55564E+05
 
    0.71301E+05         0.31351E+06         0.00000E+00
    0.31351E+06         0.19949E+06         0.00000E+00
    0.00000E+00         0.00000E+00         0.54159E+05
 
    0.58465E+05         0.31476E+06         0.00000E+00
    0.31476E+06         0.20522E+06         0.00000E+00
    0.00000E+00         0.00000E+00         0.52738E+05
 
    0.52733E+06         0.61051E+04         0.00000E+00
    0.61051E+04        -0.10081E+03         0.00000E+00
    0.00000E+00         0.00000E+00         0.10545E+06
 
    0.52720E+06         0.18219E+05         0.00000E+00
    0.18219E+05         0.23802E+03         0.00000E+00
    0.00000E+00         0.00000E+00         0.10549E+06
 
    0.52643E+06         0.30263E+05         0.00000E+00
    0.30263E+05         0.90160E+03         0.00000E+00
    0.00000E+00         0.00000E+00         0.10547E+06
 
    0.52502E+06         0.42217E+05         0.00000E+00
    0.42217E+05         0.18826E+04         0.00000E+00
    0.00000E+00         0.00000E+00         0.10538E+06
 
    0.52299E+06         0.54062E+05         0.00000E+00
    0.54062E+05         0.31729E+04         0.00000E+00
    0.00000E+00         0.00000E+00         0.10523E+06
 
    0.52036E+06         0.65780E+05         0.00000E+00
    0.65780E+05         0.47641E+04         0.00000E+00
    0.00000E+00         0.00000E+00         0.10503E+06
 
    0.51714E+06         0.77354E+05         0.00000E+00
    0.77354E+05         0.66472E+04         0.00000E+00
    0.00000E+00         0.00000E+00         0.10476E+06
 
    0.51336E+06         0.88767E+05         0.00000E+00
    0.88767E+05         0.88128E+04         0.00000E+00
    0.00000E+00         0.00000E+00         0.10443E+06
 
    0.50902E+06         0.10000E+06         0.00000E+00
    0.10000E+06         0.11251E+05         0.00000E+00
    0.00000E+00         0.00000E+00         0.10405E+06
 
    0.50414E+06         0.11105E+06         0.00000E+00
    0.11105E+06         0.13952E+05         0.00000E+00
    0.00000E+00         0.00000E+00         0.10362E+06
 
    0.49875E+06         0.12190E+06         0.00000E+00
    0.12190E+06         0.16905E+05         0.00000E+00
    0.00000E+00         0.00000E+00         0.10313E+06
 
    0.49286E+06         0.13252E+06         0.00000E+00
    0.13252E+06         0.20100E+05         0.00000E+00
    0.00000E+00         0.00000E+00         0.10259E+06
 
    0.48649E+06         0.14293E+06         0.00000E+00
    0.14293E+06         0.23526E+05         0.00000E+00
    0.00000E+00         0.00000E+00         0.10200E+06
 
    0.47966E+06         0.15310E+06         0.00000E+00
    0.15310E+06         0.27171E+05         0.00000E+00
    0.00000E+00         0.00000E+00         0.10137E+06
 
    0.47239E+06         0.16302E+06         0.00000E+00
    0.16302E+06         0.31027E+05         0.00000E+00
    0.00000E+00         0.00000E+00         0.10068E+06
 
    0.46469E+06         0.17269E+06         0.00000E+00
    0.17269E+06         0.35080E+05         0.00000E+00
    0.00000E+00         0.00000E+00         0.99955E+05
 
    0.45660E+06         0.18210E+06         0.00000E+00
    0.18210E+06         0.39321E+05         0.00000E+00
    0.00000E+00         0.00000E+00         0.99184E+05
 
    0.44812E+06         0.19125E+06         0.00000E+00
    0.19125E+06         0.43738E+05         0.00000E+00
    0.00000E+00         0.00000E+00         0.98372E+05
 
    0.43928E+06         0.20012E+06         0.00000E+00
    0.20012E+06         0.48321E+05         0.00000E+00
    0.00000E+00         0.00000E+00         0.97519E+05
 
    0.43009E+06         0.20872E+06         0.00000E+00
    0.20872E+06         0.53060E+05         0.00000E+00
    0.00000E+00         0.00000E+00         0.96629E+05
 
    0.42057E+06         0.21705E+06         0.00000E+00
    0.21705E+06         0.57943E+05         0.00000E+00
    0.00000E+00         0.00000E+00         0.95702E+05
 
    0.41074E+06         0.22509E+06         0.00000E+00
    0.22509E+06         0.62960E+05         0.00000E+00
    0.00000E+00         0.00000E+00         0.94740E+05
 
    0.40062E+06         0.23284E+06         0.00000E+00
    0.23284E+06         0.68102E+05         0.00000E+00
    0.00000E+00         0.00000E+00         0.93744E+05
 
    0.39022E+06         0.24032E+06         0.00000E+00
    0.24032E+06         0.73358E+05         0.00000E+00
    0.00000E+00         0.00000E+00         0.92716E+05
 
    0.37957E+06         0.24751E+06         0.00000E+00
    0.24751E+06         0.78719E+05         0.00000E+00
    0.00000E+00         0.00000E+00         0.91657E+05
 
    0.36867E+06         0.25442E+06         0.00000E+00
    0.25442E+06         0.84176E+05         0.00000E+00
    0.00000E+00         0.00000E+00         0.90569E+05
 
    0.35755E+06         0.26104E+06         0.00000E+00
    0.26104E+06         0.89720E+05         0.00000E+00
    0.00000E+00         0.00000E+00         0.89454E+05
 
    0.34621E+06         0.26739E+06         0.00000E+00
    0.26739E+06         0.95343E+05         0.00000E+00
    0.00000E+00         0.00000E+00         0.88311E+05
 
    0.33468E+06         0.27345E+06         0.00000E+00
    0.27345E+06         0.10104E+06         0.00000E+00
    0.00000E+00         0.00000E+00         0.87144E+05
 
    0.32297E+06         0.27924E+06         0.00000E+00
    0.27924E+06         0.10679E+06         0.00000E+00
    0.00000E+00         0.00000E+00         0.85952E+05
 
    0.31108E+06         0.28476E+06         0.00000E+00
    0.28476E+06         0.11260E+06         0.00000E+00
    0.00000E+00         0.00000E+00         0.84737E+05
 
    0.29904E+06         0.29001E+06         0.00000E+00
    0.29001E+06         0.11846E+06         0.00000E+00
    0.00000E+00         0.00000E+00         0.83500E+05
 
    0.28685E+06         0.29499E+06         0.00000E+00
    0.29499E+06         0.12436E+06         0.00000E+00
    0.00000E+00         0.00000E+00         0.82243E+05
 
    0.27453E+06         0.29971E+06         0.00000E+00
    0.29971E+06         0.13030E+06         0.00000E+00
    0.00000E+00         0.00000E+00         0.80965E+05
 
    0.26208E+06         0.30418E+06         0.00000E+00
    0.30418E+06         0.13627E+06         0.00000E+00
    0.00000E+00         0.00000E+00         0.79669E+05
 
    0.24951E+06         0.30840E+06         0.00000E+00
    0.30840E+06         0.14226E+06         0.00000E+00
    0.00000E+00         0.00000E+00         0.78355E+05
 
    0.23684E+06         0.31237E+06         0.00000E+00
    0.31237E+06         0.14828E+06         0.00000E+00
    0.00000E+00         0.00000E+00         0.77023E+05
 
    0.22406E+06         0.31611E+06         0.00000E+00
    0.31611E+06         0.15431E+06         0.00000E+00
    0.00000E+00         0.00000E+00         0.75674E+05
 
    0.21119E+06         0.31961E+06         0.00000E+00
    0.31961E+06         0.16035E+06         0.00000E+00
    0.00000E+00         0.00000E+00         0.74310E+05
 
    0.19824E+06         0.32289E+06         0.00000E+00
    0.32289E+06         0.16641E+06         0.00000E+00
    0.00000E+00         0.00000E+00         0.72930E+05
 
    0.18520E+06         0.32594E+06         0.00000E+00
    0.32594E+06         0.17248E+06         0.00000E+00
    0.00000E+00         0.00000E+00         0.71535E+05
 
    0.17208E+06         0.32878E+06         0.00000E+00
    0.32878E+06         0.17855E+06         0.00000E+00
    0.00000E+00         0.00000E+00         0.70125E+05
 
    0.15889E+06         0.33141E+06         0.00000E+00
    0.33141E+06         0.18462E+06         0.00000E+00
    0.00000E+00         0.00000E+00         0.68702E+05
 
    0.14562E+06         0.33383E+06         0.00000E+00
    0.33383E+06         0.19070E+06         0.00000E+00
    0.00000E+00         0.00000E+00         0.67264E+05
 
    0.13228E+06         0.33606E+06         0.00000E+00
    0.33606E+06         0.19679E+06         0.00000E+00
    0.00000E+00         0.00000E+00         0.65813E+05
 
    0.11886E+06         0.33810E+06         0.00000E+00
    0.33810E+06         0.20287E+06         0.00000E+00
    0.00000E+00         0.00000E+00         0.64347E+05
 
    0.10538E+06         0.33995E+06         0.00000E+00
    0.33995E+06         0.20897E+06         0.00000E+00
    0.00000E+00         0.00000E+00         0.62869E+05
 
    0.91817E+05         0.34161E+06         0.00000E+00
    0.34161E+06         0.21507E+06         0.00000E+00
    0.00000E+00         0.00000E+00         0.61377E+05
 
    0.78180E+05         0.34310E+06         0.00000E+00
    0.34310E+06         0.22117E+06         0.00000E+00
    0.00000E+00         0.00000E+00         0.59870E+05
 
    0.64465E+05         0.34442E+06         0.00000E+00
    0.34442E+06         0.22729E+06         0.00000E+00
    0.00000E+00         0.00000E+00         0.58350E+05
 
    0.59242E+06         0.70393E+04         0.00000E+00
    0.70393E+04        -0.11809E+03         0.00000E+00
    0.00000E+00         0.00000E+00         0.11846E+06
 
    0.59191E+06         0.20933E+05         0.00000E+00
    0.20933E+05         0.28382E+03         0.00000E+00
    0.00000E+00         0.00000E+00         0.11844E+06
 
    0.59063E+06         0.34715E+05         0.00000E+00
    0.34715E+05         0.10670E+04         0.00000E+00
    0.00000E+00         0.00000E+00         0.11834E+06
 
    0.58861E+06         0.48362E+05         0.00000E+00
    0.48362E+05         0.22209E+04         0.00000E+00
    0.00000E+00         0.00000E+00         0.11817E+06
 
    0.58587E+06         0.61852E+05         0.00000E+00
    0.61852E+05         0.37346E+04         0.00000E+00
    0.00000E+00         0.00000E+00         0.11792E+06
 
    0.58244E+06         0.75162E+05         0.00000E+00
    0.75162E+05         0.55964E+04         0.00000E+00
    0.00000E+00         0.00000E+00         0.11761E+06
 
    0.57832E+06         0.88276E+05         0.00000E+00
    0.88276E+05         0.77943E+04         0.00000E+00
    0.00000E+00         0.00000E+00         0.11722E+06
 
    0.57356E+06         0.10117E+06         0.00000E+00
    0.10117E+06         0.10316E+05         0.00000E+00
    0.00000E+00         0.00000E+00         0.11678E+06
 
    0.56817E+06         0.11384E+06         0.00000E+00
    0.11384E+06         0.13148E+05         0.00000E+00
    0.00000E+00         0.00000E+00         0.11626E+06
 
    0.56217E+06         0.12625E+06         0.00000E+00
    0.12625E+06         0.16278E+05         0.00000E+00
    0.00000E+00         0.00000E+00         0.11569E+06
 
    0.55558E+06         0.13841E+06         0.00000E+00
    0.13841E+06         0.19692E+05         0.00000E+00
    0.00000E+00         0.00000E+00         0.11506E+06
 
    0.54845E+06         0.15029E+06         0.00000E+00
    0.15029E+06         0.23376E+05         0.00000E+00
    0.00000E+00         0.00000E+00         0.11436E+06
 
    0.54078E+06         0.16188E+06         0.00000E+00
    0.16188E+06         0.27318E+05         0.00000E+00
    0.00000E+00         0.00000E+00         0.11362E+06
 
    0.53260E+06         0.17318E+06         0.00000E+00
    0.17318E+06         0.31504E+05         0.00000E+00
    0.00000E+00         0.00000E+00         0.11282E+06
 
    0.52394E+06         0.18417E+06         0.00000E+00
    0.18417E+06         0.35919E+05         0.00000E+00
    0.00000E+00         0.00000E+00         0.11197E+06
 
    0.51481E+06         0.19484E+06         0.00000E+00
    0.19484E+06         0.40551E+05         0.00000E+00
    0.00000E+00         0.00000E+00         0.11107E+06
 
    0.50526E+06         0.20520E+06         0.00000E+00
    0.20520E+06         0.45385E+05         0.00000E+00
    0.00000E+00         0.00000E+00         0.11013E+06
 
    0.49530E+06         0.21523E+06         0.00000E+00
    0.21523E+06         0.50409E+05         0.00000E+00
    0.00000E+00         0.00000E+00         0.10914E+06
 
    0.48494E+06         0.22493E+06         0.00000E+00
    0.22493E+06         0.55608E+05         0.00000E+00
    0.00000E+00         0.00000E+00         0.10811E+06
 
    0.47423E+06         0.23430E+06         0.00000E+00
    0.23430E+06         0.60972E+05         0.00000E+00
    0.00000E+00         0.00000E+00         0.10704E+06
 
    0.46318E+06         0.24333E+06         0.00000E+00
    0.24333E+06         0.66485E+05         0.00000E+00
    0.00000E+00         0.00000E+00         0.10593E+06
 
    0.45180E+06         0.25203E+06         0.00000E+00
    0.25203E+06         0.72137E+05         0.00000E+00
    0.00000E+00         0.00000E+00         0.10479E+06
 
    0.44014E+06         0.26039E+06         0.00000E+00
    0.26039E+06         0.77915E+05         0.00000E+00
    0.00000E+00         0.00000E+00         0.10361E+06
 
    0.42820E+06         0.26841E+06         0.00000E+00
    0.26841E+06         0.83808E+05         0.00000E+00
    0.00000E+00         0.00000E+00         0.10240E+06
 
    0.41600E+06         0.27610E+06         0.00000E+00
    0.27610E+06         0.89804E+05         0.00000E+00
    0.00000E+00         0.00000E+00         0.10116E+06
 
    0.40357E+06         0.28346E+06         0.00000E+00
    0.28346E+06         0.95891E+05         0.00000E+00
    0.00000E+00         0.00000E+00         0.99892E+05
 
    0.39093E+06         0.29048E+06         0.00000E+00
    0.29048E+06         0.10206E+06         0.00000E+00
    0.00000E+00         0.00000E+00         0.98598E+05
 
    0.37809E+06         0.29718E+06         0.00000E+00
    0.29718E+06         0.10830E+06         0.00000E+00
    0.00000E+00         0.00000E+00         0.97278E+05
 
    0.36507E+06         0.30356E+06         0.00000E+00
    0.30356E+06         0.11461E+06         0.00000E+00
    0.00000E+00         0.00000E+00         0.95935E+05
 
    0.35189E+06         0.30962E+06         0.00000E+00
    0.30962E+06         0.12096E+06         0.00000E+00
    0.00000E+00         0.00000E+00         0.94570E+05
 
    0.33856E+06         0.31537E+06         0.00000E+00
    0.31537E+06         0.12737E+06         0.00000E+00
    0.00000E+00         0.00000E+00         0.93185E+05
 
    0.32510E+06         0.32082E+06         0.00000E+00
    0.32082E+06         0.13380E+06         0.00000E+00
    0.00000E+00         0.00000E+00         0.91780E+05
 
    0.31152E+06         0.32597E+06         0.00000E+00
    0.32597E+06         0.14027E+06         0.00000E+00
    0.00000E+00         0.00000E+00         0.90359E+05
 
    0.29784E+06         0.33083E+06         0.00000E+00
    0.33083E+06         0.14677E+06         0.00000E+00
    0.00000E+00         0.00000E+00         0.88920E+05
 
    0.28406E+06         0.33541E+06         0.00000E+00
    0.33541E+06         0.15327E+06         0.00000E+00
    0.00000E+00         0.00000E+00         0.87467E+05
 
    0.27020E+06         0.33971E+06         0.00000E+00
    0.33971E+06         0.15980E+06         0.00000E+00
    0.00000E+00         0.00000E+00         0.85999E+05
 
    0.25627E+06         0.34375E+06         0.00000E+00
    0.34375E+06         0.16632E+06         0.00000E+00
    0.00000E+00         0.00000E+00         0.84518E+05
 
    0.24227E+06         0.34752E+06         0.00000E+00
    0.34752E+06         0.17285E+06         0.00000E+00
    0.00000E+00         0.00000E+00         0.83024E+05
 
    0.22821E+06         0.35105E+06         0.00000E+00
    0.35105E+06         0.17938E+06         0.00000E+00
    0.00000E+00         0.00000E+00         0.81519E+05
 
    0.21411E+06         0.35434E+06         0.00000E+00
    0.35434E+06         0.18590E+06         0.00000E+00
    0.00000E+00         0.00000E+00         0.80003E+05
 
    0.19996E+06         0.35740E+06         0.00000E+00
    0.35740E+06         0.19242E+06         0.00000E+00
    0.00000E+00         0.00000E+00         0.78476E+05
 
    0.18576E+06         0.36023E+06         0.00000E+00
    0.36023E+06         0.19893E+06         0.00000E+00
    0.00000E+00         0.00000E+00         0.76939E+05
 
    0.17153E+06         0.36285E+06         0.00000E+00
    0.36285E+06         0.20543E+06         0.00000E+00
    0.00000E+00         0.00000E+00         0.75392E+05
 
    0.15726E+06         0.36527E+06         0.00000E+00
    0.36527E+06         0.21193E+06         0.00000E+00
    0.00000E+00         0.00000E+00         0.73836E+05
 
    0.14295E+06         0.36749E+06         0.00000E+00
    0.36749E+06         0.21841E+06         0.00000E+00
    0.00000E+00         0.00000E+00         0.72271E+05
 
    0.12860E+06         0.36952E+06         0.00000E+00
    0.36952E+06         0.22488E+06         0.00000E+00
    0.00000E+00         0.00000E+00         0.70697E+05
 
    0.11421E+06         0.37137E+06         0.00000E+00
    0.37137E+06         0.23135E+06         0.00000E+00
    0.00000E+00         0.00000E+00         0.69113E+05
 
    0.99783E+05         0.37305E+06         0.00000E+00
    0.37305E+06         0.23782E+06         0.00000E+00
    0.00000E+00         0.00000E+00         0.67520E+05
 
    0.85305E+05         0.37457E+06         0.00000E+00
    0.37457E+06         0.24429E+06         0.00000E+00
    0.00000E+00         0.00000E+00         0.65918E+05
 
    0.70776E+05         0.37593E+06         0.00000E+00
    0.37593E+06         0.25075E+06         0.00000E+00
    0.00000E+00         0.00000E+00         0.64306E+05
 
    0.66730E+06         0.81497E+04         0.00000E+00
    0.81497E+04        -0.13795E+03         0.00000E+00
    0.00000E+00         0.00000E+00         0.13343E+06
 
    0.66615E+06         0.24136E+05         0.00000E+00
    0.24136E+05         0.33790E+03         0.00000E+00
    0.00000E+00         0.00000E+00         0.13330E+06
 
    0.66411E+06         0.39952E+05         0.00000E+00
    0.39952E+05         0.12601E+04         0.00000E+00
    0.00000E+00         0.00000E+00         0.13307E+06
 
    0.66120E+06         0.55569E+05         0.00000E+00
    0.55569E+05         0.26143E+04         0.00000E+00
    0.00000E+00         0.00000E+00         0.13276E+06
 
    0.65746E+06         0.70962E+05         0.00000E+00
    0.70962E+05         0.43853E+04         0.00000E+00
    0.00000E+00         0.00000E+00         0.13237E+06
 
    0.65292E+06         0.86108E+05         0.00000E+00
    0.86108E+05         0.65577E+04         0.00000E+00
    0.00000E+00         0.00000E+00         0.13190E+06
 
    0.64760E+06         0.10099E+06         0.00000E+00
    0.10099E+06         0.91156E+04         0.00000E+00
    0.00000E+00         0.00000E+00         0.13134E+06
 
    0.64154E+06         0.11558E+06         0.00000E+00
    0.11558E+06         0.12042E+05         0.00000E+00
    0.00000E+00         0.00000E+00         0.13072E+06
 
    0.63476E+06         0.12986E+06         0.00000E+00
    0.12986E+06         0.15322E+05         0.00000E+00
    0.00000E+00         0.00000E+00         0.13002E+06
 
    0.62730E+06         0.14382E+06         0.00000E+00
    0.14382E+06         0.18936E+05         0.00000E+00
    0.00000E+00         0.00000E+00         0.12925E+06
 
    0.61919E+06         0.15744E+06         0.00000E+00
    0.15744E+06         0.22870E+05         0.00000E+00
    0.00000E+00         0.00000E+00         0.12841E+06
 
    0.61047E+06         0.17071E+06         0.00000E+00
    0.17071E+06         0.27105E+05         0.00000E+00
    0.00000E+00         0.00000E+00         0.12751E+06
 
    0.60115E+06         0.18362E+06         0.00000E+00
    0.18362E+06         0.31624E+05         0.00000E+00
    0.00000E+00         0.00000E+00         0.12656E+06
 
    0.59128E+06         0.19616E+06         0.00000E+00
    0.19616E+06         0.36411E+05         0.00000E+00
    0.00000E+00         0.00000E+00         0.12554E+06
 
    0.58089E+06         0.20831E+06         0.00000E+00
    0.20831E+06         0.41448E+05         0.00000E+00
    0.00000E+00         0.00000E+00         0.12447E+06
 
    0.57001E+06         0.22008E+06         0.00000E+00
    0.22008E+06         0.46720E+05         0.00000E+00
    0.00000E+00         0.00000E+00         0.12335E+06
 
    0.55866E+06         0.23145E+06         0.00000E+00
    0.23145E+06         0.52208E+05         0.00000E+00
    0.00000E+00         0.00000E+00         0.12217E+06
 
    0.54688E+06         0.24242E+06         0.00000E+00
    0.24242E+06         0.57898E+05         0.00000E+00
    0.00000E+00         0.00000E+00         0.12096E+06
 
    0.53470E+06         0.25299E+06         0.00000E+00
    0.25299E+06         0.63773E+05         0.00000E+00
    0.00000E+00         0.00000E+00         0.11969E+06
 
    0.52214E+06         0.26316E+06         0.00000E+00
    0.26316E+06         0.69817E+05         0.00000E+00
    0.00000E+00         0.00000E+00         0.11839E+06
 
    0.50924E+06         0.27292E+06         0.00000E+00
    0.27292E+06         0.76016E+05         0.00000E+00
    0.00000E+00         0.00000E+00         0.11705E+06
 
    0.49603E+06         0.28228E+06         0.00000E+00
    0.28228E+06         0.82355E+05         0.00000E+00
    0.00000E+00         0.00000E+00         0.11568E+06
 
    0.48252E+06         0.29124E+06         0.00000E+00
    0.29124E+06         0.88819E+05         0.00000E+00
    0.00000E+00         0.00000E+00         0.11427E+06
 
    0.46875E+06         0.29980E+06         0.00000E+00
    0.29980E+06         0.95394E+05         0.00000E+00
    0.00000E+00         0.00000E+00         0.11283E+06
 
    0.45474E+06         0.30796E+06         0.00000E+00
    0.30796E+06         0.10207E+06         0.00000E+00
    0.00000E+00         0.00000E+00         0.11136E+06
 
    0.44052E+06         0.31573E+06         0.00000E+00
    0.31573E+06         0.10883E+06         0.00000E+00
    0.00000E+00         0.00000E+00         0.10987E+06
 
    0.42610E+06         0.32312E+06         0.00000E+00
    0.32312E+06         0.11566E+06         0.00000E+00
    0.00000E+00         0.00000E+00         0.10835E+06
 
    0.41152E+06         0.33013E+06         0.00000E+00
    0.33013E+06         0.12255E+06         0.00000E+00
    0.00000E+00         0.00000E+00         0.10681E+06
 
    0.39679E+06         0.33677E+06         0.00000E+00
    0.33677E+06         0.12950E+06         0.00000E+00
    0.00000E+00         0.00000E+00         0.10526E+06
 
    0.38193E+06         0.34305E+06         0.00000E+00
    0.34305E+06         0.13648E+06         0.00000E+00
    0.00000E+00         0.00000E+00         0.10368E+06
 
    0.36696E+06         0.34897E+06         0.00000E+00
    0.34897E+06         0.14349E+06         0.00000E+00
    0.00000E+00         0.00000E+00         0.10209E+06
 
    0.35190E+06         0.35455E+06         0.00000E+00
    0.35455E+06         0.15053E+06         0.00000E+00
    0.00000E+00         0.00000E+00         0.10049E+06
 
    0.33677E+06         0.35979E+06         0.00000E+00
    0.35979E+06         0.15758E+06         0.00000E+00
    0.00000E+00         0.00000E+00         0.98870E+05
 
    0.32157E+06         0.36471E+06         0.00000E+00
    0.36471E+06         0.16464E+06         0.00000E+00
    0.00000E+00         0.00000E+00         0.97243E+05
 
    0.30633E+06         0.36932E+06         0.00000E+00
    0.36932E+06         0.17169E+06         0.00000E+00
    0.00000E+00         0.00000E+00         0.95606E+05
 
    0.29106E+06         0.37362E+06         0.00000E+00
    0.37362E+06         0.17874E+06         0.00000E+00
    0.00000E+00         0.00000E+00         0.93961E+05
 
    0.27576E+06         0.37764E+06         0.00000E+00
    0.37764E+06         0.18578E+06         0.00000E+00
    0.00000E+00         0.00000E+00         0.92309E+05
 
    0.26045E+06         0.38137E+06         0.00000E+00
    0.38137E+06         0.19280E+06         0.00000E+00
    0.00000E+00         0.00000E+00         0.90651E+05
 
    0.24514E+06         0.38485E+06         0.00000E+00
    0.38485E+06         0.19980E+06         0.00000E+00
    0.00000E+00         0.00000E+00         0.88988E+05
 
    0.22983E+06         0.38806E+06         0.00000E+00
    0.38806E+06         0.20678E+06         0.00000E+00
    0.00000E+00         0.00000E+00         0.87321E+05
 
    0.21452E+06         0.39104E+06         0.00000E+00
    0.39104E+06         0.21373E+06         0.00000E+00
    0.00000E+00         0.00000E+00         0.85650E+05
 
    0.19923E+06         0.39379E+06         0.00000E+00
    0.39379E+06         0.22066E+06         0.00000E+00
    0.00000E+00         0.00000E+00         0.83977E+05
 
    0.18395E+06         0.39633E+06         0.00000E+00
    0.39633E+06         0.22756E+06         0.00000E+00
    0.00000E+00         0.00000E+00         0.82300E+05
 
    0.16868E+06         0.39866E+06         0.00000E+00
    0.39866E+06         0.23443E+06         0.00000E+00
    0.00000E+00         0.00000E+00         0.80622E+05
 
    0.15343E+06         0.40080E+06         0.00000E+00
    0.40080E+06         0.24128E+06         0.00000E+00
    0.00000E+00         0.00000E+00         0.78941E+05
 
    0.13819E+06         0.40276E+06         0.00000E+00
    0.40276E+06         0.24810E+06         0.00000E+00
    0.00000E+00         0.00000E+00         0.77259E+05
 
    0.12297E+06         0.40456E+06         0.00000E+00
    0.40456E+06         0.25490E+06         0.00000E+00
    0.00000E+00         0.00000E+00         0.75574E+05
 
    0.10774E+06         0.40621E+06         0.00000E+00
    0.40621E+06         0.26169E+06         0.00000E+00
    0.00000E+00         0.00000E+00         0.73887E+05
 
    0.92514E+05         0.40771E+06         0.00000E+00
    0.40771E+06         0.26847E+06         0.00000E+00
    0.00000E+00         0.00000E+00         0.72196E+05
 
    0.77277E+05         0.40907E+06         0.00000E+00
    0.40907E+06         0.27524E+06         0.00000E+00
    0.00000E+00         0.00000E+00         0.70503E+05
 
    0.75370E+06         0.94662E+04         0.00000E+00
    0.94662E+04        -0.16037E+03         0.00000E+00
    0.00000E+00         0.00000E+00         0.15071E+06
 
    0.75157E+06         0.27905E+05         0.00000E+00
    0.27905E+05         0.40083E+03         0.00000E+00
    0.00000E+00         0.00000E+00         0.15039E+06
 
    0.74840E+06         0.46089E+05         0.00000E+00
    0.46089E+05         0.14822E+04         0.00000E+00
    0.00000E+00         0.00000E+00         0.14998E+06
 
    0.74423E+06         0.63990E+05         0.00000E+00
    0.63990E+05         0.30642E+04         0.00000E+00
    0.00000E+00         0.00000E+00         0.14946E+06
 
    0.73910E+06         0.81579E+05         0.00000E+00
    0.81579E+05         0.51268E+04         0.00000E+00
    0.00000E+00         0.00000E+00         0.14884E+06
 
    0.73304E+06         0.98830E+05         0.00000E+00
    0.98830E+05         0.76495E+04         0.00000E+00
    0.00000E+00         0.00000E+00         0.14814E+06
 
    0.72611E+06         0.11572E+06         0.00000E+00
    0.11572E+06         0.10611E+05         0.00000E+00
    0.00000E+00         0.00000E+00         0.14734E+06
 
    0.71833E+06         0.13223E+06         0.00000E+00
    0.13223E+06         0.13992E+05         0.00000E+00
    0.00000E+00         0.00000E+00         0.14646E+06
 
    0.70975E+06         0.14834E+06         0.00000E+00
    0.14834E+06         0.17769E+05         0.00000E+00
    0.00000E+00         0.00000E+00         0.14550E+06
 
    0.70041E+06         0.16403E+06         0.00000E+00
    0.16403E+06         0.21921E+05         0.00000E+00
    0.00000E+00         0.00000E+00         0.14447E+06
 
    0.69034E+06         0.17928E+06         0.00000E+00
    0.17928E+06         0.26428E+05         0.00000E+00
    0.00000E+00         0.00000E+00         0.14335E+06
 
    0.67960E+06         0.19409E+06         0.00000E+00
    0.19409E+06         0.31268E+05         0.00000E+00
    0.00000E+00         0.00000E+00         0.14217E+06
 
    0.66822E+06         0.20845E+06         0.00000E+00
    0.20845E+06         0.36420E+05         0.00000E+00
    0.00000E+00         0.00000E+00         0.14093E+06
 
    0.65624E+06         0.22233E+06         0.00000E+00
    0.22233E+06         0.41863E+05         0.00000E+00
    0.00000E+00         0.00000E+00         0.13962E+06
 
    0.64370E+06         0.23574E+06         0.00000E+00
    0.23574E+06         0.47576E+05         0.00000E+00
    0.00000E+00         0.00000E+00         0.13825E+06
 
    0.63063E+06         0.24867E+06         0.00000E+00
    0.24867E+06         0.53540E+05         0.00000E+00
    0.00000E+00         0.00000E+00         0.13683E+06
 
    0.61709E+06         0.26112E+06         0.00000E+00
    0.26112E+06         0.59734E+05         0.00000E+00
    0.00000E+00         0.00000E+00         0.13536E+06
 
    0.60309E+06         0.27308E+06         0.00000E+00
    0.27308E+06         0.66138E+05         0.00000E+00
    0.00000E+00         0.00000E+00         0.13385E+06
 
    0.58869E+06         0.28455E+06         0.00000E+00
    0.28455E+06         0.72735E+05         0.00000E+00
    0.00000E+00         0.00000E+00         0.13229E+06
 
    0.57391E+06         0.29554E+06         0.00000E+00
    0.29554E+06         0.79504E+05         0.00000E+00
    0.00000E+00         0.00000E+00         0.13068E+06
 
    0.55880E+06         0.30604E+06         0.00000E+00
    0.30604E+06         0.86429E+05         0.00000E+00
    0.00000E+00         0.00000E+00         0.12905E+06
 
    0.54338E+06         0.31606E+06         0.00000E+00
    0.31606E+06         0.93492E+05         0.00000E+00
    0.00000E+00         0.00000E+00         0.12737E+06
 
    0.52769E+06         0.32559E+06         0.00000E+00
    0.32559E+06         0.10068E+06         0.00000E+00
    0.00000E+00         0.00000E+00         0.12567E+06
 
    0.51176E+06         0.33466E+06         0.00000E+00
    0.33466E+06         0.10797E+06         0.00000E+00
    0.00000E+00         0.00000E+00         0.12394E+06
 
    0.49562E+06         0.34326E+06         0.00000E+00
    0.34326E+06         0.11534E+06         0.00000E+00
    0.00000E+00         0.00000E+00         0.12219E+06
 
    0.47930E+06         0.35141E+06         0.00000E+00
    0.35141E+06         0.12280E+06         0.00000E+00
    0.00000E+00         0.00000E+00         0.12042E+06
 
    0.46282E+06         0.35910E+06         0.00000E+00
    0.35910E+06         0.13031E+06         0.00000E+00
    0.00000E+00         0.00000E+00         0.11863E+06
 
    0.44623E+06         0.36636E+06         0.00000E+00
    0.36636E+06         0.13787E+06         0.00000E+00
    0.00000E+00         0.00000E+00         0.11682E+06
 
    0.42953E+06         0.37319E+06         0.00000E+00
    0.37319E+06         0.14547E+06         0.00000E+00
    0.00000E+00         0.00000E+00         0.11500E+06
 
    0.41275E+06         0.37960E+06         0.00000E+00
    0.37960E+06         0.15309E+06         0.00000E+00
    0.00000E+00         0.00000E+00         0.11317E+06
 
    0.39592E+06         0.38561E+06         0.00000E+00
    0.38561E+06         0.16072E+06         0.00000E+00
    0.00000E+00         0.00000E+00         0.11133E+06
 
    0.37905E+06         0.39123E+06         0.00000E+00
    0.39123E+06         0.16836E+06         0.00000E+00
    0.00000E+00         0.00000E+00         0.10948E+06
 
    0.36218E+06         0.39647E+06         0.00000E+00
    0.39647E+06         0.17599E+06         0.00000E+00
    0.00000E+00         0.00000E+00         0.10763E+06
 
    0.34530E+06         0.40136E+06         0.00000E+00
    0.40136E+06         0.18360E+06         0.00000E+00
    0.00000E+00         0.00000E+00         0.10578E+06
 
    0.32845E+06         0.40589E+06         0.00000E+00
    0.40589E+06         0.19119E+06         0.00000E+00
    0.00000E+00         0.00000E+00         0.10393E+06
 
    0.31163E+06         0.41010E+06         0.00000E+00
    0.41010E+06         0.19875E+06         0.00000E+00
    0.00000E+00         0.00000E+00         0.10208E+06
 
    0.29485E+06         0.41398E+06         0.00000E+00
    0.41398E+06         0.20628E+06         0.00000E+00
    0.00000E+00         0.00000E+00         0.10023E+06
 
    0.27814E+06         0.41757E+06         0.00000E+00
    0.41757E+06         0.21377E+06         0.00000E+00
    0.00000E+00         0.00000E+00         0.98381E+05
 
    0.26149E+06         0.42088E+06         0.00000E+00
    0.42088E+06         0.22121E+06         0.00000E+00
    0.00000E+00         0.00000E+00         0.96540E+05
 
    0.24492E+06         0.42393E+06         0.00000E+00
    0.42393E+06         0.22861E+06         0.00000E+00
    0.00000E+00         0.00000E+00         0.94706E+05
 
    0.22843E+06         0.42672E+06         0.00000E+00
    0.42672E+06         0.23595E+06         0.00000E+00
    0.00000E+00         0.00000E+00         0.92878E+05
 
    0.21203E+06         0.42928E+06         0.00000E+00
    0.42928E+06         0.24325E+06         0.00000E+00
    0.00000E+00         0.00000E+00         0.91057E+05
 
    0.19572E+06         0.43164E+06         0.00000E+00
    0.43164E+06         0.25050E+06         0.00000E+00
    0.00000E+00         0.00000E+00         0.89244E+05
 
    0.17949E+06         0.43379E+06         0.00000E+00
    0.43379E+06         0.25771E+06         0.00000E+00
    0.00000E+00         0.00000E+00         0.87439E+05
 
    0.16335E+06         0.43576E+06         0.00000E+00
    0.43576E+06         0.26486E+06         0.00000E+00
    0.00000E+00         0.00000E+00         0.85643E+05
 
    0.14729E+06         0.43758E+06         0.00000E+00
    0.43758E+06         0.27198E+06         0.00000E+00
    0.00000E+00         0.00000E+00         0.83854E+05
 
    0.13132E+06         0.43924E+06         0.00000E+00
    0.43924E+06         0.27905E+06         0.00000E+00
    0.00000E+00         0.00000E+00         0.82074E+05
 
    0.11541E+06         0.44078E+06         0.00000E+00
    0.44078E+06         0.28609E+06         0.00000E+00
    0.00000E+00         0.00000E+00         0.80302E+05
 
    0.99572E+05         0.44220E+06         0.00000E+00
    0.44220E+06         0.29311E+06         0.00000E+00
    0.00000E+00         0.00000E+00         0.78536E+05
 
    0.83783E+05         0.44352E+06         0.00000E+00
    0.44352E+06         0.30011E+06         0.00000E+00
    0.00000E+00         0.00000E+00         0.76778E+05
 
    0.85358E+06         0.11019E+05         0.00000E+00
    0.11019E+05        -0.18510E+03         0.00000E+00
    0.00000E+00         0.00000E+00         0.17068E+06
 
    0.84999E+06         0.32313E+05         0.00000E+00
    0.32313E+05         0.47269E+03         0.00000E+00
    0.00000E+00         0.00000E+00         0.17009E+06
 
    0.84521E+06         0.53243E+05         0.00000E+00
    0.53243E+05         0.17324E+04         0.00000E+00
    0.00000E+00         0.00000E+00         0.16939E+06
 
    0.83927E+06         0.73774E+05         0.00000E+00
    0.73774E+05         0.35681E+04         0.00000E+00
    0.00000E+00         0.00000E+00         0.16857E+06
 
    0.83224E+06         0.93877E+05         0.00000E+00
    0.93877E+05         0.59534E+04         0.00000E+00
    0.00000E+00         0.00000E+00         0.16764E+06
 
    0.82415E+06         0.11353E+06         0.00000E+00
    0.11353E+06         0.88618E+04         0.00000E+00
    0.00000E+00         0.00000E+00         0.16660E+06
 
    0.81507E+06         0.13269E+06         0.00000E+00
    0.13269E+06         0.12266E+05         0.00000E+00
    0.00000E+00         0.00000E+00         0.16547E+06
 
    0.80504E+06         0.15136E+06         0.00000E+00
    0.15136E+06         0.16141E+05         0.00000E+00
    0.00000E+00         0.00000E+00         0.16424E+06
 
    0.79413E+06         0.16951E+06         0.00000E+00
    0.16951E+06         0.20458E+05         0.00000E+00
    0.00000E+00         0.00000E+00         0.16292E+06
 
    0.78237E+06         0.18712E+06         0.00000E+00
    0.18712E+06         0.25191E+05         0.00000E+00
    0.00000E+00         0.00000E+00         0.16151E+06
 
    0.76982E+06         0.20418E+06         0.00000E+00
    0.20418E+06         0.30314E+05         0.00000E+00
    0.00000E+00         0.00000E+00         0.16003E+06
 
    0.75654E+06         0.22067E+06         0.00000E+00
    0.22067E+06         0.35801E+05         0.00000E+00
    0.00000E+00         0.00000E+00         0.15847E+06
 
    0.74257E+06         0.23659E+06         0.00000E+00
    0.23659E+06         0.41625E+05         0.00000E+00
    0.00000E+00         0.00000E+00         0.15684E+06
 
    0.72796E+06         0.25193E+06         0.00000E+00
    0.25193E+06         0.47763E+05         0.00000E+00
    0.00000E+00         0.00000E+00         0.15514E+06
 
    0.71276E+06         0.26669E+06         0.00000E+00
    0.26669E+06         0.54189E+05         0.00000E+00
    0.00000E+00         0.00000E+00         0.15339E+06
 
    0.69702E+06         0.28085E+06         0.00000E+00
    0.28085E+06         0.60878E+05         0.00000E+00
    0.00000E+00         0.00000E+00         0.15158E+06
 
    0.68079E+06         0.29443E+06         0.00000E+00
    0.29443E+06         0.67808E+05         0.00000E+00
    0.00000E+00         0.00000E+00         0.14972E+06
 
    0.66410E+06         0.30741E+06         0.00000E+00
    0.30741E+06         0.74954E+05         0.00000E+00
    0.00000E+00         0.00000E+00         0.14781E+06
 
    0.64702E+06         0.31980E+06         0.00000E+00
    0.31980E+06         0.82296E+05         0.00000E+00
    0.00000E+00         0.00000E+00         0.14586E+06
 
    0.62957E+06         0.33160E+06         0.00000E+00
    0.33160E+06         0.89811E+05         0.00000E+00
    0.00000E+00         0.00000E+00         0.14388E+06
 
    0.61181E+06         0.34283E+06         0.00000E+00
    0.34283E+06         0.97479E+05         0.00000E+00
    0.00000E+00         0.00000E+00         0.14186E+06
 
    0.59377E+06         0.35348E+06         0.00000E+00
    0.35348E+06         0.10528E+06         0.00000E+00
    0.00000E+00         0.00000E+00         0.13981E+06
 
    0.57549E+06         0.36357E+06         0.00000E+00
    0.36357E+06         0.11319E+06         0.00000E+00
    0.00000E+00         0.00000E+00         0.13774E+06
 
    0.55702E+06         0.37309E+06         0.00000E+00
    0.37309E+06         0.12120E+06         0.00000E+00
    0.00000E+00         0.00000E+00         0.13564E+06
 
    0.53838E+06         0.38208E+06         0.00000E+00
    0.38208E+06         0.12929E+06         0.00000E+00
    0.00000E+00         0.00000E+00         0.13353E+06
 
    0.51961E+06         0.39052E+06         0.00000E+00
    0.39052E+06         0.13743E+06         0.00000E+00
    0.00000E+00         0.00000E+00         0.13141E+06
 
    0.50074E+06         0.39845E+06         0.00000E+00
    0.39845E+06         0.14562E+06         0.00000E+00
    0.00000E+00         0.00000E+00         0.12927E+06
 
    0.48182E+06         0.40587E+06         0.00000E+00
    0.40587E+06         0.15384E+06         0.00000E+00
    0.00000E+00         0.00000E+00         0.12713E+06
 
    0.46286E+06         0.41280E+06         0.00000E+00
    0.41280E+06         0.16208E+06         0.00000E+00
    0.00000E+00         0.00000E+00         0.12499E+06
 
    0.44389E+06         0.41925E+06         0.00000E+00
    0.41925E+06         0.17032E+06         0.00000E+00
    0.00000E+00         0.00000E+00         0.12284E+06
 
    0.42495E+06         0.42524E+06         0.00000E+00
    0.42524E+06         0.17854E+06         0.00000E+00
    0.00000E+00         0.00000E+00         0.12070E+06
 
    0.40605E+06         0.43080E+06         0.00000E+00
    0.43080E+06         0.18675E+06         0.00000E+00
    0.00000E+00         0.00000E+00         0.11856E+06
 
    0.38722E+06         0.43593E+06         0.00000E+00
    0.43593E+06         0.19493E+06         0.00000E+00
    0.00000E+00         0.00000E+00         0.11643E+06
 
    0.36848E+06         0.44065E+06         0.00000E+00
    0.44065E+06         0.20307E+06         0.00000E+00
    0.00000E+00         0.00000E+00         0.11431E+06
 
    0.34984E+06         0.44500E+06         0.00000E+00
    0.44500E+06         0.21115E+06         0.00000E+00
    0.00000E+00         0.00000E+00         0.11220E+06
 
    0.33133E+06         0.44898E+06         0.00000E+00
    0.44898E+06         0.21919E+06         0.00000E+00
    0.00000E+00         0.00000E+00         0.11010E+06
 
    0.31297E+06         0.45262E+06         0.00000E+00
    0.45262E+06         0.22716E+06         0.00000E+00
    0.00000E+00         0.00000E+00         0.10803E+06
 
    0.29475E+06         0.45593E+06         0.00000E+00
    0.45593E+06         0.23506E+06         0.00000E+00
    0.00000E+00         0.00000E+00         0.10596E+06
 
    0.27670E+06         0.45895E+06         0.00000E+00
    0.45895E+06         0.24290E+06         0.00000E+00
    0.00000E+00         0.00000E+00         0.10392E+06
 
    0.25883E+06         0.46169E+06         0.00000E+00
    0.46169E+06         0.25066E+06         0.00000E+00
    0.00000E+00         0.00000E+00         0.10190E+06
 
    0.24113E+06         0.46418E+06         0.00000E+00
    0.46418E+06         0.25834E+06         0.00000E+00
    0.00000E+00         0.00000E+00         0.99895E+05
 
    0.22362E+06         0.46644E+06         0.00000E+00
    0.46644E+06         0.26595E+06         0.00000E+00
    0.00000E+00         0.00000E+00         0.97914E+05
 
    0.20630E+06         0.46848E+06         0.00000E+00
    0.46848E+06         0.27348E+06         0.00000E+00
    0.00000E+00         0.00000E+00         0.95957E+05
 
    0.18917E+06         0.47034E+06         0.00000E+00
    0.47034E+06         0.28094E+06         0.00000E+00
    0.00000E+00         0.00000E+00         0.94021E+05
 
    0.17222E+06         0.47204E+06         0.00000E+00
    0.47204E+06         0.28833E+06         0.00000E+00
    0.00000E+00         0.00000E+00         0.92109E+05
 
    0.15545E+06         0.47359E+06         0.00000E+00
    0.47359E+06         0.29565E+06         0.00000E+00
    0.00000E+00         0.00000E+00         0.90220E+05
 
    0.13885E+06         0.47503E+06         0.00000E+00
    0.47503E+06         0.30291E+06         0.00000E+00
    0.00000E+00         0.00000E+00         0.88353E+05
 
    0.12243E+06         0.47637E+06         0.00000E+00
    0.47637E+06         0.31012E+06         0.00000E+00
    0.00000E+00         0.00000E+00         0.86509E+05
 
    0.10615E+06         0.47763E+06         0.00000E+00
    0.47763E+06         0.31728E+06         0.00000E+00
    0.00000E+00         0.00000E+00         0.84686E+05
 
    0.90021E+05         0.47884E+06         0.00000E+00
    0.47884E+06         0.32440E+06         0.00000E+00
    0.00000E+00         0.00000E+00         0.82884E+05
 
    0.96915E+06         0.12838E+05         0.00000E+00
    0.12838E+05        -0.21151E+03         0.00000E+00
    0.00000E+00         0.00000E+00         0.19379E+06
 
    0.96348E+06         0.37432E+05         0.00000E+00
    0.37432E+05         0.55276E+03         0.00000E+00
    0.00000E+00         0.00000E+00         0.19281E+06
 
    0.95643E+06         0.61513E+05         0.00000E+00
    0.61513E+05         0.20067E+04         0.00000E+00
    0.00000E+00         0.00000E+00         0.19169E+06
 
    0.94806E+06         0.85047E+05         0.00000E+00
    0.85047E+05         0.41166E+04         0.00000E+00
    0.00000E+00         0.00000E+00         0.19044E+06
 
    0.93846E+06         0.10800E+06         0.00000E+00
    0.10800E+06         0.68482E+04         0.00000E+00
    0.00000E+00         0.00000E+00         0.18906E+06
 
    0.92767E+06         0.13035E+06         0.00000E+00
    0.13035E+06         0.10168E+05         0.00000E+00
    0.00000E+00         0.00000E+00         0.18757E+06
 
    0.91577E+06         0.15207E+06         0.00000E+00
    0.15207E+06         0.14041E+05         0.00000E+00
    0.00000E+00         0.00000E+00         0.18596E+06
 
    0.90283E+06         0.17314E+06         0.00000E+00
    0.17314E+06         0.18436E+05         0.00000E+00
    0.00000E+00         0.00000E+00         0.18425E+06
 
    0.88891E+06         0.19354E+06         0.00000E+00
    0.19354E+06         0.23317E+05         0.00000E+00
    0.00000E+00         0.00000E+00         0.18245E+06
 
    0.87408E+06         0.21326E+06         0.00000E+00
    0.21326E+06         0.28654E+05         0.00000E+00
    0.00000E+00         0.00000E+00         0.18055E+06
 
    0.85839E+06         0.23228E+06         0.00000E+00
    0.23228E+06         0.34413E+05         0.00000E+00
    0.00000E+00         0.00000E+00         0.17856E+06
 
    0.84193E+06         0.25059E+06         0.00000E+00
    0.25059E+06         0.40564E+05         0.00000E+00
    0.00000E+00         0.00000E+00         0.17650E+06
 
    0.82473E+06         0.26820E+06         0.00000E+00
    0.26820E+06         0.47075E+05         0.00000E+00
    0.00000E+00         0.00000E+00         0.17436E+06
 
    0.80688E+06         0.28508E+06         0.00000E+00
    0.28508E+06         0.53916E+05         0.00000E+00
    0.00000E+00         0.00000E+00         0.17216E+06
 
    0.78842E+06         0.30125E+06         0.00000E+00
    0.30125E+06         0.61059E+05         0.00000E+00
    0.00000E+00         0.00000E+00         0.16989E+06
 
    0.76941E+06         0.31669E+06         0.00000E+00
    0.31669E+06         0.68475E+05         0.00000E+00
    0.00000E+00         0.00000E+00         0.16758E+06
 
    0.74992E+06         0.33142E+06         0.00000E+00
    0.33142E+06         0.76136E+05         0.00000E+00
    0.00000E+00         0.00000E+00         0.16521E+06
 
    0.72999E+06         0.34544E+06         0.00000E+00
    0.34544E+06         0.84016E+05         0.00000E+00
    0.00000E+00         0.00000E+00         0.16280E+06
 
    0.70969E+06         0.35875E+06         0.00000E+00
    0.35875E+06         0.92089E+05         0.00000E+00
    0.00000E+00         0.00000E+00         0.16035E+06
 
    0.68905E+06         0.37136E+06         0.00000E+00
    0.37136E+06         0.10033E+06         0.00000E+00
    0.00000E+00         0.00000E+00         0.15788E+06
 
    0.66814E+06         0.38327E+06         0.00000E+00
    0.38327E+06         0.10872E+06         0.00000E+00
    0.00000E+00         0.00000E+00         0.15537E+06
 
    0.64700E+06         0.39452E+06         0.00000E+00
    0.39452E+06         0.11723E+06         0.00000E+00
    0.00000E+00         0.00000E+00         0.15285E+06
 
    0.62568E+06         0.40509E+06         0.00000E+00
    0.40509E+06         0.12584E+06         0.00000E+00
    0.00000E+00         0.00000E+00         0.15030E+06
 
    0.60422E+06         0.41501E+06         0.00000E+00
    0.41501E+06         0.13453E+06         0.00000E+00
    0.00000E+00         0.00000E+00         0.14775E+06
 
    0.58266E+06         0.42430E+06         0.00000E+00
    0.42430E+06         0.14328E+06         0.00000E+00
    0.00000E+00         0.00000E+00         0.14519E+06
 
    0.56105E+06         0.43297E+06         0.00000E+00
    0.43297E+06         0.15208E+06         0.00000E+00
    0.00000E+00         0.00000E+00         0.14262E+06
 
    0.53942E+06         0.44103E+06         0.00000E+00
    0.44103E+06         0.16089E+06         0.00000E+00
    0.00000E+00         0.00000E+00         0.14006E+06
 
    0.51782E+06         0.44851E+06         0.00000E+00
    0.44851E+06         0.16972E+06         0.00000E+00
    0.00000E+00         0.00000E+00         0.13751E+06
 
    0.49627E+06         0.45543E+06         0.00000E+00
    0.45543E+06         0.17854E+06         0.00000E+00
    0.00000E+00         0.00000E+00         0.13496E+06
 
    0.47481E+06         0.46181E+06         0.00000E+00
    0.46181E+06         0.18734E+06         0.00000E+00
    0.00000E+00         0.00000E+00         0.13243E+06
 
    0.45348E+06         0.46766E+06         0.00000E+00
    0.46766E+06         0.19610E+06         0.00000E+00
    0.00000E+00         0.00000E+00         0.12992E+06
 
    0.43229E+06         0.47302E+06         0.00000E+00
    0.47302E+06         0.20482E+06         0.00000E+00
    0.00000E+00         0.00000E+00         0.12742E+06
 
    0.41127E+06         0.47791E+06         0.00000E+00
    0.47791E+06         0.21348E+06         0.00000E+00
    0.00000E+00         0.00000E+00         0.12495E+06
 
    0.39046E+06         0.48235E+06         0.00000E+00
    0.48235E+06         0.22207E+06         0.00000E+00
    0.00000E+00         0.00000E+00         0.12251E+06
 
    0.36987E+06         0.48636E+06         0.00000E+00
    0.48636E+06         0.23059E+06         0.00000E+00
    0.00000E+00         0.00000E+00         0.12009E+06
 
    0.34952E+06         0.48998E+06         0.00000E+00
    0.48998E+06         0.23902E+06         0.00000E+00
    0.00000E+00         0.00000E+00         0.11771E+06
 
    0.32943E+06         0.49322E+06         0.00000E+00
    0.49322E+06         0.24736E+06         0.00000E+00
    0.00000E+00         0.00000E+00         0.11536E+06
 
    0.30962E+06         0.49613E+06         0.00000E+00
    0.49613E+06         0.25560E+06         0.00000E+00
    0.00000E+00         0.00000E+00         0.11305E+06
 
    0.29010E+06         0.49871E+06         0.00000E+00
    0.49871E+06         0.26375E+06         0.00000E+00
    0.00000E+00         0.00000E+00         0.11077E+06
 
    0.27087E+06         0.50101E+06         0.00000E+00
    0.50101E+06         0.27179E+06         0.00000E+00
    0.00000E+00         0.00000E+00         0.10853E+06
 
    0.25196E+06         0.50304E+06         0.00000E+00
    0.50304E+06         0.27972E+06         0.00000E+00
    0.00000E+00         0.00000E+00         0.10634E+06
 
    0.23335E+06         0.50485E+06         0.00000E+00
    0.50485E+06         0.28755E+06         0.00000E+00
    0.00000E+00         0.00000E+00         0.10418E+06
 
    0.21507E+06         0.50645E+06         0.00000E+00
    0.50645E+06         0.29527E+06         0.00000E+00
    0.00000E+00         0.00000E+00         0.10207E+06
 
    0.19709E+06         0.50788E+06         0.00000E+00
    0.50788E+06         0.30288E+06         0.00000E+00
    0.00000E+00         0.00000E+00         0.99996E+05
 
    0.17944E+06         0.50916E+06         0.00000E+00
    0.50916E+06         0.31040E+06         0.00000E+00
    0.00000E+00         0.00000E+00         0.97968E+05
 
    0.16209E+06         0.51033E+06         0.00000E+00
    0.51033E+06         0.31783E+06         0.00000E+00
    0.00000E+00         0.00000E+00         0.95983E+05
 
    0.14505E+06         0.51141E+06         0.00000E+00
    0.51141E+06         0.32516E+06         0.00000E+00
    0.00000E+00         0.00000E+00         0.94041E+05
 
    0.12830E+06         0.51244E+06         0.00000E+00
    0.51244E+06         0.33241E+06         0.00000E+00
    0.00000E+00         0.00000E+00         0.92142E+05
 
    0.11182E+06         0.51344E+06         0.00000E+00
    0.51344E+06         0.33959E+06         0.00000E+00
    0.00000E+00         0.00000E+00         0.90283E+05
 
    0.95609E+05         0.51443E+06         0.00000E+00
    0.51443E+06         0.34672E+06         0.00000E+00
    0.00000E+00         0.00000E+00         0.88465E+05
 
    0.11028E+07         0.14948E+05         0.00000E+00
    0.14948E+05        -0.23845E+03         0.00000E+00
    0.00000E+00         0.00000E+00         0.22052E+06
 
    0.10942E+07         0.43312E+05         0.00000E+00
    0.43312E+05         0.63914E+03         0.00000E+00
    0.00000E+00         0.00000E+00         0.21897E+06
 
    0.10840E+07         0.70971E+05         0.00000E+00
    0.70971E+05         0.22967E+04         0.00000E+00
    0.00000E+00         0.00000E+00         0.21727E+06
 
    0.10724E+07         0.97890E+05         0.00000E+00
    0.97890E+05         0.46906E+04         0.00000E+00
    0.00000E+00         0.00000E+00         0.21542E+06
 
    0.10594E+07         0.12404E+06         0.00000E+00
    0.12404E+06         0.77778E+04         0.00000E+00
    0.00000E+00         0.00000E+00         0.21343E+06
 
    0.10450E+07         0.14939E+06         0.00000E+00
    0.14939E+06         0.11516E+05         0.00000E+00
    0.00000E+00         0.00000E+00         0.21131E+06
 
    0.10295E+07         0.17393E+06         0.00000E+00
    0.17393E+06         0.15862E+05         0.00000E+00
    0.00000E+00         0.00000E+00         0.20907E+06
 
    0.10128E+07         0.19763E+06         0.00000E+00
    0.19763E+06         0.20776E+05         0.00000E+00
    0.00000E+00         0.00000E+00         0.20672E+06
 
    0.99506E+06         0.22048E+06         0.00000E+00
    0.22048E+06         0.26217E+05         0.00000E+00
    0.00000E+00         0.00000E+00         0.20426E+06
 
    0.97635E+06         0.24247E+06         0.00000E+00
    0.24247E+06         0.32146E+05         0.00000E+00
    0.00000E+00         0.00000E+00         0.20170E+06
 
    0.95674E+06         0.26359E+06         0.00000E+00
    0.26359E+06         0.38524E+05         0.00000E+00
    0.00000E+00         0.00000E+00         0.19905E+06
 
    0.93632E+06         0.28384E+06         0.00000E+00
    0.28384E+06         0.45315E+05         0.00000E+00
    0.00000E+00         0.00000E+00         0.19633E+06
 
    0.91516E+06         0.30321E+06         0.00000E+00
    0.30321E+06         0.52481E+05         0.00000E+00
    0.00000E+00         0.00000E+00         0.19353E+06
 
    0.89333E+06         0.32170E+06         0.00000E+00
    0.32170E+06         0.59988E+05         0.00000E+00
    0.00000E+00         0.00000E+00         0.19066E+06
 
    0.87090E+06         0.33932E+06         0.00000E+00
    0.33932E+06         0.67803E+05         0.00000E+00
    0.00000E+00         0.00000E+00         0.18774E+06
 
    0.84794E+06         0.35606E+06         0.00000E+00
    0.35606E+06         0.75893E+05         0.00000E+00
    0.00000E+00         0.00000E+00         0.18477E+06
 
    0.82453E+06         0.37195E+06         0.00000E+00
    0.37195E+06         0.84226E+05         0.00000E+00
    0.00000E+00         0.00000E+00         0.18175E+06
 
    0.80072E+06         0.38698E+06         0.00000E+00
    0.38698E+06         0.92774E+05         0.00000E+00
    0.00000E+00         0.00000E+00         0.17870E+06
 
    0.77658E+06         0.40118E+06         0.00000E+00
    0.40118E+06         0.10151E+06         0.00000E+00
    0.00000E+00         0.00000E+00         0.17562E+06
 
    0.75217E+06         0.41455E+06         0.00000E+00
    0.41455E+06         0.11040E+06         0.00000E+00
    0.00000E+00         0.00000E+00         0.17251E+06
 
    0.72754E+06         0.42711E+06         0.00000E+00
    0.42711E+06         0.11942E+06         0.00000E+00
    0.00000E+00         0.00000E+00         0.16939E+06
 
    0.70276E+06         0.43887E+06         0.00000E+00
    0.43887E+06         0.12855E+06         0.00000E+00
    0.00000E+00         0.00000E+00         0.16626E+06
 
    0.67788E+06         0.44986E+06         0.00000E+00
    0.44986E+06         0.13776E+06         0.00000E+00
    0.00000E+00         0.00000E+00         0.16313E+06
 
    0.65295E+06         0.46009E+06         0.00000E+00
    0.46009E+06         0.14704E+06         0.00000E+00
    0.00000E+00         0.00000E+00         0.16000E+06
 
    0.62802E+06         0.46958E+06         0.00000E+00
    0.46958E+06         0.15635E+06         0.00000E+00
    0.00000E+00         0.00000E+00         0.15687E+06
 
    0.60313E+06         0.47836E+06         0.00000E+00
    0.47836E+06         0.16569E+06         0.00000E+00
    0.00000E+00         0.00000E+00         0.15376E+06
 
    0.57833E+06         0.48646E+06         0.00000E+00
    0.48646E+06         0.17503E+06         0.00000E+00
    0.00000E+00         0.00000E+00         0.15067E+06
 
    0.55367E+06         0.49388E+06         0.00000E+00
    0.49388E+06         0.18436E+06         0.00000E+00
    0.00000E+00         0.00000E+00         0.14761E+06
 
    0.52918E+06         0.50067E+06         0.00000E+00
    0.50067E+06         0.19365E+06         0.00000E+00
    0.00000E+00         0.00000E+00         0.14457E+06
 
    0.50490E+06         0.50685E+06         0.00000E+00
    0.50685E+06         0.20289E+06         0.00000E+00
    0.00000E+00         0.00000E+00         0.14156E+06
 
    0.48087E+06         0.51244E+06         0.00000E+00
    0.51244E+06         0.21208E+06         0.00000E+00
    0.00000E+00         0.00000E+00         0.13859E+06
 
    0.45711E+06         0.51747E+06         0.00000E+00
    0.51747E+06         0.22119E+06         0.00000E+00
    0.00000E+00         0.00000E+00         0.13566E+06
 
    0.43367E+06         0.52197E+06         0.00000E+00
    0.52197E+06         0.23022E+06         0.00000E+00
    0.00000E+00         0.00000E+00         0.13278E+06
 
    0.41057E+06         0.52598E+06         0.00000E+00
    0.52598E+06         0.23915E+06         0.00000E+00
    0.00000E+00         0.00000E+00         0.12994E+06
 
    0.38782E+06         0.52952E+06         0.00000E+00
    0.52952E+06         0.24798E+06         0.00000E+00
    0.00000E+00         0.00000E+00         0.12716E+06
 
    0.36547E+06         0.53263E+06         0.00000E+00
    0.53263E+06         0.25669E+06         0.00000E+00
    0.00000E+00         0.00000E+00         0.12443E+06
 
    0.34353E+06         0.53533E+06         0.00000E+00
    0.53533E+06         0.26529E+06         0.00000E+00
    0.00000E+00         0.00000E+00         0.12176E+06
 
    0.32201E+06         0.53767E+06         0.00000E+00
    0.53767E+06         0.27376E+06         0.00000E+00
    0.00000E+00         0.00000E+00         0.11915E+06
 
    0.30093E+06         0.53967E+06         0.00000E+00
    0.53967E+06         0.28209E+06         0.00000E+00
    0.00000E+00         0.00000E+00         0.11660E+06
 
    0.28031E+06         0.54136E+06         0.00000E+00
    0.54136E+06         0.29029E+06         0.00000E+00
    0.00000E+00         0.00000E+00         0.11412E+06
 
    0.26016E+06         0.54279E+06         0.00000E+00
    0.54279E+06         0.29836E+06         0.00000E+00
    0.00000E+00         0.00000E+00         0.11170E+06
 
    0.24048E+06         0.54399E+06         0.00000E+00
    0.54399E+06         0.30628E+06         0.00000E+00
    0.00000E+00         0.00000E+00         0.10935E+06
 
    0.22128E+06         0.54499E+06         0.00000E+00
    0.54499E+06         0.31407E+06         0.00000E+00
    0.00000E+00         0.00000E+00         0.10707E+06
 
    0.20256E+06         0.54583E+06         0.00000E+00
    0.54583E+06         0.32172E+06         0.00000E+00
    0.00000E+00         0.00000E+00         0.10486E+06
 
    0.18432E+06         0.54655E+06         0.00000E+00
    0.54655E+06         0.32925E+06         0.00000E+00
    0.00000E+00         0.00000E+00         0.10271E+06
 
    0.16655E+06         0.54719E+06         0.00000E+00
    0.54719E+06         0.33664E+06         0.00000E+00
    0.00000E+00         0.00000E+00         0.10064E+06
 
    0.14925E+06         0.54777E+06         0.00000E+00
    0.54777E+06         0.34391E+06         0.00000E+00
    0.00000E+00         0.00000E+00         0.98633E+05
 
    0.13241E+06         0.54835E+06         0.00000E+00
    0.54835E+06         0.35108E+06         0.00000E+00
    0.00000E+00         0.00000E+00         0.96696E+05
 
    0.11601E+06         0.54895E+06         0.00000E+00
    0.54895E+06         0.35814E+06         0.00000E+00
    0.00000E+00         0.00000E+00         0.94828E+05
 
    0.10003E+06         0.54961E+06         0.00000E+00
    0.54961E+06         0.36511E+06         0.00000E+00
    0.00000E+00         0.00000E+00         0.93027E+05
 
    0.12571E+07         0.17362E+05         0.00000E+00
    0.17362E+05        -0.26406E+03         0.00000E+00
    0.00000E+00         0.00000E+00         0.25136E+06
 
    0.12444E+07         0.49970E+05         0.00000E+00
    0.49970E+05         0.72822E+03         0.00000E+00
    0.00000E+00         0.00000E+00         0.24903E+06
 
    0.12301E+07         0.81627E+05         0.00000E+00
    0.81627E+05         0.25872E+04         0.00000E+00
    0.00000E+00         0.00000E+00         0.24653E+06
 
    0.12141E+07         0.11230E+06         0.00000E+00
    0.11230E+06         0.52579E+04         0.00000E+00
    0.00000E+00         0.00000E+00         0.24386E+06
 
    0.11965E+07         0.14197E+06         0.00000E+00
    0.14197E+06         0.86865E+04         0.00000E+00
    0.00000E+00         0.00000E+00         0.24105E+06
 
    0.11776E+07         0.17060E+06         0.00000E+00
    0.17060E+06         0.12820E+05         0.00000E+00
    0.00000E+00         0.00000E+00         0.23809E+06
 
    0.11574E+07         0.19819E+06         0.00000E+00
    0.19819E+06         0.17608E+05         0.00000E+00
    0.00000E+00         0.00000E+00         0.23500E+06
 
    0.11359E+07         0.22472E+06         0.00000E+00
    0.22472E+06         0.23000E+05         0.00000E+00
    0.00000E+00         0.00000E+00         0.23179E+06
 
    0.11134E+07         0.25018E+06         0.00000E+00
    0.25018E+06         0.28948E+05         0.00000E+00
    0.00000E+00         0.00000E+00         0.22847E+06
 
    0.10898E+07         0.27457E+06         0.00000E+00
    0.27457E+06         0.35406E+05         0.00000E+00
    0.00000E+00         0.00000E+00         0.22505E+06
 
    0.10654E+07         0.29788E+06         0.00000E+00
    0.29788E+06         0.42328E+05         0.00000E+00
    0.00000E+00         0.00000E+00         0.22154E+06
 
    0.10401E+07         0.32012E+06         0.00000E+00
    0.32012E+06         0.49671E+05         0.00000E+00
    0.00000E+00         0.00000E+00         0.21796E+06
 
    0.10141E+07         0.34129E+06         0.00000E+00
    0.34129E+06         0.57394E+05         0.00000E+00
    0.00000E+00         0.00000E+00         0.21430E+06
 
    0.98746E+06         0.36140E+06         0.00000E+00
    0.36140E+06         0.65457E+05         0.00000E+00
    0.00000E+00         0.00000E+00         0.21058E+06
 
    0.96025E+06         0.38047E+06         0.00000E+00
    0.38047E+06         0.73823E+05         0.00000E+00
    0.00000E+00         0.00000E+00         0.20682E+06
 
    0.93257E+06         0.39849E+06         0.00000E+00
    0.39849E+06         0.82454E+05         0.00000E+00
    0.00000E+00         0.00000E+00         0.20301E+06
 
    0.90449E+06         0.41550E+06         0.00000E+00
    0.41550E+06         0.91318E+05         0.00000E+00
    0.00000E+00         0.00000E+00         0.19916E+06
 
    0.87609E+06         0.43150E+06         0.00000E+00
    0.43150E+06         0.10038E+06         0.00000E+00
    0.00000E+00         0.00000E+00         0.19529E+06
 
    0.84743E+06         0.44652E+06         0.00000E+00
    0.44652E+06         0.10961E+06         0.00000E+00
    0.00000E+00         0.00000E+00         0.19141E+06
 
    0.81860E+06         0.46057E+06         0.00000E+00
    0.46057E+06         0.11899E+06         0.00000E+00
    0.00000E+00         0.00000E+00         0.18752E+06
 
    0.78965E+06         0.47368E+06         0.00000E+00
    0.47368E+06         0.12847E+06         0.00000E+00
    0.00000E+00         0.00000E+00         0.18362E+06
 
    0.76065E+06         0.48587E+06         0.00000E+00
    0.48587E+06         0.13804E+06         0.00000E+00
    0.00000E+00         0.00000E+00         0.17974E+06
 
    0.73165E+06         0.49717E+06         0.00000E+00
    0.49717E+06         0.14767E+06         0.00000E+00
    0.00000E+00         0.00000E+00         0.17587E+06
 
    0.70273E+06         0.50760E+06         0.00000E+00
    0.50760E+06         0.15734E+06         0.00000E+00
    0.00000E+00         0.00000E+00         0.17201E+06
 
    0.67393E+06         0.51720E+06         0.00000E+00
    0.51720E+06         0.16703E+06         0.00000E+00
    0.00000E+00         0.00000E+00         0.16819E+06
 
    0.64530E+06         0.52598E+06         0.00000E+00
    0.52598E+06         0.17672E+06         0.00000E+00
    0.00000E+00         0.00000E+00         0.16440E+06
 
    0.61690E+06         0.53398E+06         0.00000E+00
    0.53398E+06         0.18639E+06         0.00000E+00
    0.00000E+00         0.00000E+00         0.16066E+06
 
    0.58878E+06         0.54124E+06         0.00000E+00
    0.54124E+06         0.19601E+06         0.00000E+00
    0.00000E+00         0.00000E+00         0.15696E+06
 
    0.56097E+06         0.54777E+06         0.00000E+00
    0.54777E+06         0.20559E+06         0.00000E+00
    0.00000E+00         0.00000E+00         0.15331E+06
 
    0.53352E+06         0.55362E+06         0.00000E+00
    0.55362E+06         0.21509E+06         0.00000E+00
    0.00000E+00         0.00000E+00         0.14972E+06
 
    0.50648E+06         0.55882E+06         0.00000E+00
    0.55882E+06         0.22451E+06         0.00000E+00
    0.00000E+00         0.00000E+00         0.14620E+06
 
    0.47987E+06         0.56340E+06         0.00000E+00
    0.56340E+06         0.23383E+06         0.00000E+00
    0.00000E+00         0.00000E+00         0.14274E+06
 
    0.45373E+06         0.56739E+06         0.00000E+00
    0.56739E+06         0.24305E+06         0.00000E+00
    0.00000E+00         0.00000E+00         0.13935E+06
 
    0.42810E+06         0.57084E+06         0.00000E+00
    0.57084E+06         0.25214E+06         0.00000E+00
    0.00000E+00         0.00000E+00         0.13605E+06
 
    0.40300E+06         0.57377E+06         0.00000E+00
    0.57377E+06         0.26111E+06         0.00000E+00
    0.00000E+00         0.00000E+00         0.13282E+06
 
    0.37846E+06         0.57623E+06         0.00000E+00
    0.57623E+06         0.26993E+06         0.00000E+00
    0.00000E+00         0.00000E+00         0.12968E+06
 
    0.35451E+06         0.57825E+06         0.00000E+00
    0.57825E+06         0.27862E+06         0.00000E+00
    0.00000E+00         0.00000E+00         0.12662E+06
 
    0.33116E+06         0.57987E+06         0.00000E+00
    0.57987E+06         0.28715E+06         0.00000E+00
    0.00000E+00         0.00000E+00         0.12366E+06
 
    0.30845E+06         0.58114E+06         0.00000E+00
    0.58114E+06         0.29552E+06         0.00000E+00
    0.00000E+00         0.00000E+00         0.12079E+06
 
    0.28638E+06         0.58209E+06         0.00000E+00
    0.58209E+06         0.30373E+06         0.00000E+00
    0.00000E+00         0.00000E+00         0.11802E+06
 
    0.26496E+06         0.58276E+06         0.00000E+00
    0.58276E+06         0.31177E+06         0.00000E+00
    0.00000E+00         0.00000E+00         0.11535E+06
 
    0.24422E+06         0.58319E+06         0.00000E+00
    0.58319E+06         0.31965E+06         0.00000E+00
    0.00000E+00         0.00000E+00         0.11277E+06
 
    0.22415E+06         0.58343E+06         0.00000E+00
    0.58343E+06         0.32736E+06         0.00000E+00
    0.00000E+00         0.00000E+00         0.11030E+06
 
    0.20476E+06         0.58353E+06         0.00000E+00
    0.58353E+06         0.33490E+06         0.00000E+00
    0.00000E+00         0.00000E+00         0.10793E+06
 
    0.18606E+06         0.58352E+06         0.00000E+00
    0.58352E+06         0.34228E+06         0.00000E+00
    0.00000E+00         0.00000E+00         0.10567E+06
 
    0.16804E+06         0.58346E+06         0.00000E+00
    0.58346E+06         0.34950E+06         0.00000E+00
    0.00000E+00         0.00000E+00         0.10351E+06
 
    0.15069E+06         0.58338E+06         0.00000E+00
    0.58338E+06         0.35656E+06         0.00000E+00
    0.00000E+00         0.00000E+00         0.10145E+06
 
    0.13401E+06         0.58333E+06         0.00000E+00
    0.58333E+06         0.36348E+06         0.00000E+00
    0.00000E+00         0.00000E+00         0.99498E+05
 
    0.11798E+06         0.58337E+06         0.00000E+00
    0.58337E+06         0.37025E+06         0.00000E+00
    0.00000E+00         0.00000E+00         0.97648E+05
 
    0.10259E+06         0.58354E+06         0.00000E+00
    0.58354E+06         0.37691E+06         0.00000E+00
    0.00000E+00         0.00000E+00         0.95899E+05
 
    0.14344E+07         0.20077E+05         0.00000E+00
    0.20077E+05        -0.28552E+03         0.00000E+00
    0.00000E+00         0.00000E+00         0.28682E+06
 
    0.14163E+07         0.57372E+05         0.00000E+00
    0.57372E+05         0.81409E+03         0.00000E+00
    0.00000E+00         0.00000E+00         0.28342E+06
 
    0.13963E+07         0.93405E+05         0.00000E+00
    0.93405E+05         0.28547E+04         0.00000E+00
    0.00000E+00         0.00000E+00         0.27984E+06
 
    0.13746E+07         0.12815E+06         0.00000E+00
    0.12815E+06         0.57682E+04         0.00000E+00
    0.00000E+00         0.00000E+00         0.27608E+06
 
    0.13513E+07         0.16160E+06         0.00000E+00
    0.16160E+06         0.94884E+04         0.00000E+00
    0.00000E+00         0.00000E+00         0.27216E+06
 
    0.13265E+07         0.19372E+06         0.00000E+00
    0.19372E+06         0.13952E+05         0.00000E+00
    0.00000E+00         0.00000E+00         0.26809E+06
 
    0.13004E+07         0.22453E+06         0.00000E+00
    0.22453E+06         0.19096E+05         0.00000E+00
    0.00000E+00         0.00000E+00         0.26389E+06
 
    0.12730E+07         0.25401E+06         0.00000E+00
    0.25401E+06         0.24864E+05         0.00000E+00
    0.00000E+00         0.00000E+00         0.25956E+06
 
    0.12444E+07         0.28216E+06         0.00000E+00
    0.28216E+06         0.31197E+05         0.00000E+00
    0.00000E+00         0.00000E+00         0.25513E+06
 
    0.12149E+07         0.30899E+06         0.00000E+00
    0.30899E+06         0.38041E+05         0.00000E+00
    0.00000E+00         0.00000E+00         0.25060E+06
 
    0.11845E+07         0.33452E+06         0.00000E+00
    0.33452E+06         0.45347E+05         0.00000E+00
    0.00000E+00         0.00000E+00         0.24598E+06
 
    0.11534E+07         0.35874E+06         0.00000E+00
    0.35874E+06         0.53064E+05         0.00000E+00
    0.00000E+00         0.00000E+00         0.24129E+06
 
    0.11215E+07         0.38169E+06         0.00000E+00
    0.38169E+06         0.61146E+05         0.00000E+00
    0.00000E+00         0.00000E+00         0.23654E+06
 
    0.10891E+07         0.40337E+06         0.00000E+00
    0.40337E+06         0.69550E+05         0.00000E+00
    0.00000E+00         0.00000E+00         0.23174E+06
 
    0.10563E+07         0.42381E+06         0.00000E+00
    0.42381E+06         0.78235E+05         0.00000E+00
    0.00000E+00         0.00000E+00         0.22690E+06
 
    0.10230E+07         0.44303E+06         0.00000E+00
    0.44303E+06         0.87162E+05         0.00000E+00
    0.00000E+00         0.00000E+00         0.22203E+06
 
    0.98945E+06         0.46106E+06         0.00000E+00
    0.46106E+06         0.96295E+05         0.00000E+00
    0.00000E+00         0.00000E+00         0.21715E+06
 
    0.95568E+06         0.47792E+06         0.00000E+00
    0.47792E+06         0.10560E+06         0.00000E+00
    0.00000E+00         0.00000E+00         0.21226E+06
 
    0.92179E+06         0.49365E+06         0.00000E+00
    0.49365E+06         0.11505E+06         0.00000E+00
    0.00000E+00         0.00000E+00         0.20737E+06
 
    0.88785E+06         0.50827E+06         0.00000E+00
    0.50827E+06         0.12461E+06         0.00000E+00
    0.00000E+00         0.00000E+00         0.20249E+06
 
    0.85393E+06         0.52181E+06         0.00000E+00
    0.52181E+06         0.13425E+06         0.00000E+00
    0.00000E+00         0.00000E+00         0.19764E+06
 
    0.82011E+06         0.53431E+06         0.00000E+00
    0.53431E+06         0.14395E+06         0.00000E+00
    0.00000E+00         0.00000E+00         0.19281E+06
 
    0.78644E+06         0.54580E+06         0.00000E+00
    0.54580E+06         0.15369E+06         0.00000E+00
    0.00000E+00         0.00000E+00         0.18802E+06
 
    0.75299E+06         0.55632E+06         0.00000E+00
    0.55632E+06         0.16344E+06         0.00000E+00
    0.00000E+00         0.00000E+00         0.18329E+06
 
    0.71983E+06         0.56590E+06         0.00000E+00
    0.56590E+06         0.17318E+06         0.00000E+00
    0.00000E+00         0.00000E+00         0.17860E+06
 
    0.68700E+06         0.57457E+06         0.00000E+00
    0.57457E+06         0.18290E+06         0.00000E+00
    0.00000E+00         0.00000E+00         0.17398E+06
 
    0.65457E+06         0.58237E+06         0.00000E+00
    0.58237E+06         0.19258E+06         0.00000E+00
    0.00000E+00         0.00000E+00         0.16943E+06
 
    0.62258E+06         0.58935E+06         0.00000E+00
    0.58935E+06         0.20220E+06         0.00000E+00
    0.00000E+00         0.00000E+00         0.16496E+06
 
    0.59108E+06         0.59552E+06         0.00000E+00
    0.59552E+06         0.21175E+06         0.00000E+00
    0.00000E+00         0.00000E+00         0.16057E+06
 
    0.56012E+06         0.60095E+06         0.00000E+00
    0.60095E+06         0.22121E+06         0.00000E+00
    0.00000E+00         0.00000E+00         0.15627E+06
 
    0.52973E+06         0.60565E+06         0.00000E+00
    0.60565E+06         0.23058E+06         0.00000E+00
    0.00000E+00         0.00000E+00         0.15206E+06
 
    0.49997E+06         0.60968E+06         0.00000E+00
    0.60968E+06         0.23983E+06         0.00000E+00
    0.00000E+00         0.00000E+00         0.14796E+06
 
    0.47088E+06         0.61306E+06         0.00000E+00
    0.61306E+06         0.24896E+06         0.00000E+00
    0.00000E+00         0.00000E+00         0.14397E+06
 
    0.44247E+06         0.61585E+06         0.00000E+00
    0.61585E+06         0.25796E+06         0.00000E+00
    0.00000E+00         0.00000E+00         0.14009E+06
 
    0.41480E+06         0.61808E+06         0.00000E+00
    0.61808E+06         0.26681E+06         0.00000E+00
    0.00000E+00         0.00000E+00         0.13632E+06
 
    0.38788E+06         0.61979E+06         0.00000E+00
    0.61979E+06         0.27552E+06         0.00000E+00
    0.00000E+00         0.00000E+00         0.13268E+06
 
    0.36176E+06         0.62103E+06         0.00000E+00
    0.62103E+06         0.28406E+06         0.00000E+00
    0.00000E+00         0.00000E+00         0.12916E+06
 
    0.33645E+06         0.62183E+06         0.00000E+00
    0.62183E+06         0.29244E+06         0.00000E+00
    0.00000E+00         0.00000E+00         0.12578E+06
 
    0.31198E+06         0.62225E+06         0.00000E+00
    0.62225E+06         0.30065E+06         0.00000E+00
    0.00000E+00         0.00000E+00         0.12253E+06
 
    0.28838E+06         0.62233E+06         0.00000E+00
    0.62233E+06         0.30868E+06         0.00000E+00
    0.00000E+00         0.00000E+00         0.11941E+06
 
    0.26566E+06         0.62211E+06         0.00000E+00
    0.62211E+06         0.31652E+06         0.00000E+00
    0.00000E+00         0.00000E+00         0.11644E+06
 
    0.24383E+06         0.62165E+06         0.00000E+00
    0.62165E+06         0.32418E+06         0.00000E+00
    0.00000E+00         0.00000E+00         0.11360E+06
 
    0.22292E+06         0.62100E+06         0.00000E+00
    0.62100E+06         0.33164E+06         0.00000E+00
    0.00000E+00         0.00000E+00         0.11091E+06
 
    0.20292E+06         0.62019E+06         0.00000E+00
    0.62019E+06         0.33891E+06         0.00000E+00
    0.00000E+00         0.00000E+00         0.10837E+06
 
    0.18386E+06         0.61930E+06         0.00000E+00
    0.61930E+06         0.34599E+06         0.00000E+00
    0.00000E+00         0.00000E+00         0.10597E+06
 
    0.16572E+06         0.61836E+06         0.00000E+00
    0.61836E+06         0.35287E+06         0.00000E+00
    0.00000E+00         0.00000E+00         0.10372E+06
 
    0.14851E+06         0.61744E+06         0.00000E+00
    0.61744E+06         0.35957E+06         0.00000E+00
    0.00000E+00         0.00000E+00         0.10162E+06
 
    0.13223E+06         0.61659E+06         0.00000E+00
    0.61659E+06         0.36608E+06         0.00000E+00
    0.00000E+00         0.00000E+00         0.99662E+05
 
    0.11687E+06         0.61588E+06         0.00000E+00
    0.61588E+06         0.37241E+06         0.00000E+00
    0.00000E+00         0.00000E+00         0.97856E+05
 
    0.10241E+06         0.61535E+06         0.00000E+00
    0.61535E+06         0.37858E+06         0.00000E+00
    0.00000E+00         0.00000E+00         0.96197E+05
 
    0.16369E+07         0.23066E+05         0.00000E+00
    0.23066E+05        -0.29889E+03         0.00000E+00
    0.00000E+00         0.00000E+00         0.32732E+06
 
    0.16117E+07         0.65403E+05         0.00000E+00
    0.65403E+05         0.88803E+03         0.00000E+00
    0.00000E+00         0.00000E+00         0.32251E+06
 
    0.15844E+07         0.10609E+06         0.00000E+00
    0.10609E+06         0.30651E+04         0.00000E+00
    0.00000E+00         0.00000E+00         0.31750E+06
 
    0.15554E+07         0.14513E+06         0.00000E+00
    0.14513E+06         0.61494E+04         0.00000E+00
    0.00000E+00         0.00000E+00         0.31230E+06
 
    0.15246E+07         0.18250E+06         0.00000E+00
    0.18250E+06         0.10061E+05         0.00000E+00
    0.00000E+00         0.00000E+00         0.30694E+06
 
    0.14924E+07         0.21822E+06         0.00000E+00
    0.21822E+06         0.14724E+05         0.00000E+00
    0.00000E+00         0.00000E+00         0.30143E+06
 
    0.14589E+07         0.25229E+06         0.00000E+00
    0.25229E+06         0.20066E+05         0.00000E+00
    0.00000E+00         0.00000E+00         0.29578E+06
 
    0.14241E+07         0.28472E+06         0.00000E+00
    0.28472E+06         0.26019E+05         0.00000E+00
    0.00000E+00         0.00000E+00         0.29002E+06
 
    0.13883E+07         0.31553E+06         0.00000E+00
    0.31553E+06         0.32516E+05         0.00000E+00
    0.00000E+00         0.00000E+00         0.28415E+06
 
    0.13515E+07         0.34474E+06         0.00000E+00
    0.34474E+06         0.39499E+05         0.00000E+00
    0.00000E+00         0.00000E+00         0.27820E+06
 
    0.13140E+07         0.37237E+06         0.00000E+00
    0.37237E+06         0.46908E+05         0.00000E+00
    0.00000E+00         0.00000E+00         0.27218E+06
 
    0.12758E+07         0.39846E+06         0.00000E+00
    0.39846E+06         0.54690E+05         0.00000E+00
    0.00000E+00         0.00000E+00         0.26609E+06
 
    0.12370E+07         0.42303E+06         0.00000E+00
    0.42303E+06         0.62796E+05         0.00000E+00
    0.00000E+00         0.00000E+00         0.25996E+06
 
    0.11978E+07         0.44613E+06         0.00000E+00
    0.44613E+06         0.71180E+05         0.00000E+00
    0.00000E+00         0.00000E+00         0.25380E+06
 
    0.11583E+07         0.46778E+06         0.00000E+00
    0.46778E+06         0.79799E+05         0.00000E+00
    0.00000E+00         0.00000E+00         0.24762E+06
 
    0.11186E+07         0.48802E+06         0.00000E+00
    0.48802E+06         0.88613E+05         0.00000E+00
    0.00000E+00         0.00000E+00         0.24144E+06
 
    0.10787E+07         0.50689E+06         0.00000E+00
    0.50689E+06         0.97588E+05         0.00000E+00
    0.00000E+00         0.00000E+00         0.23526E+06
 
    0.10388E+07         0.52444E+06         0.00000E+00
    0.52444E+06         0.10669E+06         0.00000E+00
    0.00000E+00         0.00000E+00         0.22910E+06
 
    0.99896E+06         0.54070E+06         0.00000E+00
    0.54070E+06         0.11589E+06         0.00000E+00
    0.00000E+00         0.00000E+00         0.22297E+06
 
    0.95924E+06         0.55572E+06         0.00000E+00
    0.55572E+06         0.12516E+06         0.00000E+00
    0.00000E+00         0.00000E+00         0.21688E+06
 
    0.91973E+06         0.56954E+06         0.00000E+00
    0.56954E+06         0.13448E+06         0.00000E+00
    0.00000E+00         0.00000E+00         0.21084E+06
 
    0.88050E+06         0.58221E+06         0.00000E+00
    0.58221E+06         0.14382E+06         0.00000E+00
    0.00000E+00         0.00000E+00         0.20486E+06
 
    0.84162E+06         0.59376E+06         0.00000E+00
    0.59376E+06         0.15317E+06         0.00000E+00
    0.00000E+00         0.00000E+00         0.19896E+06
 
    0.80316E+06         0.60424E+06         0.00000E+00
    0.60424E+06         0.16251E+06         0.00000E+00
    0.00000E+00         0.00000E+00         0.19313E+06
 
    0.76517E+06         0.61369E+06         0.00000E+00
    0.61369E+06         0.17181E+06         0.00000E+00
    0.00000E+00         0.00000E+00         0.18740E+06
 
    0.72772E+06         0.62215E+06         0.00000E+00
    0.62215E+06         0.18108E+06         0.00000E+00
    0.00000E+00         0.00000E+00         0.18176E+06
 
    0.69086E+06         0.62968E+06         0.00000E+00
    0.62968E+06         0.19029E+06         0.00000E+00
    0.00000E+00         0.00000E+00         0.17623E+06
 
    0.65464E+06         0.63630E+06         0.00000E+00
    0.63630E+06         0.19944E+06         0.00000E+00
    0.00000E+00         0.00000E+00         0.17082E+06
 
    0.61911E+06         0.64207E+06         0.00000E+00
    0.64207E+06         0.20850E+06         0.00000E+00
    0.00000E+00         0.00000E+00         0.16552E+06
 
    0.58432E+06         0.64702E+06         0.00000E+00
    0.64702E+06         0.21748E+06         0.00000E+00
    0.00000E+00         0.00000E+00         0.16036E+06
 
    0.55031E+06         0.65120E+06         0.00000E+00
    0.65120E+06         0.22636E+06         0.00000E+00
    0.00000E+00         0.00000E+00         0.15534E+06
 
    0.51713E+06         0.65464E+06         0.00000E+00
    0.65464E+06         0.23514E+06         0.00000E+00
    0.00000E+00         0.00000E+00         0.15045E+06
 
    0.48482E+06         0.65740E+06         0.00000E+00
    0.65740E+06         0.24380E+06         0.00000E+00
    0.00000E+00         0.00000E+00         0.14572E+06
 
    0.45340E+06         0.65951E+06         0.00000E+00
    0.65951E+06         0.25234E+06         0.00000E+00
    0.00000E+00         0.00000E+00         0.14115E+06
 
    0.42293E+06         0.66102E+06         0.00000E+00
    0.66102E+06         0.26074E+06         0.00000E+00
    0.00000E+00         0.00000E+00         0.13673E+06
 
    0.39344E+06         0.66197E+06         0.00000E+00
    0.66197E+06         0.26900E+06         0.00000E+00
    0.00000E+00         0.00000E+00         0.13249E+06
 
    0.36496E+06         0.66240E+06         0.00000E+00
    0.66240E+06         0.27712E+06         0.00000E+00
    0.00000E+00         0.00000E+00         0.12842E+06
 
    0.33752E+06         0.66237E+06         0.00000E+00
    0.66237E+06         0.28507E+06         0.00000E+00
    0.00000E+00         0.00000E+00         0.12452E+06
 
    0.31115E+06         0.66191E+06         0.00000E+00
    0.66191E+06         0.29286E+06         0.00000E+00
    0.00000E+00         0.00000E+00         0.12080E+06
 
    0.28588E+06         0.66107E+06         0.00000E+00
    0.66107E+06         0.30048E+06         0.00000E+00
    0.00000E+00         0.00000E+00         0.11727E+06
 
    0.26175E+06         0.65991E+06         0.00000E+00
    0.65991E+06         0.30791E+06         0.00000E+00
    0.00000E+00         0.00000E+00         0.11393E+06
 
    0.23876E+06         0.65848E+06         0.00000E+00
    0.65848E+06         0.31515E+06         0.00000E+00
    0.00000E+00         0.00000E+00         0.11078E+06
 
    0.21695E+06         0.65683E+06         0.00000E+00
    0.65683E+06         0.32219E+06         0.00000E+00
    0.00000E+00         0.00000E+00         0.10783E+06
 
    0.19633E+06         0.65502E+06         0.00000E+00
    0.65502E+06         0.32903E+06         0.00000E+00
    0.00000E+00         0.00000E+00         0.10507E+06
 
    0.17693E+06         0.65311E+06         0.00000E+00
    0.65311E+06         0.33566E+06         0.00000E+00
    0.00000E+00         0.00000E+00         0.10252E+06
 
    0.15874E+06         0.65115E+06         0.00000E+00
    0.65115E+06         0.34207E+06         0.00000E+00
    0.00000E+00         0.00000E+00         0.10016E+06
 
    0.14179E+06         0.64921E+06         0.00000E+00
    0.64921E+06         0.34826E+06         0.00000E+00
    0.00000E+00         0.00000E+00         0.98011E+05
 
    0.12608E+06         0.64736E+06         0.00000E+00
    0.64736E+06         0.35423E+06         0.00000E+00
    0.00000E+00         0.00000E+00         0.96063E+05
 
    0.11161E+06         0.64567E+06         0.00000E+00
    0.64567E+06         0.35999E+06         0.00000E+00
    0.00000E+00         0.00000E+00         0.94318E+05
 
    0.98369E+05         0.64421E+06         0.00000E+00
    0.64421E+06         0.36552E+06         0.00000E+00
    0.00000E+00         0.00000E+00         0.92778E+05
 
    0.18663E+07         0.26261E+05         0.00000E+00
    0.26261E+05        -0.29892E+03         0.00000E+00
    0.00000E+00         0.00000E+00         0.37321E+06
 
    0.18317E+07         0.73834E+05         0.00000E+00
    0.73834E+05         0.93806E+03         0.00000E+00
    0.00000E+00         0.00000E+00         0.36653E+06
 
    0.17951E+07         0.11929E+06         0.00000E+00
    0.11929E+06         0.31722E+04         0.00000E+00
    0.00000E+00         0.00000E+00         0.35966E+06
 
    0.17567E+07         0.16266E+06         0.00000E+00
    0.16266E+06         0.63039E+04         0.00000E+00
    0.00000E+00         0.00000E+00         0.35260E+06
 
    0.17167E+07         0.20393E+06         0.00000E+00
    0.20393E+06         0.10239E+05         0.00000E+00
    0.00000E+00         0.00000E+00         0.34538E+06
 
    0.16752E+07         0.24315E+06         0.00000E+00
    0.24315E+06         0.14888E+05         0.00000E+00
    0.00000E+00         0.00000E+00         0.33803E+06
 
    0.16325E+07         0.28034E+06         0.00000E+00
    0.28034E+06         0.20167E+05         0.00000E+00
    0.00000E+00         0.00000E+00         0.33054E+06
 
    0.15888E+07         0.31553E+06         0.00000E+00
    0.31553E+06         0.25997E+05         0.00000E+00
    0.00000E+00         0.00000E+00         0.32296E+06
 
    0.15441E+07         0.34877E+06         0.00000E+00
    0.34877E+06         0.32307E+05         0.00000E+00
    0.00000E+00         0.00000E+00         0.31529E+06
 
    0.14987E+07         0.38010E+06         0.00000E+00
    0.38010E+06         0.39029E+05         0.00000E+00
    0.00000E+00         0.00000E+00         0.30755E+06
 
    0.14527E+07         0.40957E+06         0.00000E+00
    0.40957E+06         0.46100E+05         0.00000E+00
    0.00000E+00         0.00000E+00         0.29976E+06
 
    0.14062E+07         0.43723E+06         0.00000E+00
    0.43723E+06         0.53464E+05         0.00000E+00
    0.00000E+00         0.00000E+00         0.29193E+06
 
    0.13594E+07         0.46313E+06         0.00000E+00
    0.46313E+06         0.61070E+05         0.00000E+00
    0.00000E+00         0.00000E+00         0.28409E+06
 
    0.13124E+07         0.48733E+06         0.00000E+00
    0.48733E+06         0.68872E+05         0.00000E+00
    0.00000E+00         0.00000E+00         0.27625E+06
 
    0.12653E+07         0.50988E+06         0.00000E+00
    0.50988E+06         0.76827E+05         0.00000E+00
    0.00000E+00         0.00000E+00         0.26842E+06
 
    0.12182E+07         0.53084E+06         0.00000E+00
    0.53084E+06         0.84901E+05         0.00000E+00
    0.00000E+00         0.00000E+00         0.26061E+06
 
    0.11712E+07         0.55028E+06         0.00000E+00
    0.55028E+06         0.93060E+05         0.00000E+00
    0.00000E+00         0.00000E+00         0.25285E+06
 
    0.11244E+07         0.56824E+06         0.00000E+00
    0.56824E+06         0.10128E+06         0.00000E+00
    0.00000E+00         0.00000E+00         0.24513E+06
 
    0.10779E+07         0.58479E+06         0.00000E+00
    0.58479E+06         0.10953E+06         0.00000E+00
    0.00000E+00         0.00000E+00         0.23749E+06
 
    0.10318E+07         0.59998E+06         0.00000E+00
    0.59998E+06         0.11780E+06         0.00000E+00
    0.00000E+00         0.00000E+00         0.22992E+06
 
    0.98619E+06         0.61388E+06         0.00000E+00
    0.61388E+06         0.12606E+06         0.00000E+00
    0.00000E+00         0.00000E+00         0.22245E+06
 
    0.94108E+06         0.62653E+06         0.00000E+00
    0.62653E+06         0.13431E+06         0.00000E+00
    0.00000E+00         0.00000E+00         0.21508E+06
 
    0.89656E+06         0.63799E+06         0.00000E+00
    0.63799E+06         0.14253E+06         0.00000E+00
    0.00000E+00         0.00000E+00         0.20782E+06
 
    0.85270E+06         0.64832E+06         0.00000E+00
    0.64832E+06         0.15071E+06         0.00000E+00
    0.00000E+00         0.00000E+00         0.20068E+06
 
    0.80954E+06         0.65757E+06         0.00000E+00
    0.65757E+06         0.15885E+06         0.00000E+00
    0.00000E+00         0.00000E+00         0.19368E+06
 
    0.76716E+06         0.66578E+06         0.00000E+00
    0.66578E+06         0.16694E+06         0.00000E+00
    0.00000E+00         0.00000E+00         0.18682E+06
 
    0.72558E+06         0.67301E+06         0.00000E+00
    0.67301E+06         0.17498E+06         0.00000E+00
    0.00000E+00         0.00000E+00         0.18011E+06
 
    0.68487E+06         0.67929E+06         0.00000E+00
    0.67929E+06         0.18296E+06         0.00000E+00
    0.00000E+00         0.00000E+00         0.17357E+06
 
    0.64507E+06         0.68469E+06         0.00000E+00
    0.68469E+06         0.19089E+06         0.00000E+00
    0.00000E+00         0.00000E+00         0.16719E+06
 
    0.60622E+06         0.68923E+06         0.00000E+00
    0.68923E+06         0.19875E+06         0.00000E+00
    0.00000E+00         0.00000E+00         0.16099E+06
 
    0.56837E+06         0.69297E+06         0.00000E+00
    0.69297E+06         0.20654E+06         0.00000E+00
    0.00000E+00         0.00000E+00         0.15498E+06
 
    0.53155E+06         0.69594E+06         0.00000E+00
    0.69594E+06         0.21427E+06         0.00000E+00
    0.00000E+00         0.00000E+00         0.14916E+06
 
    0.49580E+06         0.69819E+06         0.00000E+00
    0.69819E+06         0.22192E+06         0.00000E+00
    0.00000E+00         0.00000E+00         0.14355E+06
 
    0.46117E+06         0.69976E+06         0.00000E+00
    0.69976E+06         0.22950E+06         0.00000E+00
    0.00000E+00         0.00000E+00         0.13813E+06
 
    0.42770E+06         0.70069E+06         0.00000E+00
    0.70069E+06         0.23699E+06         0.00000E+00
    0.00000E+00         0.00000E+00         0.13294E+06
 
    0.39541E+06         0.70101E+06         0.00000E+00
    0.70101E+06         0.24439E+06         0.00000E+00
    0.00000E+00         0.00000E+00         0.12796E+06
 
    0.36436E+06         0.70077E+06         0.00000E+00
    0.70077E+06         0.25169E+06         0.00000E+00
    0.00000E+00         0.00000E+00         0.12321E+06
 
    0.33457E+06         0.70002E+06         0.00000E+00
    0.70002E+06         0.25889E+06         0.00000E+00
    0.00000E+00         0.00000E+00         0.11869E+06
 
    0.30609E+06         0.69880E+06         0.00000E+00
    0.69880E+06         0.26596E+06         0.00000E+00
    0.00000E+00         0.00000E+00         0.11441E+06
 
    0.27896E+06         0.69715E+06         0.00000E+00
    0.69715E+06         0.27290E+06         0.00000E+00
    0.00000E+00         0.00000E+00         0.11037E+06
 
    0.25321E+06         0.69512E+06         0.00000E+00
    0.69512E+06         0.27970E+06         0.00000E+00
    0.00000E+00         0.00000E+00         0.10658E+06
 
    0.22887E+06         0.69277E+06         0.00000E+00
    0.69277E+06         0.28633E+06         0.00000E+00
    0.00000E+00         0.00000E+00         0.10304E+06
 
    0.20599E+06         0.69014E+06         0.00000E+00
    0.69014E+06         0.29279E+06         0.00000E+00
    0.00000E+00         0.00000E+00         0.99757E+05
 
    0.18459E+06         0.68731E+06         0.00000E+00
    0.68731E+06         0.29907E+06         0.00000E+00
    0.00000E+00         0.00000E+00         0.96732E+05
 
    0.16472E+06         0.68431E+06         0.00000E+00
    0.68431E+06         0.30513E+06         0.00000E+00
    0.00000E+00         0.00000E+00         0.93971E+05
 
    0.14639E+06         0.68124E+06         0.00000E+00
    0.68124E+06         0.31098E+06         0.00000E+00
    0.00000E+00         0.00000E+00         0.91475E+05
 
    0.12965E+06         0.67814E+06         0.00000E+00
    0.67814E+06         0.31659E+06         0.00000E+00
    0.00000E+00         0.00000E+00         0.89248E+05
 
    0.11450E+06         0.67511E+06         0.00000E+00
    0.67511E+06         0.32196E+06         0.00000E+00
    0.00000E+00         0.00000E+00         0.87292E+05
 
    0.10098E+06         0.67221E+06         0.00000E+00
    0.67221E+06         0.32706E+06         0.00000E+00
    0.00000E+00         0.00000E+00         0.85608E+05
 
    0.89093E+05         0.66953E+06         0.00000E+00
    0.66953E+06         0.33189E+06         0.00000E+00
    0.00000E+00         0.00000E+00         0.84198E+05
 
    0.21232E+07         0.29546E+05         0.00000E+00
    0.29546E+05        -0.27928E+03         0.00000E+00
    0.00000E+00         0.00000E+00         0.42458E+06
 
    0.20766E+07         0.82292E+05         0.00000E+00
    0.82292E+05         0.94881E+03         0.00000E+00
    0.00000E+00         0.00000E+00         0.41552E+06
 
    0.20282E+07         0.13237E+06         0.00000E+00
    0.13237E+06         0.31171E+04         0.00000E+00
    0.00000E+00         0.00000E+00         0.40626E+06
 
    0.19780E+07         0.17982E+06         0.00000E+00
    0.17982E+06         0.61079E+04         0.00000E+00
    0.00000E+00         0.00000E+00         0.39683E+06
 
    0.19265E+07         0.22469E+06         0.00000E+00
    0.22469E+06         0.98105E+04         0.00000E+00
    0.00000E+00         0.00000E+00         0.38726E+06
 
    0.18737E+07         0.26704E+06         0.00000E+00
    0.26704E+06         0.14122E+05         0.00000E+00
    0.00000E+00         0.00000E+00         0.37757E+06
 
    0.18200E+07         0.30692E+06         0.00000E+00
    0.30692E+06         0.18947E+05         0.00000E+00
    0.00000E+00         0.00000E+00         0.36778E+06
 
    0.17654E+07         0.34441E+06         0.00000E+00
    0.34441E+06         0.24197E+05         0.00000E+00
    0.00000E+00         0.00000E+00         0.35792E+06
 
    0.17102E+07         0.37959E+06         0.00000E+00
    0.37959E+06         0.29793E+05         0.00000E+00
    0.00000E+00         0.00000E+00         0.34800E+06
 
    0.16546E+07         0.41252E+06         0.00000E+00
    0.41252E+06         0.35661E+05         0.00000E+00
    0.00000E+00         0.00000E+00         0.33805E+06
 
    0.15987E+07         0.44328E+06         0.00000E+00
    0.44328E+06         0.41739E+05         0.00000E+00
    0.00000E+00         0.00000E+00         0.32808E+06
 
    0.15426E+07         0.47197E+06         0.00000E+00
    0.47197E+06         0.47968E+05         0.00000E+00
    0.00000E+00         0.00000E+00         0.31812E+06
 
    0.14866E+07         0.49865E+06         0.00000E+00
    0.49865E+06         0.54298E+05         0.00000E+00
    0.00000E+00         0.00000E+00         0.30818E+06
 
    0.14307E+07         0.52343E+06         0.00000E+00
    0.52343E+06         0.60688E+05         0.00000E+00
    0.00000E+00         0.00000E+00         0.29828E+06
 
    0.13751E+07         0.54638E+06         0.00000E+00
    0.54638E+06         0.67101E+05         0.00000E+00
    0.00000E+00         0.00000E+00         0.28844E+06
 
    0.13199E+07         0.56758E+06         0.00000E+00
    0.56758E+06         0.73509E+05         0.00000E+00
    0.00000E+00         0.00000E+00         0.27867E+06
 
    0.12651E+07         0.58713E+06         0.00000E+00
    0.58713E+06         0.79888E+05         0.00000E+00
    0.00000E+00         0.00000E+00         0.26899E+06
 
    0.12108E+07         0.60510E+06         0.00000E+00
    0.60510E+06         0.86222E+05         0.00000E+00
    0.00000E+00         0.00000E+00         0.25941E+06
 
    0.11573E+07         0.62158E+06         0.00000E+00
    0.62158E+06         0.92499E+05         0.00000E+00
    0.00000E+00         0.00000E+00         0.24995E+06
 
    0.11044E+07         0.63664E+06         0.00000E+00
    0.63664E+06         0.98712E+05         0.00000E+00
    0.00000E+00         0.00000E+00         0.24062E+06
 
    0.10523E+07         0.65035E+06         0.00000E+00
    0.65035E+06         0.10486E+06         0.00000E+00
    0.00000E+00         0.00000E+00         0.23143E+06
 
    0.10010E+07         0.66280E+06         0.00000E+00
    0.66280E+06         0.11094E+06         0.00000E+00
    0.00000E+00         0.00000E+00         0.22240E+06
 
    0.95068E+06         0.67404E+06         0.00000E+00
    0.67404E+06         0.11696E+06         0.00000E+00
    0.00000E+00         0.00000E+00         0.21353E+06
 
    0.90125E+06         0.68414E+06         0.00000E+00
    0.68414E+06         0.12292E+06         0.00000E+00
    0.00000E+00         0.00000E+00         0.20483E+06
 
    0.85281E+06         0.69316E+06         0.00000E+00
    0.69316E+06         0.12884E+06         0.00000E+00
    0.00000E+00         0.00000E+00         0.19633E+06
 
    0.80539E+06         0.70116E+06         0.00000E+00
    0.70116E+06         0.13472E+06         0.00000E+00
    0.00000E+00         0.00000E+00         0.18802E+06
 
    0.75903E+06         0.70819E+06         0.00000E+00
    0.70819E+06         0.14058E+06         0.00000E+00
    0.00000E+00         0.00000E+00         0.17992E+06
 
    0.71377E+06         0.71429E+06         0.00000E+00
    0.71429E+06         0.14643E+06         0.00000E+00
    0.00000E+00         0.00000E+00         0.17204E+06
 
    0.66964E+06         0.71952E+06         0.00000E+00
    0.71952E+06         0.15227E+06         0.00000E+00
    0.00000E+00         0.00000E+00         0.16438E+06
 
    0.62666E+06         0.72390E+06         0.00000E+00
    0.72390E+06         0.15812E+06         0.00000E+00
    0.00000E+00         0.00000E+00         0.15696E+06
 
    0.58488E+06         0.72749E+06         0.00000E+00
    0.72749E+06         0.16399E+06         0.00000E+00
    0.00000E+00         0.00000E+00         0.14977E+06
 
    0.54433E+06         0.73032E+06         0.00000E+00
    0.73032E+06         0.16988E+06         0.00000E+00
    0.00000E+00         0.00000E+00         0.14284E+06
 
    0.50504E+06         0.73242E+06         0.00000E+00
    0.73242E+06         0.17579E+06         0.00000E+00
    0.00000E+00         0.00000E+00         0.13617E+06
 
    0.46705E+06         0.73382E+06         0.00000E+00
    0.73382E+06         0.18174E+06         0.00000E+00
    0.00000E+00         0.00000E+00         0.12976E+06
 
    0.43039E+06         0.73455E+06         0.00000E+00
    0.73455E+06         0.18771E+06         0.00000E+00
    0.00000E+00         0.00000E+00         0.12362E+06
 
    0.39511E+06         0.73465E+06         0.00000E+00
    0.73465E+06         0.19371E+06         0.00000E+00
    0.00000E+00         0.00000E+00         0.11776E+06
 
    0.36125E+06         0.73414E+06         0.00000E+00
    0.73414E+06         0.19973E+06         0.00000E+00
    0.00000E+00         0.00000E+00         0.11219E+06
 
    0.32884E+06         0.73306E+06         0.00000E+00
    0.73306E+06         0.20575E+06         0.00000E+00
    0.00000E+00         0.00000E+00         0.10692E+06
 
    0.29794E+06         0.73144E+06         0.00000E+00
    0.73144E+06         0.21177E+06         0.00000E+00
    0.00000E+00         0.00000E+00         0.10194E+06
 
    0.26860E+06         0.72932E+06         0.00000E+00
    0.72932E+06         0.21776E+06         0.00000E+00
    0.00000E+00         0.00000E+00         0.97272E+05
 
    0.24087E+06         0.72673E+06         0.00000E+00
    0.72673E+06         0.22370E+06         0.00000E+00
    0.00000E+00         0.00000E+00         0.92915E+05
 
    0.21481E+06         0.72372E+06         0.00000E+00
    0.72372E+06         0.22957E+06         0.00000E+00
    0.00000E+00         0.00000E+00         0.88876E+05
 
    0.19046E+06         0.72033E+06         0.00000E+00
    0.72033E+06         0.23535E+06         0.00000E+00
    0.00000E+00         0.00000E+00         0.85162E+05
 
    0.16789E+06         0.71662E+06         0.00000E+00
    0.71662E+06         0.24100E+06         0.00000E+00
    0.00000E+00         0.00000E+00         0.81778E+05
 
    0.14715E+06         0.71264E+06         0.00000E+00
    0.71264E+06         0.24649E+06         0.00000E+00
    0.00000E+00         0.00000E+00         0.78729E+05
 
    0.12831E+06         0.70846E+06         0.00000E+00
    0.70846E+06         0.25180E+06         0.00000E+00
    0.00000E+00         0.00000E+00         0.76021E+05
 
    0.11141E+06         0.70414E+06         0.00000E+00
    0.70414E+06         0.25688E+06         0.00000E+00
    0.00000E+00         0.00000E+00         0.73658E+05
 
    0.96519E+05         0.69978E+06         0.00000E+00
    0.69978E+06         0.26170E+06         0.00000E+00
    0.00000E+00         0.00000E+00         0.71644E+05
 
    0.83682E+05         0.69545E+06         0.00000E+00
    0.69545E+06         0.26623E+06         0.00000E+00
    0.00000E+00         0.00000E+00         0.69983E+05
 
    0.72949E+05         0.69125E+06         0.00000E+00
    0.69125E+06         0.27044E+06         0.00000E+00
    0.00000E+00         0.00000E+00         0.68678E+05
 
    0.24066E+07         0.32748E+05         0.00000E+00
    0.32748E+05        -0.23404E+03         0.00000E+00
    0.00000E+00         0.00000E+00         0.48127E+06
 
    0.23449E+07         0.90229E+05         0.00000E+00
    0.90229E+05         0.90137E+03         0.00000E+00
    0.00000E+00         0.00000E+00         0.46917E+06
 
    0.22817E+07         0.14438E+06         0.00000E+00
    0.14438E+06         0.28300E+04         0.00000E+00
    0.00000E+00         0.00000E+00         0.45690E+06
 
    0.22171E+07         0.19528E+06         0.00000E+00
    0.19528E+06         0.54131E+04         0.00000E+00
    0.00000E+00         0.00000E+00         0.44449E+06
 
    0.21514E+07         0.24304E+06         0.00000E+00
    0.24304E+06         0.85222E+04         0.00000E+00
    0.00000E+00         0.00000E+00         0.43198E+06
 
    0.20849E+07         0.28773E+06         0.00000E+00
    0.28773E+06         0.12039E+05         0.00000E+00
    0.00000E+00         0.00000E+00         0.41939E+06
 
    0.20179E+07         0.32949E+06         0.00000E+00
    0.32949E+06         0.15855E+05         0.00000E+00
    0.00000E+00         0.00000E+00         0.40675E+06
 
    0.19505E+07         0.36841E+06         0.00000E+00
    0.36841E+06         0.19873E+05         0.00000E+00
    0.00000E+00         0.00000E+00         0.39408E+06
 
    0.18830E+07         0.40461E+06         0.00000E+00
    0.40461E+06         0.24007E+05         0.00000E+00
    0.00000E+00         0.00000E+00         0.38140E+06
 
    0.18155E+07         0.43823E+06         0.00000E+00
    0.43823E+06         0.28182E+05         0.00000E+00
    0.00000E+00         0.00000E+00         0.36875E+06
 
    0.17483E+07         0.46938E+06         0.00000E+00
    0.46938E+06         0.32333E+05         0.00000E+00
    0.00000E+00         0.00000E+00         0.35613E+06
 
    0.16815E+07         0.49819E+06         0.00000E+00
    0.49819E+06         0.36405E+05         0.00000E+00
    0.00000E+00         0.00000E+00         0.34358E+06
 
    0.16152E+07         0.52478E+06         0.00000E+00
    0.52478E+06         0.40356E+05         0.00000E+00
    0.00000E+00         0.00000E+00         0.33112E+06
 
    0.15496E+07         0.54930E+06         0.00000E+00
    0.54930E+06         0.44151E+05         0.00000E+00
    0.00000E+00         0.00000E+00         0.31875E+06
 
    0.14848E+07         0.57185E+06         0.00000E+00
    0.57185E+06         0.47768E+05         0.00000E+00
    0.00000E+00         0.00000E+00         0.30651E+06
 
    0.14208E+07         0.59257E+06         0.00000E+00
    0.59257E+06         0.51192E+05         0.00000E+00
    0.00000E+00         0.00000E+00         0.29440E+06
 
    0.13578E+07         0.61156E+06         0.00000E+00
    0.61156E+06         0.54417E+05         0.00000E+00
    0.00000E+00         0.00000E+00         0.28245E+06
 
    0.12959E+07         0.62896E+06         0.00000E+00
    0.62896E+06         0.57445E+05         0.00000E+00
    0.00000E+00         0.00000E+00         0.27066E+06
 
    0.12350E+07         0.64486E+06         0.00000E+00
    0.64486E+06         0.60286E+05         0.00000E+00
    0.00000E+00         0.00000E+00         0.25906E+06
 
    0.11753E+07         0.65938E+06         0.00000E+00
    0.65938E+06         0.62956E+05         0.00000E+00
    0.00000E+00         0.00000E+00         0.24766E+06
 
    0.11168E+07         0.67260E+06         0.00000E+00
    0.67260E+06         0.65476E+05         0.00000E+00
    0.00000E+00         0.00000E+00         0.23646E+06
 
    0.10596E+07         0.68462E+06         0.00000E+00
    0.68462E+06         0.67873E+05         0.00000E+00
    0.00000E+00         0.00000E+00         0.22548E+06
 
    0.10035E+07         0.69552E+06         0.00000E+00
    0.69552E+06         0.70176E+05         0.00000E+00
    0.00000E+00         0.00000E+00         0.21474E+06
 
    0.94879E+06         0.70538E+06         0.00000E+00
    0.70538E+06         0.72418E+05         0.00000E+00
    0.00000E+00         0.00000E+00         0.20424E+06
 
    0.89533E+06         0.71427E+06         0.00000E+00
    0.71427E+06         0.74635E+05         0.00000E+00
    0.00000E+00         0.00000E+00         0.19399E+06
 
    0.84318E+06         0.72224E+06         0.00000E+00
    0.72224E+06         0.76862E+05         0.00000E+00
    0.00000E+00         0.00000E+00         0.18401E+06
 
    0.79233E+06         0.72936E+06         0.00000E+00
    0.72936E+06         0.79135E+05         0.00000E+00
    0.00000E+00         0.00000E+00         0.17429E+06
 
    0.74280E+06         0.73565E+06         0.00000E+00
    0.73565E+06         0.81491E+05         0.00000E+00
    0.00000E+00         0.00000E+00         0.16486E+06
 
    0.69460E+06         0.74117E+06         0.00000E+00
    0.74117E+06         0.83961E+05         0.00000E+00
    0.00000E+00         0.00000E+00         0.15571E+06
 
    0.64773E+06         0.74595E+06         0.00000E+00
    0.74595E+06         0.86578E+05         0.00000E+00
    0.00000E+00         0.00000E+00         0.14686E+06
 
    0.60221E+06         0.75000E+06         0.00000E+00
    0.75000E+06         0.89370E+05         0.00000E+00
    0.00000E+00         0.00000E+00         0.13832E+06
 
    0.55806E+06         0.75336E+06         0.00000E+00
    0.75336E+06         0.92359E+05         0.00000E+00
    0.00000E+00         0.00000E+00         0.13008E+06
 
    0.51528E+06         0.75603E+06         0.00000E+00
    0.75603E+06         0.95566E+05         0.00000E+00
    0.00000E+00         0.00000E+00         0.12217E+06
 
    0.47391E+06         0.75803E+06         0.00000E+00
    0.75803E+06         0.99005E+05         0.00000E+00
    0.00000E+00         0.00000E+00         0.11458E+06
 
    0.43398E+06         0.75937E+06         0.00000E+00
    0.75937E+06         0.10268E+06         0.00000E+00
    0.00000E+00         0.00000E+00         0.10733E+06
 
    0.39552E+06         0.76006E+06         0.00000E+00
    0.76006E+06         0.10660E+06         0.00000E+00
    0.00000E+00         0.00000E+00         0.10042E+06
 
    0.35857E+06         0.76010E+06         0.00000E+00
    0.76010E+06         0.11076E+06         0.00000E+00
    0.00000E+00         0.00000E+00         0.93866E+05
 
    0.32319E+06         0.75949E+06         0.00000E+00
    0.75949E+06         0.11514E+06         0.00000E+00
    0.00000E+00         0.00000E+00         0.87666E+05
 
    0.28943E+06         0.75826E+06         0.00000E+00
    0.75826E+06         0.11973E+06         0.00000E+00
    0.00000E+00         0.00000E+00         0.81832E+05
 
    0.25736E+06         0.75640E+06         0.00000E+00
    0.75640E+06         0.12450E+06         0.00000E+00
    0.00000E+00         0.00000E+00         0.76372E+05
 
    0.22704E+06         0.75393E+06         0.00000E+00
    0.75393E+06         0.12943E+06         0.00000E+00
    0.00000E+00         0.00000E+00         0.71294E+05
 
    0.19857E+06         0.75088E+06         0.00000E+00
    0.75088E+06         0.13446E+06         0.00000E+00
    0.00000E+00         0.00000E+00         0.66606E+05
 
    0.17201E+06         0.74727E+06         0.00000E+00
    0.74727E+06         0.13957E+06         0.00000E+00
    0.00000E+00         0.00000E+00         0.62315E+05
 
    0.14747E+06         0.74313E+06         0.00000E+00
    0.74313E+06         0.14468E+06         0.00000E+00
    0.00000E+00         0.00000E+00         0.58430E+05
 
    0.12503E+06         0.73850E+06         0.00000E+00
    0.73850E+06         0.14977E+06         0.00000E+00
    0.00000E+00         0.00000E+00         0.54960E+05
 
    0.10481E+06         0.73344E+06         0.00000E+00
    0.73344E+06         0.15475E+06         0.00000E+00
    0.00000E+00         0.00000E+00         0.51911E+05
 
    0.86894E+05         0.72801E+06         0.00000E+00
    0.72801E+06         0.15957E+06         0.00000E+00
    0.00000E+00         0.00000E+00         0.49292E+05
 
    0.71397E+05         0.72229E+06         0.00000E+00
    0.72229E+06         0.16416E+06         0.00000E+00
    0.00000E+00         0.00000E+00         0.47111E+05
 
    0.58420E+05         0.71636E+06         0.00000E+00
    0.71636E+06         0.16845E+06         0.00000E+00
    0.00000E+00         0.00000E+00         0.45374E+05
 
    0.48068E+05         0.71032E+06         0.00000E+00
    0.71032E+06         0.17238E+06         0.00000E+00
    0.00000E+00         0.00000E+00         0.44090E+05
 
    0.27133E+07         0.35632E+05         0.00000E+00
    0.35632E+05        -0.16497E+03         0.00000E+00
    0.00000E+00         0.00000E+00         0.54264E+06
 
    0.26329E+07         0.96893E+05         0.00000E+00
    0.96893E+05         0.76928E+03         0.00000E+00
    0.00000E+00         0.00000E+00         0.52673E+06
 
    0.25513E+07         0.15404E+06         0.00000E+00
    0.15404E+06         0.22292E+04         0.00000E+00
    0.00000E+00         0.00000E+00         0.51071E+06
 
    0.24690E+07         0.20722E+06         0.00000E+00
    0.20722E+06         0.40502E+04         0.00000E+00
    0.00000E+00         0.00000E+00         0.49461E+06
 
    0.23863E+07         0.25658E+06         0.00000E+00
    0.25658E+06         0.60810E+04         0.00000E+00
    0.00000E+00         0.00000E+00         0.47847E+06
 
    0.23034E+07         0.30228E+06         0.00000E+00
    0.30228E+06         0.81842E+04         0.00000E+00
    0.00000E+00         0.00000E+00         0.46232E+06
 
    0.22207E+07         0.34449E+06         0.00000E+00
    0.34449E+06         0.10237E+05         0.00000E+00
    0.00000E+00         0.00000E+00         0.44618E+06
 
    0.21383E+07         0.38339E+06         0.00000E+00
    0.38339E+06         0.12132E+05         0.00000E+00
    0.00000E+00         0.00000E+00         0.43009E+06
 
    0.20566E+07         0.41916E+06         0.00000E+00
    0.41916E+06         0.13777E+05         0.00000E+00
    0.00000E+00         0.00000E+00         0.41408E+06
 
    0.19757E+07         0.45200E+06         0.00000E+00
    0.45200E+06         0.15095E+05         0.00000E+00
    0.00000E+00         0.00000E+00         0.39817E+06
 
    0.18959E+07         0.48208E+06         0.00000E+00
    0.48208E+06         0.16026E+05         0.00000E+00
    0.00000E+00         0.00000E+00         0.38238E+06
 
    0.18172E+07         0.50960E+06         0.00000E+00
    0.50960E+06         0.16523E+05         0.00000E+00
    0.00000E+00         0.00000E+00         0.36674E+06
 
    0.17398E+07         0.53475E+06         0.00000E+00
    0.53475E+06         0.16557E+05         0.00000E+00
    0.00000E+00         0.00000E+00         0.35128E+06
 
    0.16639E+07         0.55772E+06         0.00000E+00
    0.55772E+06         0.16112E+05         0.00000E+00
    0.00000E+00         0.00000E+00         0.33600E+06
 
    0.15895E+07         0.57869E+06         0.00000E+00
    0.57869E+06         0.15185E+05         0.00000E+00
    0.00000E+00         0.00000E+00         0.32094E+06
 
    0.15167E+07         0.59782E+06         0.00000E+00
    0.59782E+06         0.13788E+05         0.00000E+00
    0.00000E+00         0.00000E+00         0.30610E+06
 
    0.14456E+07         0.61531E+06         0.00000E+00
    0.61531E+06         0.11944E+05         0.00000E+00
    0.00000E+00         0.00000E+00         0.29151E+06
 
    0.13762E+07         0.63129E+06         0.00000E+00
    0.63129E+06         0.96883E+04         0.00000E+00
    0.00000E+00         0.00000E+00         0.27718E+06
 
    0.13085E+07         0.64592E+06         0.00000E+00
    0.64592E+06         0.70642E+04         0.00000E+00
    0.00000E+00         0.00000E+00         0.26312E+06
 
    0.12426E+07         0.65934E+06         0.00000E+00
    0.65934E+06         0.41248E+04         0.00000E+00
    0.00000E+00         0.00000E+00         0.24934E+06
 
    0.11783E+07         0.67168E+06         0.00000E+00
    0.67168E+06         0.93034E+03         0.00000E+00
    0.00000E+00         0.00000E+00         0.23585E+06
 
    0.11158E+07         0.68305E+06         0.00000E+00
    0.68305E+06        -0.24529E+04         0.00000E+00
    0.00000E+00         0.00000E+00         0.22267E+06
 
    0.10550E+07         0.69356E+06         0.00000E+00
    0.69356E+06        -0.59542E+04         0.00000E+00
    0.00000E+00         0.00000E+00         0.20981E+06
 
    0.99584E+06         0.70328E+06         0.00000E+00
    0.70328E+06        -0.94997E+04         0.00000E+00
    0.00000E+00         0.00000E+00         0.19727E+06
 
    0.93829E+06         0.71230E+06         0.00000E+00
    0.71230E+06        -0.13014E+05         0.00000E+00
    0.00000E+00         0.00000E+00         0.18506E+06
 
    0.88232E+06         0.72067E+06         0.00000E+00
    0.72067E+06        -0.16420E+05         0.00000E+00
    0.00000E+00         0.00000E+00         0.17318E+06
 
    0.82790E+06         0.72845E+06         0.00000E+00
    0.72845E+06        -0.19643E+05         0.00000E+00
    0.00000E+00         0.00000E+00         0.16165E+06
 
    0.77497E+06         0.73567E+06         0.00000E+00
    0.73567E+06        -0.22611E+05         0.00000E+00
    0.00000E+00         0.00000E+00         0.15047E+06
 
    0.72350E+06         0.74235E+06         0.00000E+00
    0.74235E+06        -0.25254E+05         0.00000E+00
    0.00000E+00         0.00000E+00         0.13965E+06
 
    0.67345E+06         0.74850E+06         0.00000E+00
    0.74850E+06        -0.27509E+05         0.00000E+00
    0.00000E+00         0.00000E+00         0.12919E+06
 
    0.62481E+06         0.75413E+06         0.00000E+00
    0.75413E+06        -0.29317E+05         0.00000E+00
    0.00000E+00         0.00000E+00         0.11910E+06
 
    0.57754E+06         0.75922E+06         0.00000E+00
    0.75922E+06        -0.30627E+05         0.00000E+00
    0.00000E+00         0.00000E+00         0.10938E+06
 
    0.53164E+06         0.76377E+06         0.00000E+00
    0.76377E+06        -0.31396E+05         0.00000E+00
    0.00000E+00         0.00000E+00         0.10005E+06
 
    0.48711E+06         0.76773E+06         0.00000E+00
    0.76773E+06        -0.31592E+05         0.00000E+00
    0.00000E+00         0.00000E+00         0.91103E+05
 
    0.44395E+06         0.77109E+06         0.00000E+00
    0.77109E+06        -0.31190E+05         0.00000E+00
    0.00000E+00         0.00000E+00         0.82553E+05
 
    0.40221E+06         0.77381E+06         0.00000E+00
    0.77381E+06        -0.30179E+05         0.00000E+00
    0.00000E+00         0.00000E+00         0.74405E+05
 
    0.36190E+06         0.77584E+06         0.00000E+00
    0.77584E+06        -0.28555E+05         0.00000E+00
    0.00000E+00         0.00000E+00         0.66669E+05
 
    0.32308E+06         0.77716E+06         0.00000E+00
    0.77716E+06        -0.26330E+05         0.00000E+00
    0.00000E+00         0.00000E+00         0.59351E+05
 
    0.28583E+06         0.77771E+06         0.00000E+00
    0.77771E+06        -0.23526E+05         0.00000E+00
    0.00000E+00         0.00000E+00         0.52461E+05
 
    0.25022E+06         0.77748E+06         0.00000E+00
    0.77748E+06        -0.20177E+05         0.00000E+00
    0.00000E+00         0.00000E+00         0.46008E+05
 
    0.21635E+06         0.77642E+06         0.00000E+00
    0.77642E+06        -0.16332E+05         0.00000E+00
    0.00000E+00         0.00000E+00         0.40003E+05
 
    0.18432E+06         0.77451E+06         0.00000E+00
    0.77451E+06        -0.12047E+05         0.00000E+00
    0.00000E+00         0.00000E+00         0.34455E+05
 
    0.15428E+06         0.77173E+06         0.00000E+00
    0.77173E+06        -0.73948E+04         0.00000E+00
    0.00000E+00         0.00000E+00         0.29377E+05
 
    0.12635E+06         0.76809E+06         0.00000E+00
    0.76809E+06        -0.24565E+04         0.00000E+00
    0.00000E+00         0.00000E+00         0.24779E+05
 
    0.10069E+06         0.76358E+06         0.00000E+00
    0.76358E+06         0.26756E+04         0.00000E+00
    0.00000E+00         0.00000E+00         0.20673E+05
 
    0.77459E+05         0.75822E+06         0.00000E+00
    0.75822E+06         0.78998E+04         0.00000E+00
    0.00000E+00         0.00000E+00         0.17072E+05
 
    0.56833E+05         0.75207E+06         0.00000E+00
    0.75207E+06         0.13106E+05         0.00000E+00
    0.00000E+00         0.00000E+00         0.13988E+05
 
    0.38993E+05         0.74516E+06         0.00000E+00
    0.74516E+06         0.18178E+05         0.00000E+00
    0.00000E+00         0.00000E+00         0.11434E+05
 
    0.24125E+05         0.73758E+06         0.00000E+00
    0.73758E+06         0.22992E+05         0.00000E+00
    0.00000E+00         0.00000E+00         0.94234E+04
 
    0.12420E+05         0.72942E+06         0.00000E+00
    0.72942E+06         0.27423E+05         0.00000E+00
    0.00000E+00         0.00000E+00         0.79685E+04
 
    0.30374E+07         0.37914E+05         0.00000E+00
    0.37914E+05        -0.11388E+03         0.00000E+00
    0.00000E+00         0.00000E+00         0.60746E+06
 
    0.29337E+07         0.10133E+06         0.00000E+00
    0.10133E+06         0.49155E+03         0.00000E+00
    0.00000E+00         0.00000E+00         0.58684E+06
 
    0.28297E+07         0.15970E+06         0.00000E+00
    0.15970E+06         0.11992E+04         0.00000E+00
    0.00000E+00         0.00000E+00         0.56619E+06
 
    0.27259E+07         0.21323E+06         0.00000E+00
    0.21323E+06         0.18065E+04         0.00000E+00
    0.00000E+00         0.00000E+00         0.54555E+06
 
    0.26227E+07         0.26214E+06         0.00000E+00
    0.26214E+06         0.21293E+04         0.00000E+00
    0.00000E+00         0.00000E+00         0.52496E+06
 
    0.25203E+07         0.30670E+06         0.00000E+00
    0.30670E+06         0.20031E+04         0.00000E+00
    0.00000E+00         0.00000E+00         0.50446E+06
 
    0.24192E+07         0.34715E+06         0.00000E+00
    0.34715E+06         0.12849E+04         0.00000E+00
    0.00000E+00         0.00000E+00         0.48410E+06
 
    0.23196E+07         0.38377E+06         0.00000E+00
    0.38377E+06        -0.14626E+03         0.00000E+00
    0.00000E+00         0.00000E+00         0.46389E+06
 
    0.22218E+07         0.41683E+06         0.00000E+00
    0.41683E+06        -0.23880E+04         0.00000E+00
    0.00000E+00         0.00000E+00         0.44388E+06
 
    0.21260E+07         0.44662E+06         0.00000E+00
    0.44662E+06        -0.55148E+04         0.00000E+00
    0.00000E+00         0.00000E+00         0.42409E+06
 
    0.20323E+07         0.47342E+06         0.00000E+00
    0.47342E+06        -0.95776E+04         0.00000E+00
    0.00000E+00         0.00000E+00         0.40455E+06
 
    0.19411E+07         0.49752E+06         0.00000E+00
    0.49752E+06        -0.14605E+05         0.00000E+00
    0.00000E+00         0.00000E+00         0.38529E+06
 
    0.18523E+07         0.51920E+06         0.00000E+00
    0.51920E+06        -0.20602E+05         0.00000E+00
    0.00000E+00         0.00000E+00         0.36633E+06
 
    0.17660E+07         0.53872E+06         0.00000E+00
    0.53872E+06        -0.27554E+05         0.00000E+00
    0.00000E+00         0.00000E+00         0.34769E+06
 
    0.16824E+07         0.55636E+06         0.00000E+00
    0.55636E+06        -0.35426E+05         0.00000E+00
    0.00000E+00         0.00000E+00         0.32939E+06
 
    0.16014E+07         0.57235E+06         0.00000E+00
    0.57235E+06        -0.44163E+05         0.00000E+00
    0.00000E+00         0.00000E+00         0.31145E+06
 
    0.15230E+07         0.58694E+06         0.00000E+00
    0.58694E+06        -0.53694E+05         0.00000E+00
    0.00000E+00         0.00000E+00         0.29387E+06
 
    0.14473E+07         0.60035E+06         0.00000E+00
    0.60035E+06        -0.63935E+05         0.00000E+00
    0.00000E+00         0.00000E+00         0.27667E+06
 
    0.13741E+07         0.61278E+06         0.00000E+00
    0.61278E+06        -0.74785E+05         0.00000E+00
    0.00000E+00         0.00000E+00         0.25987E+06
 
    0.13035E+07         0.62442E+06         0.00000E+00
    0.62442E+06        -0.86134E+05         0.00000E+00
    0.00000E+00         0.00000E+00         0.24347E+06
 
    0.12352E+07         0.63542E+06         0.00000E+00
    0.63542E+06        -0.97863E+05         0.00000E+00
    0.00000E+00         0.00000E+00         0.22747E+06
 
    0.11693E+07         0.64594E+06         0.00000E+00
    0.64594E+06        -0.10984E+06         0.00000E+00
    0.00000E+00         0.00000E+00         0.21188E+06
 
    0.11055E+07         0.65609E+06         0.00000E+00
    0.65609E+06        -0.12195E+06         0.00000E+00
    0.00000E+00         0.00000E+00         0.19671E+06
 
    0.10438E+07         0.66597E+06         0.00000E+00
    0.66597E+06        -0.13404E+06         0.00000E+00
    0.00000E+00         0.00000E+00         0.18196E+06
 
    0.98414E+06         0.67567E+06         0.00000E+00
    0.67567E+06        -0.14598E+06         0.00000E+00
    0.00000E+00         0.00000E+00         0.16763E+06
 
    0.92627E+06         0.68523E+06         0.00000E+00
    0.68523E+06        -0.15763E+06         0.00000E+00
    0.00000E+00         0.00000E+00         0.15373E+06
 
    0.87010E+06         0.69469E+06         0.00000E+00
    0.69469E+06        -0.16887E+06         0.00000E+00
    0.00000E+00         0.00000E+00         0.14025E+06
 
    0.81552E+06         0.70407E+06         0.00000E+00
    0.70407E+06        -0.17956E+06         0.00000E+00
    0.00000E+00         0.00000E+00         0.12719E+06
 
    0.76240E+06         0.71336E+06         0.00000E+00
    0.71336E+06        -0.18959E+06         0.00000E+00
    0.00000E+00         0.00000E+00         0.11456E+06
 
    0.71065E+06         0.72254E+06         0.00000E+00
    0.72254E+06        -0.19884E+06         0.00000E+00
    0.00000E+00         0.00000E+00         0.10236E+06
 
    0.66017E+06         0.73156E+06         0.00000E+00
    0.73156E+06        -0.20721E+06         0.00000E+00
    0.00000E+00         0.00000E+00         0.90592E+05
 
    0.61088E+06         0.74037E+06         0.00000E+00
    0.74037E+06        -0.21461E+06         0.00000E+00
    0.00000E+00         0.00000E+00         0.79253E+05
 
    0.56271E+06         0.74889E+06         0.00000E+00
    0.74889E+06        -0.22096E+06         0.00000E+00
    0.00000E+00         0.00000E+00         0.68350E+05
 
    0.51561E+06         0.75704E+06         0.00000E+00
    0.75704E+06        -0.22619E+06         0.00000E+00
    0.00000E+00         0.00000E+00         0.57884E+05
 
    0.46957E+06         0.76473E+06         0.00000E+00
    0.76473E+06        -0.23026E+06         0.00000E+00
    0.00000E+00         0.00000E+00         0.47862E+05
 
    0.42458E+06         0.77183E+06         0.00000E+00
    0.77183E+06        -0.23314E+06         0.00000E+00
    0.00000E+00         0.00000E+00         0.38288E+05
 
    0.38066E+06         0.77826E+06         0.00000E+00
    0.77826E+06        -0.23481E+06         0.00000E+00
    0.00000E+00         0.00000E+00         0.29170E+05
 
    0.33785E+06         0.78388E+06         0.00000E+00
    0.78388E+06        -0.23527E+06         0.00000E+00
    0.00000E+00         0.00000E+00         0.20516E+05
 
    0.29624E+06         0.78858E+06         0.00000E+00
    0.78858E+06        -0.23456E+06         0.00000E+00
    0.00000E+00         0.00000E+00         0.12335E+05
 
    0.25590E+06         0.79225E+06         0.00000E+00
    0.79225E+06        -0.23272E+06         0.00000E+00
    0.00000E+00         0.00000E+00         0.46374E+04
 
    0.21699E+06         0.79478E+06         0.00000E+00
    0.79478E+06        -0.22981E+06         0.00000E+00
    0.00000E+00         0.00000E+00        -0.25639E+04
 
    0.17964E+06         0.79606E+06         0.00000E+00
    0.79606E+06        -0.22591E+06         0.00000E+00
    0.00000E+00         0.00000E+00        -0.92555E+04
 
    0.14403E+06         0.79601E+06         0.00000E+00
    0.79601E+06        -0.22115E+06         0.00000E+00
    0.00000E+00         0.00000E+00        -0.15423E+05
 
    0.11038E+06         0.79453E+06         0.00000E+00
    0.79453E+06        -0.21563E+06         0.00000E+00
    0.00000E+00         0.00000E+00        -0.21049E+05
 
    0.78917E+05         0.79158E+06         0.00000E+00
    0.79158E+06        -0.20950E+06         0.00000E+00
    0.00000E+00         0.00000E+00        -0.26117E+05
 
    0.49891E+05         0.78711E+06         0.00000E+00
    0.78711E+06        -0.20293E+06         0.00000E+00
    0.00000E+00         0.00000E+00        -0.30609E+05
 
    0.23581E+05         0.78110E+06         0.00000E+00
    0.78110E+06        -0.19610E+06         0.00000E+00
    0.00000E+00         0.00000E+00        -0.34504E+05
 
    0.28322E+03         0.77356E+06         0.00000E+00
    0.77356E+06        -0.18919E+06         0.00000E+00
    0.00000E+00         0.00000E+00        -0.37782E+05
 
   -0.19690E+05         0.76452E+06         0.00000E+00
    0.76452E+06        -0.18242E+06         0.00000E+00
    0.00000E+00         0.00000E+00        -0.40422E+05
 
   -0.36015E+05         0.75407E+06         0.00000E+00
    0.75407E+06        -0.17599E+06         0.00000E+00
    0.00000E+00         0.00000E+00        -0.42402E+05
 
    0.33690E+07         0.39294E+05         0.00000E+00
    0.39294E+05        -0.30153E+03         0.00000E+00
    0.00000E+00         0.00000E+00         0.67374E+06
 
    0.32365E+07         0.10241E+06         0.00000E+00
    0.10241E+06        -0.16165E+03         0.00000E+00
    0.00000E+00         0.00000E+00         0.64727E+06
 
    0.31050E+07         0.15928E+06         0.00000E+00
    0.15928E+06        -0.54887E+03         0.00000E+00
    0.00000E+00         0.00000E+00         0.62089E+06
 
    0.29751E+07         0.21021E+06         0.00000E+00
    0.21021E+06        -0.17292E+04         0.00000E+00
    0.00000E+00         0.00000E+00         0.59467E+06
 
    0.28472E+07         0.25555E+06         0.00000E+00
    0.25555E+06        -0.39417E+04         0.00000E+00
    0.00000E+00         0.00000E+00         0.56865E+06
 
    0.27218E+07         0.29567E+06         0.00000E+00
    0.29567E+06        -0.73933E+04         0.00000E+00
    0.00000E+00         0.00000E+00         0.54287E+06
 
    0.25992E+07         0.33098E+06         0.00000E+00
    0.33098E+06        -0.12257E+05         0.00000E+00
    0.00000E+00         0.00000E+00         0.51740E+06
 
    0.24800E+07         0.36189E+06         0.00000E+00
    0.36189E+06        -0.18669E+05         0.00000E+00
    0.00000E+00         0.00000E+00         0.49226E+06
 
    0.23642E+07         0.38882E+06         0.00000E+00
    0.38882E+06        -0.26731E+05         0.00000E+00
    0.00000E+00         0.00000E+00         0.46749E+06
 
    0.22522E+07         0.41220E+06         0.00000E+00
    0.41220E+06        -0.36506E+05         0.00000E+00
    0.00000E+00         0.00000E+00         0.44314E+06
 
    0.21442E+07         0.43246E+06         0.00000E+00
    0.43246E+06        -0.48022E+05         0.00000E+00
    0.00000E+00         0.00000E+00         0.41923E+06
 
    0.20402E+07         0.45001E+06         0.00000E+00
    0.45001E+06        -0.61272E+05         0.00000E+00
    0.00000E+00         0.00000E+00         0.39578E+06
 
    0.19404E+07         0.46528E+06         0.00000E+00
    0.46528E+06        -0.76215E+05         0.00000E+00
    0.00000E+00         0.00000E+00         0.37283E+06
 
    0.18448E+07         0.47865E+06         0.00000E+00
    0.47865E+06        -0.92781E+05         0.00000E+00
    0.00000E+00         0.00000E+00         0.35040E+06
 
    0.17533E+07         0.49050E+06         0.00000E+00
    0.49050E+06        -0.11087E+06         0.00000E+00
    0.00000E+00         0.00000E+00         0.32848E+06
 
    0.16659E+07         0.50119E+06         0.00000E+00
    0.50119E+06        -0.13036E+06         0.00000E+00
    0.00000E+00         0.00000E+00         0.30711E+06
 
    0.15825E+07         0.51105E+06         0.00000E+00
    0.51105E+06        -0.15110E+06         0.00000E+00
    0.00000E+00         0.00000E+00         0.28629E+06
 
    0.15030E+07         0.52037E+06         0.00000E+00
    0.52037E+06        -0.17292E+06         0.00000E+00
    0.00000E+00         0.00000E+00         0.26602E+06
 
    0.14271E+07         0.52943E+06         0.00000E+00
    0.52943E+06        -0.19565E+06         0.00000E+00
    0.00000E+00         0.00000E+00         0.24630E+06
 
    0.13548E+07         0.53847E+06         0.00000E+00
    0.53847E+06        -0.21908E+06         0.00000E+00
    0.00000E+00         0.00000E+00         0.22714E+06
 
    0.12857E+07         0.54769E+06         0.00000E+00
    0.54769E+06        -0.24302E+06         0.00000E+00
    0.00000E+00         0.00000E+00         0.20853E+06
 
    0.12196E+07         0.55727E+06         0.00000E+00
    0.55727E+06        -0.26724E+06         0.00000E+00
    0.00000E+00         0.00000E+00         0.19048E+06
 
    0.11564E+07         0.56735E+06         0.00000E+00
    0.56735E+06        -0.29153E+06         0.00000E+00
    0.00000E+00         0.00000E+00         0.17297E+06
 
    0.10956E+07         0.57803E+06         0.00000E+00
    0.57803E+06        -0.31568E+06         0.00000E+00
    0.00000E+00         0.00000E+00         0.15599E+06
 
    0.10372E+07         0.58939E+06         0.00000E+00
    0.58939E+06        -0.33945E+06         0.00000E+00
    0.00000E+00         0.00000E+00         0.13954E+06
 
    0.98069E+06         0.60147E+06         0.00000E+00
    0.60147E+06        -0.36265E+06         0.00000E+00
    0.00000E+00         0.00000E+00         0.12361E+06
 
    0.92599E+06         0.61427E+06         0.00000E+00
    0.61427E+06        -0.38505E+06         0.00000E+00
    0.00000E+00         0.00000E+00         0.10819E+06
 
    0.87280E+06         0.62778E+06         0.00000E+00
    0.62778E+06        -0.40646E+06         0.00000E+00
    0.00000E+00         0.00000E+00         0.93267E+05
 
    0.82087E+06         0.64195E+06         0.00000E+00
    0.64195E+06        -0.42669E+06         0.00000E+00
    0.00000E+00         0.00000E+00         0.78838E+05
 
    0.77000E+06         0.65669E+06         0.00000E+00
    0.65669E+06        -0.44555E+06         0.00000E+00
    0.00000E+00         0.00000E+00         0.64891E+05
 
    0.71998E+06         0.67190E+06         0.00000E+00
    0.67190E+06        -0.46288E+06         0.00000E+00
    0.00000E+00         0.00000E+00         0.51420E+05
 
    0.67064E+06         0.68744E+06         0.00000E+00
    0.68744E+06        -0.47854E+06         0.00000E+00
    0.00000E+00         0.00000E+00         0.38418E+05
 
    0.62181E+06         0.70316E+06         0.00000E+00
    0.70316E+06        -0.49240E+06         0.00000E+00
    0.00000E+00         0.00000E+00         0.25881E+05
 
    0.57337E+06         0.71889E+06         0.00000E+00
    0.71889E+06        -0.50434E+06         0.00000E+00
    0.00000E+00         0.00000E+00         0.13806E+05
 
    0.52524E+06         0.73442E+06         0.00000E+00
    0.73442E+06        -0.51429E+06         0.00000E+00
    0.00000E+00         0.00000E+00         0.21916E+04
 
    0.47736E+06         0.74955E+06         0.00000E+00
    0.74955E+06        -0.52216E+06         0.00000E+00
    0.00000E+00         0.00000E+00        -0.89609E+04
 
    0.42970E+06         0.76406E+06         0.00000E+00
    0.76406E+06        -0.52794E+06         0.00000E+00
    0.00000E+00         0.00000E+00        -0.19648E+05
 
    0.38230E+06         0.77770E+06         0.00000E+00
    0.77770E+06        -0.53161E+06         0.00000E+00
    0.00000E+00         0.00000E+00        -0.29863E+05
 
    0.33520E+06         0.79025E+06         0.00000E+00
    0.79025E+06        -0.53319E+06         0.00000E+00
    0.00000E+00         0.00000E+00        -0.39599E+05
 
    0.28852E+06         0.80146E+06         0.00000E+00
    0.80146E+06        -0.53274E+06         0.00000E+00
    0.00000E+00         0.00000E+00        -0.48843E+05
 
    0.24241E+06         0.81108E+06         0.00000E+00
    0.81108E+06        -0.53032E+06         0.00000E+00
    0.00000E+00         0.00000E+00        -0.57582E+05
 
    0.19708E+06         0.81890E+06         0.00000E+00
    0.81890E+06        -0.52607E+06         0.00000E+00
    0.00000E+00         0.00000E+00        -0.65798E+05
 
    0.15276E+06         0.82468E+06         0.00000E+00
    0.82468E+06        -0.52012E+06         0.00000E+00
    0.00000E+00         0.00000E+00        -0.73472E+05
 
    0.10975E+06         0.82822E+06         0.00000E+00
    0.82822E+06        -0.51266E+06         0.00000E+00
    0.00000E+00         0.00000E+00        -0.80582E+05
 
    0.68383E+05         0.82934E+06         0.00000E+00
    0.82934E+06        -0.50390E+06         0.00000E+00
    0.00000E+00         0.00000E+00        -0.87103E+05
 
    0.29048E+05         0.82788E+06         0.00000E+00
    0.82788E+06        -0.49408E+06         0.00000E+00
    0.00000E+00         0.00000E+00        -0.93007E+05
 
   -0.78328E+04         0.82371E+06         0.00000E+00
    0.82371E+06        -0.48349E+06         0.00000E+00
    0.00000E+00         0.00000E+00        -0.98264E+05
 
   -0.41796E+05         0.81675E+06         0.00000E+00
    0.81675E+06        -0.47242E+06         0.00000E+00
    0.00000E+00         0.00000E+00        -0.10284E+06
 
   -0.72343E+05         0.80694E+06         0.00000E+00
    0.80694E+06        -0.46120E+06         0.00000E+00
    0.00000E+00         0.00000E+00        -0.10671E+06
 
   -0.98945E+05         0.79431E+06         0.00000E+00
    0.79431E+06        -0.45018E+06         0.00000E+00
    0.00000E+00         0.00000E+00        -0.10983E+06
 
    0.36930E+07         0.39500E+05         0.00000E+00
    0.39500E+05        -0.16898E+04         0.00000E+00
    0.00000E+00         0.00000E+00         0.73827E+06
 
    0.35244E+07         0.98745E+05         0.00000E+00
    0.98745E+05        -0.21661E+04         0.00000E+00
    0.00000E+00         0.00000E+00         0.70445E+06
 
    0.33587E+07         0.15007E+06         0.00000E+00
    0.15007E+06        -0.40988E+04         0.00000E+00
    0.00000E+00         0.00000E+00         0.67092E+06
 
    0.31966E+07         0.19397E+06         0.00000E+00
    0.19397E+06        -0.78728E+04         0.00000E+00
    0.00000E+00         0.00000E+00         0.63775E+06
 
    0.30389E+07         0.23100E+06         0.00000E+00
    0.23100E+06        -0.13814E+05         0.00000E+00
    0.00000E+00         0.00000E+00         0.60502E+06
 
    0.28861E+07         0.26175E+06         0.00000E+00
    0.26175E+06        -0.22194E+05         0.00000E+00
    0.00000E+00         0.00000E+00         0.57279E+06
 
    0.27388E+07         0.28685E+06         0.00000E+00
    0.28685E+06        -0.33223E+05         0.00000E+00
    0.00000E+00         0.00000E+00         0.54112E+06
 
    0.25974E+07         0.30695E+06         0.00000E+00
    0.30695E+06        -0.47047E+05         0.00000E+00
    0.00000E+00         0.00000E+00         0.51007E+06
 
    0.24622E+07         0.32270E+06         0.00000E+00
    0.32270E+06        -0.63753E+05         0.00000E+00
    0.00000E+00         0.00000E+00         0.47969E+06
 
    0.23334E+07         0.33478E+06         0.00000E+00
    0.33478E+06        -0.83366E+05         0.00000E+00
    0.00000E+00         0.00000E+00         0.45001E+06
 
    0.22112E+07         0.34382E+06         0.00000E+00
    0.34382E+06        -0.10586E+06         0.00000E+00
    0.00000E+00         0.00000E+00         0.42107E+06
 
    0.20957E+07         0.35045E+06         0.00000E+00
    0.35045E+06        -0.13114E+06         0.00000E+00
    0.00000E+00         0.00000E+00         0.39291E+06
 
    0.19867E+07         0.35528E+06         0.00000E+00
    0.35528E+06        -0.15909E+06         0.00000E+00
    0.00000E+00         0.00000E+00         0.36553E+06
 
    0.18843E+07         0.35887E+06         0.00000E+00
    0.35887E+06        -0.18953E+06         0.00000E+00
    0.00000E+00         0.00000E+00         0.33895E+06
 
    0.17882E+07         0.36176E+06         0.00000E+00
    0.36176E+06        -0.22225E+06         0.00000E+00
    0.00000E+00         0.00000E+00         0.31318E+06
 
    0.16981E+07         0.36442E+06         0.00000E+00
    0.36442E+06        -0.25701E+06         0.00000E+00
    0.00000E+00         0.00000E+00         0.28823E+06
 
    0.16139E+07         0.36731E+06         0.00000E+00
    0.36731E+06        -0.29355E+06         0.00000E+00
    0.00000E+00         0.00000E+00         0.26408E+06
 
    0.15352E+07         0.37081E+06         0.00000E+00
    0.37081E+06        -0.33158E+06         0.00000E+00
    0.00000E+00         0.00000E+00         0.24073E+06
 
    0.14616E+07         0.37528E+06         0.00000E+00
    0.37528E+06        -0.37079E+06         0.00000E+00
    0.00000E+00         0.00000E+00         0.21817E+06
 
    0.13927E+07         0.38100E+06         0.00000E+00
    0.38100E+06        -0.41087E+06         0.00000E+00
    0.00000E+00         0.00000E+00         0.19637E+06
 
    0.13282E+07         0.38822E+06         0.00000E+00
    0.38822E+06        -0.45150E+06         0.00000E+00
    0.00000E+00         0.00000E+00         0.17533E+06
 
    0.12674E+07         0.39713E+06         0.00000E+00
    0.39713E+06        -0.49235E+06         0.00000E+00
    0.00000E+00         0.00000E+00         0.15502E+06
 
    0.12101E+07         0.40789E+06         0.00000E+00
    0.40789E+06        -0.53309E+06         0.00000E+00
    0.00000E+00         0.00000E+00         0.13540E+06
 
    0.11557E+07         0.42059E+06         0.00000E+00
    0.42059E+06        -0.57341E+06         0.00000E+00
    0.00000E+00         0.00000E+00         0.11647E+06
 
    0.11039E+07         0.43529E+06         0.00000E+00
    0.43529E+06        -0.61298E+06         0.00000E+00
    0.00000E+00         0.00000E+00         0.98179E+05
 
    0.10540E+07         0.45200E+06         0.00000E+00
    0.45200E+06        -0.65149E+06         0.00000E+00
    0.00000E+00         0.00000E+00         0.80511E+05
 
    0.10058E+07         0.47067E+06         0.00000E+00
    0.47067E+06        -0.68865E+06         0.00000E+00
    0.00000E+00         0.00000E+00         0.63435E+05
 
    0.95878E+06         0.49124E+06         0.00000E+00
    0.49124E+06        -0.72415E+06         0.00000E+00
    0.00000E+00         0.00000E+00         0.46925E+05
 
    0.91250E+06         0.51358E+06         0.00000E+00
    0.51358E+06        -0.75774E+06         0.00000E+00
    0.00000E+00         0.00000E+00         0.30952E+05
 
    0.86661E+06         0.53754E+06         0.00000E+00
    0.53754E+06        -0.78915E+06         0.00000E+00
    0.00000E+00         0.00000E+00         0.15493E+05
 
    0.82075E+06         0.56292E+06         0.00000E+00
    0.56292E+06        -0.81814E+06         0.00000E+00
    0.00000E+00         0.00000E+00         0.52213E+03
 
    0.77459E+06         0.58950E+06         0.00000E+00
    0.58950E+06        -0.84449E+06         0.00000E+00
    0.00000E+00         0.00000E+00        -0.13980E+05
 
    0.72784E+06         0.61701E+06         0.00000E+00
    0.61701E+06        -0.86801E+06         0.00000E+00
    0.00000E+00         0.00000E+00        -0.28033E+05
 
    0.68026E+06         0.64514E+06         0.00000E+00
    0.64514E+06        -0.88852E+06         0.00000E+00
    0.00000E+00         0.00000E+00        -0.41652E+05
 
    0.63162E+06         0.67358E+06         0.00000E+00
    0.67358E+06        -0.90587E+06         0.00000E+00
    0.00000E+00         0.00000E+00        -0.54849E+05
 
    0.58179E+06         0.70198E+06         0.00000E+00
    0.70198E+06        -0.91996E+06         0.00000E+00
    0.00000E+00         0.00000E+00        -0.67633E+05
 
    0.53066E+06         0.72994E+06         0.00000E+00
    0.72994E+06        -0.93069E+06         0.00000E+00
    0.00000E+00         0.00000E+00        -0.80007E+05
 
    0.47818E+06         0.75708E+06         0.00000E+00
    0.75708E+06        -0.93804E+06         0.00000E+00
    0.00000E+00         0.00000E+00        -0.91972E+05
 
    0.42437E+06         0.78297E+06         0.00000E+00
    0.78297E+06        -0.94199E+06         0.00000E+00
    0.00000E+00         0.00000E+00        -0.10352E+06
 
    0.36932E+06         0.80719E+06         0.00000E+00
    0.80719E+06        -0.94257E+06         0.00000E+00
    0.00000E+00         0.00000E+00        -0.11465E+06
 
    0.31318E+06         0.82931E+06         0.00000E+00
    0.82931E+06        -0.93988E+06         0.00000E+00
    0.00000E+00         0.00000E+00        -0.12534E+06
 
    0.25619E+06         0.84888E+06         0.00000E+00
    0.84888E+06        -0.93404E+06         0.00000E+00
    0.00000E+00         0.00000E+00        -0.13557E+06
 
    0.19864E+06         0.86547E+06         0.00000E+00
    0.86547E+06        -0.92524E+06         0.00000E+00
    0.00000E+00         0.00000E+00        -0.14532E+06
 
    0.14093E+06         0.87867E+06         0.00000E+00
    0.87867E+06        -0.91371E+06         0.00000E+00
    0.00000E+00         0.00000E+00        -0.15456E+06
 
    0.83520E+05         0.88809E+06         0.00000E+00
    0.88809E+06        -0.89975E+06         0.00000E+00
    0.00000E+00         0.00000E+00        -0.16325E+06
 
    0.26954E+05         0.89335E+06         0.00000E+00
    0.89335E+06        -0.88369E+06         0.00000E+00
    0.00000E+00         0.00000E+00        -0.17135E+06
 
   -0.28144E+05         0.89414E+06         0.00000E+00
    0.89414E+06        -0.86594E+06         0.00000E+00
    0.00000E+00         0.00000E+00        -0.17882E+06
 
   -0.81076E+05         0.89017E+06         0.00000E+00
    0.89017E+06        -0.84696E+06         0.00000E+00
    0.00000E+00         0.00000E+00        -0.18561E+06
 
   -0.13107E+06         0.88124E+06         0.00000E+00
    0.88124E+06        -0.82724E+06         0.00000E+00
    0.00000E+00         0.00000E+00        -0.19166E+06
 
   -0.17729E+06         0.86719E+06         0.00000E+00
    0.86719E+06        -0.80734E+06         0.00000E+00
    0.00000E+00         0.00000E+00        -0.19693E+06
 
    0.39856E+07         0.38248E+05         0.00000E+00
    0.38248E+05        -0.81035E+04         0.00000E+00
    0.00000E+00         0.00000E+00         0.79549E+06
 
    0.37700E+07         0.88276E+05         0.00000E+00
    0.88276E+05        -0.94418E+04         0.00000E+00
    0.00000E+00         0.00000E+00         0.75212E+06
 
    0.35605E+07         0.12788E+06         0.00000E+00
    0.12788E+06        -0.13719E+05         0.00000E+00
    0.00000E+00         0.00000E+00         0.70935E+06
 
    0.33581E+07         0.15794E+06         0.00000E+00
    0.15794E+06        -0.21491E+05         0.00000E+00
    0.00000E+00         0.00000E+00         0.66732E+06
 
    0.31638E+07         0.17939E+06         0.00000E+00
    0.17939E+06        -0.33219E+05         0.00000E+00
    0.00000E+00         0.00000E+00         0.62613E+06
 
    0.29786E+07         0.19325E+06         0.00000E+00
    0.19325E+06        -0.49239E+05         0.00000E+00
    0.00000E+00         0.00000E+00         0.58587E+06
 
    0.28030E+07         0.20057E+06         0.00000E+00
    0.20057E+06        -0.69772E+05         0.00000E+00
    0.00000E+00         0.00000E+00         0.54664E+06
 
    0.26374E+07         0.20241E+06         0.00000E+00
    0.20241E+06        -0.94924E+05         0.00000E+00
    0.00000E+00         0.00000E+00         0.50850E+06
 
    0.24823E+07         0.19982E+06         0.00000E+00
    0.19982E+06        -0.12470E+06         0.00000E+00
    0.00000E+00         0.00000E+00         0.47152E+06
 
    0.23377E+07         0.19382E+06         0.00000E+00
    0.19382E+06        -0.15902E+06         0.00000E+00
    0.00000E+00         0.00000E+00         0.43573E+06
 
    0.22036E+07         0.18539E+06         0.00000E+00
    0.18539E+06        -0.19769E+06         0.00000E+00
    0.00000E+00         0.00000E+00         0.40118E+06
 
    0.20798E+07         0.17544E+06         0.00000E+00
    0.17544E+06        -0.24048E+06         0.00000E+00
    0.00000E+00         0.00000E+00         0.36787E+06
 
    0.19662E+07         0.16483E+06         0.00000E+00
    0.16483E+06        -0.28709E+06         0.00000E+00
    0.00000E+00         0.00000E+00         0.33582E+06
 
    0.18623E+07         0.15435E+06         0.00000E+00
    0.15435E+06        -0.33715E+06         0.00000E+00
    0.00000E+00         0.00000E+00         0.30502E+06
 
    0.17676E+07         0.14469E+06         0.00000E+00
    0.14469E+06        -0.39027E+06         0.00000E+00
    0.00000E+00         0.00000E+00         0.27547E+06
 
    0.16817E+07         0.13649E+06         0.00000E+00
    0.13649E+06        -0.44603E+06         0.00000E+00
    0.00000E+00         0.00000E+00         0.24713E+06
 
    0.16039E+07         0.13029E+06         0.00000E+00
    0.13029E+06        -0.50398E+06         0.00000E+00
    0.00000E+00         0.00000E+00         0.21998E+06
 
    0.15335E+07         0.12657E+06         0.00000E+00
    0.12657E+06        -0.56367E+06         0.00000E+00
    0.00000E+00         0.00000E+00         0.19398E+06
 
    0.14700E+07         0.12571E+06         0.00000E+00
    0.12571E+06        -0.62463E+06         0.00000E+00
    0.00000E+00         0.00000E+00         0.16908E+06
 
    0.14127E+07         0.12804E+06         0.00000E+00
    0.12804E+06        -0.68642E+06         0.00000E+00
    0.00000E+00         0.00000E+00         0.14525E+06
 
    0.13607E+07         0.13381E+06         0.00000E+00
    0.13381E+06        -0.74856E+06         0.00000E+00
    0.00000E+00         0.00000E+00         0.12242E+06
 
    0.13134E+07         0.14320E+06         0.00000E+00
    0.14320E+06        -0.81060E+06         0.00000E+00
    0.00000E+00         0.00000E+00         0.10055E+06
 
    0.12700E+07         0.15633E+06         0.00000E+00
    0.15633E+06        -0.87212E+06         0.00000E+00
    0.00000E+00         0.00000E+00         0.79578E+05
 
    0.12299E+07         0.17327E+06         0.00000E+00
    0.17327E+06        -0.93267E+06         0.00000E+00
    0.00000E+00         0.00000E+00         0.59442E+05
 
    0.11923E+07         0.19401E+06         0.00000E+00
    0.19401E+06        -0.99186E+06         0.00000E+00
    0.00000E+00         0.00000E+00         0.40085E+05
 
    0.11565E+07         0.21850E+06         0.00000E+00
    0.21850E+06        -0.10493E+07         0.00000E+00
    0.00000E+00         0.00000E+00         0.21447E+05
 
    0.11219E+07         0.24665E+06         0.00000E+00
    0.24665E+06        -0.11045E+07         0.00000E+00
    0.00000E+00         0.00000E+00         0.34719E+04
 
    0.10878E+07         0.27830E+06         0.00000E+00
    0.27830E+06        -0.11573E+07         0.00000E+00
    0.00000E+00         0.00000E+00        -0.13899E+05
 
    0.10535E+07         0.31325E+06         0.00000E+00
    0.31325E+06        -0.12071E+07         0.00000E+00
    0.00000E+00         0.00000E+00        -0.30720E+05
 
    0.10186E+07         0.35126E+06         0.00000E+00
    0.35126E+06        -0.12538E+07         0.00000E+00
    0.00000E+00         0.00000E+00        -0.47044E+05
 
    0.98230E+06         0.39204E+06         0.00000E+00
    0.39204E+06        -0.12969E+07         0.00000E+00
    0.00000E+00         0.00000E+00        -0.62922E+05
 
    0.94423E+06         0.43524E+06         0.00000E+00
    0.43524E+06        -0.13362E+07         0.00000E+00
    0.00000E+00         0.00000E+00        -0.78398E+05
 
    0.90386E+06         0.48048E+06         0.00000E+00
    0.48048E+06        -0.13714E+07         0.00000E+00
    0.00000E+00         0.00000E+00        -0.93515E+05
 
    0.86074E+06         0.52734E+06         0.00000E+00
    0.52734E+06        -0.14023E+07         0.00000E+00
    0.00000E+00         0.00000E+00        -0.10831E+06
 
    0.81449E+06         0.57534E+06         0.00000E+00
    0.57534E+06        -0.14286E+07         0.00000E+00
    0.00000E+00         0.00000E+00        -0.12282E+06
 
    0.76478E+06         0.62395E+06         0.00000E+00
    0.62395E+06        -0.14501E+07         0.00000E+00
    0.00000E+00         0.00000E+00        -0.13706E+06
 
    0.71135E+06         0.67263E+06         0.00000E+00
    0.67263E+06        -0.14667E+07         0.00000E+00
    0.00000E+00         0.00000E+00        -0.15106E+06
 
    0.65401E+06         0.72075E+06         0.00000E+00
    0.72075E+06        -0.14782E+07         0.00000E+00
    0.00000E+00         0.00000E+00        -0.16483E+06
 
    0.59264E+06         0.76769E+06         0.00000E+00
    0.76769E+06        -0.14845E+07         0.00000E+00
    0.00000E+00         0.00000E+00        -0.17838E+06
 
    0.52724E+06         0.81275E+06         0.00000E+00
    0.81275E+06        -0.14858E+07         0.00000E+00
    0.00000E+00         0.00000E+00        -0.19170E+06
 
    0.45789E+06         0.85523E+06         0.00000E+00
    0.85523E+06        -0.14818E+07         0.00000E+00
    0.00000E+00         0.00000E+00        -0.20479E+06
 
    0.38477E+06         0.89440E+06         0.00000E+00
    0.89440E+06        -0.14729E+07         0.00000E+00
    0.00000E+00         0.00000E+00        -0.21762E+06
 
    0.30819E+06         0.92951E+06         0.00000E+00
    0.92951E+06        -0.14590E+07         0.00000E+00
    0.00000E+00         0.00000E+00        -0.23017E+06
 
    0.22860E+06         0.95979E+06         0.00000E+00
    0.95979E+06        -0.14406E+07         0.00000E+00
    0.00000E+00         0.00000E+00        -0.24240E+06
 
    0.14656E+06         0.98450E+06         0.00000E+00
    0.98450E+06        -0.14179E+07         0.00000E+00
    0.00000E+00         0.00000E+00        -0.25427E+06
 
    0.62771E+05         0.10029E+07         0.00000E+00
    0.10029E+07        -0.13914E+07         0.00000E+00
    0.00000E+00         0.00000E+00        -0.26572E+06
 
   -0.21904E+05         0.10143E+07         0.00000E+00
    0.10143E+07        -0.13615E+07         0.00000E+00
    0.00000E+00         0.00000E+00        -0.27668E+06
 
   -0.10647E+06         0.10181E+07         0.00000E+00
    0.10181E+07        -0.13290E+07         0.00000E+00
    0.00000E+00         0.00000E+00        -0.28709E+06
 
   -0.18980E+06         0.10137E+07         0.00000E+00
    0.10137E+07        -0.12945E+07         0.00000E+00
    0.00000E+00         0.00000E+00        -0.29685E+06
 
   -0.27061E+06         0.10006E+07         0.00000E+00
    0.10006E+07        -0.12588E+07         0.00000E+00
    0.00000E+00         0.00000E+00        -0.30589E+06
 
    0.42012E+07         0.34779E+05         0.00000E+00
    0.34779E+05        -0.33460E+05         0.00000E+00
    0.00000E+00         0.00000E+00         0.83355E+06
 
    0.39218E+07         0.66672E+05         0.00000E+00
    0.66672E+05        -0.36411E+05         0.00000E+00
    0.00000E+00         0.00000E+00         0.77708E+06
 
    0.36543E+07         0.84360E+05         0.00000E+00
    0.84360E+05        -0.44872E+05         0.00000E+00
    0.00000E+00         0.00000E+00         0.72189E+06
 
    0.34005E+07         0.89528E+05         0.00000E+00
    0.89528E+05        -0.59678E+05         0.00000E+00
    0.00000E+00         0.00000E+00         0.66816E+06
 
    0.31616E+07         0.83996E+05         0.00000E+00
    0.83996E+05        -0.81333E+05         0.00000E+00
    0.00000E+00         0.00000E+00         0.61606E+06
 
    0.29387E+07         0.69594E+05         0.00000E+00
    0.69594E+05        -0.11013E+06         0.00000E+00
    0.00000E+00         0.00000E+00         0.56572E+06
 
    0.27324E+07         0.48128E+05         0.00000E+00
    0.48128E+05        -0.14617E+06         0.00000E+00
    0.00000E+00         0.00000E+00         0.51726E+06
 
    0.25431E+07         0.21345E+05         0.00000E+00
    0.21345E+05        -0.18934E+06         0.00000E+00
    0.00000E+00         0.00000E+00         0.47074E+06
 
    0.23706E+07        -0.90932E+04         0.00000E+00
   -0.90932E+04        -0.23939E+06         0.00000E+00
    0.00000E+00         0.00000E+00         0.42624E+06
 
    0.22148E+07        -0.41645E+05         0.00000E+00
   -0.41645E+05        -0.29593E+06         0.00000E+00
    0.00000E+00         0.00000E+00         0.38377E+06
 
    0.20751E+07        -0.74900E+05         0.00000E+00
   -0.74900E+05        -0.35846E+06         0.00000E+00
    0.00000E+00         0.00000E+00         0.34334E+06
 
    0.19511E+07        -0.10759E+06         0.00000E+00
   -0.10759E+06        -0.42641E+06         0.00000E+00
    0.00000E+00         0.00000E+00         0.30493E+06
 
    0.18417E+07        -0.13860E+06         0.00000E+00
   -0.13860E+06        -0.49915E+06         0.00000E+00
    0.00000E+00         0.00000E+00         0.26852E+06
 
    0.17463E+07        -0.16694E+06         0.00000E+00
   -0.16694E+06        -0.57602E+06         0.00000E+00
    0.00000E+00         0.00000E+00         0.23405E+06
 
    0.16637E+07        -0.19180E+06         0.00000E+00
   -0.19180E+06        -0.65634E+06         0.00000E+00
    0.00000E+00         0.00000E+00         0.20146E+06
 
    0.15928E+07        -0.21247E+06         0.00000E+00
   -0.21247E+06        -0.73944E+06         0.00000E+00
    0.00000E+00         0.00000E+00         0.17068E+06
 
    0.15327E+07        -0.22838E+06         0.00000E+00
   -0.22838E+06        -0.82464E+06         0.00000E+00
    0.00000E+00         0.00000E+00         0.14162E+06
 
    0.14822E+07        -0.23907E+06         0.00000E+00
   -0.23907E+06        -0.91129E+06         0.00000E+00
    0.00000E+00         0.00000E+00         0.11419E+06
 
    0.14402E+07        -0.24420E+06         0.00000E+00
   -0.24420E+06        -0.99875E+06         0.00000E+00
    0.00000E+00         0.00000E+00         0.88295E+05
 
    0.14056E+07        -0.24352E+06         0.00000E+00
   -0.24352E+06        -0.10864E+07         0.00000E+00
    0.00000E+00         0.00000E+00         0.63831E+05
 
    0.13772E+07        -0.23685E+06         0.00000E+00
   -0.23685E+06        -0.11738E+07         0.00000E+00
    0.00000E+00         0.00000E+00         0.40694E+05
 
    0.13541E+07        -0.22412E+06         0.00000E+00
   -0.22412E+06        -0.12602E+07         0.00000E+00
    0.00000E+00         0.00000E+00         0.18779E+05
 
    0.13352E+07        -0.20529E+06         0.00000E+00
   -0.20529E+06        -0.13453E+07         0.00000E+00
    0.00000E+00         0.00000E+00        -0.20221E+04
 
    0.13194E+07        -0.18041E+06         0.00000E+00
   -0.18041E+06        -0.14285E+07         0.00000E+00
    0.00000E+00         0.00000E+00        -0.21815E+05
 
    0.13058E+07        -0.14956E+06         0.00000E+00
   -0.14956E+06        -0.15093E+07         0.00000E+00
    0.00000E+00         0.00000E+00        -0.40705E+05
 
    0.12934E+07        -0.11289E+06         0.00000E+00
   -0.11289E+06        -0.15874E+07         0.00000E+00
    0.00000E+00         0.00000E+00        -0.58797E+05
 
    0.12814E+07        -0.70588E+05         0.00000E+00
   -0.70588E+05        -0.16623E+07         0.00000E+00
    0.00000E+00         0.00000E+00        -0.76193E+05
 
    0.12688E+07        -0.22880E+05         0.00000E+00
   -0.22880E+05        -0.17337E+07         0.00000E+00
    0.00000E+00         0.00000E+00        -0.92991E+05
 
    0.12547E+07         0.29956E+05         0.00000E+00
    0.29956E+05        -0.18012E+07         0.00000E+00
    0.00000E+00         0.00000E+00        -0.10929E+06
 
    0.12384E+07         0.87601E+05         0.00000E+00
    0.87601E+05        -0.18643E+07         0.00000E+00
    0.00000E+00         0.00000E+00        -0.12517E+06
 
    0.12191E+07         0.14969E+06         0.00000E+00
    0.14969E+06        -0.19228E+07         0.00000E+00
    0.00000E+00         0.00000E+00        -0.14074E+06
 
    0.11959E+07         0.21581E+06         0.00000E+00
    0.21581E+06        -0.19763E+07         0.00000E+00
    0.00000E+00         0.00000E+00        -0.15607E+06
 
    0.11682E+07         0.28550E+06         0.00000E+00
    0.28550E+06        -0.20243E+07         0.00000E+00
    0.00000E+00         0.00000E+00        -0.17123E+06
 
    0.11352E+07         0.35823E+06         0.00000E+00
    0.35823E+06        -0.20667E+07         0.00000E+00
    0.00000E+00         0.00000E+00        -0.18631E+06
 
    0.10963E+07         0.43343E+06         0.00000E+00
    0.43343E+06        -0.21031E+07         0.00000E+00
    0.00000E+00         0.00000E+00        -0.20137E+06
 
    0.10508E+07         0.51043E+06         0.00000E+00
    0.51043E+06        -0.21331E+07         0.00000E+00
    0.00000E+00         0.00000E+00        -0.21646E+06
 
    0.99824E+06         0.58852E+06         0.00000E+00
    0.58852E+06        -0.21564E+07         0.00000E+00
    0.00000E+00         0.00000E+00        -0.23163E+06
 
    0.93812E+06         0.66690E+06         0.00000E+00
    0.66690E+06        -0.21728E+07         0.00000E+00
    0.00000E+00         0.00000E+00        -0.24694E+06
 
    0.87004E+06         0.74469E+06         0.00000E+00
    0.74469E+06        -0.21820E+07         0.00000E+00
    0.00000E+00         0.00000E+00        -0.26240E+06
 
    0.79371E+06         0.82095E+06         0.00000E+00
    0.82095E+06        -0.21839E+07         0.00000E+00
    0.00000E+00         0.00000E+00        -0.27804E+06
 
    0.70894E+06         0.89462E+06         0.00000E+00
    0.89462E+06        -0.21782E+07         0.00000E+00
    0.00000E+00         0.00000E+00        -0.29386E+06
 
    0.61570E+06         0.96459E+06         0.00000E+00
    0.96459E+06        -0.21650E+07         0.00000E+00
    0.00000E+00         0.00000E+00        -0.30986E+06
 
    0.51410E+06         0.10297E+07         0.00000E+00
    0.10297E+07        -0.21442E+07         0.00000E+00
    0.00000E+00         0.00000E+00        -0.32603E+06
 
    0.40445E+06         0.10886E+07         0.00000E+00
    0.10886E+07        -0.21160E+07         0.00000E+00
    0.00000E+00         0.00000E+00        -0.34231E+06
 
    0.28727E+06         0.11401E+07         0.00000E+00
    0.11401E+07        -0.20806E+07         0.00000E+00
    0.00000E+00         0.00000E+00        -0.35868E+06
 
    0.16329E+06         0.11828E+07         0.00000E+00
    0.11828E+07        -0.20385E+07         0.00000E+00
    0.00000E+00         0.00000E+00        -0.37504E+06
 
    0.33494E+05         0.12153E+07         0.00000E+00
    0.12153E+07        -0.19902E+07         0.00000E+00
    0.00000E+00         0.00000E+00        -0.39133E+06
 
   -0.10087E+06         0.12363E+07         0.00000E+00
    0.12363E+07        -0.19363E+07         0.00000E+00
    0.00000E+00         0.00000E+00        -0.40744E+06
 
   -0.23824E+06         0.12446E+07         0.00000E+00
    0.12446E+07        -0.18780E+07         0.00000E+00
    0.00000E+00         0.00000E+00        -0.42324E+06
 
   -0.37683E+06         0.12389E+07         0.00000E+00
    0.12389E+07        -0.18163E+07         0.00000E+00
    0.00000E+00         0.00000E+00        -0.43862E+06
 
    0.42364E+07         0.26029E+05         0.00000E+00
    0.26029E+05        -0.12362E+06         0.00000E+00
    0.00000E+00         0.00000E+00         0.82256E+06
 
    0.38677E+07         0.22815E+05         0.00000E+00
    0.22815E+05        -0.13043E+06         0.00000E+00
    0.00000E+00         0.00000E+00         0.74746E+06
 
    0.35235E+07         0.35862E+03         0.00000E+00
    0.35862E+03        -0.14785E+06         0.00000E+00
    0.00000E+00         0.00000E+00         0.67513E+06
 
    0.32057E+07        -0.37685E+05         0.00000E+00
   -0.37685E+05        -0.17640E+06         0.00000E+00
    0.00000E+00         0.00000E+00         0.60586E+06
 
    0.29156E+07        -0.87923E+05         0.00000E+00
   -0.87923E+05        -0.21637E+06         0.00000E+00
    0.00000E+00         0.00000E+00         0.53985E+06
 
    0.26537E+07        -0.14708E+06         0.00000E+00
   -0.14708E+06        -0.26766E+06         0.00000E+00
    0.00000E+00         0.00000E+00         0.47721E+06
 
    0.24200E+07        -0.21212E+06         0.00000E+00
   -0.21212E+06        -0.32977E+06         0.00000E+00
    0.00000E+00         0.00000E+00         0.41804E+06
 
    0.22138E+07        -0.28026E+06         0.00000E+00
   -0.28026E+06        -0.40195E+06         0.00000E+00
    0.00000E+00         0.00000E+00         0.36237E+06
 
    0.20342E+07        -0.34908E+06         0.00000E+00
   -0.34908E+06        -0.48328E+06         0.00000E+00
    0.00000E+00         0.00000E+00         0.31019E+06
 
    0.18799E+07        -0.41646E+06         0.00000E+00
   -0.41646E+06        -0.57273E+06         0.00000E+00
    0.00000E+00         0.00000E+00         0.26142E+06
 
    0.17492E+07        -0.48059E+06         0.00000E+00
   -0.48059E+06        -0.66920E+06         0.00000E+00
    0.00000E+00         0.00000E+00         0.21600E+06
 
    0.16405E+07        -0.53999E+06         0.00000E+00
   -0.53999E+06        -0.77154E+06         0.00000E+00
    0.00000E+00         0.00000E+00         0.17379E+06
 
    0.15520E+07        -0.59342E+06         0.00000E+00
   -0.59342E+06        -0.87865E+06         0.00000E+00
    0.00000E+00         0.00000E+00         0.13467E+06
 
    0.14817E+07        -0.63993E+06         0.00000E+00
   -0.63993E+06        -0.98943E+06         0.00000E+00
    0.00000E+00         0.00000E+00         0.98464E+05
 
    0.14279E+07        -0.67878E+06         0.00000E+00
   -0.67878E+06        -0.11028E+07         0.00000E+00
    0.00000E+00         0.00000E+00         0.65020E+05
 
    0.13887E+07        -0.70945E+06         0.00000E+00
   -0.70945E+06        -0.12179E+07         0.00000E+00
    0.00000E+00         0.00000E+00         0.34155E+05
 
    0.13623E+07        -0.73156E+06         0.00000E+00
   -0.73156E+06        -0.13338E+07         0.00000E+00
    0.00000E+00         0.00000E+00         0.56886E+04
 
    0.13469E+07        -0.74491E+06         0.00000E+00
   -0.74491E+06        -0.14497E+07         0.00000E+00
    0.00000E+00         0.00000E+00        -0.20566E+05
 
    0.13409E+07        -0.74941E+06         0.00000E+00
   -0.74941E+06        -0.15649E+07         0.00000E+00
    0.00000E+00         0.00000E+00        -0.44793E+05
 
    0.13428E+07        -0.74505E+06         0.00000E+00
   -0.74505E+06        -0.16787E+07         0.00000E+00
    0.00000E+00         0.00000E+00        -0.67179E+05
 
    0.13511E+07        -0.73192E+06         0.00000E+00
   -0.73192E+06        -0.17906E+07         0.00000E+00
    0.00000E+00         0.00000E+00        -0.87904E+05
 
    0.13644E+07        -0.71015E+06         0.00000E+00
   -0.71015E+06        -0.19001E+07         0.00000E+00
    0.00000E+00         0.00000E+00        -0.10715E+06
 
    0.13813E+07        -0.67994E+06         0.00000E+00
   -0.67994E+06        -0.20067E+07         0.00000E+00
    0.00000E+00         0.00000E+00        -0.12508E+06
 
    0.14007E+07        -0.64148E+06         0.00000E+00
   -0.64148E+06        -0.21101E+07         0.00000E+00
    0.00000E+00         0.00000E+00        -0.14188E+06
 
    0.14215E+07        -0.59503E+06         0.00000E+00
   -0.59503E+06        -0.22100E+07         0.00000E+00
    0.00000E+00         0.00000E+00        -0.15770E+06
 
    0.14424E+07        -0.54084E+06         0.00000E+00
   -0.54084E+06        -0.23059E+07         0.00000E+00
    0.00000E+00         0.00000E+00        -0.17270E+06
 
    0.14624E+07        -0.47918E+06         0.00000E+00
   -0.47918E+06        -0.23976E+07         0.00000E+00
    0.00000E+00         0.00000E+00        -0.18704E+06
 
    0.14804E+07        -0.41033E+06         0.00000E+00
   -0.41033E+06        -0.24848E+07         0.00000E+00
    0.00000E+00         0.00000E+00        -0.20087E+06
 
    0.14955E+07        -0.33460E+06         0.00000E+00
   -0.33460E+06        -0.25672E+07         0.00000E+00
    0.00000E+00         0.00000E+00        -0.21433E+06
 
    0.15066E+07        -0.25231E+06         0.00000E+00
   -0.25231E+06        -0.26444E+07         0.00000E+00
    0.00000E+00         0.00000E+00        -0.22756E+06
 
    0.15128E+07        -0.16379E+06         0.00000E+00
   -0.16379E+06        -0.27163E+07         0.00000E+00
    0.00000E+00         0.00000E+00        -0.24070E+06
 
    0.15130E+07        -0.69437E+05         0.00000E+00
   -0.69437E+05        -0.27824E+07         0.00000E+00
    0.00000E+00         0.00000E+00        -0.25387E+06
 
    0.15063E+07         0.30342E+05         0.00000E+00
    0.30342E+05        -0.28423E+07         0.00000E+00
    0.00000E+00         0.00000E+00        -0.26721E+06
 
    0.14916E+07         0.13507E+06         0.00000E+00
    0.13507E+06        -0.28957E+07         0.00000E+00
    0.00000E+00         0.00000E+00        -0.28083E+06
 
    0.14679E+07         0.24419E+06         0.00000E+00
    0.24419E+06        -0.29422E+07         0.00000E+00
    0.00000E+00         0.00000E+00        -0.29485E+06
 
    0.14342E+07         0.35708E+06         0.00000E+00
    0.35708E+06        -0.29811E+07         0.00000E+00
    0.00000E+00         0.00000E+00        -0.30938E+06
 
    0.13895E+07         0.47302E+06         0.00000E+00
    0.47302E+06        -0.30122E+07         0.00000E+00
    0.00000E+00         0.00000E+00        -0.32453E+06
 
    0.13328E+07         0.59114E+06         0.00000E+00
    0.59114E+06        -0.30347E+07         0.00000E+00
    0.00000E+00         0.00000E+00        -0.34037E+06
 
    0.12632E+07         0.71046E+06         0.00000E+00
    0.71046E+06        -0.30482E+07         0.00000E+00
    0.00000E+00         0.00000E+00        -0.35700E+06
 
    0.11798E+07         0.82986E+06         0.00000E+00
    0.82986E+06        -0.30522E+07         0.00000E+00
    0.00000E+00         0.00000E+00        -0.37449E+06
 
    0.10817E+07         0.94801E+06         0.00000E+00
    0.94801E+06        -0.30461E+07         0.00000E+00
    0.00000E+00         0.00000E+00        -0.39289E+06
 
    0.96828E+06         0.10635E+07         0.00000E+00
    0.10635E+07        -0.30295E+07         0.00000E+00
    0.00000E+00         0.00000E+00        -0.41224E+06
 
    0.83904E+06         0.11745E+07         0.00000E+00
    0.11745E+07        -0.30019E+07         0.00000E+00
    0.00000E+00         0.00000E+00        -0.43256E+06
 
    0.69367E+06         0.12793E+07         0.00000E+00
    0.12793E+07        -0.29630E+07         0.00000E+00
    0.00000E+00         0.00000E+00        -0.45386E+06
 
    0.53210E+06         0.13757E+07         0.00000E+00
    0.13757E+07        -0.29126E+07         0.00000E+00
    0.00000E+00         0.00000E+00        -0.47610E+06
 
    0.35463E+06         0.14616E+07         0.00000E+00
    0.14616E+07        -0.28508E+07         0.00000E+00
    0.00000E+00         0.00000E+00        -0.49923E+06
 
    0.16192E+06         0.15344E+07         0.00000E+00
    0.15344E+07        -0.27778E+07         0.00000E+00
    0.00000E+00         0.00000E+00        -0.52317E+06
 
   -0.44917E+05         0.15917E+07         0.00000E+00
    0.15917E+07        -0.26941E+07         0.00000E+00
    0.00000E+00         0.00000E+00        -0.54779E+06
 
   -0.26435E+06         0.16308E+07         0.00000E+00
    0.16308E+07        -0.26006E+07         0.00000E+00
    0.00000E+00         0.00000E+00        -0.57299E+06
 
   -0.49414E+06         0.16489E+07         0.00000E+00
    0.16489E+07        -0.24983E+07         0.00000E+00
    0.00000E+00         0.00000E+00        -0.59849E+06
 
    0.38386E+07         0.17815E+04         0.00000E+00
    0.17815E+04        -0.41149E+06         0.00000E+00
    0.00000E+00         0.00000E+00         0.68542E+06
 
    0.33511E+07        -0.70552E+05         0.00000E+00
   -0.70552E+05        -0.42863E+06         0.00000E+00
    0.00000E+00         0.00000E+00         0.58449E+06
 
    0.29142E+07        -0.16520E+06         0.00000E+00
   -0.16520E+06        -0.46478E+06         0.00000E+00
    0.00000E+00         0.00000E+00         0.48988E+06
 
    0.25280E+07        -0.27578E+06         0.00000E+00
   -0.27578E+06        -0.52021E+06         0.00000E+00
    0.00000E+00         0.00000E+00         0.40157E+06
 
    0.21921E+07        -0.39602E+06         0.00000E+00
   -0.39602E+06        -0.59359E+06         0.00000E+00
    0.00000E+00         0.00000E+00         0.31970E+06
 
    0.19045E+07        -0.52054E+06         0.00000E+00
   -0.52054E+06        -0.68313E+06         0.00000E+00
    0.00000E+00         0.00000E+00         0.24426E+06
 
    0.16624E+07        -0.64491E+06         0.00000E+00
   -0.64491E+06        -0.78685E+06         0.00000E+00
    0.00000E+00         0.00000E+00         0.17511E+06
 
    0.14627E+07        -0.76547E+06         0.00000E+00
   -0.76547E+06        -0.90267E+06         0.00000E+00
    0.00000E+00         0.00000E+00         0.11202E+06
 
    0.13020E+07        -0.87928E+06         0.00000E+00
   -0.87928E+06        -0.10284E+07         0.00000E+00
    0.00000E+00         0.00000E+00         0.54719E+05
 
    0.11766E+07        -0.98405E+06         0.00000E+00
   -0.98405E+06        -0.11621E+07         0.00000E+00
    0.00000E+00         0.00000E+00         0.29159E+04
 
    0.10829E+07        -0.10781E+07         0.00000E+00
   -0.10781E+07        -0.13015E+07         0.00000E+00
    0.00000E+00         0.00000E+00        -0.43724E+05
 
    0.10172E+07        -0.11601E+07         0.00000E+00
   -0.11601E+07        -0.14449E+07         0.00000E+00
    0.00000E+00         0.00000E+00        -0.85547E+05
 
    0.97596E+06        -0.12295E+07         0.00000E+00
   -0.12295E+07        -0.15905E+07         0.00000E+00
    0.00000E+00         0.00000E+00        -0.12291E+06
 
    0.95600E+06        -0.12857E+07         0.00000E+00
   -0.12857E+07        -0.17369E+07         0.00000E+00
    0.00000E+00         0.00000E+00        -0.15618E+06
 
    0.95419E+06        -0.13287E+07         0.00000E+00
   -0.13287E+07        -0.18827E+07         0.00000E+00
    0.00000E+00         0.00000E+00        -0.18570E+06
 
    0.96773E+06        -0.13587E+07         0.00000E+00
   -0.13587E+07        -0.20269E+07         0.00000E+00
    0.00000E+00         0.00000E+00        -0.21184E+06
 
    0.99404E+06        -0.13758E+07         0.00000E+00
   -0.13758E+07        -0.21686E+07         0.00000E+00
    0.00000E+00         0.00000E+00        -0.23492E+06
 
    0.10308E+07        -0.13806E+07         0.00000E+00
   -0.13806E+07        -0.23071E+07         0.00000E+00
    0.00000E+00         0.00000E+00        -0.25527E+06
 
    0.10760E+07        -0.13734E+07         0.00000E+00
   -0.13734E+07        -0.24419E+07         0.00000E+00
    0.00000E+00         0.00000E+00        -0.27319E+06
 
    0.11276E+07        -0.13548E+07         0.00000E+00
   -0.13548E+07        -0.25725E+07         0.00000E+00
    0.00000E+00         0.00000E+00        -0.28898E+06
 
    0.11842E+07        -0.13254E+07         0.00000E+00
   -0.13254E+07        -0.26987E+07         0.00000E+00
    0.00000E+00         0.00000E+00        -0.30290E+06
 
    0.12442E+07        -0.12856E+07         0.00000E+00
   -0.12856E+07        -0.28203E+07         0.00000E+00
    0.00000E+00         0.00000E+00        -0.31522E+06
 
    0.13062E+07        -0.12360E+07         0.00000E+00
   -0.12360E+07        -0.29371E+07         0.00000E+00
    0.00000E+00         0.00000E+00        -0.32618E+06
 
    0.13691E+07        -0.11769E+07         0.00000E+00
   -0.11769E+07        -0.30491E+07         0.00000E+00
    0.00000E+00         0.00000E+00        -0.33600E+06
 
    0.14317E+07        -0.11088E+07         0.00000E+00
   -0.11088E+07        -0.31562E+07         0.00000E+00
    0.00000E+00         0.00000E+00        -0.34490E+06
 
    0.14930E+07        -0.10321E+07         0.00000E+00
   -0.10321E+07        -0.32585E+07         0.00000E+00
    0.00000E+00         0.00000E+00        -0.35310E+06
 
    0.15520E+07        -0.94697E+06         0.00000E+00
   -0.94697E+06        -0.33559E+07         0.00000E+00
    0.00000E+00         0.00000E+00        -0.36078E+06
 
    0.16077E+07        -0.85375E+06         0.00000E+00
   -0.85375E+06        -0.34484E+07         0.00000E+00
    0.00000E+00         0.00000E+00        -0.36814E+06
 
    0.16592E+07        -0.75264E+06         0.00000E+00
   -0.75264E+06        -0.35361E+07         0.00000E+00
    0.00000E+00         0.00000E+00        -0.37537E+06
 
    0.17054E+07        -0.64382E+06         0.00000E+00
   -0.64382E+06        -0.36186E+07         0.00000E+00
    0.00000E+00         0.00000E+00        -0.38264E+06
 
    0.17454E+07        -0.52743E+06         0.00000E+00
   -0.52743E+06        -0.36961E+07         0.00000E+00
    0.00000E+00         0.00000E+00        -0.39014E+06
 
    0.17780E+07        -0.40361E+06         0.00000E+00
   -0.40361E+06        -0.37682E+07         0.00000E+00
    0.00000E+00         0.00000E+00        -0.39803E+06
 
    0.18021E+07        -0.27251E+06         0.00000E+00
   -0.27251E+06        -0.38346E+07         0.00000E+00
    0.00000E+00         0.00000E+00        -0.40651E+06
 
    0.18164E+07        -0.13428E+06         0.00000E+00
   -0.13428E+06        -0.38951E+07         0.00000E+00
    0.00000E+00         0.00000E+00        -0.41574E+06
 
    0.18195E+07         0.10866E+05         0.00000E+00
    0.10866E+05        -0.39490E+07         0.00000E+00
    0.00000E+00         0.00000E+00        -0.42591E+06
 
    0.18099E+07         0.16264E+06         0.00000E+00
    0.16264E+06        -0.39959E+07         0.00000E+00
    0.00000E+00         0.00000E+00        -0.43718E+06
 
    0.17862E+07         0.32066E+06         0.00000E+00
    0.32066E+06        -0.40349E+07         0.00000E+00
    0.00000E+00         0.00000E+00        -0.44975E+06
 
    0.17464E+07         0.48438E+06         0.00000E+00
    0.48438E+06        -0.40654E+07         0.00000E+00
    0.00000E+00         0.00000E+00        -0.46378E+06
 
    0.16889E+07         0.65311E+06         0.00000E+00
    0.65311E+06        -0.40862E+07         0.00000E+00
    0.00000E+00         0.00000E+00        -0.47946E+06
 
    0.16117E+07         0.82589E+06         0.00000E+00
    0.82589E+06        -0.40964E+07         0.00000E+00
    0.00000E+00         0.00000E+00        -0.49695E+06
 
    0.15128E+07         0.10015E+07         0.00000E+00
    0.10015E+07        -0.40948E+07         0.00000E+00
    0.00000E+00         0.00000E+00        -0.51640E+06
 
    0.13902E+07         0.11785E+07         0.00000E+00
    0.11785E+07        -0.40801E+07         0.00000E+00
    0.00000E+00         0.00000E+00        -0.53797E+06
 
    0.12421E+07         0.13548E+07         0.00000E+00
    0.13548E+07        -0.40510E+07         0.00000E+00
    0.00000E+00         0.00000E+00        -0.56178E+06
 
    0.10665E+07         0.15283E+07         0.00000E+00
    0.15283E+07        -0.40063E+07         0.00000E+00
    0.00000E+00         0.00000E+00        -0.58796E+06
 
    0.86178E+06         0.16961E+07         0.00000E+00
    0.16961E+07        -0.39447E+07         0.00000E+00
    0.00000E+00         0.00000E+00        -0.61658E+06
 
    0.62655E+06         0.18551E+07         0.00000E+00
    0.18551E+07        -0.38650E+07         0.00000E+00
    0.00000E+00         0.00000E+00        -0.64770E+06
 
    0.35979E+06         0.20015E+07         0.00000E+00
    0.20015E+07        -0.37664E+07         0.00000E+00
    0.00000E+00         0.00000E+00        -0.68133E+06
 
    0.61117E+05         0.21309E+07         0.00000E+00
    0.21309E+07        -0.36480E+07         0.00000E+00
    0.00000E+00         0.00000E+00        -0.71738E+06
 
   -0.26893E+06         0.22383E+07         0.00000E+00
    0.22383E+07        -0.35096E+07         0.00000E+00
    0.00000E+00         0.00000E+00        -0.75570E+06
 
   -0.62948E+06         0.23190E+07         0.00000E+00
    0.23190E+07        -0.33523E+07         0.00000E+00
    0.00000E+00         0.00000E+00        -0.79635E+06
 
    0.24337E+07        -0.63213E+05         0.00000E+00
   -0.63213E+05        -0.12260E+07         0.00000E+00
    0.00000E+00         0.00000E+00         0.24154E+06
 
    0.18220E+07        -0.26636E+06         0.00000E+00
   -0.26636E+06        -0.12639E+07         0.00000E+00
    0.00000E+00         0.00000E+00         0.11162E+06
 
    0.13078E+07        -0.48524E+06         0.00000E+00
   -0.48524E+06        -0.13371E+07         0.00000E+00
    0.00000E+00         0.00000E+00        -0.58736E+04
 
    0.88544E+06        -0.70739E+06         0.00000E+00
   -0.70739E+06        -0.14386E+07         0.00000E+00
    0.00000E+00         0.00000E+00        -0.11063E+06
 
    0.54643E+06        -0.92481E+06         0.00000E+00
   -0.92481E+06        -0.15636E+07         0.00000E+00
    0.00000E+00         0.00000E+00        -0.20343E+06
 
    0.28218E+06        -0.11314E+07         0.00000E+00
   -0.11314E+07        -0.17078E+07         0.00000E+00
    0.00000E+00         0.00000E+00        -0.28513E+06
 
    0.84301E+05        -0.13225E+07         0.00000E+00
   -0.13225E+07        -0.18669E+07         0.00000E+00
    0.00000E+00         0.00000E+00        -0.35653E+06
 
   -0.55467E+05        -0.14945E+07         0.00000E+00
   -0.14945E+07        -0.20365E+07         0.00000E+00
    0.00000E+00         0.00000E+00        -0.41840E+06
 
   -0.14511E+06        -0.16455E+07         0.00000E+00
   -0.16455E+07        -0.22126E+07         0.00000E+00
    0.00000E+00         0.00000E+00        -0.47154E+06
 
   -0.19221E+06        -0.17741E+07         0.00000E+00
   -0.17741E+07        -0.23916E+07         0.00000E+00
    0.00000E+00         0.00000E+00        -0.51676E+06
 
   -0.20371E+06        -0.18802E+07         0.00000E+00
   -0.18802E+07        -0.25705E+07         0.00000E+00
    0.00000E+00         0.00000E+00        -0.55485E+06
 
   -0.18592E+06        -0.19643E+07         0.00000E+00
   -0.19643E+07        -0.27470E+07         0.00000E+00
    0.00000E+00         0.00000E+00        -0.58658E+06
 
   -0.14435E+06        -0.20271E+07         0.00000E+00
   -0.20271E+07        -0.29191E+07         0.00000E+00
    0.00000E+00         0.00000E+00        -0.61269E+06
 
   -0.83823E+05        -0.20700E+07         0.00000E+00
   -0.20700E+07        -0.30854E+07         0.00000E+00
    0.00000E+00         0.00000E+00        -0.63385E+06
 
   -0.84317E+04        -0.20942E+07         0.00000E+00
   -0.20942E+07        -0.32450E+07         0.00000E+00
    0.00000E+00         0.00000E+00        -0.65068E+06
 
    0.78355E+05        -0.21013E+07         0.00000E+00
   -0.21013E+07        -0.33971E+07         0.00000E+00
    0.00000E+00         0.00000E+00        -0.66375E+06
 
    0.17364E+06        -0.20928E+07         0.00000E+00
   -0.20928E+07        -0.35416E+07         0.00000E+00
    0.00000E+00         0.00000E+00        -0.67358E+06
 
    0.27502E+06        -0.20700E+07         0.00000E+00
   -0.20700E+07        -0.36782E+07         0.00000E+00
    0.00000E+00         0.00000E+00        -0.68064E+06
 
    0.38052E+06        -0.20343E+07         0.00000E+00
   -0.20343E+07        -0.38071E+07         0.00000E+00
    0.00000E+00         0.00000E+00        -0.68532E+06
 
    0.48852E+06        -0.19867E+07         0.00000E+00
   -0.19867E+07        -0.39286E+07         0.00000E+00
    0.00000E+00         0.00000E+00        -0.68802E+06
 
    0.59768E+06        -0.19285E+07         0.00000E+00
   -0.19285E+07        -0.40429E+07         0.00000E+00
    0.00000E+00         0.00000E+00        -0.68905E+06
 
    0.70692E+06        -0.18604E+07         0.00000E+00
   -0.18604E+07        -0.41506E+07         0.00000E+00
    0.00000E+00         0.00000E+00        -0.68873E+06
 
    0.81534E+06        -0.17833E+07         0.00000E+00
   -0.17833E+07        -0.42519E+07         0.00000E+00
    0.00000E+00         0.00000E+00        -0.68732E+06
 
    0.92217E+06        -0.16978E+07         0.00000E+00
   -0.16978E+07        -0.43475E+07         0.00000E+00
    0.00000E+00         0.00000E+00        -0.68507E+06
 
    0.10268E+07        -0.16043E+07         0.00000E+00
   -0.16043E+07        -0.44378E+07         0.00000E+00
    0.00000E+00         0.00000E+00        -0.68222E+06
 
    0.11285E+07        -0.15032E+07         0.00000E+00
   -0.15032E+07        -0.45233E+07         0.00000E+00
    0.00000E+00         0.00000E+00        -0.67896E+06
 
    0.12269E+07        -0.13947E+07         0.00000E+00
   -0.13947E+07        -0.46045E+07         0.00000E+00
    0.00000E+00         0.00000E+00        -0.67552E+06
 
    0.13213E+07        -0.12789E+07         0.00000E+00
   -0.12789E+07        -0.46816E+07         0.00000E+00
    0.00000E+00         0.00000E+00        -0.67207E+06
 
    0.14111E+07        -0.11557E+07         0.00000E+00
   -0.11557E+07        -0.47552E+07         0.00000E+00
    0.00000E+00         0.00000E+00        -0.66881E+06
 
    0.14958E+07        -0.10250E+07         0.00000E+00
   -0.10250E+07        -0.48254E+07         0.00000E+00
    0.00000E+00         0.00000E+00        -0.66592E+06
 
    0.15745E+07        -0.88661E+06         0.00000E+00
   -0.88661E+06        -0.48924E+07         0.00000E+00
    0.00000E+00         0.00000E+00        -0.66359E+06
 
    0.16463E+07        -0.74013E+06         0.00000E+00
   -0.74013E+06        -0.49564E+07         0.00000E+00
    0.00000E+00         0.00000E+00        -0.66201E+06
 
    0.17102E+07        -0.58516E+06         0.00000E+00
   -0.58516E+06        -0.50172E+07         0.00000E+00
    0.00000E+00         0.00000E+00        -0.66139E+06
 
    0.17651E+07        -0.42123E+06         0.00000E+00
   -0.42123E+06        -0.50748E+07         0.00000E+00
    0.00000E+00         0.00000E+00        -0.66194E+06
 
    0.18093E+07        -0.24782E+06         0.00000E+00
   -0.24782E+06        -0.51287E+07         0.00000E+00
    0.00000E+00         0.00000E+00        -0.66388E+06
 
    0.18412E+07        -0.64420E+05         0.00000E+00
   -0.64420E+05        -0.51785E+07         0.00000E+00
    0.00000E+00         0.00000E+00        -0.66746E+06
 
    0.18586E+07         0.12949E+06         0.00000E+00
    0.12949E+06        -0.52234E+07         0.00000E+00
    0.00000E+00         0.00000E+00        -0.67295E+06
 
    0.18593E+07         0.33433E+06         0.00000E+00
    0.33433E+06        -0.52624E+07         0.00000E+00
    0.00000E+00         0.00000E+00        -0.68063E+06
 
    0.18402E+07         0.55041E+06         0.00000E+00
    0.55041E+06        -0.52942E+07         0.00000E+00
    0.00000E+00         0.00000E+00        -0.69080E+06
 
    0.17984E+07         0.77781E+06         0.00000E+00
    0.77781E+06        -0.53173E+07         0.00000E+00
    0.00000E+00         0.00000E+00        -0.70379E+06
 
    0.17300E+07         0.10163E+07         0.00000E+00
    0.10163E+07        -0.53297E+07         0.00000E+00
    0.00000E+00         0.00000E+00        -0.71993E+06
 
    0.16311E+07         0.12653E+07         0.00000E+00
    0.12653E+07        -0.53290E+07         0.00000E+00
    0.00000E+00         0.00000E+00        -0.73958E+06
 
    0.14973E+07         0.15236E+07         0.00000E+00
    0.15236E+07        -0.53127E+07         0.00000E+00
    0.00000E+00         0.00000E+00        -0.76309E+06
 
    0.13239E+07         0.17893E+07         0.00000E+00
    0.17893E+07        -0.52779E+07         0.00000E+00
    0.00000E+00         0.00000E+00        -0.79080E+06
 
    0.11060E+07         0.20599E+07         0.00000E+00
    0.20599E+07        -0.52211E+07         0.00000E+00
    0.00000E+00         0.00000E+00        -0.82304E+06
 
    0.83871E+06         0.23318E+07         0.00000E+00
    0.23318E+07        -0.51393E+07         0.00000E+00
    0.00000E+00         0.00000E+00        -0.86012E+06
 
    0.51712E+06         0.26008E+07         0.00000E+00
    0.26008E+07        -0.50290E+07         0.00000E+00
    0.00000E+00         0.00000E+00        -0.90238E+06
 
    0.13615E+06         0.28614E+07         0.00000E+00
    0.28614E+07        -0.48872E+07         0.00000E+00
    0.00000E+00         0.00000E+00        -0.95021E+06
 
   -0.30912E+06         0.31070E+07         0.00000E+00
    0.31070E+07        -0.47103E+07         0.00000E+00
    0.00000E+00         0.00000E+00        -0.10039E+07
 
   -0.82078E+06         0.33271E+07         0.00000E+00
    0.33271E+07        -0.44925E+07         0.00000E+00
    0.00000E+00         0.00000E+00        -0.10627E+07
 
   -0.10680E+07        -0.21251E+06         0.00000E+00
   -0.21251E+06        -0.32210E+07         0.00000E+00
    0.00000E+00         0.00000E+00        -0.85779E+06
 
   -0.17081E+07        -0.63934E+06         0.00000E+00
   -0.63934E+06        -0.33012E+07         0.00000E+00
    0.00000E+00         0.00000E+00        -0.10018E+07
 
   -0.21848E+07        -0.10381E+07         0.00000E+00
   -0.10381E+07        -0.34203E+07         0.00000E+00
    0.00000E+00         0.00000E+00        -0.11210E+07
 
   -0.25256E+07        -0.14052E+07         0.00000E+00
   -0.14052E+07        -0.35761E+07         0.00000E+00
    0.00000E+00         0.00000E+00        -0.12203E+07
 
   -0.27497E+07        -0.17334E+07         0.00000E+00
   -0.17334E+07        -0.37589E+07         0.00000E+00
    0.00000E+00         0.00000E+00        -0.13017E+07
 
   -0.28758E+07        -0.20175E+07         0.00000E+00
   -0.20175E+07        -0.39582E+07         0.00000E+00
    0.00000E+00         0.00000E+00        -0.13668E+07
 
   -0.29221E+07        -0.22554E+07         0.00000E+00
   -0.22554E+07        -0.41646E+07         0.00000E+00
    0.00000E+00         0.00000E+00        -0.14173E+07
 
   -0.29054E+07        -0.24476E+07         0.00000E+00
   -0.24476E+07        -0.43706E+07         0.00000E+00
    0.00000E+00         0.00000E+00        -0.14552E+07
 
   -0.28405E+07        -0.25966E+07         0.00000E+00
   -0.25966E+07        -0.45706E+07         0.00000E+00
    0.00000E+00         0.00000E+00        -0.14822E+07
 
   -0.27397E+07        -0.27060E+07         0.00000E+00
   -0.27060E+07        -0.47608E+07         0.00000E+00
    0.00000E+00         0.00000E+00        -0.15001E+07
 
   -0.26129E+07        -0.27798E+07         0.00000E+00
   -0.27798E+07        -0.49385E+07         0.00000E+00
    0.00000E+00         0.00000E+00        -0.15103E+07
 
   -0.24682E+07        -0.28225E+07         0.00000E+00
   -0.28225E+07        -0.51025E+07         0.00000E+00
    0.00000E+00         0.00000E+00        -0.15141E+07
 
   -0.23119E+07        -0.28380E+07         0.00000E+00
   -0.28380E+07        -0.52521E+07         0.00000E+00
    0.00000E+00         0.00000E+00        -0.15128E+07
 
   -0.21487E+07        -0.28303E+07         0.00000E+00
   -0.28303E+07        -0.53873E+07         0.00000E+00
    0.00000E+00         0.00000E+00        -0.15072E+07
 
   -0.19823E+07        -0.28028E+07         0.00000E+00
   -0.28028E+07        -0.55086E+07         0.00000E+00
    0.00000E+00         0.00000E+00        -0.14982E+07
 
   -0.18151E+07        -0.27586E+07         0.00000E+00
   -0.27586E+07        -0.56168E+07         0.00000E+00
    0.00000E+00         0.00000E+00        -0.14864E+07
 
   -0.16492E+07        -0.27005E+07         0.00000E+00
   -0.27005E+07        -0.57128E+07         0.00000E+00
    0.00000E+00         0.00000E+00        -0.14724E+07
 
   -0.14859E+07        -0.26305E+07         0.00000E+00
   -0.26305E+07        -0.57976E+07         0.00000E+00
    0.00000E+00         0.00000E+00        -0.14567E+07
 
   -0.13259E+07        -0.25508E+07         0.00000E+00
   -0.25508E+07        -0.58726E+07         0.00000E+00
    0.00000E+00         0.00000E+00        -0.14397E+07
 
   -0.11699E+07        -0.24628E+07         0.00000E+00
   -0.24628E+07        -0.59387E+07         0.00000E+00
    0.00000E+00         0.00000E+00        -0.14217E+07
 
   -0.10180E+07        -0.23678E+07         0.00000E+00
   -0.23678E+07        -0.59971E+07         0.00000E+00
    0.00000E+00         0.00000E+00        -0.14030E+07
 
   -0.87042E+06        -0.22668E+07         0.00000E+00
   -0.22668E+07        -0.60489E+07         0.00000E+00
    0.00000E+00         0.00000E+00        -0.13839E+07
 
   -0.72702E+06        -0.21607E+07         0.00000E+00
   -0.21607E+07        -0.60952E+07         0.00000E+00
    0.00000E+00         0.00000E+00        -0.13644E+07
 
   -0.58769E+06        -0.20498E+07         0.00000E+00
   -0.20498E+07        -0.61370E+07         0.00000E+00
    0.00000E+00         0.00000E+00        -0.13449E+07
 
   -0.45221E+06        -0.19345E+07         0.00000E+00
   -0.19345E+07        -0.61752E+07         0.00000E+00
    0.00000E+00         0.00000E+00        -0.13255E+07
 
   -0.32040E+06        -0.18150E+07         0.00000E+00
   -0.18150E+07        -0.62107E+07         0.00000E+00
    0.00000E+00         0.00000E+00        -0.13062E+07
 
   -0.19203E+06        -0.16912E+07         0.00000E+00
   -0.16912E+07        -0.62443E+07         0.00000E+00
    0.00000E+00         0.00000E+00        -0.12873E+07
 
   -0.66945E+05        -0.15629E+07         0.00000E+00
   -0.15629E+07        -0.62768E+07         0.00000E+00
    0.00000E+00         0.00000E+00        -0.12688E+07
 
    0.54970E+05        -0.14296E+07         0.00000E+00
   -0.14296E+07        -0.63089E+07         0.00000E+00
    0.00000E+00         0.00000E+00        -0.12508E+07
 
    0.17374E+06        -0.12909E+07         0.00000E+00
   -0.12909E+07        -0.63412E+07         0.00000E+00
    0.00000E+00         0.00000E+00        -0.12335E+07
 
    0.28927E+06        -0.11461E+07         0.00000E+00
   -0.11461E+07        -0.63741E+07         0.00000E+00
    0.00000E+00         0.00000E+00        -0.12170E+07
 
    0.40133E+06        -0.99410E+06         0.00000E+00
   -0.99410E+06        -0.64082E+07         0.00000E+00
    0.00000E+00         0.00000E+00        -0.12014E+07
 
    0.50949E+06        -0.83400E+06         0.00000E+00
   -0.83400E+06        -0.64437E+07         0.00000E+00
    0.00000E+00         0.00000E+00        -0.11868E+07
 
    0.61308E+06        -0.66450E+06         0.00000E+00
   -0.66450E+06        -0.64809E+07         0.00000E+00
    0.00000E+00         0.00000E+00        -0.11736E+07
 
    0.71116E+06        -0.48416E+06         0.00000E+00
   -0.48416E+06        -0.65199E+07         0.00000E+00
    0.00000E+00         0.00000E+00        -0.11618E+07
 
    0.80241E+06        -0.29136E+06         0.00000E+00
   -0.29136E+06        -0.65605E+07         0.00000E+00
    0.00000E+00         0.00000E+00        -0.11516E+07
 
    0.88504E+06        -0.84271E+05         0.00000E+00
   -0.84271E+05        -0.66024E+07         0.00000E+00
    0.00000E+00         0.00000E+00        -0.11435E+07
 
    0.95675E+06         0.13912E+06         0.00000E+00
    0.13912E+06        -0.66450E+07         0.00000E+00
    0.00000E+00         0.00000E+00        -0.11376E+07
 
    0.10145E+07         0.38096E+06         0.00000E+00
    0.38096E+06        -0.66871E+07         0.00000E+00
    0.00000E+00         0.00000E+00        -0.11345E+07
 
    0.10545E+07         0.64353E+06         0.00000E+00
    0.64353E+06        -0.67275E+07         0.00000E+00
    0.00000E+00         0.00000E+00        -0.11346E+07
 
    0.10720E+07         0.92910E+06         0.00000E+00
    0.92910E+06        -0.67640E+07         0.00000E+00
    0.00000E+00         0.00000E+00        -0.11384E+07
 
    0.10610E+07         0.12399E+07         0.00000E+00
    0.12399E+07        -0.67939E+07         0.00000E+00
    0.00000E+00         0.00000E+00        -0.11466E+07
 
    0.10142E+07         0.15776E+07         0.00000E+00
    0.15776E+07        -0.68137E+07         0.00000E+00
    0.00000E+00         0.00000E+00        -0.11599E+07
 
    0.92307E+06         0.19437E+07         0.00000E+00
    0.19437E+07        -0.68186E+07         0.00000E+00
    0.00000E+00         0.00000E+00        -0.11791E+07
 
    0.77764E+06         0.23383E+07         0.00000E+00
    0.23383E+07        -0.68028E+07         0.00000E+00
    0.00000E+00         0.00000E+00        -0.12050E+07
 
    0.56686E+06         0.27601E+07         0.00000E+00
    0.27601E+07        -0.67594E+07         0.00000E+00
    0.00000E+00         0.00000E+00        -0.12385E+07
 
    0.27912E+06         0.32059E+07         0.00000E+00
    0.32059E+07        -0.66800E+07         0.00000E+00
    0.00000E+00         0.00000E+00        -0.12802E+07
 
   -0.97217E+05         0.36706E+07         0.00000E+00
    0.36706E+07        -0.65560E+07         0.00000E+00
    0.00000E+00         0.00000E+00        -0.13306E+07
 
   -0.57450E+06         0.41482E+07         0.00000E+00
    0.41482E+07        -0.63801E+07         0.00000E+00
    0.00000E+00         0.00000E+00        -0.13909E+07
 
   -0.11729E+07         0.46369E+07         0.00000E+00
    0.46369E+07        -0.61507E+07         0.00000E+00
    0.00000E+00         0.00000E+00        -0.14647E+07
 
   -0.81964E+07        -0.48185E+06         0.00000E+00
   -0.48185E+06        -0.73714E+07         0.00000E+00
    0.00000E+00         0.00000E+00        -0.31136E+07
 
   -0.85470E+07        -0.11986E+07         0.00000E+00
   -0.11986E+07        -0.74597E+07         0.00000E+00
    0.00000E+00         0.00000E+00        -0.32013E+07
 
   -0.87018E+07        -0.18250E+07         0.00000E+00
   -0.18250E+07        -0.76300E+07         0.00000E+00
    0.00000E+00         0.00000E+00        -0.32663E+07
 
   -0.86871E+07        -0.23358E+07         0.00000E+00
   -0.23358E+07        -0.78327E+07         0.00000E+00
    0.00000E+00         0.00000E+00        -0.33040E+07
 
   -0.85487E+07        -0.27307E+07         0.00000E+00
   -0.27307E+07        -0.80388E+07         0.00000E+00
    0.00000E+00         0.00000E+00        -0.33175E+07
 
   -0.83283E+07        -0.30208E+07         0.00000E+00
   -0.30208E+07        -0.82316E+07         0.00000E+00
    0.00000E+00         0.00000E+00        -0.33120E+07
 
   -0.80584E+07        -0.32213E+07         0.00000E+00
   -0.32213E+07        -0.84023E+07         0.00000E+00
    0.00000E+00         0.00000E+00        -0.32921E+07
 
   -0.77626E+07        -0.33474E+07         0.00000E+00
   -0.33474E+07        -0.85468E+07         0.00000E+00
    0.00000E+00         0.00000E+00        -0.32619E+07
 
   -0.74569E+07        -0.34134E+07         0.00000E+00
   -0.34134E+07        -0.86641E+07         0.00000E+00
    0.00000E+00         0.00000E+00        -0.32242E+07
 
   -0.71523E+07        -0.34316E+07         0.00000E+00
   -0.34316E+07        -0.87551E+07         0.00000E+00
    0.00000E+00         0.00000E+00        -0.31815E+07
 
   -0.68556E+07        -0.34122E+07         0.00000E+00
   -0.34122E+07        -0.88217E+07         0.00000E+00
    0.00000E+00         0.00000E+00        -0.31355E+07
 
   -0.65707E+07        -0.33639E+07         0.00000E+00
   -0.33639E+07        -0.88663E+07         0.00000E+00
    0.00000E+00         0.00000E+00        -0.30874E+07
 
   -0.63001E+07        -0.32936E+07         0.00000E+00
   -0.32936E+07        -0.88915E+07         0.00000E+00
    0.00000E+00         0.00000E+00        -0.30383E+07
 
   -0.60444E+07        -0.32066E+07         0.00000E+00
   -0.32066E+07        -0.88999E+07         0.00000E+00
    0.00000E+00         0.00000E+00        -0.29889E+07
 
   -0.58039E+07        -0.31076E+07         0.00000E+00
   -0.31076E+07        -0.88942E+07         0.00000E+00
    0.00000E+00         0.00000E+00        -0.29396E+07
 
   -0.55779E+07        -0.29999E+07         0.00000E+00
   -0.29999E+07        -0.88767E+07         0.00000E+00
    0.00000E+00         0.00000E+00        -0.28909E+07
 
   -0.53655E+07        -0.28862E+07         0.00000E+00
   -0.28862E+07        -0.88494E+07         0.00000E+00
    0.00000E+00         0.00000E+00        -0.28430E+07
 
   -0.51658E+07        -0.27686E+07         0.00000E+00
   -0.27686E+07        -0.88145E+07         0.00000E+00
    0.00000E+00         0.00000E+00        -0.27961E+07
 
   -0.49775E+07        -0.26485E+07         0.00000E+00
   -0.26485E+07        -0.87737E+07         0.00000E+00
    0.00000E+00         0.00000E+00        -0.27502E+07
 
   -0.47992E+07        -0.25273E+07         0.00000E+00
   -0.25273E+07        -0.87285E+07         0.00000E+00
    0.00000E+00         0.00000E+00        -0.27056E+07
 
   -0.46299E+07        -0.24057E+07         0.00000E+00
   -0.24057E+07        -0.86804E+07         0.00000E+00
    0.00000E+00         0.00000E+00        -0.26621E+07
 
   -0.44681E+07        -0.22841E+07         0.00000E+00
   -0.22841E+07        -0.86306E+07         0.00000E+00
    0.00000E+00         0.00000E+00        -0.26197E+07
 
   -0.43127E+07        -0.21629E+07         0.00000E+00
   -0.21629E+07        -0.85801E+07         0.00000E+00
    0.00000E+00         0.00000E+00        -0.25786E+07
 
   -0.41625E+07        -0.20423E+07         0.00000E+00
   -0.20423E+07        -0.85301E+07         0.00000E+00
    0.00000E+00         0.00000E+00        -0.25385E+07
 
   -0.40164E+07        -0.19220E+07         0.00000E+00
   -0.19220E+07        -0.84815E+07         0.00000E+00
    0.00000E+00         0.00000E+00        -0.24996E+07
 
   -0.38732E+07        -0.18019E+07         0.00000E+00
   -0.18019E+07        -0.84350E+07         0.00000E+00
    0.00000E+00         0.00000E+00        -0.24616E+07
 
   -0.37321E+07        -0.16815E+07         0.00000E+00
   -0.16815E+07        -0.83913E+07         0.00000E+00
    0.00000E+00         0.00000E+00        -0.24247E+07
 
   -0.35919E+07        -0.15604E+07         0.00000E+00
   -0.15604E+07        -0.83514E+07         0.00000E+00
    0.00000E+00         0.00000E+00        -0.23887E+07
 
   -0.34518E+07        -0.14379E+07         0.00000E+00
   -0.14379E+07        -0.83157E+07         0.00000E+00
    0.00000E+00         0.00000E+00        -0.23535E+07
 
   -0.33109E+07        -0.13131E+07         0.00000E+00
   -0.13131E+07        -0.82849E+07         0.00000E+00
    0.00000E+00         0.00000E+00        -0.23192E+07
 
   -0.31684E+07        -0.11850E+07         0.00000E+00
   -0.11850E+07        -0.82598E+07         0.00000E+00
    0.00000E+00         0.00000E+00        -0.22856E+07
 
   -0.30235E+07        -0.10524E+07         0.00000E+00
   -0.10524E+07        -0.82408E+07         0.00000E+00
    0.00000E+00         0.00000E+00        -0.22529E+07
 
   -0.28757E+07        -0.91392E+06         0.00000E+00
   -0.91392E+06        -0.82285E+07         0.00000E+00
    0.00000E+00         0.00000E+00        -0.22208E+07
 
   -0.27242E+07        -0.76781E+06         0.00000E+00
   -0.76781E+06        -0.82236E+07         0.00000E+00
    0.00000E+00         0.00000E+00        -0.21896E+07
 
   -0.25689E+07        -0.61208E+06         0.00000E+00
   -0.61208E+06        -0.82266E+07         0.00000E+00
    0.00000E+00         0.00000E+00        -0.21591E+07
 
   -0.24094E+07        -0.44437E+06         0.00000E+00
   -0.44437E+06        -0.82380E+07         0.00000E+00
    0.00000E+00         0.00000E+00        -0.21295E+07
 
   -0.22459E+07        -0.26186E+06         0.00000E+00
   -0.26186E+06        -0.82583E+07         0.00000E+00
    0.00000E+00         0.00000E+00        -0.21008E+07
 
   -0.20789E+07        -0.61217E+05         0.00000E+00
   -0.61217E+05        -0.82878E+07         0.00000E+00
    0.00000E+00         0.00000E+00        -0.20733E+07
 
   -0.19095E+07         0.16149E+06         0.00000E+00
    0.16149E+06        -0.83268E+07         0.00000E+00
    0.00000E+00         0.00000E+00        -0.20472E+07
 
   -0.17394E+07         0.41094E+06         0.00000E+00
    0.41094E+06        -0.83751E+07         0.00000E+00
    0.00000E+00         0.00000E+00        -0.20229E+07
 
   -0.15717E+07         0.69262E+06         0.00000E+00
    0.69262E+06        -0.84325E+07         0.00000E+00
    0.00000E+00         0.00000E+00        -0.20008E+07
 
   -0.14105E+07         0.10130E+07         0.00000E+00
    0.10130E+07        -0.84978E+07         0.00000E+00
    0.00000E+00         0.00000E+00        -0.19817E+07
 
   -0.12624E+07         0.13794E+07         0.00000E+00
    0.13794E+07        -0.85693E+07         0.00000E+00
    0.00000E+00         0.00000E+00        -0.19663E+07
 
   -0.11366E+07         0.18004E+07         0.00000E+00
    0.18004E+07        -0.86439E+07         0.00000E+00
    0.00000E+00         0.00000E+00        -0.19561E+07
 
   -0.10460E+07         0.22850E+07         0.00000E+00
    0.22850E+07        -0.87168E+07         0.00000E+00
    0.00000E+00         0.00000E+00        -0.19526E+07
 
   -0.10083E+07         0.28428E+07         0.00000E+00
    0.28428E+07        -0.87805E+07         0.00000E+00
    0.00000E+00         0.00000E+00        -0.19578E+07
 
   -0.10469E+07         0.34818E+07         0.00000E+00
    0.34818E+07        -0.88236E+07         0.00000E+00
    0.00000E+00         0.00000E+00        -0.19741E+07
 
   -0.11901E+07         0.42065E+07         0.00000E+00
    0.42065E+07        -0.88291E+07         0.00000E+00
    0.00000E+00         0.00000E+00        -0.20038E+07
 
   -0.14660E+07         0.50120E+07         0.00000E+00
    0.50120E+07        -0.87713E+07         0.00000E+00
    0.00000E+00         0.00000E+00        -0.20474E+07
 
   -0.18824E+07         0.58744E+07         0.00000E+00
    0.58744E+07        -0.86105E+07         0.00000E+00
    0.00000E+00         0.00000E+00        -0.20986E+07
 
   -0.20204E+08        -0.85099E+06         0.00000E+00
   -0.85099E+06        -0.14477E+08         0.00000E+00
    0.00000E+00         0.00000E+00        -0.69361E+07
 
   -0.19591E+08        -0.19257E+07         0.00000E+00
   -0.19257E+07        -0.14718E+08         0.00000E+00
    0.00000E+00         0.00000E+00        -0.68619E+07
 
   -0.18769E+08        -0.26242E+07         0.00000E+00
   -0.26242E+07        -0.14865E+08         0.00000E+00
    0.00000E+00         0.00000E+00        -0.67268E+07
 
   -0.17907E+08        -0.30556E+07         0.00000E+00
   -0.30556E+07        -0.14928E+08         0.00000E+00
    0.00000E+00         0.00000E+00        -0.65671E+07
 
   -0.17082E+08        -0.33000E+07         0.00000E+00
   -0.33000E+07        -0.14920E+08         0.00000E+00
    0.00000E+00         0.00000E+00        -0.64004E+07
 
   -0.16324E+08        -0.34145E+07         0.00000E+00
   -0.34145E+07        -0.14854E+08         0.00000E+00
    0.00000E+00         0.00000E+00        -0.62356E+07
 
   -0.15641E+08        -0.34396E+07         0.00000E+00
   -0.34396E+07        -0.14742E+08         0.00000E+00
    0.00000E+00         0.00000E+00        -0.60767E+07
 
   -0.15034E+08        -0.34038E+07         0.00000E+00
   -0.34038E+07        -0.14595E+08         0.00000E+00
    0.00000E+00         0.00000E+00        -0.59258E+07
 
   -0.14495E+08        -0.33273E+07         0.00000E+00
   -0.33273E+07        -0.14422E+08         0.00000E+00
    0.00000E+00         0.00000E+00        -0.57835E+07
 
   -0.14020E+08        -0.32242E+07         0.00000E+00
   -0.32242E+07        -0.14231E+08         0.00000E+00
    0.00000E+00         0.00000E+00        -0.56501E+07
 
   -0.13599E+08        -0.31045E+07         0.00000E+00
   -0.31045E+07        -0.14027E+08         0.00000E+00
    0.00000E+00         0.00000E+00        -0.55251E+07
 
   -0.13226E+08        -0.29752E+07         0.00000E+00
   -0.29752E+07        -0.13815E+08         0.00000E+00
    0.00000E+00         0.00000E+00        -0.54083E+07
 
   -0.12895E+08        -0.28411E+07         0.00000E+00
   -0.28411E+07        -0.13599E+08         0.00000E+00
    0.00000E+00         0.00000E+00        -0.52989E+07
 
   -0.12600E+08        -0.27059E+07         0.00000E+00
   -0.27059E+07        -0.13382E+08         0.00000E+00
    0.00000E+00         0.00000E+00        -0.51965E+07
 
   -0.12336E+08        -0.25716E+07         0.00000E+00
   -0.25716E+07        -0.13167E+08         0.00000E+00
    0.00000E+00         0.00000E+00        -0.51006E+07
 
   -0.12097E+08        -0.24400E+07         0.00000E+00
   -0.24400E+07        -0.12955E+08         0.00000E+00
    0.00000E+00         0.00000E+00        -0.50105E+07
 
   -0.11881E+08        -0.23120E+07         0.00000E+00
   -0.23120E+07        -0.12748E+08         0.00000E+00
    0.00000E+00         0.00000E+00        -0.49257E+07
 
   -0.11683E+08        -0.21881E+07         0.00000E+00
   -0.21881E+07        -0.12546E+08         0.00000E+00
    0.00000E+00         0.00000E+00        -0.48458E+07
 
   -0.11501E+08        -0.20688E+07         0.00000E+00
   -0.20688E+07        -0.12351E+08         0.00000E+00
    0.00000E+00         0.00000E+00        -0.47703E+07
 
   -0.11331E+08        -0.19541E+07         0.00000E+00
   -0.19541E+07        -0.12163E+08         0.00000E+00
    0.00000E+00         0.00000E+00        -0.46988E+07
 
   -0.11172E+08        -0.18439E+07         0.00000E+00
   -0.18439E+07        -0.11982E+08         0.00000E+00
    0.00000E+00         0.00000E+00        -0.46309E+07
 
   -0.11021E+08        -0.17380E+07         0.00000E+00
   -0.17380E+07        -0.11810E+08         0.00000E+00
    0.00000E+00         0.00000E+00        -0.45662E+07
 
   -0.10876E+08        -0.16362E+07         0.00000E+00
   -0.16362E+07        -0.11645E+08         0.00000E+00
    0.00000E+00         0.00000E+00        -0.45043E+07
 
   -0.10736E+08        -0.15380E+07         0.00000E+00
   -0.15380E+07        -0.11489E+08         0.00000E+00
    0.00000E+00         0.00000E+00        -0.44450E+07
 
   -0.10598E+08        -0.14432E+07         0.00000E+00
   -0.14432E+07        -0.11342E+08         0.00000E+00
    0.00000E+00         0.00000E+00        -0.43879E+07
 
   -0.10460E+08        -0.13511E+07         0.00000E+00
   -0.13511E+07        -0.11203E+08         0.00000E+00
    0.00000E+00         0.00000E+00        -0.43327E+07
 
   -0.10323E+08        -0.12613E+07         0.00000E+00
   -0.12613E+07        -0.11073E+08         0.00000E+00
    0.00000E+00         0.00000E+00        -0.42792E+07
 
   -0.10183E+08        -0.11732E+07         0.00000E+00
   -0.11732E+07        -0.10952E+08         0.00000E+00
    0.00000E+00         0.00000E+00        -0.42270E+07
 
   -0.10039E+08        -0.10860E+07         0.00000E+00
   -0.10860E+07        -0.10841E+08         0.00000E+00
    0.00000E+00         0.00000E+00        -0.41760E+07
 
   -0.98904E+07        -0.99910E+06         0.00000E+00
   -0.99910E+06        -0.10738E+08         0.00000E+00
    0.00000E+00         0.00000E+00        -0.41258E+07
 
   -0.97347E+07        -0.91151E+06         0.00000E+00
   -0.91151E+06        -0.10646E+08         0.00000E+00
    0.00000E+00         0.00000E+00        -0.40761E+07
 
   -0.95704E+07        -0.82226E+06         0.00000E+00
   -0.82226E+06        -0.10564E+08         0.00000E+00
    0.00000E+00         0.00000E+00        -0.40268E+07
 
   -0.93957E+07        -0.73015E+06         0.00000E+00
   -0.73015E+06        -0.10492E+08         0.00000E+00
    0.00000E+00         0.00000E+00        -0.39776E+07
 
   -0.92088E+07        -0.63376E+06         0.00000E+00
   -0.63376E+06        -0.10432E+08         0.00000E+00
    0.00000E+00         0.00000E+00        -0.39282E+07
 
   -0.90074E+07        -0.53142E+06         0.00000E+00
   -0.53142E+06        -0.10384E+08         0.00000E+00
    0.00000E+00         0.00000E+00        -0.38783E+07
 
   -0.87894E+07        -0.42107E+06         0.00000E+00
   -0.42107E+06        -0.10349E+08         0.00000E+00
    0.00000E+00         0.00000E+00        -0.38277E+07
 
   -0.85521E+07        -0.30019E+06         0.00000E+00
   -0.30019E+06        -0.10328E+08         0.00000E+00
    0.00000E+00         0.00000E+00        -0.37760E+07
 
   -0.82929E+07        -0.16567E+06         0.00000E+00
   -0.16567E+06        -0.10322E+08         0.00000E+00
    0.00000E+00         0.00000E+00        -0.37230E+07
 
   -0.80087E+07        -0.13628E+05         0.00000E+00
   -0.13628E+05        -0.10333E+08         0.00000E+00
    0.00000E+00         0.00000E+00        -0.36684E+07
 
   -0.76962E+07         0.16084E+06         0.00000E+00
    0.16084E+06        -0.10363E+08         0.00000E+00
    0.00000E+00         0.00000E+00        -0.36119E+07
 
   -0.73520E+07         0.36398E+06         0.00000E+00
    0.36398E+06        -0.10414E+08         0.00000E+00
    0.00000E+00         0.00000E+00        -0.35532E+07
 
   -0.69727E+07         0.60380E+06         0.00000E+00
    0.60380E+06        -0.10488E+08         0.00000E+00
    0.00000E+00         0.00000E+00        -0.34922E+07
 
   -0.65551E+07         0.89068E+06         0.00000E+00
    0.89068E+06        -0.10589E+08         0.00000E+00
    0.00000E+00         0.00000E+00        -0.34287E+07
 
   -0.60967E+07         0.12382E+07         0.00000E+00
    0.12382E+07        -0.10718E+08         0.00000E+00
    0.00000E+00         0.00000E+00        -0.33629E+07
 
   -0.55971E+07         0.16643E+07         0.00000E+00
    0.16643E+07        -0.10879E+08         0.00000E+00
    0.00000E+00         0.00000E+00        -0.32953E+07
 
   -0.50601E+07         0.21928E+07         0.00000E+00
    0.21928E+07        -0.11075E+08         0.00000E+00
    0.00000E+00         0.00000E+00        -0.32271E+07
 
   -0.44978E+07         0.28554E+07         0.00000E+00
    0.28554E+07        -0.11308E+08         0.00000E+00
    0.00000E+00         0.00000E+00        -0.31612E+07
 
   -0.39391E+07         0.36949E+07         0.00000E+00
    0.36949E+07        -0.11577E+08         0.00000E+00
    0.00000E+00         0.00000E+00        -0.31032E+07
 
   -0.34476E+07         0.47679E+07         0.00000E+00
    0.47679E+07        -0.11877E+08         0.00000E+00
    0.00000E+00         0.00000E+00        -0.30650E+07
 
   -0.31601E+07         0.61476E+07         0.00000E+00
    0.61476E+07        -0.12199E+08         0.00000E+00
    0.00000E+00         0.00000E+00        -0.30717E+07
 
   -0.35994E+08        -0.13817E+07         0.00000E+00
   -0.13817E+07        -0.24681E+08         0.00000E+00
    0.00000E+00         0.00000E+00        -0.12135E+08
 
   -0.32946E+08        -0.17250E+07         0.00000E+00
   -0.17250E+07        -0.24220E+08         0.00000E+00
    0.00000E+00         0.00000E+00        -0.11433E+08
 
   -0.30638E+08        -0.18533E+07         0.00000E+00
   -0.18533E+07        -0.23668E+08         0.00000E+00
    0.00000E+00         0.00000E+00        -0.10861E+08
 
   -0.28847E+08        -0.18703E+07         0.00000E+00
   -0.18703E+07        -0.23072E+08         0.00000E+00
    0.00000E+00         0.00000E+00        -0.10384E+08
 
   -0.27431E+08        -0.18293E+07         0.00000E+00
   -0.18293E+07        -0.22459E+08         0.00000E+00
    0.00000E+00         0.00000E+00        -0.99780E+07
 
   -0.26293E+08        -0.17587E+07         0.00000E+00
   -0.17587E+07        -0.21848E+08         0.00000E+00
    0.00000E+00         0.00000E+00        -0.96283E+07
 
   -0.25368E+08        -0.16740E+07         0.00000E+00
   -0.16740E+07        -0.21251E+08         0.00000E+00
    0.00000E+00         0.00000E+00        -0.93237E+07
 
   -0.24606E+08        -0.15838E+07         0.00000E+00
   -0.15838E+07        -0.20673E+08         0.00000E+00
    0.00000E+00         0.00000E+00        -0.90560E+07
 
   -0.23974E+08        -0.14930E+07         0.00000E+00
   -0.14930E+07        -0.20120E+08         0.00000E+00
    0.00000E+00         0.00000E+00        -0.88188E+07
 
   -0.23443E+08        -0.14041E+07         0.00000E+00
   -0.14041E+07        -0.19593E+08         0.00000E+00
    0.00000E+00         0.00000E+00        -0.86073E+07
 
   -0.22995E+08        -0.13188E+07         0.00000E+00
   -0.13188E+07        -0.19092E+08         0.00000E+00
    0.00000E+00         0.00000E+00        -0.84174E+07
 
   -0.22612E+08        -0.12377E+07         0.00000E+00
   -0.12377E+07        -0.18618E+08         0.00000E+00
    0.00000E+00         0.00000E+00        -0.82461E+07
 
   -0.22283E+08        -0.11612E+07         0.00000E+00
   -0.11612E+07        -0.18171E+08         0.00000E+00
    0.00000E+00         0.00000E+00        -0.80908E+07
 
   -0.21998E+08        -0.10892E+07         0.00000E+00
   -0.10892E+07        -0.17748E+08         0.00000E+00
    0.00000E+00         0.00000E+00        -0.79492E+07
 
   -0.21748E+08        -0.10218E+07         0.00000E+00
   -0.10218E+07        -0.17350E+08         0.00000E+00
    0.00000E+00         0.00000E+00        -0.78196E+07
 
   -0.21528E+08        -0.95857E+06         0.00000E+00
   -0.95857E+06        -0.16974E+08         0.00000E+00
    0.00000E+00         0.00000E+00        -0.77004E+07
 
   -0.21331E+08        -0.89944E+06         0.00000E+00
   -0.89944E+06        -0.16621E+08         0.00000E+00
    0.00000E+00         0.00000E+00        -0.75904E+07
 
   -0.21153E+08        -0.84409E+06         0.00000E+00
   -0.84409E+06        -0.16288E+08         0.00000E+00
    0.00000E+00         0.00000E+00        -0.74883E+07
 
   -0.20991E+08        -0.79224E+06         0.00000E+00
   -0.79224E+06        -0.15975E+08         0.00000E+00
    0.00000E+00         0.00000E+00        -0.73932E+07
 
   -0.20840E+08        -0.74362E+06         0.00000E+00
   -0.74362E+06        -0.15681E+08         0.00000E+00
    0.00000E+00         0.00000E+00        -0.73042E+07
 
   -0.20699E+08        -0.69794E+06         0.00000E+00
   -0.69794E+06        -0.15404E+08         0.00000E+00
    0.00000E+00         0.00000E+00        -0.72206E+07
 
   -0.20565E+08        -0.65493E+06         0.00000E+00
   -0.65493E+06        -0.15143E+08         0.00000E+00
    0.00000E+00         0.00000E+00        -0.71418E+07
 
   -0.20436E+08        -0.61434E+06         0.00000E+00
   -0.61434E+06        -0.14899E+08         0.00000E+00
    0.00000E+00         0.00000E+00        -0.70669E+07
 
   -0.20309E+08        -0.57590E+06         0.00000E+00
   -0.57590E+06        -0.14669E+08         0.00000E+00
    0.00000E+00         0.00000E+00        -0.69957E+07
 
   -0.20183E+08        -0.53934E+06         0.00000E+00
   -0.53934E+06        -0.14454E+08         0.00000E+00
    0.00000E+00         0.00000E+00        -0.69274E+07
 
   -0.20056E+08        -0.50443E+06         0.00000E+00
   -0.50443E+06        -0.14252E+08         0.00000E+00
    0.00000E+00         0.00000E+00        -0.68616E+07
 
   -0.19927E+08        -0.47088E+06         0.00000E+00
   -0.47088E+06        -0.14063E+08         0.00000E+00
    0.00000E+00         0.00000E+00        -0.67980E+07
 
   -0.19792E+08        -0.43844E+06         0.00000E+00
   -0.43844E+06        -0.13888E+08         0.00000E+00
    0.00000E+00         0.00000E+00        -0.67360E+07
 
   -0.19652E+08        -0.40680E+06         0.00000E+00
   -0.40680E+06        -0.13724E+08         0.00000E+00
    0.00000E+00         0.00000E+00        -0.66752E+07
 
   -0.19503E+08        -0.37567E+06         0.00000E+00
   -0.37567E+06        -0.13573E+08         0.00000E+00
    0.00000E+00         0.00000E+00        -0.66152E+07
 
   -0.19344E+08        -0.34470E+06         0.00000E+00
   -0.34470E+06        -0.13434E+08         0.00000E+00
    0.00000E+00         0.00000E+00        -0.65556E+07
 
   -0.19172E+08        -0.31350E+06         0.00000E+00
   -0.31350E+06        -0.13307E+08         0.00000E+00
    0.00000E+00         0.00000E+00        -0.64959E+07
 
   -0.18986E+08        -0.28162E+06         0.00000E+00
   -0.28162E+06        -0.13192E+08         0.00000E+00
    0.00000E+00         0.00000E+00        -0.64357E+07
 
   -0.18782E+08        -0.24852E+06         0.00000E+00
   -0.24852E+06        -0.13091E+08         0.00000E+00
    0.00000E+00         0.00000E+00        -0.63745E+07
 
   -0.18556E+08        -0.21358E+06         0.00000E+00
   -0.21358E+06        -0.13002E+08         0.00000E+00
    0.00000E+00         0.00000E+00        -0.63117E+07
 
   -0.18306E+08        -0.17600E+06         0.00000E+00
   -0.17600E+06        -0.12928E+08         0.00000E+00
    0.00000E+00         0.00000E+00        -0.62468E+07
 
   -0.18026E+08        -0.13481E+06         0.00000E+00
   -0.13481E+06        -0.12870E+08         0.00000E+00
    0.00000E+00         0.00000E+00        -0.61791E+07
 
   -0.17711E+08        -0.88783E+05         0.00000E+00
   -0.88783E+05        -0.12828E+08         0.00000E+00
    0.00000E+00         0.00000E+00        -0.61079E+07
 
   -0.17355E+08        -0.36324E+05         0.00000E+00
   -0.36324E+05        -0.12806E+08         0.00000E+00
    0.00000E+00         0.00000E+00        -0.60322E+07
 
   -0.16949E+08         0.24626E+05         0.00000E+00
    0.24626E+05        -0.12806E+08         0.00000E+00
    0.00000E+00         0.00000E+00        -0.59510E+07
 
   -0.16484E+08         0.96801E+05         0.00000E+00
    0.96801E+05        -0.12832E+08         0.00000E+00
    0.00000E+00         0.00000E+00        -0.58631E+07
 
   -0.15947E+08         0.18387E+06         0.00000E+00
    0.18387E+06        -0.12888E+08         0.00000E+00
    0.00000E+00         0.00000E+00        -0.57670E+07
 
   -0.15323E+08         0.29088E+06         0.00000E+00
    0.29088E+06        -0.12980E+08         0.00000E+00
    0.00000E+00         0.00000E+00        -0.56607E+07
 
   -0.14592E+08         0.42486E+06         0.00000E+00
    0.42486E+06        -0.13117E+08         0.00000E+00
    0.00000E+00         0.00000E+00        -0.55418E+07
 
   -0.13726E+08         0.59589E+06         0.00000E+00
    0.59589E+06        -0.13310E+08         0.00000E+00
    0.00000E+00         0.00000E+00        -0.54072E+07
 
   -0.12690E+08         0.81879E+06         0.00000E+00
    0.81879E+06        -0.13573E+08         0.00000E+00
    0.00000E+00         0.00000E+00        -0.52527E+07
 
   -0.11436E+08         0.11161E+07         0.00000E+00
    0.11161E+07        -0.13926E+08         0.00000E+00
    0.00000E+00         0.00000E+00        -0.50724E+07
 
   -0.98942E+07         0.15235E+07         0.00000E+00
    0.15235E+07        -0.14396E+08         0.00000E+00
    0.00000E+00         0.00000E+00        -0.48580E+07
 
   -0.79626E+07         0.20999E+07         0.00000E+00
    0.20999E+07        -0.15019E+08         0.00000E+00
    0.00000E+00         0.00000E+00        -0.45963E+07
 
   -0.54824E+07         0.29487E+07         0.00000E+00
    0.29487E+07        -0.15849E+08         0.00000E+00
    0.00000E+00         0.00000E+00        -0.42663E+07
 
TENSORS stresstot double 
   -0.44491E+08        -0.60658E+06         0.00000E+00
   -0.60658E+06        -0.49693E+08         0.00000E+00
    0.00000E+00         0.00000E+00        -0.54901E+08
 
   -0.45395E+08        -0.84098E+06         0.00000E+00
   -0.84098E+06        -0.49973E+08         0.00000E+00
    0.00000E+00         0.00000E+00        -0.56099E+08
 
   -0.46223E+08        -0.99245E+06         0.00000E+00
   -0.99245E+06        -0.50286E+08         0.00000E+00
    0.00000E+00         0.00000E+00        -0.57185E+08
 
   -0.46947E+08        -0.10897E+07         0.00000E+00
   -0.10897E+07        -0.50627E+08         0.00000E+00
    0.00000E+00         0.00000E+00        -0.58149E+08
 
   -0.47571E+08        -0.11560E+07         0.00000E+00
   -0.11560E+07        -0.50991E+08         0.00000E+00
    0.00000E+00         0.00000E+00        -0.58981E+08
 
   -0.48251E+08        -0.11960E+07         0.00000E+00
   -0.11960E+07        -0.51401E+08         0.00000E+00
    0.00000E+00         0.00000E+00        -0.59568E+08
 
   -0.48927E+08        -0.11902E+07         0.00000E+00
   -0.11902E+07        -0.51818E+08         0.00000E+00
    0.00000E+00         0.00000E+00        -0.59932E+08
 
   -0.49557E+08        -0.11402E+07         0.00000E+00
   -0.11402E+07        -0.52220E+08         0.00000E+00
    0.00000E+00         0.00000E+00        -0.60139E+08
 
   -0.50064E+08        -0.10787E+07         0.00000E+00
   -0.10787E+07        -0.52609E+08         0.00000E+00
    0.00000E+00         0.00000E+00        -0.60318E+08
 
   -0.50479E+08        -0.10139E+07         0.00000E+00
   -0.10139E+07        -0.52981E+08         0.00000E+00
    0.00000E+00         0.00000E+00        -0.60475E+08
 
   -0.50822E+08        -0.94973E+06         0.00000E+00
   -0.94973E+06        -0.53335E+08         0.00000E+00
    0.00000E+00         0.00000E+00        -0.60615E+08
 
   -0.51110E+08        -0.88811E+06         0.00000E+00
   -0.88811E+06        -0.53670E+08         0.00000E+00
    0.00000E+00         0.00000E+00        -0.60739E+08
 
   -0.51354E+08        -0.82990E+06         0.00000E+00
   -0.82990E+06        -0.53986E+08         0.00000E+00
    0.00000E+00         0.00000E+00        -0.60851E+08
 
   -0.51563E+08        -0.77540E+06         0.00000E+00
   -0.77540E+06        -0.54284E+08         0.00000E+00
    0.00000E+00         0.00000E+00        -0.60953E+08
 
   -0.51745E+08        -0.72462E+06         0.00000E+00
   -0.72462E+06        -0.54564E+08         0.00000E+00
    0.00000E+00         0.00000E+00        -0.61045E+08
 
   -0.51903E+08        -0.67739E+06         0.00000E+00
   -0.67739E+06        -0.54827E+08         0.00000E+00
    0.00000E+00         0.00000E+00        -0.61129E+08
 
   -0.52044E+08        -0.63352E+06         0.00000E+00
   -0.63352E+06        -0.55075E+08         0.00000E+00
    0.00000E+00         0.00000E+00        -0.61207E+08
 
   -0.52170E+08        -0.59273E+06         0.00000E+00
   -0.59273E+06        -0.55307E+08         0.00000E+00
    0.00000E+00         0.00000E+00        -0.61279E+08
 
   -0.52284E+08        -0.55479E+06         0.00000E+00
   -0.55479E+06        -0.55525E+08         0.00000E+00
    0.00000E+00         0.00000E+00        -0.61345E+08
 
   -0.52389E+08        -0.51943E+06         0.00000E+00
   -0.51943E+06        -0.55730E+08         0.00000E+00
    0.00000E+00         0.00000E+00        -0.61407E+08
 
   -0.52487E+08        -0.48641E+06         0.00000E+00
   -0.48641E+06        -0.55923E+08         0.00000E+00
    0.00000E+00         0.00000E+00        -0.61465E+08
 
   -0.52580E+08        -0.45549E+06         0.00000E+00
   -0.45549E+06        -0.56104E+08         0.00000E+00
    0.00000E+00         0.00000E+00        -0.61520E+08
 
   -0.52669E+08        -0.42646E+06         0.00000E+00
   -0.42646E+06        -0.56273E+08         0.00000E+00
    0.00000E+00         0.00000E+00        -0.61572E+08
 
   -0.52756E+08        -0.39910E+06         0.00000E+00
   -0.39910E+06        -0.56432E+08         0.00000E+00
    0.00000E+00         0.00000E+00        -0.61621E+08
 
   -0.52842E+08        -0.37320E+06         0.00000E+00
   -0.37320E+06        -0.56581E+08         0.00000E+00
    0.00000E+00         0.00000E+00        -0.61668E+08
 
   -0.52928E+08        -0.34857E+06         0.00000E+00
   -0.34857E+06        -0.56720E+08         0.00000E+00
    0.00000E+00         0.00000E+00        -0.61713E+08
 
   -0.53016E+08        -0.32500E+06         0.00000E+00
   -0.32500E+06        -0.56850E+08         0.00000E+00
    0.00000E+00         0.00000E+00        -0.61756E+08
 
   -0.53106E+08        -0.30230E+06         0.00000E+00
   -0.30230E+06        -0.56971E+08         0.00000E+00
    0.00000E+00         0.00000E+00        -0.61799E+08
 
   -0.53201E+08        -0.28026E+06         0.00000E+00
   -0.28026E+06        -0.57084E+08         0.00000E+00
    0.00000E+00         0.00000E+00        -0.61840E+08
 
   -0.53301E+08        -0.25865E+06         0.00000E+00
   -0.25865E+06        -0.57188E+08         0.00000E+00
    0.00000E+00         0.00000E+00        -0.61881E+08
 
   -0.53408E+08        -0.23724E+06         0.00000E+00
   -0.23724E+06        -0.57283E+08         0.00000E+00
    0.00000E+00         0.00000E+00        -0.61921E+08
 
   -0.53523E+08        -0.21575E+06         0.00000E+00
   -0.21575E+06        -0.57371E+08         0.00000E+00
    0.00000E+00         0.00000E+00        -0.61962E+08
 
   -0.53647E+08        -0.19387E+06         0.00000E+00
   -0.19387E+06        -0.57449E+08         0.00000E+00
    0.00000E+00         0.00000E+00        -0.62002E+08
 
   -0.53784E+08        -0.17125E+06         0.00000E+00
   -0.17125E+06        -0.57519E+08         0.00000E+00
    0.00000E+00         0.00000E+00        -0.62044E+08
 
   -0.53934E+08        -0.14745E+06         0.00000E+00
   -0.14745E+06        -0.57580E+08         0.00000E+00
    0.00000E+00         0.00000E+00        -0.62086E+08
 
   -0.54102E+08        -0.12194E+06         0.00000E+00
   -0.12194E+06        -0.57631E+08         0.00000E+00
    0.00000E+00         0.00000E+00        -0.62130E+08
 
   -0.54288E+08        -0.94073E+05         0.00000E+00
   -0.94073E+05        -0.57672E+08         0.00000E+00
    0.00000E+00         0.00000E+00        -0.62175E+08
 
   -0.54498E+08        -0.63015E+05         0.00000E+00
   -0.63015E+05        -0.57701E+08         0.00000E+00
    0.00000E+00         0.00000E+00        -0.62223E+08
 
   -0.54735E+08        -0.27709E+05         0.00000E+00
   -0.27709E+05        -0.57717E+08         0.00000E+00
    0.00000E+00         0.00000E+00        -0.62274E+08
 
   -0.55006E+08         0.13223E+05         0.00000E+00
    0.13223E+05        -0.57719E+08         0.00000E+00
    0.00000E+00         0.00000E+00        -0.62328E+08
 
   -0.55315E+08         0.61604E+05         0.00000E+00
    0.61604E+05        -0.57703E+08         0.00000E+00
    0.00000E+00         0.00000E+00        -0.62387E+08
 
   -0.55673E+08         0.11989E+06         0.00000E+00
    0.11989E+06        -0.57667E+08         0.00000E+00
    0.00000E+00         0.00000E+00        -0.62451E+08
 
   -0.56088E+08         0.19143E+06         0.00000E+00
    0.19143E+06        -0.57606E+08         0.00000E+00
    0.00000E+00         0.00000E+00        -0.62522E+08
 
   -0.56575E+08         0.28092E+06         0.00000E+00
    0.28092E+06        -0.57515E+08         0.00000E+00
    0.00000E+00         0.00000E+00        -0.62601E+08
 
   -0.57152E+08         0.39507E+06         0.00000E+00
    0.39507E+06        -0.57388E+08         0.00000E+00
    0.00000E+00         0.00000E+00        -0.62691E+08
 
   -0.57842E+08         0.54378E+06         0.00000E+00
    0.54378E+06        -0.57213E+08         0.00000E+00
    0.00000E+00         0.00000E+00        -0.62794E+08
 
   -0.58677E+08         0.74205E+06         0.00000E+00
    0.74205E+06        -0.56979E+08         0.00000E+00
    0.00000E+00         0.00000E+00        -0.62914E+08
 
   -0.59703E+08         0.10137E+07         0.00000E+00
    0.10137E+07        -0.56667E+08         0.00000E+00
    0.00000E+00         0.00000E+00        -0.63057E+08
 
   -0.60989E+08         0.13980E+07         0.00000E+00
    0.13980E+07        -0.56252E+08         0.00000E+00
    0.00000E+00         0.00000E+00        -0.63231E+08
 
   -0.62641E+08         0.19637E+07         0.00000E+00
    0.19637E+07        -0.55699E+08         0.00000E+00
    0.00000E+00         0.00000E+00        -0.63451E+08
 
   -0.47264E+08        -0.34773E+06         0.00000E+00
   -0.34773E+06        -0.50246E+08         0.00000E+00
    0.00000E+00         0.00000E+00        -0.55321E+08
 
   -0.47351E+08        -0.97721E+06         0.00000E+00
   -0.97721E+06        -0.50063E+08         0.00000E+00
    0.00000E+00         0.00000E+00        -0.55302E+08
 
   -0.47610E+08        -0.14320E+07         0.00000E+00
   -0.14320E+07        -0.49964E+08         0.00000E+00
    0.00000E+00         0.00000E+00        -0.55333E+08
 
   -0.47945E+08        -0.17589E+07         0.00000E+00
   -0.17589E+07        -0.49925E+08         0.00000E+00
    0.00000E+00         0.00000E+00        -0.55393E+08
 
   -0.48316E+08        -0.19927E+07         0.00000E+00
   -0.19927E+07        -0.49927E+08         0.00000E+00
    0.00000E+00         0.00000E+00        -0.55467E+08
 
   -0.48701E+08        -0.21552E+07         0.00000E+00
   -0.21552E+07        -0.49924E+08         0.00000E+00
    0.00000E+00         0.00000E+00        -0.55544E+08
 
   -0.49097E+08        -0.22459E+07         0.00000E+00
   -0.22459E+07        -0.49948E+08         0.00000E+00
    0.00000E+00         0.00000E+00        -0.55628E+08
 
   -0.49487E+08        -0.22740E+07         0.00000E+00
   -0.22740E+07        -0.50010E+08         0.00000E+00
    0.00000E+00         0.00000E+00        -0.55718E+08
 
   -0.49853E+08        -0.22552E+07         0.00000E+00
   -0.22552E+07        -0.50097E+08         0.00000E+00
    0.00000E+00         0.00000E+00        -0.55809E+08
 
   -0.50186E+08        -0.22054E+07         0.00000E+00
   -0.22054E+07        -0.50202E+08         0.00000E+00
    0.00000E+00         0.00000E+00        -0.55896E+08
 
   -0.50484E+08        -0.21358E+07         0.00000E+00
   -0.21358E+07        -0.50321E+08         0.00000E+00
    0.00000E+00         0.00000E+00        -0.55980E+08
 
   -0.50751E+08        -0.20540E+07         0.00000E+00
   -0.20540E+07        -0.50449E+08         0.00000E+00
    0.00000E+00         0.00000E+00        -0.56059E+08
 
   -0.50989E+08        -0.19654E+07         0.00000E+00
   -0.19654E+07        -0.50583E+08         0.00000E+00
    0.00000E+00         0.00000E+00        -0.56133E+08
 
   -0.51201E+08        -0.18736E+07         0.00000E+00
   -0.18736E+07        -0.50721E+08         0.00000E+00
    0.00000E+00         0.00000E+00        -0.56203E+08
 
   -0.51391E+08        -0.17812E+07         0.00000E+00
   -0.17812E+07        -0.50860E+08         0.00000E+00
    0.00000E+00         0.00000E+00        -0.56269E+08
 
   -0.51561E+08        -0.16898E+07         0.00000E+00
   -0.16898E+07        -0.50998E+08         0.00000E+00
    0.00000E+00         0.00000E+00        -0.56331E+08
 
   -0.51716E+08        -0.16004E+07         0.00000E+00
   -0.16004E+07        -0.51134E+08         0.00000E+00
    0.00000E+00         0.00000E+00        -0.56389E+08
 
   -0.51856E+08        -0.15137E+07         0.00000E+00
   -0.15137E+07        -0.51268E+08         0.00000E+00
    0.00000E+00         0.00000E+00        -0.56444E+08
 
   -0.51985E+08        -0.14301E+07         0.00000E+00
   -0.14301E+07        -0.51398E+08         0.00000E+00
    0.00000E+00         0.00000E+00        -0.56495E+08
 
   -0.52104E+08        -0.13497E+07         0.00000E+00
   -0.13497E+07        -0.51524E+08         0.00000E+00
    0.00000E+00         0.00000E+00        -0.56544E+08
 
   -0.52216E+08        -0.12725E+07         0.00000E+00
   -0.12725E+07        -0.51645E+08         0.00000E+00
    0.00000E+00         0.00000E+00        -0.56591E+08
 
   -0.52321E+08        -0.11984E+07         0.00000E+00
   -0.11984E+07        -0.51761E+08         0.00000E+00
    0.00000E+00         0.00000E+00        -0.56635E+08
 
   -0.52422E+08        -0.11272E+07         0.00000E+00
   -0.11272E+07        -0.51872E+08         0.00000E+00
    0.00000E+00         0.00000E+00        -0.56677E+08
 
   -0.52519E+08        -0.10588E+07         0.00000E+00
   -0.10588E+07        -0.51977E+08         0.00000E+00
    0.00000E+00         0.00000E+00        -0.56718E+08
 
   -0.52614E+08        -0.99278E+06         0.00000E+00
   -0.99278E+06        -0.52077E+08         0.00000E+00
    0.00000E+00         0.00000E+00        -0.56757E+08
 
   -0.52708E+08        -0.92885E+06         0.00000E+00
   -0.92885E+06        -0.52171E+08         0.00000E+00
    0.00000E+00         0.00000E+00        -0.56795E+08
 
   -0.52802E+08        -0.86664E+06         0.00000E+00
   -0.86664E+06        -0.52259E+08         0.00000E+00
    0.00000E+00         0.00000E+00        -0.56831E+08
 
   -0.52897E+08        -0.80573E+06         0.00000E+00
   -0.80573E+06        -0.52341E+08         0.00000E+00
    0.00000E+00         0.00000E+00        -0.56866E+08
 
   -0.52995E+08        -0.74565E+06         0.00000E+00
   -0.74565E+06        -0.52417E+08         0.00000E+00
    0.00000E+00         0.00000E+00        -0.56901E+08
 
   -0.53096E+08        -0.68589E+06         0.00000E+00
   -0.68589E+06        -0.52487E+08         0.00000E+00
    0.00000E+00         0.00000E+00        -0.56935E+08
 
   -0.53201E+08        -0.62584E+06         0.00000E+00
   -0.62584E+06        -0.52550E+08         0.00000E+00
    0.00000E+00         0.00000E+00        -0.56969E+08
 
   -0.53311E+08        -0.56481E+06         0.00000E+00
   -0.56481E+06        -0.52606E+08         0.00000E+00
    0.00000E+00         0.00000E+00        -0.57002E+08
 
   -0.53429E+08        -0.50201E+06         0.00000E+00
   -0.50201E+06        -0.52654E+08         0.00000E+00
    0.00000E+00         0.00000E+00        -0.57035E+08
 
   -0.53554E+08        -0.43648E+06         0.00000E+00
   -0.43648E+06        -0.52696E+08         0.00000E+00
    0.00000E+00         0.00000E+00        -0.57069E+08
 
   -0.53689E+08        -0.36708E+06         0.00000E+00
   -0.36708E+06        -0.52729E+08         0.00000E+00
    0.00000E+00         0.00000E+00        -0.57102E+08
 
   -0.53835E+08        -0.29244E+06         0.00000E+00
   -0.29244E+06        -0.52753E+08         0.00000E+00
    0.00000E+00         0.00000E+00        -0.57136E+08
 
   -0.53993E+08        -0.21087E+06         0.00000E+00
   -0.21087E+06        -0.52768E+08         0.00000E+00
    0.00000E+00         0.00000E+00        -0.57171E+08
 
   -0.54166E+08        -0.12031E+06         0.00000E+00
   -0.12031E+06        -0.52773E+08         0.00000E+00
    0.00000E+00         0.00000E+00        -0.57207E+08
 
   -0.54356E+08        -0.18140E+05         0.00000E+00
   -0.18140E+05        -0.52766E+08         0.00000E+00
    0.00000E+00         0.00000E+00        -0.57243E+08
 
   -0.54564E+08         0.98898E+05         0.00000E+00
    0.98898E+05        -0.52747E+08         0.00000E+00
    0.00000E+00         0.00000E+00        -0.57281E+08
 
   -0.54794E+08         0.23497E+06         0.00000E+00
    0.23497E+06        -0.52714E+08         0.00000E+00
    0.00000E+00         0.00000E+00        -0.57320E+08
 
   -0.55047E+08         0.39542E+06         0.00000E+00
    0.39542E+06        -0.52665E+08         0.00000E+00
    0.00000E+00         0.00000E+00        -0.57361E+08
 
   -0.55325E+08         0.58718E+06         0.00000E+00
    0.58718E+06        -0.52599E+08         0.00000E+00
    0.00000E+00         0.00000E+00        -0.57403E+08
 
   -0.55630E+08         0.81929E+06         0.00000E+00
    0.81929E+06        -0.52513E+08         0.00000E+00
    0.00000E+00         0.00000E+00        -0.57447E+08
 
   -0.55963E+08         0.11037E+07         0.00000E+00
    0.11037E+07        -0.52406E+08         0.00000E+00
    0.00000E+00         0.00000E+00        -0.57493E+08
 
   -0.56320E+08         0.14562E+07         0.00000E+00
    0.14562E+07        -0.52276E+08         0.00000E+00
    0.00000E+00         0.00000E+00        -0.57538E+08
 
   -0.56694E+08         0.18982E+07         0.00000E+00
    0.18982E+07        -0.52122E+08         0.00000E+00
    0.00000E+00         0.00000E+00        -0.57582E+08
 
   -0.57066E+08         0.24579E+07         0.00000E+00
    0.24579E+07        -0.51943E+08         0.00000E+00
    0.00000E+00         0.00000E+00        -0.57620E+08
 
   -0.57392E+08         0.31732E+07         0.00000E+00
    0.31732E+07        -0.51743E+08         0.00000E+00
    0.00000E+00         0.00000E+00        -0.57646E+08
 
   -0.57583E+08         0.40928E+07         0.00000E+00
    0.40928E+07        -0.51530E+08         0.00000E+00
    0.00000E+00         0.00000E+00        -0.57641E+08
 
   -0.49905E+08        -0.30313E+06         0.00000E+00
   -0.30313E+06        -0.49990E+08         0.00000E+00
    0.00000E+00         0.00000E+00        -0.52950E+08
 
   -0.49648E+08        -0.70302E+06         0.00000E+00
   -0.70302E+06        -0.49982E+08         0.00000E+00
    0.00000E+00         0.00000E+00        -0.52898E+08
 
   -0.49482E+08        -0.10725E+07         0.00000E+00
   -0.10725E+07        -0.49914E+08         0.00000E+00
    0.00000E+00         0.00000E+00        -0.52850E+08
 
   -0.49413E+08        -0.13911E+07         0.00000E+00
   -0.13911E+07        -0.49813E+08         0.00000E+00
    0.00000E+00         0.00000E+00        -0.52817E+08
 
   -0.49425E+08        -0.16522E+07         0.00000E+00
   -0.16522E+07        -0.49699E+08         0.00000E+00
    0.00000E+00         0.00000E+00        -0.52796E+08
 
   -0.49499E+08        -0.18576E+07         0.00000E+00
   -0.18576E+07        -0.49591E+08         0.00000E+00
    0.00000E+00         0.00000E+00        -0.52789E+08
 
   -0.49617E+08        -0.20151E+07         0.00000E+00
   -0.20151E+07        -0.49484E+08         0.00000E+00
    0.00000E+00         0.00000E+00        -0.52792E+08
 
   -0.49766E+08        -0.21285E+07         0.00000E+00
   -0.21285E+07        -0.49382E+08         0.00000E+00
    0.00000E+00         0.00000E+00        -0.52801E+08
 
   -0.49937E+08        -0.22017E+07         0.00000E+00
   -0.22017E+07        -0.49292E+08         0.00000E+00
    0.00000E+00         0.00000E+00        -0.52817E+08
 
   -0.50120E+08        -0.22396E+07         0.00000E+00
   -0.22396E+07        -0.49217E+08         0.00000E+00
    0.00000E+00         0.00000E+00        -0.52839E+08
 
   -0.50306E+08        -0.22482E+07         0.00000E+00
   -0.22482E+07        -0.49157E+08         0.00000E+00
    0.00000E+00         0.00000E+00        -0.52864E+08
 
   -0.50491E+08        -0.22331E+07         0.00000E+00
   -0.22331E+07        -0.49112E+08         0.00000E+00
    0.00000E+00         0.00000E+00        -0.52892E+08
 
   -0.50672E+08        -0.21994E+07         0.00000E+00
   -0.21994E+07        -0.49081E+08         0.00000E+00
    0.00000E+00         0.00000E+00        -0.52922E+08
 
   -0.50844E+08        -0.21514E+07         0.00000E+00
   -0.21514E+07        -0.49063E+08         0.00000E+00
    0.00000E+00         0.00000E+00        -0.52953E+08
 
   -0.51009E+08        -0.20926E+07         0.00000E+00
   -0.20926E+07        -0.49055E+08         0.00000E+00
    0.00000E+00         0.00000E+00        -0.52984E+08
 
   -0.51164E+08        -0.20259E+07         0.00000E+00
   -0.20259E+07        -0.49057E+08         0.00000E+00
    0.00000E+00         0.00000E+00        -0.53016E+08
 
   -0.51311E+08        -0.19535E+07         0.00000E+00
   -0.19535E+07        -0.49066E+08         0.00000E+00
    0.00000E+00         0.00000E+00        -0.53047E+08
 
   -0.51450E+08        -0.18772E+07         0.00000E+00
   -0.18772E+07        -0.49082E+08         0.00000E+00
    0.00000E+00         0.00000E+00        -0.53078E+08
 
   -0.51581E+08        -0.17982E+07         0.00000E+00
   -0.17982E+07        -0.49103E+08         0.00000E+00
    0.00000E+00         0.00000E+00        -0.53108E+08
 
   -0.51704E+08        -0.17177E+07         0.00000E+00
   -0.17177E+07        -0.49128E+08         0.00000E+00
    0.00000E+00         0.00000E+00        -0.53138E+08
 
   -0.51822E+08        -0.16363E+07         0.00000E+00
   -0.16363E+07        -0.49155E+08         0.00000E+00
    0.00000E+00         0.00000E+00        -0.53167E+08
 
   -0.51934E+08        -0.15546E+07         0.00000E+00
   -0.15546E+07        -0.49185E+08         0.00000E+00
    0.00000E+00         0.00000E+00        -0.53195E+08
 
   -0.52042E+08        -0.14729E+07         0.00000E+00
   -0.14729E+07        -0.49215E+08         0.00000E+00
    0.00000E+00         0.00000E+00        -0.53223E+08
 
   -0.52145E+08        -0.13912E+07         0.00000E+00
   -0.13912E+07        -0.49246E+08         0.00000E+00
    0.00000E+00         0.00000E+00        -0.53250E+08
 
   -0.52246E+08        -0.13097E+07         0.00000E+00
   -0.13097E+07        -0.49276E+08         0.00000E+00
    0.00000E+00         0.00000E+00        -0.53276E+08
 
   -0.52345E+08        -0.12282E+07         0.00000E+00
   -0.12282E+07        -0.49305E+08         0.00000E+00
    0.00000E+00         0.00000E+00        -0.53301E+08
 
   -0.52441E+08        -0.11466E+07         0.00000E+00
   -0.11466E+07        -0.49333E+08         0.00000E+00
    0.00000E+00         0.00000E+00        -0.53326E+08
 
   -0.52537E+08        -0.10644E+07         0.00000E+00
   -0.10644E+07        -0.49358E+08         0.00000E+00
    0.00000E+00         0.00000E+00        -0.53351E+08
 
   -0.52633E+08        -0.98128E+06         0.00000E+00
   -0.98128E+06        -0.49381E+08         0.00000E+00
    0.00000E+00         0.00000E+00        -0.53374E+08
 
   -0.52729E+08        -0.89667E+06         0.00000E+00
   -0.89667E+06        -0.49401E+08         0.00000E+00
    0.00000E+00         0.00000E+00        -0.53397E+08
 
   -0.52825E+08        -0.80992E+06         0.00000E+00
   -0.80992E+06        -0.49417E+08         0.00000E+00
    0.00000E+00         0.00000E+00        -0.53420E+08
 
   -0.52923E+08        -0.72022E+06         0.00000E+00
   -0.72022E+06        -0.49429E+08         0.00000E+00
    0.00000E+00         0.00000E+00        -0.53442E+08
 
   -0.53023E+08        -0.62664E+06         0.00000E+00
   -0.62664E+06        -0.49437E+08         0.00000E+00
    0.00000E+00         0.00000E+00        -0.53464E+08
 
   -0.53126E+08        -0.52804E+06         0.00000E+00
   -0.52804E+06        -0.49440E+08         0.00000E+00
    0.00000E+00         0.00000E+00        -0.53485E+08
 
   -0.53230E+08        -0.42309E+06         0.00000E+00
   -0.42309E+06        -0.49438E+08         0.00000E+00
    0.00000E+00         0.00000E+00        -0.53505E+08
 
   -0.53337E+08        -0.31022E+06         0.00000E+00
   -0.31022E+06        -0.49430E+08         0.00000E+00
    0.00000E+00         0.00000E+00        -0.53525E+08
 
   -0.53447E+08        -0.18756E+06         0.00000E+00
   -0.18756E+06        -0.49417E+08         0.00000E+00
    0.00000E+00         0.00000E+00        -0.53544E+08
 
   -0.53559E+08        -0.52874E+05         0.00000E+00
   -0.52874E+05        -0.49397E+08         0.00000E+00
    0.00000E+00         0.00000E+00        -0.53563E+08
 
   -0.53673E+08         0.96452E+05         0.00000E+00
    0.96452E+05        -0.49371E+08         0.00000E+00
    0.00000E+00         0.00000E+00        -0.53580E+08
 
   -0.53786E+08         0.26353E+06         0.00000E+00
    0.26353E+06        -0.49339E+08         0.00000E+00
    0.00000E+00         0.00000E+00        -0.53597E+08
 
   -0.53899E+08         0.45202E+06         0.00000E+00
    0.45202E+06        -0.49301E+08         0.00000E+00
    0.00000E+00         0.00000E+00        -0.53611E+08
 
   -0.54006E+08         0.66620E+06         0.00000E+00
    0.66620E+06        -0.49258E+08         0.00000E+00
    0.00000E+00         0.00000E+00        -0.53624E+08
 
   -0.54105E+08         0.91104E+06         0.00000E+00
    0.91104E+06        -0.49210E+08         0.00000E+00
    0.00000E+00         0.00000E+00        -0.53634E+08
 
   -0.54189E+08         0.11921E+07         0.00000E+00
    0.11921E+07        -0.49160E+08         0.00000E+00
    0.00000E+00         0.00000E+00        -0.53641E+08
 
   -0.54250E+08         0.15156E+07         0.00000E+00
    0.15156E+07        -0.49112E+08         0.00000E+00
    0.00000E+00         0.00000E+00        -0.53644E+08
 
   -0.54275E+08         0.18877E+07         0.00000E+00
    0.18877E+07        -0.49070E+08         0.00000E+00
    0.00000E+00         0.00000E+00        -0.53640E+08
 
   -0.54249E+08         0.23139E+07         0.00000E+00
    0.23139E+07        -0.49041E+08         0.00000E+00
    0.00000E+00         0.00000E+00        -0.53629E+08
 
   -0.54153E+08         0.27970E+07         0.00000E+00
    0.27970E+07        -0.49038E+08         0.00000E+00
    0.00000E+00         0.00000E+00        -0.53610E+08
 
   -0.53969E+08         0.33339E+07         0.00000E+00
    0.33339E+07        -0.49076E+08         0.00000E+00
    0.00000E+00         0.00000E+00        -0.53580E+08
 
   -0.53691E+08         0.39086E+07         0.00000E+00
    0.39086E+07        -0.49184E+08         0.00000E+00
    0.00000E+00         0.00000E+00        -0.53546E+08
 
   -0.51698E+08        -0.12493E+06         0.00000E+00
   -0.12493E+06        -0.50042E+08         0.00000E+00
    0.00000E+00         0.00000E+00        -0.51656E+08
 
   -0.51255E+08        -0.39351E+06         0.00000E+00
   -0.39351E+06        -0.49981E+08         0.00000E+00
    0.00000E+00         0.00000E+00        -0.51555E+08
 
   -0.50922E+08        -0.63950E+06         0.00000E+00
   -0.63950E+06        -0.49906E+08         0.00000E+00
    0.00000E+00         0.00000E+00        -0.51473E+08
 
   -0.50673E+08        -0.86634E+06         0.00000E+00
   -0.86634E+06        -0.49813E+08         0.00000E+00
    0.00000E+00         0.00000E+00        -0.51405E+08
 
   -0.50498E+08        -0.10725E+07         0.00000E+00
   -0.10725E+07        -0.49704E+08         0.00000E+00
    0.00000E+00         0.00000E+00        -0.51348E+08
 
   -0.50385E+08        -0.12551E+07         0.00000E+00
   -0.12551E+07        -0.49583E+08         0.00000E+00
    0.00000E+00         0.00000E+00        -0.51301E+08
 
   -0.50325E+08        -0.14119E+07         0.00000E+00
   -0.14119E+07        -0.49457E+08         0.00000E+00
    0.00000E+00         0.00000E+00        -0.51264E+08
 
   -0.50307E+08        -0.15429E+07         0.00000E+00
   -0.15429E+07        -0.49329E+08         0.00000E+00
    0.00000E+00         0.00000E+00        -0.51235E+08
 
   -0.50325E+08        -0.16492E+07         0.00000E+00
   -0.16492E+07        -0.49201E+08         0.00000E+00
    0.00000E+00         0.00000E+00        -0.51213E+08
 
   -0.50370E+08        -0.17317E+07         0.00000E+00
   -0.17317E+07        -0.49077E+08         0.00000E+00
    0.00000E+00         0.00000E+00        -0.51197E+08
 
   -0.50436E+08        -0.17918E+07         0.00000E+00
   -0.17918E+07        -0.48959E+08         0.00000E+00
    0.00000E+00         0.00000E+00        -0.51187E+08
 
   -0.50519E+08        -0.18313E+07         0.00000E+00
   -0.18313E+07        -0.48847E+08         0.00000E+00
    0.00000E+00         0.00000E+00        -0.51181E+08
 
   -0.50613E+08        -0.18523E+07         0.00000E+00
   -0.18523E+07        -0.48743E+08         0.00000E+00
    0.00000E+00         0.00000E+00        -0.51179E+08
 
   -0.50714E+08        -0.18570E+07         0.00000E+00
   -0.18570E+07        -0.48648E+08         0.00000E+00
    0.00000E+00         0.00000E+00        -0.51180E+08
 
   -0.50820E+08        -0.18473E+07         0.00000E+00
   -0.18473E+07        -0.48562E+08         0.00000E+00
    0.00000E+00         0.00000E+00        -0.51184E+08
 
   -0.50929E+08        -0.18254E+07         0.00000E+00
   -0.18254E+07        -0.48484E+08         0.00000E+00
    0.00000E+00         0.00000E+00        -0.51190E+08
 
   -0.51038E+08        -0.17930E+07         0.00000E+00
   -0.17930E+07        -0.48414E+08         0.00000E+00
    0.00000E+00         0.00000E+00        -0.51198E+08
 
   -0.51147E+08        -0.17517E+07         0.00000E+00
   -0.17517E+07        -0.48351E+08         0.00000E+00
    0.00000E+00         0.00000E+00        -0.51207E+08
 
   -0.51254E+08        -0.17029E+07         0.00000E+00
   -0.17029E+07        -0.48296E+08         0.00000E+00
    0.00000E+00         0.00000E+00        -0.51218E+08
 
   -0.51359E+08        -0.16477E+07         0.00000E+00
   -0.16477E+07        -0.48247E+08         0.00000E+00
    0.00000E+00         0.00000E+00        -0.51229E+08
 
   -0.51462E+08        -0.15872E+07         0.00000E+00
   -0.15872E+07        -0.48203E+08         0.00000E+00
    0.00000E+00         0.00000E+00        -0.51241E+08
 
   -0.51562E+08        -0.15220E+07         0.00000E+00
   -0.15220E+07        -0.48164E+08         0.00000E+00
    0.00000E+00         0.00000E+00        -0.51253E+08
 
   -0.51660E+08        -0.14528E+07         0.00000E+00
   -0.14528E+07        -0.48129E+08         0.00000E+00
    0.00000E+00         0.00000E+00        -0.51265E+08
 
   -0.51755E+08        -0.13801E+07         0.00000E+00
   -0.13801E+07        -0.48097E+08         0.00000E+00
    0.00000E+00         0.00000E+00        -0.51278E+08
 
   -0.51847E+08        -0.13040E+07         0.00000E+00
   -0.13040E+07        -0.48068E+08         0.00000E+00
    0.00000E+00         0.00000E+00        -0.51291E+08
 
   -0.51937E+08        -0.12248E+07         0.00000E+00
   -0.12248E+07        -0.48042E+08         0.00000E+00
    0.00000E+00         0.00000E+00        -0.51303E+08
 
   -0.52025E+08        -0.11424E+07         0.00000E+00
   -0.11424E+07        -0.48017E+08         0.00000E+00
    0.00000E+00         0.00000E+00        -0.51316E+08
 
   -0.52110E+08        -0.10569E+07         0.00000E+00
   -0.10569E+07        -0.47993E+08         0.00000E+00
    0.00000E+00         0.00000E+00        -0.51328E+08
 
   -0.52193E+08        -0.96791E+06         0.00000E+00
   -0.96791E+06        -0.47969E+08         0.00000E+00
    0.00000E+00         0.00000E+00        -0.51340E+08
 
   -0.52274E+08        -0.87516E+06         0.00000E+00
   -0.87516E+06        -0.47946E+08         0.00000E+00
    0.00000E+00         0.00000E+00        -0.51352E+08
 
   -0.52353E+08        -0.77818E+06         0.00000E+00
   -0.77818E+06        -0.47922E+08         0.00000E+00
    0.00000E+00         0.00000E+00        -0.51363E+08
 
   -0.52429E+08        -0.67641E+06         0.00000E+00
   -0.67641E+06        -0.47898E+08         0.00000E+00
    0.00000E+00         0.00000E+00        -0.51373E+08
 
   -0.52503E+08        -0.56916E+06         0.00000E+00
   -0.56916E+06        -0.47873E+08         0.00000E+00
    0.00000E+00         0.00000E+00        -0.51383E+08
 
   -0.52573E+08        -0.45561E+06         0.00000E+00
   -0.45561E+06        -0.47847E+08         0.00000E+00
    0.00000E+00         0.00000E+00        -0.51391E+08
 
   -0.52640E+08        -0.33482E+06         0.00000E+00
   -0.33482E+06        -0.47820E+08         0.00000E+00
    0.00000E+00         0.00000E+00        -0.51399E+08
 
   -0.52701E+08        -0.20571E+06         0.00000E+00
   -0.20571E+06        -0.47792E+08         0.00000E+00
    0.00000E+00         0.00000E+00        -0.51406E+08
 
   -0.52758E+08        -0.67075E+05         0.00000E+00
   -0.67075E+05        -0.47763E+08         0.00000E+00
    0.00000E+00         0.00000E+00        -0.51412E+08
 
   -0.52806E+08         0.82408E+05         0.00000E+00
    0.82408E+05        -0.47734E+08         0.00000E+00
    0.00000E+00         0.00000E+00        -0.51416E+08
 
   -0.52846E+08         0.24417E+06         0.00000E+00
    0.24417E+06        -0.47705E+08         0.00000E+00
    0.00000E+00         0.00000E+00        -0.51418E+08
 
   -0.52873E+08         0.41972E+06         0.00000E+00
    0.41972E+06        -0.47678E+08         0.00000E+00
    0.00000E+00         0.00000E+00        -0.51418E+08
 
   -0.52885E+08         0.61056E+06         0.00000E+00
    0.61056E+06        -0.47653E+08         0.00000E+00
    0.00000E+00         0.00000E+00        -0.51415E+08
 
   -0.52879E+08         0.81814E+06         0.00000E+00
    0.81814E+06        -0.47633E+08         0.00000E+00
    0.00000E+00         0.00000E+00        -0.51410E+08
 
   -0.52848E+08         0.10437E+07         0.00000E+00
    0.10437E+07        -0.47619E+08         0.00000E+00
    0.00000E+00         0.00000E+00        -0.51401E+08
 
   -0.52788E+08         0.12880E+07         0.00000E+00
    0.12880E+07        -0.47616E+08         0.00000E+00
    0.00000E+00         0.00000E+00        -0.51388E+08
 
   -0.52691E+08         0.15513E+07         0.00000E+00
    0.15513E+07        -0.47626E+08         0.00000E+00
    0.00000E+00         0.00000E+00        -0.51371E+08
 
   -0.52551E+08         0.18326E+07         0.00000E+00
    0.18326E+07        -0.47655E+08         0.00000E+00
    0.00000E+00         0.00000E+00        -0.51349E+08
 
   -0.52360E+08         0.21299E+07         0.00000E+00
    0.21299E+07        -0.47707E+08         0.00000E+00
    0.00000E+00         0.00000E+00        -0.51321E+08
 
   -0.52109E+08         0.24397E+07         0.00000E+00
    0.24397E+07        -0.47790E+08         0.00000E+00
    0.00000E+00         0.00000E+00        -0.51287E+08
 
   -0.51791E+08         0.27579E+07         0.00000E+00
    0.27579E+07        -0.47907E+08         0.00000E+00
    0.00000E+00         0.00000E+00        -0.51247E+08
 
   -0.51392E+08         0.30834E+07         0.00000E+00
    0.30834E+07        -0.48060E+08         0.00000E+00
    0.00000E+00         0.00000E+00        -0.51198E+08
 
   -0.52603E+08        -0.36720E+05         0.00000E+00
   -0.36720E+05        -0.50015E+08         0.00000E+00
    0.00000E+00         0.00000E+00        -0.51025E+08
 
   -0.52191E+08        -0.15891E+06         0.00000E+00
   -0.15891E+06        -0.49995E+08         0.00000E+00
    0.00000E+00         0.00000E+00        -0.50938E+08
 
   -0.51840E+08        -0.29476E+06         0.00000E+00
   -0.29476E+06        -0.49949E+08         0.00000E+00
    0.00000E+00         0.00000E+00        -0.50859E+08
 
   -0.51548E+08        -0.43425E+06         0.00000E+00
   -0.43425E+06        -0.49885E+08         0.00000E+00
    0.00000E+00         0.00000E+00        -0.50788E+08
 
   -0.51311E+08        -0.57171E+06         0.00000E+00
   -0.57171E+06        -0.49806E+08         0.00000E+00
    0.00000E+00         0.00000E+00        -0.50725E+08
 
   -0.51123E+08        -0.70341E+06         0.00000E+00
   -0.70341E+06        -0.49715E+08         0.00000E+00
    0.00000E+00         0.00000E+00        -0.50669E+08
 
   -0.50977E+08        -0.82668E+06         0.00000E+00
   -0.82668E+06        -0.49614E+08         0.00000E+00
    0.00000E+00         0.00000E+00        -0.50620E+08
 
   -0.50870E+08        -0.93913E+06         0.00000E+00
   -0.93913E+06        -0.49506E+08         0.00000E+00
    0.00000E+00         0.00000E+00        -0.50577E+08
 
   -0.50797E+08        -0.10392E+07         0.00000E+00
   -0.10392E+07        -0.49394E+08         0.00000E+00
    0.00000E+00         0.00000E+00        -0.50539E+08
 
   -0.50752E+08        -0.11261E+07         0.00000E+00
   -0.11261E+07        -0.49279E+08         0.00000E+00
    0.00000E+00         0.00000E+00        -0.50507E+08
 
   -0.50732E+08        -0.11994E+07         0.00000E+00
   -0.11994E+07        -0.49163E+08         0.00000E+00
    0.00000E+00         0.00000E+00        -0.50480E+08
 
   -0.50732E+08        -0.12591E+07         0.00000E+00
   -0.12591E+07        -0.49048E+08         0.00000E+00
    0.00000E+00         0.00000E+00        -0.50457E+08
 
   -0.50750E+08        -0.13054E+07         0.00000E+00
   -0.13054E+07        -0.48934E+08         0.00000E+00
    0.00000E+00         0.00000E+00        -0.50438E+08
 
   -0.50782E+08        -0.13389E+07         0.00000E+00
   -0.13389E+07        -0.48823E+08         0.00000E+00
    0.00000E+00         0.00000E+00        -0.50422E+08
 
   -0.50825E+08        -0.13601E+07         0.00000E+00
   -0.13601E+07        -0.48716E+08         0.00000E+00
    0.00000E+00         0.00000E+00        -0.50410E+08
 
   -0.50877E+08        -0.13699E+07         0.00000E+00
   -0.13699E+07        -0.48614E+08         0.00000E+00
    0.00000E+00         0.00000E+00        -0.50399E+08
 
   -0.50936E+08        -0.13691E+07         0.00000E+00
   -0.13691E+07        -0.48515E+08         0.00000E+00
    0.00000E+00         0.00000E+00        -0.50392E+08
 
   -0.51000E+08        -0.13584E+07         0.00000E+00
   -0.13584E+07        -0.48422E+08         0.00000E+00
    0.00000E+00         0.00000E+00        -0.50386E+08
 
   -0.51068E+08        -0.13388E+07         0.00000E+00
   -0.13388E+07        -0.48334E+08         0.00000E+00
    0.00000E+00         0.00000E+00        -0.50382E+08
 
   -0.51138E+08        -0.13109E+07         0.00000E+00
   -0.13109E+07        -0.48250E+08         0.00000E+00
    0.00000E+00         0.00000E+00        -0.50379E+08
 
   -0.51210E+08        -0.12754E+07         0.00000E+00
   -0.12754E+07        -0.48171E+08         0.00000E+00
    0.00000E+00         0.00000E+00        -0.50377E+08
 
   -0.51282E+08        -0.12330E+07         0.00000E+00
   -0.12330E+07        -0.48096E+08         0.00000E+00
    0.00000E+00         0.00000E+00        -0.50377E+08
 
   -0.51354E+08        -0.11842E+07         0.00000E+00
   -0.11842E+07        -0.48026E+08         0.00000E+00
    0.00000E+00         0.00000E+00        -0.50377E+08
 
   -0.51426E+08        -0.11294E+07         0.00000E+00
   -0.11294E+07        -0.47959E+08         0.00000E+00
    0.00000E+00         0.00000E+00        -0.50378E+08
 
   -0.51496E+08        -0.10689E+07         0.00000E+00
   -0.10689E+07        -0.47897E+08         0.00000E+00
    0.00000E+00         0.00000E+00        -0.50380E+08
 
   -0.51564E+08        -0.10031E+07         0.00000E+00
   -0.10031E+07        -0.47837E+08         0.00000E+00
    0.00000E+00         0.00000E+00        -0.50382E+08
 
   -0.51631E+08        -0.93206E+06         0.00000E+00
   -0.93206E+06        -0.47780E+08         0.00000E+00
    0.00000E+00         0.00000E+00        -0.50384E+08
 
   -0.51694E+08        -0.85591E+06         0.00000E+00
   -0.85591E+06        -0.47727E+08         0.00000E+00
    0.00000E+00         0.00000E+00        -0.50386E+08
 
   -0.51755E+08        -0.77464E+06         0.00000E+00
   -0.77464E+06        -0.47676E+08         0.00000E+00
    0.00000E+00         0.00000E+00        -0.50387E+08
 
   -0.51813E+08        -0.68819E+06         0.00000E+00
   -0.68819E+06        -0.47627E+08         0.00000E+00
    0.00000E+00         0.00000E+00        -0.50389E+08
 
   -0.51866E+08        -0.59642E+06         0.00000E+00
   -0.59642E+06        -0.47580E+08         0.00000E+00
    0.00000E+00         0.00000E+00        -0.50391E+08
 
   -0.51915E+08        -0.49913E+06         0.00000E+00
   -0.49913E+06        -0.47536E+08         0.00000E+00
    0.00000E+00         0.00000E+00        -0.50392E+08
 
   -0.51959E+08        -0.39608E+06         0.00000E+00
   -0.39608E+06        -0.47494E+08         0.00000E+00
    0.00000E+00         0.00000E+00        -0.50392E+08
 
   -0.51996E+08        -0.28695E+06         0.00000E+00
   -0.28695E+06        -0.47454E+08         0.00000E+00
    0.00000E+00         0.00000E+00        -0.50391E+08
 
   -0.52027E+08        -0.17143E+06         0.00000E+00
   -0.17143E+06        -0.47417E+08         0.00000E+00
    0.00000E+00         0.00000E+00        -0.50390E+08
 
   -0.52049E+08        -0.49185E+05         0.00000E+00
   -0.49185E+05        -0.47382E+08         0.00000E+00
    0.00000E+00         0.00000E+00        -0.50388E+08
 
   -0.52061E+08         0.80115E+05         0.00000E+00
    0.80115E+05        -0.47351E+08         0.00000E+00
    0.00000E+00         0.00000E+00        -0.50384E+08
 
   -0.52063E+08         0.21674E+06         0.00000E+00
    0.21674E+06        -0.47324E+08         0.00000E+00
    0.00000E+00         0.00000E+00        -0.50379E+08
 
   -0.52051E+08         0.36087E+06         0.00000E+00
    0.36087E+06        -0.47302E+08         0.00000E+00
    0.00000E+00         0.00000E+00        -0.50372E+08
 
   -0.52024E+08         0.51257E+06         0.00000E+00
    0.51257E+06        -0.47286E+08         0.00000E+00
    0.00000E+00         0.00000E+00        -0.50363E+08
 
   -0.51979E+08         0.67166E+06         0.00000E+00
    0.67166E+06        -0.47277E+08         0.00000E+00
    0.00000E+00         0.00000E+00        -0.50353E+08
 
   -0.51914E+08         0.83773E+06         0.00000E+00
    0.83773E+06        -0.47277E+08         0.00000E+00
    0.00000E+00         0.00000E+00        -0.50339E+08
 
   -0.51825E+08         0.10100E+07         0.00000E+00
    0.10100E+07        -0.47287E+08         0.00000E+00
    0.00000E+00         0.00000E+00        -0.50324E+08
 
   -0.51710E+08         0.11872E+07         0.00000E+00
    0.11872E+07        -0.47310E+08         0.00000E+00
    0.00000E+00         0.00000E+00        -0.50305E+08
 
   -0.51566E+08         0.13676E+07         0.00000E+00
    0.13676E+07        -0.47347E+08         0.00000E+00
    0.00000E+00         0.00000E+00        -0.50284E+08
 
   -0.51388E+08         0.15488E+07         0.00000E+00
    0.15488E+07        -0.47401E+08         0.00000E+00
    0.00000E+00         0.00000E+00        -0.50259E+08
 
   -0.51175E+08         0.17280E+07         0.00000E+00
    0.17280E+07        -0.47474E+08         0.00000E+00
    0.00000E+00         0.00000E+00        -0.50231E+08
 
   -0.50922E+08         0.19016E+07         0.00000E+00
    0.19016E+07        -0.47568E+08         0.00000E+00
    0.00000E+00         0.00000E+00        -0.50199E+08
 
   -0.50626E+08         0.20651E+07         0.00000E+00
    0.20651E+07        -0.47686E+08         0.00000E+00
    0.00000E+00         0.00000E+00        -0.50164E+08
 
   -0.50285E+08         0.22115E+07         0.00000E+00
    0.22115E+07        -0.47831E+08         0.00000E+00
    0.00000E+00         0.00000E+00        -0.50125E+08
 
   -0.52942E+08         0.49505E+04         0.00000E+00
    0.49505E+04        -0.50009E+08         0.00000E+00
    0.00000E+00         0.00000E+00        -0.50760E+08
 
   -0.52614E+08        -0.36996E+05         0.00000E+00
   -0.36996E+05        -0.49998E+08         0.00000E+00
    0.00000E+00         0.00000E+00        -0.50693E+08
 
   -0.52320E+08        -0.93595E+05         0.00000E+00
   -0.93595E+05        -0.49975E+08         0.00000E+00
    0.00000E+00         0.00000E+00        -0.50629E+08
 
   -0.52058E+08        -0.16144E+06         0.00000E+00
   -0.16144E+06        -0.49940E+08         0.00000E+00
    0.00000E+00         0.00000E+00        -0.50570E+08
 
   -0.51828E+08        -0.23654E+06         0.00000E+00
   -0.23654E+06        -0.49894E+08         0.00000E+00
    0.00000E+00         0.00000E+00        -0.50514E+08
 
   -0.51630E+08        -0.31531E+06         0.00000E+00
   -0.31531E+06        -0.49837E+08         0.00000E+00
    0.00000E+00         0.00000E+00        -0.50463E+08
 
   -0.51461E+08        -0.39474E+06         0.00000E+00
   -0.39474E+06        -0.49771E+08         0.00000E+00
    0.00000E+00         0.00000E+00        -0.50416E+08
 
   -0.51321E+08        -0.47248E+06         0.00000E+00
   -0.47248E+06        -0.49696E+08         0.00000E+00
    0.00000E+00         0.00000E+00        -0.50374E+08
 
   -0.51206E+08        -0.54659E+06         0.00000E+00
   -0.54659E+06        -0.49616E+08         0.00000E+00
    0.00000E+00         0.00000E+00        -0.50334E+08
 
   -0.51115E+08        -0.61549E+06         0.00000E+00
   -0.61549E+06        -0.49529E+08         0.00000E+00
    0.00000E+00         0.00000E+00        -0.50299E+08
 
   -0.51045E+08        -0.67800E+06         0.00000E+00
   -0.67800E+06        -0.49439E+08         0.00000E+00
    0.00000E+00         0.00000E+00        -0.50267E+08
 
   -0.50994E+08        -0.73324E+06         0.00000E+00
   -0.73324E+06        -0.49346E+08         0.00000E+00
    0.00000E+00         0.00000E+00        -0.50238E+08
 
   -0.50959E+08        -0.78064E+06         0.00000E+00
   -0.78064E+06        -0.49251E+08         0.00000E+00
    0.00000E+00         0.00000E+00        -0.50212E+08
 
   -0.50939E+08        -0.81981E+06         0.00000E+00
   -0.81981E+06        -0.49154E+08         0.00000E+00
    0.00000E+00         0.00000E+00        -0.50189E+08
 
   -0.50932E+08        -0.85060E+06         0.00000E+00
   -0.85060E+06        -0.49058E+08         0.00000E+00
    0.00000E+00         0.00000E+00        -0.50168E+08
 
   -0.50936E+08        -0.87295E+06         0.00000E+00
   -0.87295E+06        -0.48963E+08         0.00000E+00
    0.00000E+00         0.00000E+00        -0.50150E+08
 
   -0.50949E+08        -0.88696E+06         0.00000E+00
   -0.88696E+06        -0.48868E+08         0.00000E+00
    0.00000E+00         0.00000E+00        -0.50134E+08
 
   -0.50969E+08        -0.89281E+06         0.00000E+00
   -0.89281E+06        -0.48776E+08         0.00000E+00
    0.00000E+00         0.00000E+00        -0.50119E+08
 
   -0.50996E+08        -0.89075E+06         0.00000E+00
   -0.89075E+06        -0.48686E+08         0.00000E+00
    0.00000E+00         0.00000E+00        -0.50106E+08
 
   -0.51028E+08        -0.88104E+06         0.00000E+00
   -0.88104E+06        -0.48598E+08         0.00000E+00
    0.00000E+00         0.00000E+00        -0.50095E+08
 
   -0.51063E+08        -0.86399E+06         0.00000E+00
   -0.86399E+06        -0.48513E+08         0.00000E+00
    0.00000E+00         0.00000E+00        -0.50085E+08
 
   -0.51101E+08        -0.83991E+06         0.00000E+00
   -0.83991E+06        -0.48430E+08         0.00000E+00
    0.00000E+00         0.00000E+00        -0.50076E+08
 
   -0.51141E+08        -0.80910E+06         0.00000E+00
   -0.80910E+06        -0.48351E+08         0.00000E+00
    0.00000E+00         0.00000E+00        -0.50068E+08
 
   -0.51182E+08        -0.77184E+06         0.00000E+00
   -0.77184E+06        -0.48275E+08         0.00000E+00
    0.00000E+00         0.00000E+00        -0.50061E+08
 
   -0.51223E+08        -0.72839E+06         0.00000E+00
   -0.72839E+06        -0.48202E+08         0.00000E+00
    0.00000E+00         0.00000E+00        -0.50055E+08
 
   -0.51263E+08        -0.67899E+06         0.00000E+00
   -0.67899E+06        -0.48133E+08         0.00000E+00
    0.00000E+00         0.00000E+00        -0.50049E+08
 
   -0.51302E+08        -0.62385E+06         0.00000E+00
   -0.62385E+06        -0.48066E+08         0.00000E+00
    0.00000E+00         0.00000E+00        -0.50044E+08
 
   -0.51339E+08        -0.56313E+06         0.00000E+00
   -0.56313E+06        -0.48003E+08         0.00000E+00
    0.00000E+00         0.00000E+00        -0.50038E+08
 
   -0.51373E+08        -0.49698E+06         0.00000E+00
   -0.49698E+06        -0.47943E+08         0.00000E+00
    0.00000E+00         0.00000E+00        -0.50033E+08
 
   -0.51404E+08        -0.42555E+06         0.00000E+00
   -0.42555E+06        -0.47886E+08         0.00000E+00
    0.00000E+00         0.00000E+00        -0.50028E+08
 
   -0.51431E+08        -0.34893E+06         0.00000E+00
   -0.34893E+06        -0.47833E+08         0.00000E+00
    0.00000E+00         0.00000E+00        -0.50023E+08
 
   -0.51454E+08        -0.26724E+06         0.00000E+00
   -0.26724E+06        -0.47784E+08         0.00000E+00
    0.00000E+00         0.00000E+00        -0.50018E+08
 
   -0.51470E+08        -0.18057E+06         0.00000E+00
   -0.18057E+06        -0.47738E+08         0.00000E+00
    0.00000E+00         0.00000E+00        -0.50012E+08
 
   -0.51480E+08        -0.89051E+05         0.00000E+00
   -0.89051E+05        -0.47697E+08         0.00000E+00
    0.00000E+00         0.00000E+00        -0.50005E+08
 
   -0.51483E+08         0.71661E+04         0.00000E+00
    0.71661E+04        -0.47660E+08         0.00000E+00
    0.00000E+00         0.00000E+00        -0.49999E+08
 
   -0.51477E+08         0.10788E+06         0.00000E+00
    0.10788E+06        -0.47627E+08         0.00000E+00
    0.00000E+00         0.00000E+00        -0.49991E+08
 
   -0.51462E+08         0.21283E+06         0.00000E+00
    0.21283E+06        -0.47600E+08         0.00000E+00
    0.00000E+00         0.00000E+00        -0.49982E+08
 
   -0.51436E+08         0.32164E+06         0.00000E+00
    0.32164E+06        -0.47579E+08         0.00000E+00
    0.00000E+00         0.00000E+00        -0.49973E+08
 
   -0.51398E+08         0.43383E+06         0.00000E+00
    0.43383E+06        -0.47564E+08         0.00000E+00
    0.00000E+00         0.00000E+00        -0.49963E+08
 
   -0.51348E+08         0.54876E+06         0.00000E+00
    0.54876E+06        -0.47557E+08         0.00000E+00
    0.00000E+00         0.00000E+00        -0.49951E+08
 
   -0.51282E+08         0.66561E+06         0.00000E+00
    0.66561E+06        -0.47557E+08         0.00000E+00
    0.00000E+00         0.00000E+00        -0.49938E+08
 
   -0.51201E+08         0.78336E+06         0.00000E+00
    0.78336E+06        -0.47566E+08         0.00000E+00
    0.00000E+00         0.00000E+00        -0.49923E+08
 
   -0.51103E+08         0.90073E+06         0.00000E+00
    0.90073E+06        -0.47585E+08         0.00000E+00
    0.00000E+00         0.00000E+00        -0.49908E+08
 
   -0.50987E+08         0.10162E+07         0.00000E+00
    0.10162E+07        -0.47614E+08         0.00000E+00
    0.00000E+00         0.00000E+00        -0.49890E+08
 
   -0.50852E+08         0.11279E+07         0.00000E+00
    0.11279E+07        -0.47654E+08         0.00000E+00
    0.00000E+00         0.00000E+00        -0.49871E+08
 
   -0.50696E+08         0.12337E+07         0.00000E+00
    0.12337E+07        -0.47707E+08         0.00000E+00
    0.00000E+00         0.00000E+00        -0.49851E+08
 
   -0.50519E+08         0.13310E+07         0.00000E+00
    0.13310E+07        -0.47772E+08         0.00000E+00
    0.00000E+00         0.00000E+00        -0.49828E+08
 
   -0.50321E+08         0.14170E+07         0.00000E+00
    0.14170E+07        -0.47850E+08         0.00000E+00
    0.00000E+00         0.00000E+00        -0.49804E+08
 
   -0.50102E+08         0.14884E+07         0.00000E+00
    0.14884E+07        -0.47942E+08         0.00000E+00
    0.00000E+00         0.00000E+00        -0.49779E+08
 
   -0.49863E+08         0.15419E+07         0.00000E+00
    0.15419E+07        -0.48046E+08         0.00000E+00
    0.00000E+00         0.00000E+00        -0.49752E+08
 
   -0.52983E+08         0.19577E+05         0.00000E+00
    0.19577E+05        -0.50004E+08         0.00000E+00
    0.00000E+00         0.00000E+00        -0.50649E+08
 
   -0.52736E+08         0.21831E+05         0.00000E+00
    0.21831E+05        -0.50000E+08         0.00000E+00
    0.00000E+00         0.00000E+00        -0.50599E+08
 
   -0.52504E+08         0.10890E+05         0.00000E+00
    0.10890E+05        -0.49989E+08         0.00000E+00
    0.00000E+00         0.00000E+00        -0.50551E+08
 
   -0.52290E+08        -0.10660E+05         0.00000E+00
   -0.10660E+05        -0.49971E+08         0.00000E+00
    0.00000E+00         0.00000E+00        -0.50504E+08
 
   -0.52094E+08        -0.40629E+05         0.00000E+00
   -0.40629E+05        -0.49946E+08         0.00000E+00
    0.00000E+00         0.00000E+00        -0.50460E+08
 
   -0.51916E+08        -0.76919E+05         0.00000E+00
   -0.76919E+05        -0.49913E+08         0.00000E+00
    0.00000E+00         0.00000E+00        -0.50418E+08
 
   -0.51756E+08        -0.11756E+06         0.00000E+00
   -0.11756E+06        -0.49873E+08         0.00000E+00
    0.00000E+00         0.00000E+00        -0.50378E+08
 
   -0.51614E+08        -0.16071E+06         0.00000E+00
   -0.16071E+06        -0.49827E+08         0.00000E+00
    0.00000E+00         0.00000E+00        -0.50340E+08
 
   -0.51490E+08        -0.20477E+06         0.00000E+00
   -0.20477E+06        -0.49775E+08         0.00000E+00
    0.00000E+00         0.00000E+00        -0.50305E+08
 
   -0.51382E+08        -0.24832E+06         0.00000E+00
   -0.24832E+06        -0.49717E+08         0.00000E+00
    0.00000E+00         0.00000E+00        -0.50272E+08
 
   -0.51291E+08        -0.29016E+06         0.00000E+00
   -0.29016E+06        -0.49654E+08         0.00000E+00
    0.00000E+00         0.00000E+00        -0.50241E+08
 
   -0.51213E+08        -0.32926E+06         0.00000E+00
   -0.32926E+06        -0.49588E+08         0.00000E+00
    0.00000E+00         0.00000E+00        -0.50212E+08
 
   -0.51150E+08        -0.36479E+06         0.00000E+00
   -0.36479E+06        -0.49518E+08         0.00000E+00
    0.00000E+00         0.00000E+00        -0.50185E+08
 
   -0.51098E+08        -0.39606E+06         0.00000E+00
   -0.39606E+06        -0.49446E+08         0.00000E+00
    0.00000E+00         0.00000E+00        -0.50161E+08
 
   -0.51058E+08        -0.42256E+06         0.00000E+00
   -0.42256E+06        -0.49371E+08         0.00000E+00
    0.00000E+00         0.00000E+00        -0.50138E+08
 
   -0.51028E+08        -0.44387E+06         0.00000E+00
   -0.44387E+06        -0.49296E+08         0.00000E+00
    0.00000E+00         0.00000E+00        -0.50117E+08
 
   -0.51007E+08        -0.45971E+06         0.00000E+00
   -0.45971E+06        -0.49219E+08         0.00000E+00
    0.00000E+00         0.00000E+00        -0.50097E+08
 
   -0.50993E+08        -0.46990E+06         0.00000E+00
   -0.46990E+06        -0.49142E+08         0.00000E+00
    0.00000E+00         0.00000E+00        -0.50079E+08
 
   -0.50986E+08        -0.47432E+06         0.00000E+00
   -0.47432E+06        -0.49066E+08         0.00000E+00
    0.00000E+00         0.00000E+00        -0.50062E+08
 
   -0.50984E+08        -0.47294E+06         0.00000E+00
   -0.47294E+06        -0.48990E+08         0.00000E+00
    0.00000E+00         0.00000E+00        -0.50047E+08
 
   -0.50987E+08        -0.46577E+06         0.00000E+00
   -0.46577E+06        -0.48916E+08         0.00000E+00
    0.00000E+00         0.00000E+00        -0.50033E+08
 
   -0.50994E+08        -0.45286E+06         0.00000E+00
   -0.45286E+06        -0.48843E+08         0.00000E+00
    0.00000E+00         0.00000E+00        -0.50019E+08
 
   -0.51003E+08        -0.43431E+06         0.00000E+00
   -0.43431E+06        -0.48771E+08         0.00000E+00
    0.00000E+00         0.00000E+00        -0.50007E+08
 
   -0.51015E+08        -0.41025E+06         0.00000E+00
   -0.41025E+06        -0.48702E+08         0.00000E+00
    0.00000E+00         0.00000E+00        -0.49995E+08
 
   -0.51027E+08        -0.38080E+06         0.00000E+00
   -0.38080E+06        -0.48635E+08         0.00000E+00
    0.00000E+00         0.00000E+00        -0.49984E+08
 
   -0.51040E+08        -0.34614E+06         0.00000E+00
   -0.34614E+06        -0.48570E+08         0.00000E+00
    0.00000E+00         0.00000E+00        -0.49974E+08
 
   -0.51052E+08        -0.30642E+06         0.00000E+00
   -0.30642E+06        -0.48508E+08         0.00000E+00
    0.00000E+00         0.00000E+00        -0.49964E+08
 
   -0.51064E+08        -0.26183E+06         0.00000E+00
   -0.26183E+06        -0.48449E+08         0.00000E+00
    0.00000E+00         0.00000E+00        -0.49955E+08
 
   -0.51073E+08        -0.21257E+06         0.00000E+00
   -0.21257E+06        -0.48394E+08         0.00000E+00
    0.00000E+00         0.00000E+00        -0.49945E+08
 
   -0.51080E+08        -0.15885E+06         0.00000E+00
   -0.15885E+06        -0.48341E+08         0.00000E+00
    0.00000E+00         0.00000E+00        -0.49936E+08
 
   -0.51084E+08        -0.10090E+06         0.00000E+00
   -0.10090E+06        -0.48293E+08         0.00000E+00
    0.00000E+00         0.00000E+00        -0.49927E+08
 
   -0.51084E+08        -0.38970E+05         0.00000E+00
   -0.38970E+05        -0.48248E+08         0.00000E+00
    0.00000E+00         0.00000E+00        -0.49918E+08
 
   -0.51080E+08         0.26654E+05         0.00000E+00
    0.26654E+05        -0.48207E+08         0.00000E+00
    0.00000E+00         0.00000E+00        -0.49909E+08
 
   -0.51070E+08         0.95652E+05         0.00000E+00
    0.95652E+05        -0.48170E+08         0.00000E+00
    0.00000E+00         0.00000E+00        -0.49900E+08
 
   -0.51055E+08         0.16765E+06         0.00000E+00
    0.16765E+06        -0.48139E+08         0.00000E+00
    0.00000E+00         0.00000E+00        -0.49890E+08
 
   -0.51032E+08         0.24224E+06         0.00000E+00
    0.24224E+06        -0.48112E+08         0.00000E+00
    0.00000E+00         0.00000E+00        -0.49881E+08
 
   -0.51003E+08         0.31890E+06         0.00000E+00
    0.31890E+06        -0.48090E+08         0.00000E+00
    0.00000E+00         0.00000E+00        -0.49871E+08
 
   -0.50966E+08         0.39709E+06         0.00000E+00
    0.39709E+06        -0.48074E+08         0.00000E+00
    0.00000E+00         0.00000E+00        -0.49860E+08
 
   -0.50920E+08         0.47612E+06         0.00000E+00
    0.47612E+06        -0.48065E+08         0.00000E+00
    0.00000E+00         0.00000E+00        -0.49849E+08
 
   -0.50864E+08         0.55525E+06         0.00000E+00
    0.55525E+06        -0.48061E+08         0.00000E+00
    0.00000E+00         0.00000E+00        -0.49837E+08
 
   -0.50800E+08         0.63359E+06         0.00000E+00
    0.63359E+06        -0.48065E+08         0.00000E+00
    0.00000E+00         0.00000E+00        -0.49825E+08
 
   -0.50725E+08         0.71015E+06         0.00000E+00
    0.71015E+06        -0.48075E+08         0.00000E+00
    0.00000E+00         0.00000E+00        -0.49812E+08
 
   -0.50639E+08         0.78381E+06         0.00000E+00
    0.78381E+06        -0.48093E+08         0.00000E+00
    0.00000E+00         0.00000E+00        -0.49798E+08
 
   -0.50543E+08         0.85332E+06         0.00000E+00
    0.85332E+06        -0.48118E+08         0.00000E+00
    0.00000E+00         0.00000E+00        -0.49784E+08
 
   -0.50436E+08         0.91730E+06         0.00000E+00
    0.91730E+06        -0.48151E+08         0.00000E+00
    0.00000E+00         0.00000E+00        -0.49769E+08
 
   -0.50319E+08         0.97423E+06         0.00000E+00
    0.97423E+06        -0.48192E+08         0.00000E+00
    0.00000E+00         0.00000E+00        -0.49754E+08
 
   -0.50191E+08         0.10225E+07         0.00000E+00
    0.10225E+07        -0.48240E+08         0.00000E+00
    0.00000E+00         0.00000E+00        -0.49738E+08
 
   -0.50054E+08         0.10604E+07         0.00000E+00
    0.10604E+07        -0.48295E+08         0.00000E+00
    0.00000E+00         0.00000E+00        -0.49722E+08
 
   -0.49909E+08         0.10862E+07         0.00000E+00
    0.10862E+07        -0.48357E+08         0.00000E+00
    0.00000E+00         0.00000E+00        -0.49705E+08
 
   -0.49757E+08         0.10980E+07         0.00000E+00
    0.10980E+07        -0.48425E+08         0.00000E+00
    0.00000E+00         0.00000E+00        -0.49688E+08
 
   -0.52879E+08         0.24732E+05         0.00000E+00
    0.24732E+05        -0.50002E+08         0.00000E+00
    0.00000E+00         0.00000E+00        -0.50591E+08
 
   -0.52692E+08         0.48909E+05         0.00000E+00
    0.48909E+05        -0.50000E+08         0.00000E+00
    0.00000E+00         0.00000E+00        -0.50553E+08
 
   -0.52513E+08         0.63553E+05         0.00000E+00
    0.63553E+05        -0.49995E+08         0.00000E+00
    0.00000E+00         0.00000E+00        -0.50516E+08
 
   -0.52342E+08         0.69690E+05         0.00000E+00
    0.69690E+05        -0.49986E+08         0.00000E+00
    0.00000E+00         0.00000E+00        -0.50480E+08
 
   -0.52181E+08         0.68512E+05         0.00000E+00
    0.68512E+05        -0.49972E+08         0.00000E+00
    0.00000E+00         0.00000E+00        -0.50445E+08
 
   -0.52030E+08         0.61220E+05         0.00000E+00
    0.61220E+05        -0.49954E+08         0.00000E+00
    0.00000E+00         0.00000E+00        -0.50411E+08
 
   -0.51891E+08         0.48998E+05         0.00000E+00
    0.48998E+05        -0.49931E+08         0.00000E+00
    0.00000E+00         0.00000E+00        -0.50379E+08
 
   -0.51762E+08         0.32989E+05         0.00000E+00
    0.32989E+05        -0.49903E+08         0.00000E+00
    0.00000E+00         0.00000E+00        -0.50347E+08
 
   -0.51644E+08         0.14283E+05         0.00000E+00
    0.14283E+05        -0.49871E+08         0.00000E+00
    0.00000E+00         0.00000E+00        -0.50317E+08
 
   -0.51537E+08        -0.60938E+04         0.00000E+00
   -0.60938E+04        -0.49834E+08         0.00000E+00
    0.00000E+00         0.00000E+00        -0.50289E+08
 
   -0.51441E+08        -0.27205E+05         0.00000E+00
   -0.27205E+05        -0.49794E+08         0.00000E+00
    0.00000E+00         0.00000E+00        -0.50262E+08
 
   -0.51356E+08        -0.48203E+05         0.00000E+00
   -0.48203E+05        -0.49750E+08         0.00000E+00
    0.00000E+00         0.00000E+00        -0.50236E+08
 
   -0.51280E+08        -0.68333E+05         0.00000E+00
   -0.68333E+05        -0.49703E+08         0.00000E+00
    0.00000E+00         0.00000E+00        -0.50211E+08
 
   -0.51213E+08        -0.86931E+05         0.00000E+00
   -0.86931E+05        -0.49653E+08         0.00000E+00
    0.00000E+00         0.00000E+00        -0.50188E+08
 
   -0.51155E+08        -0.10343E+06         0.00000E+00
   -0.10343E+06        -0.49600E+08         0.00000E+00
    0.00000E+00         0.00000E+00        -0.50165E+08
 
   -0.51105E+08        -0.11734E+06         0.00000E+00
   -0.11734E+06        -0.49546E+08         0.00000E+00
    0.00000E+00         0.00000E+00        -0.50145E+08
 
   -0.51062E+08        -0.12827E+06         0.00000E+00
   -0.12827E+06        -0.49490E+08         0.00000E+00
    0.00000E+00         0.00000E+00        -0.50125E+08
 
   -0.51026E+08        -0.13588E+06         0.00000E+00
   -0.13588E+06        -0.49433E+08         0.00000E+00
    0.00000E+00         0.00000E+00        -0.50106E+08
 
   -0.50995E+08        -0.13993E+06         0.00000E+00
   -0.13993E+06        -0.49375E+08         0.00000E+00
    0.00000E+00         0.00000E+00        -0.50089E+08
 
   -0.50970E+08        -0.14022E+06         0.00000E+00
   -0.14022E+06        -0.49317E+08         0.00000E+00
    0.00000E+00         0.00000E+00        -0.50072E+08
 
   -0.50949E+08        -0.13662E+06         0.00000E+00
   -0.13662E+06        -0.49260E+08         0.00000E+00
    0.00000E+00         0.00000E+00        -0.50056E+08
 
   -0.50931E+08        -0.12905E+06         0.00000E+00
   -0.12905E+06        -0.49202E+08         0.00000E+00
    0.00000E+00         0.00000E+00        -0.50041E+08
 
   -0.50917E+08        -0.11747E+06         0.00000E+00
   -0.11747E+06        -0.49146E+08         0.00000E+00
    0.00000E+00         0.00000E+00        -0.50027E+08
 
   -0.50905E+08        -0.10189E+06         0.00000E+00
   -0.10189E+06        -0.49090E+08         0.00000E+00
    0.00000E+00         0.00000E+00        -0.50013E+08
 
   -0.50894E+08        -0.82360E+05         0.00000E+00
   -0.82360E+05        -0.49036E+08         0.00000E+00
    0.00000E+00         0.00000E+00        -0.50001E+08
 
   -0.50885E+08        -0.58950E+05         0.00000E+00
   -0.58950E+05        -0.48984E+08         0.00000E+00
    0.00000E+00         0.00000E+00        -0.49988E+08
 
   -0.50875E+08        -0.31778E+05         0.00000E+00
   -0.31778E+05        -0.48934E+08         0.00000E+00
    0.00000E+00         0.00000E+00        -0.49976E+08
 
   -0.50866E+08        -0.98661E+03         0.00000E+00
   -0.98661E+03        -0.48886E+08         0.00000E+00
    0.00000E+00         0.00000E+00        -0.49965E+08
 
   -0.50856E+08         0.33248E+05         0.00000E+00
    0.33248E+05        -0.48841E+08         0.00000E+00
    0.00000E+00         0.00000E+00        -0.49954E+08
 
   -0.50844E+08         0.70721E+05         0.00000E+00
    0.70721E+05        -0.48799E+08         0.00000E+00
    0.00000E+00         0.00000E+00        -0.49943E+08
 
   -0.50831E+08         0.11119E+06         0.00000E+00
    0.11119E+06        -0.48759E+08         0.00000E+00
    0.00000E+00         0.00000E+00        -0.49932E+08
 
   -0.50815E+08         0.15439E+06         0.00000E+00
    0.15439E+06        -0.48723E+08         0.00000E+00
    0.00000E+00         0.00000E+00        -0.49922E+08
 
   -0.50796E+08         0.20001E+06         0.00000E+00
    0.20001E+06        -0.48691E+08         0.00000E+00
    0.00000E+00         0.00000E+00        -0.49912E+08
 
   -0.50774E+08         0.24770E+06         0.00000E+00
    0.24770E+06        -0.48662E+08         0.00000E+00
    0.00000E+00         0.00000E+00        -0.49902E+08
 
   -0.50748E+08         0.29708E+06         0.00000E+00
    0.29708E+06        -0.48637E+08         0.00000E+00
    0.00000E+00         0.00000E+00        -0.49892E+08
 
   -0.50718E+08         0.34771E+06         0.00000E+00
    0.34771E+06        -0.48617E+08         0.00000E+00
    0.00000E+00         0.00000E+00        -0.49881E+08
 
   -0.50683E+08         0.39910E+06         0.00000E+00
    0.39910E+06        -0.48601E+08         0.00000E+00
    0.00000E+00         0.00000E+00        -0.49871E+08
 
   -0.50643E+08         0.45074E+06         0.00000E+00
    0.45074E+06        -0.48589E+08         0.00000E+00
    0.00000E+00         0.00000E+00        -0.49861E+08
 
   -0.50598E+08         0.50202E+06         0.00000E+00
    0.50202E+06        -0.48583E+08         0.00000E+00
    0.00000E+00         0.00000E+00        -0.49851E+08
 
   -0.50547E+08         0.55231E+06         0.00000E+00
    0.55231E+06        -0.48581E+08         0.00000E+00
    0.00000E+00         0.00000E+00        -0.49840E+08
 
   -0.50491E+08         0.60093E+06         0.00000E+00
    0.60093E+06        -0.48584E+08         0.00000E+00
    0.00000E+00         0.00000E+00        -0.49829E+08
 
   -0.50429E+08         0.64711E+06         0.00000E+00
    0.64711E+06        -0.48592E+08         0.00000E+00
    0.00000E+00         0.00000E+00        -0.49819E+08
 
   -0.50362E+08         0.69006E+06         0.00000E+00
    0.69006E+06        -0.48606E+08         0.00000E+00
    0.00000E+00         0.00000E+00        -0.49808E+08
 
   -0.50290E+08         0.72895E+06         0.00000E+00
    0.72895E+06        -0.48624E+08         0.00000E+00
    0.00000E+00         0.00000E+00        -0.49797E+08
 
   -0.50212E+08         0.76290E+06         0.00000E+00
    0.76290E+06        -0.48647E+08         0.00000E+00
    0.00000E+00         0.00000E+00        -0.49786E+08
 
   -0.50130E+08         0.79102E+06         0.00000E+00
    0.79102E+06        -0.48675E+08         0.00000E+00
    0.00000E+00         0.00000E+00        -0.49775E+08
 
   -0.50045E+08         0.81241E+06         0.00000E+00
    0.81241E+06        -0.48706E+08         0.00000E+00
    0.00000E+00         0.00000E+00        -0.49765E+08
 
   -0.49956E+08         0.82618E+06         0.00000E+00
    0.82618E+06        -0.48742E+08         0.00000E+00
    0.00000E+00         0.00000E+00        -0.49754E+08
 
   -0.49865E+08         0.83146E+06         0.00000E+00
    0.83146E+06        -0.48780E+08         0.00000E+00
    0.00000E+00         0.00000E+00        -0.49744E+08
 
   -0.49774E+08         0.82749E+06         0.00000E+00
    0.82749E+06        -0.48821E+08         0.00000E+00
    0.00000E+00         0.00000E+00        -0.49733E+08
 
   -0.52705E+08         0.26592E+05         0.00000E+00
    0.26592E+05        -0.50001E+08         0.00000E+00
    0.00000E+00         0.00000E+00        -0.50545E+08
 
   -0.52561E+08         0.62056E+05         0.00000E+00
    0.62056E+05        -0.50000E+08         0.00000E+00
    0.00000E+00         0.00000E+00        -0.50516E+08
 
   -0.52420E+08         0.90499E+05         0.00000E+00
    0.90499E+05        -0.49997E+08         0.00000E+00
    0.00000E+00         0.00000E+00        -0.50487E+08
 
   -0.52285E+08         0.11250E+06         0.00000E+00
    0.11250E+06        -0.49993E+08         0.00000E+00
    0.00000E+00         0.00000E+00        -0.50459E+08
 
   -0.52154E+08         0.12866E+06         0.00000E+00
    0.12866E+06        -0.49985E+08         0.00000E+00
    0.00000E+00         0.00000E+00        -0.50432E+08
 
   -0.52030E+08         0.13964E+06         0.00000E+00
    0.13964E+06        -0.49975E+08         0.00000E+00
    0.00000E+00         0.00000E+00        -0.50405E+08
 
   -0.51911E+08         0.14613E+06         0.00000E+00
    0.14613E+06        -0.49962E+08         0.00000E+00
    0.00000E+00         0.00000E+00        -0.50378E+08
 
   -0.51799E+08         0.14883E+06         0.00000E+00
    0.14883E+06        -0.49946E+08         0.00000E+00
    0.00000E+00         0.00000E+00        -0.50353E+08
 
   -0.51694E+08         0.14842E+06         0.00000E+00
    0.14842E+06        -0.49927E+08         0.00000E+00
    0.00000E+00         0.00000E+00        -0.50328E+08
 
   -0.51596E+08         0.14557E+06         0.00000E+00
    0.14557E+06        -0.49905E+08         0.00000E+00
    0.00000E+00         0.00000E+00        -0.50304E+08
 
   -0.51504E+08         0.14094E+06         0.00000E+00
    0.14094E+06        -0.49880E+08         0.00000E+00
    0.00000E+00         0.00000E+00        -0.50281E+08
 
   -0.51420E+08         0.13513E+06         0.00000E+00
    0.13513E+06        -0.49853E+08         0.00000E+00
    0.00000E+00         0.00000E+00        -0.50258E+08
 
   -0.51342E+08         0.12872E+06         0.00000E+00
    0.12872E+06        -0.49823E+08         0.00000E+00
    0.00000E+00         0.00000E+00        -0.50237E+08
 
   -0.51271E+08         0.12223E+06         0.00000E+00
    0.12223E+06        -0.49790E+08         0.00000E+00
    0.00000E+00         0.00000E+00        -0.50216E+08
 
   -0.51206E+08         0.11614E+06         0.00000E+00
    0.11614E+06        -0.49756E+08         0.00000E+00
    0.00000E+00         0.00000E+00        -0.50196E+08
 
   -0.51146E+08         0.11087E+06         0.00000E+00
    0.11087E+06        -0.49719E+08         0.00000E+00
    0.00000E+00         0.00000E+00        -0.50177E+08
 
   -0.51092E+08         0.10680E+06         0.00000E+00
    0.10680E+06        -0.49682E+08         0.00000E+00
    0.00000E+00         0.00000E+00        -0.50159E+08
 
   -0.51044E+08         0.10425E+06         0.00000E+00
    0.10425E+06        -0.49642E+08         0.00000E+00
    0.00000E+00         0.00000E+00        -0.50141E+08
 
   -0.50999E+08         0.10349E+06         0.00000E+00
    0.10349E+06        -0.49603E+08         0.00000E+00
    0.00000E+00         0.00000E+00        -0.50124E+08
 
   -0.50959E+08         0.10476E+06         0.00000E+00
    0.10476E+06        -0.49562E+08         0.00000E+00
    0.00000E+00         0.00000E+00        -0.50108E+08
 
   -0.50923E+08         0.10822E+06         0.00000E+00
    0.10822E+06        -0.49521E+08         0.00000E+00
    0.00000E+00         0.00000E+00        -0.50093E+08
 
   -0.50890E+08         0.11402E+06         0.00000E+00
    0.11402E+06        -0.49480E+08         0.00000E+00
    0.00000E+00         0.00000E+00        -0.50078E+08
 
   -0.50859E+08         0.12224E+06         0.00000E+00
    0.12224E+06        -0.49440E+08         0.00000E+00
    0.00000E+00         0.00000E+00        -0.50063E+08
 
   -0.50831E+08         0.13295E+06         0.00000E+00
    0.13295E+06        -0.49400E+08         0.00000E+00
    0.00000E+00         0.00000E+00        -0.50050E+08
 
   -0.50805E+08         0.14614E+06         0.00000E+00
    0.14614E+06        -0.49360E+08         0.00000E+00
    0.00000E+00         0.00000E+00        -0.50037E+08
 
   -0.50780E+08         0.16180E+06         0.00000E+00
    0.16180E+06        -0.49322E+08         0.00000E+00
    0.00000E+00         0.00000E+00        -0.50024E+08
 
   -0.50755E+08         0.17988E+06         0.00000E+00
    0.17988E+06        -0.49286E+08         0.00000E+00
    0.00000E+00         0.00000E+00        -0.50012E+08
 
   -0.50732E+08         0.20027E+06         0.00000E+00
    0.20027E+06        -0.49250E+08         0.00000E+00
    0.00000E+00         0.00000E+00        -0.50000E+08
 
   -0.50708E+08         0.22286E+06         0.00000E+00
    0.22286E+06        -0.49217E+08         0.00000E+00
    0.00000E+00         0.00000E+00        -0.49989E+08
 
   -0.50684E+08         0.24748E+06         0.00000E+00
    0.24748E+06        -0.49186E+08         0.00000E+00
    0.00000E+00         0.00000E+00        -0.49978E+08
 
   -0.50659E+08         0.27395E+06         0.00000E+00
    0.27395E+06        -0.49157E+08         0.00000E+00
    0.00000E+00         0.00000E+00        -0.49967E+08
 
   -0.50633E+08         0.30205E+06         0.00000E+00
    0.30205E+06        -0.49131E+08         0.00000E+00
    0.00000E+00         0.00000E+00        -0.49957E+08
 
   -0.50606E+08         0.33153E+06         0.00000E+00
    0.33153E+06        -0.49107E+08         0.00000E+00
    0.00000E+00         0.00000E+00        -0.49946E+08
 
   -0.50577E+08         0.36210E+06         0.00000E+00
    0.36210E+06        -0.49087E+08         0.00000E+00
    0.00000E+00         0.00000E+00        -0.49936E+08
 
   -0.50546E+08         0.39345E+06         0.00000E+00
    0.39345E+06        -0.49069E+08         0.00000E+00
    0.00000E+00         0.00000E+00        -0.49927E+08
 
   -0.50512E+08         0.42524E+06         0.00000E+00
    0.42524E+06        -0.49054E+08         0.00000E+00
    0.00000E+00         0.00000E+00        -0.49917E+08
 
   -0.50477E+08         0.45709E+06         0.00000E+00
    0.45709E+06        -0.49043E+08         0.00000E+00
    0.00000E+00         0.00000E+00        -0.49908E+08
 
   -0.50438E+08         0.48861E+06         0.00000E+00
    0.48861E+06        -0.49035E+08         0.00000E+00
    0.00000E+00         0.00000E+00        -0.49898E+08
 
   -0.50398E+08         0.51936E+06         0.00000E+00
    0.51936E+06        -0.49030E+08         0.00000E+00
    0.00000E+00         0.00000E+00        -0.49889E+08
 
   -0.50354E+08         0.54889E+06         0.00000E+00
    0.54889E+06        -0.49029E+08         0.00000E+00
    0.00000E+00         0.00000E+00        -0.49880E+08
 
   -0.50308E+08         0.57673E+06         0.00000E+00
    0.57673E+06        -0.49032E+08         0.00000E+00
    0.00000E+00         0.00000E+00        -0.49872E+08
 
   -0.50260E+08         0.60240E+06         0.00000E+00
    0.60240E+06        -0.49037E+08         0.00000E+00
    0.00000E+00         0.00000E+00        -0.49863E+08
 
   -0.50209E+08         0.62539E+06         0.00000E+00
    0.62539E+06        -0.49046E+08         0.00000E+00
    0.00000E+00         0.00000E+00        -0.49855E+08
 
   -0.50156E+08         0.64520E+06         0.00000E+00
    0.64520E+06        -0.49058E+08         0.00000E+00
    0.00000E+00         0.00000E+00        -0.49847E+08
 
   -0.50102E+08         0.66133E+06         0.00000E+00
    0.66133E+06        -0.49073E+08         0.00000E+00
    0.00000E+00         0.00000E+00        -0.49839E+08
 
   -0.50047E+08         0.67330E+06         0.00000E+00
    0.67330E+06        -0.49090E+08         0.00000E+00
    0.00000E+00         0.00000E+00        -0.49831E+08
 
   -0.49991E+08         0.68064E+06         0.00000E+00
    0.68064E+06        -0.49110E+08         0.00000E+00
    0.00000E+00         0.00000E+00        -0.49824E+08
 
   -0.49936E+08         0.68294E+06         0.00000E+00
    0.68294E+06        -0.49131E+08         0.00000E+00
    0.00000E+00         0.00000E+00        -0.49817E+08
 
   -0.49881E+08         0.67982E+06         0.00000E+00
    0.67982E+06        -0.49154E+08         0.00000E+00
    0.00000E+00         0.00000E+00        -0.49811E+08
 
   -0.49828E+08         0.67097E+06         0.00000E+00
    0.67097E+06        -0.49177E+08         0.00000E+00
    0.00000E+00         0.00000E+00        -0.49805E+08
 
   -0.52496E+08         0.27138E+05         0.00000E+00
    0.27138E+05        -0.50000E+08         0.00000E+00
    0.00000E+00         0.00000E+00        -0.50500E+08
 
   -0.52383E+08         0.68190E+05         0.00000E+00
    0.68190E+05        -0.50000E+08         0.00000E+00
    0.00000E+00         0.00000E+00        -0.50478E+08
 
   -0.52272E+08         0.10393E+06         0.00000E+00
    0.10393E+06        -0.49999E+08         0.00000E+00
    0.00000E+00         0.00000E+00        -0.50455E+08
 
   -0.52164E+08         0.13466E+06         0.00000E+00
    0.13466E+06        -0.49997E+08         0.00000E+00
    0.00000E+00         0.00000E+00        -0.50433E+08
 
   -0.52058E+08         0.16075E+06         0.00000E+00
    0.16075E+06        -0.49993E+08         0.00000E+00
    0.00000E+00         0.00000E+00        -0.50411E+08
 
   -0.51956E+08         0.18259E+06         0.00000E+00
    0.18259E+06        -0.49988E+08         0.00000E+00
    0.00000E+00         0.00000E+00        -0.50390E+08
 
   -0.51857E+08         0.20058E+06         0.00000E+00
    0.20058E+06        -0.49981E+08         0.00000E+00
    0.00000E+00         0.00000E+00        -0.50368E+08
 
   -0.51761E+08         0.21514E+06         0.00000E+00
    0.21514E+06        -0.49972E+08         0.00000E+00
    0.00000E+00         0.00000E+00        -0.50348E+08
 
   -0.51670E+08         0.22672E+06         0.00000E+00
    0.22672E+06        -0.49962E+08         0.00000E+00
    0.00000E+00         0.00000E+00        -0.50327E+08
 
   -0.51583E+08         0.23573E+06         0.00000E+00
    0.23573E+06        -0.49949E+08         0.00000E+00
    0.00000E+00         0.00000E+00        -0.50307E+08
 
   -0.51501E+08         0.24263E+06         0.00000E+00
    0.24263E+06        -0.49935E+08         0.00000E+00
    0.00000E+00         0.00000E+00        -0.50288E+08
 
   -0.51422E+08         0.24781E+06         0.00000E+00
    0.24781E+06        -0.49919E+08         0.00000E+00
    0.00000E+00         0.00000E+00        -0.50269E+08
 
   -0.51348E+08         0.25167E+06         0.00000E+00
    0.25167E+06        -0.49901E+08         0.00000E+00
    0.00000E+00         0.00000E+00        -0.50251E+08
 
   -0.51278E+08         0.25461E+06         0.00000E+00
    0.25461E+06        -0.49881E+08         0.00000E+00
    0.00000E+00         0.00000E+00        -0.50233E+08
 
   -0.51213E+08         0.25697E+06         0.00000E+00
    0.25697E+06        -0.49860E+08         0.00000E+00
    0.00000E+00         0.00000E+00        -0.50216E+08
 
   -0.51151E+08         0.25908E+06         0.00000E+00
    0.25908E+06        -0.49838E+08         0.00000E+00
    0.00000E+00         0.00000E+00        -0.50199E+08
 
   -0.51094E+08         0.26124E+06         0.00000E+00
    0.26124E+06        -0.49814E+08         0.00000E+00
    0.00000E+00         0.00000E+00        -0.50183E+08
 
   -0.51040E+08         0.26371E+06         0.00000E+00
    0.26371E+06        -0.49789E+08         0.00000E+00
    0.00000E+00         0.00000E+00        -0.50167E+08
 
   -0.50989E+08         0.26674E+06         0.00000E+00
    0.26674E+06        -0.49764E+08         0.00000E+00
    0.00000E+00         0.00000E+00        -0.50152E+08
 
   -0.50942E+08         0.27051E+06         0.00000E+00
    0.27051E+06        -0.49738E+08         0.00000E+00
    0.00000E+00         0.00000E+00        -0.50137E+08
 
   -0.50898E+08         0.27521E+06         0.00000E+00
    0.27521E+06        -0.49711E+08         0.00000E+00
    0.00000E+00         0.00000E+00        -0.50123E+08
 
   -0.50856E+08         0.28097E+06         0.00000E+00
    0.28097E+06        -0.49685E+08         0.00000E+00
    0.00000E+00         0.00000E+00        -0.50109E+08
 
   -0.50817E+08         0.28790E+06         0.00000E+00
    0.28790E+06        -0.49658E+08         0.00000E+00
    0.00000E+00         0.00000E+00        -0.50096E+08
 
   -0.50779E+08         0.29607E+06         0.00000E+00
    0.29607E+06        -0.49631E+08         0.00000E+00
    0.00000E+00         0.00000E+00        -0.50083E+08
 
   -0.50744E+08         0.30552E+06         0.00000E+00
    0.30552E+06        -0.49605E+08         0.00000E+00
    0.00000E+00         0.00000E+00        -0.50071E+08
 
   -0.50709E+08         0.31626E+06         0.00000E+00
    0.31626E+06        -0.49580E+08         0.00000E+00
    0.00000E+00         0.00000E+00        -0.50059E+08
 
   -0.50676E+08         0.32829E+06         0.00000E+00
    0.32829E+06        -0.49556E+08         0.00000E+00
    0.00000E+00         0.00000E+00        -0.50047E+08
 
   -0.50644E+08         0.34154E+06         0.00000E+00
    0.34154E+06        -0.49532E+08         0.00000E+00
    0.00000E+00         0.00000E+00        -0.50036E+08
 
   -0.50612E+08         0.35596E+06         0.00000E+00
    0.35596E+06        -0.49510E+08         0.00000E+00
    0.00000E+00         0.00000E+00        -0.50025E+08
 
   -0.50581E+08         0.37144E+06         0.00000E+00
    0.37144E+06        -0.49489E+08         0.00000E+00
    0.00000E+00         0.00000E+00        -0.50015E+08
 
   -0.50550E+08         0.38786E+06         0.00000E+00
    0.38786E+06        -0.49470E+08         0.00000E+00
    0.00000E+00         0.00000E+00        -0.50005E+08
 
   -0.50518E+08         0.40507E+06         0.00000E+00
    0.40507E+06        -0.49452E+08         0.00000E+00
    0.00000E+00         0.00000E+00        -0.49995E+08
 
   -0.50487E+08         0.42289E+06         0.00000E+00
    0.42289E+06        -0.49437E+08         0.00000E+00
    0.00000E+00         0.00000E+00        -0.49986E+08
 
   -0.50455E+08         0.44114E+06         0.00000E+00
    0.44114E+06        -0.49423E+08         0.00000E+00
    0.00000E+00         0.00000E+00        -0.49976E+08
 
   -0.50422E+08         0.45960E+06         0.00000E+00
    0.45960E+06        -0.49411E+08         0.00000E+00
    0.00000E+00         0.00000E+00        -0.49968E+08
 
   -0.50388E+08         0.47804E+06         0.00000E+00
    0.47804E+06        -0.49402E+08         0.00000E+00
    0.00000E+00         0.00000E+00        -0.49959E+08
 
   -0.50354E+08         0.49620E+06         0.00000E+00
    0.49620E+06        -0.49395E+08         0.00000E+00
    0.00000E+00         0.00000E+00        -0.49951E+08
 
   -0.50319E+08         0.51383E+06         0.00000E+00
    0.51383E+06        -0.49390E+08         0.00000E+00
    0.00000E+00         0.00000E+00        -0.49943E+08
 
   -0.50283E+08         0.53064E+06         0.00000E+00
    0.53064E+06        -0.49387E+08         0.00000E+00
    0.00000E+00         0.00000E+00        -0.49935E+08
 
   -0.50246E+08         0.54637E+06         0.00000E+00
    0.54637E+06        -0.49386E+08         0.00000E+00
    0.00000E+00         0.00000E+00        -0.49927E+08
 
   -0.50209E+08         0.56071E+06         0.00000E+00
    0.56071E+06        -0.49388E+08         0.00000E+00
    0.00000E+00         0.00000E+00        -0.49920E+08
 
   -0.50171E+08         0.57338E+06         0.00000E+00
    0.57338E+06        -0.49392E+08         0.00000E+00
    0.00000E+00         0.00000E+00        -0.49914E+08
 
   -0.50133E+08         0.58409E+06         0.00000E+00
    0.58409E+06        -0.49397E+08         0.00000E+00
    0.00000E+00         0.00000E+00        -0.49907E+08
 
   -0.50095E+08         0.59258E+06         0.00000E+00
    0.59258E+06        -0.49405E+08         0.00000E+00
    0.00000E+00         0.00000E+00        -0.49901E+08
 
   -0.50057E+08         0.59857E+06         0.00000E+00
    0.59857E+06        -0.49414E+08         0.00000E+00
    0.00000E+00         0.00000E+00        -0.49895E+08
 
   -0.50020E+08         0.60183E+06         0.00000E+00
    0.60183E+06        -0.49424E+08         0.00000E+00
    0.00000E+00         0.00000E+00        -0.49890E+08
 
   -0.49983E+08         0.60214E+06         0.00000E+00
    0.60214E+06        -0.49436E+08         0.00000E+00
    0.00000E+00         0.00000E+00        -0.49885E+08
 
   -0.49949E+08         0.59932E+06         0.00000E+00
    0.59932E+06        -0.49448E+08         0.00000E+00
    0.00000E+00         0.00000E+00        -0.49880E+08
 
   -0.49916E+08         0.59324E+06         0.00000E+00
    0.59324E+06        -0.49461E+08         0.00000E+00
    0.00000E+00         0.00000E+00        -0.49876E+08
 
   -0.49886E+08         0.58379E+06         0.00000E+00
    0.58379E+06        -0.49474E+08         0.00000E+00
    0.00000E+00         0.00000E+00        -0.49873E+08
 
   -0.52272E+08         0.26797E+05         0.00000E+00
    0.26797E+05        -0.50000E+08         0.00000E+00
    0.00000E+00         0.00000E+00        -0.50455E+08
 
   -0.52183E+08         0.70051E+05         0.00000E+00
    0.70051E+05        -0.50000E+08         0.00000E+00
    0.00000E+00         0.00000E+00        -0.50437E+08
 
   -0.52096E+08         0.10911E+06         0.00000E+00
    0.10911E+06        -0.50000E+08         0.00000E+00
    0.00000E+00         0.00000E+00        -0.50419E+08
 
   -0.52009E+08         0.14418E+06         0.00000E+00
    0.14418E+06        -0.50000E+08         0.00000E+00
    0.00000E+00         0.00000E+00        -0.50402E+08
 
   -0.51923E+08         0.17549E+06         0.00000E+00
    0.17549E+06        -0.49998E+08         0.00000E+00
    0.00000E+00         0.00000E+00        -0.50385E+08
 
   -0.51839E+08         0.20328E+06         0.00000E+00
    0.20328E+06        -0.49996E+08         0.00000E+00
    0.00000E+00         0.00000E+00        -0.50367E+08
 
   -0.51757E+08         0.22780E+06         0.00000E+00
    0.22780E+06        -0.49993E+08         0.00000E+00
    0.00000E+00         0.00000E+00        -0.50350E+08
 
   -0.51677E+08         0.24934E+06         0.00000E+00
    0.24934E+06        -0.49990E+08         0.00000E+00
    0.00000E+00         0.00000E+00        -0.50334E+08
 
   -0.51599E+08         0.26816E+06         0.00000E+00
    0.26816E+06        -0.49985E+08         0.00000E+00
    0.00000E+00         0.00000E+00        -0.50317E+08
 
   -0.51524E+08         0.28455E+06         0.00000E+00
    0.28455E+06        -0.49979E+08         0.00000E+00
    0.00000E+00         0.00000E+00        -0.50301E+08
 
   -0.51451E+08         0.29879E+06         0.00000E+00
    0.29879E+06        -0.49971E+08         0.00000E+00
    0.00000E+00         0.00000E+00        -0.50285E+08
 
   -0.51381E+08         0.31115E+06         0.00000E+00
    0.31115E+06        -0.49963E+08         0.00000E+00
    0.00000E+00         0.00000E+00        -0.50269E+08
 
   -0.51313E+08         0.32192E+06         0.00000E+00
    0.32192E+06        -0.49954E+08         0.00000E+00
    0.00000E+00         0.00000E+00        -0.50254E+08
 
   -0.51249E+08         0.33135E+06         0.00000E+00
    0.33135E+06        -0.49943E+08         0.00000E+00
    0.00000E+00         0.00000E+00        -0.50239E+08
 
   -0.51187E+08         0.33969E+06         0.00000E+00
    0.33969E+06        -0.49932E+08         0.00000E+00
    0.00000E+00         0.00000E+00        -0.50224E+08
 
   -0.51127E+08         0.34719E+06         0.00000E+00
    0.34719E+06        -0.49919E+08         0.00000E+00
    0.00000E+00         0.00000E+00        -0.50210E+08
 
   -0.51071E+08         0.35406E+06         0.00000E+00
    0.35406E+06        -0.49906E+08         0.00000E+00
    0.00000E+00         0.00000E+00        -0.50196E+08
 
   -0.51017E+08         0.36051E+06         0.00000E+00
    0.36051E+06        -0.49892E+08         0.00000E+00
    0.00000E+00         0.00000E+00        -0.50182E+08
 
   -0.50965E+08         0.36671E+06         0.00000E+00
    0.36671E+06        -0.49877E+08         0.00000E+00
    0.00000E+00         0.00000E+00        -0.50169E+08
 
   -0.50916E+08         0.37284E+06         0.00000E+00
    0.37284E+06        -0.49862E+08         0.00000E+00
    0.00000E+00         0.00000E+00        -0.50156E+08
 
   -0.50869E+08         0.37902E+06         0.00000E+00
    0.37902E+06        -0.49847E+08         0.00000E+00
    0.00000E+00         0.00000E+00        -0.50143E+08
 
   -0.50824E+08         0.38539E+06         0.00000E+00
    0.38539E+06        -0.49831E+08         0.00000E+00
    0.00000E+00         0.00000E+00        -0.50131E+08
 
   -0.50780E+08         0.39204E+06         0.00000E+00
    0.39204E+06        -0.49815E+08         0.00000E+00
    0.00000E+00         0.00000E+00        -0.50119E+08
 
   -0.50739E+08         0.39904E+06         0.00000E+00
    0.39904E+06        -0.49800E+08         0.00000E+00
    0.00000E+00         0.00000E+00        -0.50108E+08
 
   -0.50699E+08         0.40645E+06         0.00000E+00
    0.40645E+06        -0.49784E+08         0.00000E+00
    0.00000E+00         0.00000E+00        -0.50097E+08
 
   -0.50661E+08         0.41430E+06         0.00000E+00
    0.41430E+06        -0.49769E+08         0.00000E+00
    0.00000E+00         0.00000E+00        -0.50086E+08
 
   -0.50623E+08         0.42260E+06         0.00000E+00
    0.42260E+06        -0.49754E+08         0.00000E+00
    0.00000E+00         0.00000E+00        -0.50076E+08
 
   -0.50587E+08         0.43135E+06         0.00000E+00
    0.43135E+06        -0.49740E+08         0.00000E+00
    0.00000E+00         0.00000E+00        -0.50066E+08
 
   -0.50552E+08         0.44050E+06         0.00000E+00
    0.44050E+06        -0.49727E+08         0.00000E+00
    0.00000E+00         0.00000E+00        -0.50056E+08
 
   -0.50517E+08         0.45001E+06         0.00000E+00
    0.45001E+06        -0.49715E+08         0.00000E+00
    0.00000E+00         0.00000E+00        -0.50047E+08
 
   -0.50484E+08         0.45982E+06         0.00000E+00
    0.45982E+06        -0.49704E+08         0.00000E+00
    0.00000E+00         0.00000E+00        -0.50038E+08
 
   -0.50450E+08         0.46984E+06         0.00000E+00
    0.46984E+06        -0.49693E+08         0.00000E+00
    0.00000E+00         0.00000E+00        -0.50029E+08
 
   -0.50417E+08         0.47997E+06         0.00000E+00
    0.47997E+06        -0.49684E+08         0.00000E+00
    0.00000E+00         0.00000E+00        -0.50020E+08
 
   -0.50384E+08         0.49009E+06         0.00000E+00
    0.49009E+06        -0.49676E+08         0.00000E+00
    0.00000E+00         0.00000E+00        -0.50012E+08
 
   -0.50352E+08         0.50009E+06         0.00000E+00
    0.50009E+06        -0.49670E+08         0.00000E+00
    0.00000E+00         0.00000E+00        -0.50005E+08
 
   -0.50320E+08         0.50982E+06         0.00000E+00
    0.50982E+06        -0.49665E+08         0.00000E+00
    0.00000E+00         0.00000E+00        -0.49997E+08
 
   -0.50288E+08         0.51913E+06         0.00000E+00
    0.51913E+06        -0.49661E+08         0.00000E+00
    0.00000E+00         0.00000E+00        -0.49990E+08
 
   -0.50256E+08         0.52789E+06         0.00000E+00
    0.52789E+06        -0.49658E+08         0.00000E+00
    0.00000E+00         0.00000E+00        -0.49983E+08
 
   -0.50224E+08         0.53591E+06         0.00000E+00
    0.53591E+06        -0.49657E+08         0.00000E+00
    0.00000E+00         0.00000E+00        -0.49977E+08
 
   -0.50193E+08         0.54306E+06         0.00000E+00
    0.54306E+06        -0.49657E+08         0.00000E+00
    0.00000E+00         0.00000E+00        -0.49970E+08
 
   -0.50162E+08         0.54918E+06         0.00000E+00
    0.54918E+06        -0.49659E+08         0.00000E+00
    0.00000E+00         0.00000E+00        -0.49965E+08
 
   -0.50132E+08         0.55410E+06         0.00000E+00
    0.55410E+06        -0.49662E+08         0.00000E+00
    0.00000E+00         0.00000E+00        -0.49959E+08
 
   -0.50103E+08         0.55769E+06         0.00000E+00
    0.55769E+06        -0.49666E+08         0.00000E+00
    0.00000E+00         0.00000E+00        -0.49954E+08
 
   -0.50074E+08         0.55981E+06         0.00000E+00
    0.55981E+06        -0.49670E+08         0.00000E+00
    0.00000E+00         0.00000E+00        -0.49949E+08
 
   -0.50047E+08         0.56034E+06         0.00000E+00
    0.56034E+06        -0.49676E+08         0.00000E+00
    0.00000E+00         0.00000E+00        -0.49945E+08
 
   -0.50021E+08         0.55918E+06         0.00000E+00
    0.55918E+06        -0.49683E+08         0.00000E+00
    0.00000E+00         0.00000E+00        -0.49941E+08
 
   -0.49997E+08         0.55625E+06         0.00000E+00
    0.55625E+06        -0.49689E+08         0.00000E+00
    0.00000E+00         0.00000E+00        -0.49937E+08
 
   -0.49974E+08         0.55149E+06         0.00000E+00
    0.55149E+06        -0.49697E+08         0.00000E+00
    0.00000E+00         0.00000E+00        -0.49934E+08
 
   -0.49954E+08         0.54488E+06         0.00000E+00
    0.54488E+06        -0.49704E+08         0.00000E+00
    0.00000E+00         0.00000E+00        -0.49932E+08
 
   -0.49937E+08         0.53642E+06         0.00000E+00
    0.53642E+06        -0.49711E+08         0.00000E+00
    0.00000E+00         0.00000E+00        -0.49930E+08
 
   -0.52045E+08         0.25731E+05         0.00000E+00
    0.25731E+05        -0.50000E+08         0.00000E+00
    0.00000E+00         0.00000E+00        -0.50409E+08
 
   -0.51976E+08         0.68907E+05         0.00000E+00
    0.68907E+05        -0.50000E+08         0.00000E+00
    0.00000E+00         0.00000E+00        -0.50395E+08
 
   -0.51907E+08         0.10870E+06         0.00000E+00
    0.10870E+06        -0.50001E+08         0.00000E+00
    0.00000E+00         0.00000E+00        -0.50382E+08
 
   -0.51838E+08         0.14525E+06         0.00000E+00
    0.14525E+06        -0.50002E+08         0.00000E+00
    0.00000E+00         0.00000E+00        -0.50368E+08
 
   -0.51769E+08         0.17870E+06         0.00000E+00
    0.17870E+06        -0.50002E+08         0.00000E+00
    0.00000E+00         0.00000E+00        -0.50354E+08
 
   -0.51700E+08         0.20922E+06         0.00000E+00
    0.20922E+06        -0.50002E+08         0.00000E+00
    0.00000E+00         0.00000E+00        -0.50341E+08
 
   -0.51633E+08         0.23696E+06         0.00000E+00
    0.23696E+06        -0.50002E+08         0.00000E+00
    0.00000E+00         0.00000E+00        -0.50327E+08
 
   -0.51566E+08         0.26212E+06         0.00000E+00
    0.26212E+06        -0.50001E+08         0.00000E+00
    0.00000E+00         0.00000E+00        -0.50313E+08
 
   -0.51500E+08         0.28486E+06         0.00000E+00
    0.28486E+06        -0.50000E+08         0.00000E+00
    0.00000E+00         0.00000E+00        -0.50300E+08
 
   -0.51436E+08         0.30538E+06         0.00000E+00
    0.30538E+06        -0.49998E+08         0.00000E+00
    0.00000E+00         0.00000E+00        -0.50287E+08
 
   -0.51373E+08         0.32387E+06         0.00000E+00
    0.32387E+06        -0.49996E+08         0.00000E+00
    0.00000E+00         0.00000E+00        -0.50274E+08
 
   -0.51311E+08         0.34050E+06         0.00000E+00
    0.34050E+06        -0.49993E+08         0.00000E+00
    0.00000E+00         0.00000E+00        -0.50261E+08
 
   -0.51252E+08         0.35547E+06         0.00000E+00
    0.35547E+06        -0.49989E+08         0.00000E+00
    0.00000E+00         0.00000E+00        -0.50248E+08
 
   -0.51193E+08         0.36895E+06         0.00000E+00
    0.36895E+06        -0.49985E+08         0.00000E+00
    0.00000E+00         0.00000E+00        -0.50236E+08
 
   -0.51137E+08         0.38112E+06         0.00000E+00
    0.38112E+06        -0.49980E+08         0.00000E+00
    0.00000E+00         0.00000E+00        -0.50224E+08
 
   -0.51082E+08         0.39215E+06         0.00000E+00
    0.39215E+06        -0.49975E+08         0.00000E+00
    0.00000E+00         0.00000E+00        -0.50212E+08
 
   -0.51029E+08         0.40219E+06         0.00000E+00
    0.40219E+06        -0.49969E+08         0.00000E+00
    0.00000E+00         0.00000E+00        -0.50200E+08
 
   -0.50978E+08         0.41139E+06         0.00000E+00
    0.41139E+06        -0.49963E+08         0.00000E+00
    0.00000E+00         0.00000E+00        -0.50188E+08
 
   -0.50929E+08         0.41989E+06         0.00000E+00
    0.41989E+06        -0.49956E+08         0.00000E+00
    0.00000E+00         0.00000E+00        -0.50177E+08
 
   -0.50881E+08         0.42782E+06         0.00000E+00
    0.42782E+06        -0.49949E+08         0.00000E+00
    0.00000E+00         0.00000E+00        -0.50166E+08
 
   -0.50834E+08         0.43527E+06         0.00000E+00
    0.43527E+06        -0.49941E+08         0.00000E+00
    0.00000E+00         0.00000E+00        -0.50155E+08
 
   -0.50790E+08         0.44236E+06         0.00000E+00
    0.44236E+06        -0.49934E+08         0.00000E+00
    0.00000E+00         0.00000E+00        -0.50145E+08
 
   -0.50746E+08         0.44916E+06         0.00000E+00
    0.44916E+06        -0.49926E+08         0.00000E+00
    0.00000E+00         0.00000E+00        -0.50135E+08
 
   -0.50705E+08         0.45575E+06         0.00000E+00
    0.45575E+06        -0.49919E+08         0.00000E+00
    0.00000E+00         0.00000E+00        -0.50125E+08
 
   -0.50664E+08         0.46217E+06         0.00000E+00
    0.46217E+06        -0.49911E+08         0.00000E+00
    0.00000E+00         0.00000E+00        -0.50115E+08
 
   -0.50625E+08         0.46847E+06         0.00000E+00
    0.46847E+06        -0.49903E+08         0.00000E+00
    0.00000E+00         0.00000E+00        -0.50106E+08
 
   -0.50587E+08         0.47467E+06         0.00000E+00
    0.47467E+06        -0.49896E+08         0.00000E+00
    0.00000E+00         0.00000E+00        -0.50097E+08
 
   -0.50550E+08         0.48080E+06         0.00000E+00
    0.48080E+06        -0.49889E+08         0.00000E+00
    0.00000E+00         0.00000E+00        -0.50088E+08
 
   -0.50514E+08         0.48683E+06         0.00000E+00
    0.48683E+06        -0.49883E+08         0.00000E+00
    0.00000E+00         0.00000E+00        -0.50079E+08
 
   -0.50479E+08         0.49278E+06         0.00000E+00
    0.49278E+06        -0.49877E+08         0.00000E+00
    0.00000E+00         0.00000E+00        -0.50071E+08
 
   -0.50445E+08         0.49860E+06         0.00000E+00
    0.49860E+06        -0.49872E+08         0.00000E+00
    0.00000E+00         0.00000E+00        -0.50063E+08
 
   -0.50411E+08         0.50426E+06         0.00000E+00
    0.50426E+06        -0.49867E+08         0.00000E+00
    0.00000E+00         0.00000E+00        -0.50056E+08
 
   -0.50379E+08         0.50972E+06         0.00000E+00
    0.50972E+06        -0.49863E+08         0.00000E+00
    0.00000E+00         0.00000E+00        -0.50048E+08
 
   -0.50347E+08         0.51492E+06         0.00000E+00
    0.51492E+06        -0.49860E+08         0.00000E+00
    0.00000E+00         0.00000E+00        -0.50041E+08
 
   -0.50316E+08         0.51981E+06         0.00000E+00
    0.51981E+06        -0.49857E+08         0.00000E+00
    0.00000E+00         0.00000E+00        -0.50035E+08
 
   -0.50286E+08         0.52431E+06         0.00000E+00
    0.52431E+06        -0.49855E+08         0.00000E+00
    0.00000E+00         0.00000E+00        -0.50028E+08
 
   -0.50256E+08         0.52835E+06         0.00000E+00
    0.52835E+06        -0.49854E+08         0.00000E+00
    0.00000E+00         0.00000E+00        -0.50022E+08
 
   -0.50227E+08         0.53186E+06         0.00000E+00
    0.53186E+06        -0.49854E+08         0.00000E+00
    0.00000E+00         0.00000E+00        -0.50016E+08
 
   -0.50200E+08         0.53476E+06         0.00000E+00
    0.53476E+06        -0.49855E+08         0.00000E+00
    0.00000E+00         0.00000E+00        -0.50011E+08
 
   -0.50173E+08         0.53699E+06         0.00000E+00
    0.53699E+06        -0.49856E+08         0.00000E+00
    0.00000E+00         0.00000E+00        -0.50006E+08
 
   -0.50147E+08         0.53846E+06         0.00000E+00
    0.53846E+06        -0.49858E+08         0.00000E+00
    0.00000E+00         0.00000E+00        -0.50001E+08
 
   -0.50122E+08         0.53912E+06         0.00000E+00
    0.53912E+06        -0.49860E+08         0.00000E+00
    0.00000E+00         0.00000E+00        -0.49996E+08
 
   -0.50098E+08         0.53889E+06         0.00000E+00
    0.53889E+06        -0.49864E+08         0.00000E+00
    0.00000E+00         0.00000E+00        -0.49992E+08
 
   -0.50075E+08         0.53775E+06         0.00000E+00
    0.53775E+06        -0.49867E+08         0.00000E+00
    0.00000E+00         0.00000E+00        -0.49989E+08
 
   -0.50054E+08         0.53563E+06         0.00000E+00
    0.53563E+06        -0.49871E+08         0.00000E+00
    0.00000E+00         0.00000E+00        -0.49985E+08
 
   -0.50035E+08         0.53253E+06         0.00000E+00
    0.53253E+06        -0.49876E+08         0.00000E+00
    0.00000E+00         0.00000E+00        -0.49982E+08
 
   -0.50018E+08         0.52843E+06         0.00000E+00
    0.52843E+06        -0.49880E+08         0.00000E+00
    0.00000E+00         0.00000E+00        -0.49980E+08
 
   -0.50002E+08         0.52334E+06         0.00000E+00
    0.52334E+06        -0.49885E+08         0.00000E+00
    0.00000E+00         0.00000E+00        -0.49977E+08
 
   -0.49989E+08         0.51728E+06         0.00000E+00
    0.51728E+06        -0.49889E+08         0.00000E+00
    0.00000E+00         0.00000E+00        -0.49976E+08
 
   -0.49979E+08         0.51030E+06         0.00000E+00
    0.51030E+06        -0.49893E+08         0.00000E+00
    0.00000E+00         0.00000E+00        -0.49974E+08
 
   -0.51825E+08         0.24101E+05         0.00000E+00
    0.24101E+05        -0.50000E+08         0.00000E+00
    0.00000E+00         0.00000E+00        -0.50365E+08
 
   -0.51772E+08         0.65631E+05         0.00000E+00
    0.65631E+05        -0.50001E+08         0.00000E+00
    0.00000E+00         0.00000E+00        -0.50354E+08
 
   -0.51717E+08         0.10441E+06         0.00000E+00
    0.10441E+06        -0.50002E+08         0.00000E+00
    0.00000E+00         0.00000E+00        -0.50344E+08
 
   -0.51663E+08         0.14054E+06         0.00000E+00
    0.14054E+06        -0.50003E+08         0.00000E+00
    0.00000E+00         0.00000E+00        -0.50333E+08
 
   -0.51607E+08         0.17410E+06         0.00000E+00
    0.17410E+06        -0.50004E+08         0.00000E+00
    0.00000E+00         0.00000E+00        -0.50322E+08
 
   -0.51552E+08         0.20521E+06         0.00000E+00
    0.20521E+06        -0.50006E+08         0.00000E+00
    0.00000E+00         0.00000E+00        -0.50312E+08
 
   -0.51497E+08         0.23397E+06         0.00000E+00
    0.23397E+06        -0.50008E+08         0.00000E+00
    0.00000E+00         0.00000E+00        -0.50301E+08
 
   -0.51442E+08         0.26051E+06         0.00000E+00
    0.26051E+06        -0.50009E+08         0.00000E+00
    0.00000E+00         0.00000E+00        -0.50290E+08
 
   -0.51387E+08         0.28493E+06         0.00000E+00
    0.28493E+06        -0.50010E+08         0.00000E+00
    0.00000E+00         0.00000E+00        -0.50279E+08
 
   -0.51333E+08         0.30736E+06         0.00000E+00
    0.30736E+06        -0.50012E+08         0.00000E+00
    0.00000E+00         0.00000E+00        -0.50269E+08
 
   -0.51279E+08         0.32792E+06         0.00000E+00
    0.32792E+06        -0.50012E+08         0.00000E+00
    0.00000E+00         0.00000E+00        -0.50258E+08
 
   -0.51226E+08         0.34675E+06         0.00000E+00
    0.34675E+06        -0.50013E+08         0.00000E+00
    0.00000E+00         0.00000E+00        -0.50248E+08
 
   -0.51174E+08         0.36397E+06         0.00000E+00
    0.36397E+06        -0.50013E+08         0.00000E+00
    0.00000E+00         0.00000E+00        -0.50238E+08
 
   -0.51123E+08         0.37969E+06         0.00000E+00
    0.37969E+06        -0.50013E+08         0.00000E+00
    0.00000E+00         0.00000E+00        -0.50227E+08
 
   -0.51073E+08         0.39404E+06         0.00000E+00
    0.39404E+06        -0.50013E+08         0.00000E+00
    0.00000E+00         0.00000E+00        -0.50217E+08
 
   -0.51024E+08         0.40714E+06         0.00000E+00
    0.40714E+06        -0.50013E+08         0.00000E+00
    0.00000E+00         0.00000E+00        -0.50207E+08
 
   -0.50976E+08         0.41910E+06         0.00000E+00
    0.41910E+06        -0.50012E+08         0.00000E+00
    0.00000E+00         0.00000E+00        -0.50198E+08
 
   -0.50929E+08         0.43002E+06         0.00000E+00
    0.43002E+06        -0.50011E+08         0.00000E+00
    0.00000E+00         0.00000E+00        -0.50188E+08
 
   -0.50884E+08         0.44000E+06         0.00000E+00
    0.44000E+06        -0.50009E+08         0.00000E+00
    0.00000E+00         0.00000E+00        -0.50179E+08
 
   -0.50839E+08         0.44915E+06         0.00000E+00
    0.44915E+06        -0.50008E+08         0.00000E+00
    0.00000E+00         0.00000E+00        -0.50169E+08
 
   -0.50796E+08         0.45753E+06         0.00000E+00
    0.45753E+06        -0.50006E+08         0.00000E+00
    0.00000E+00         0.00000E+00        -0.50160E+08
 
   -0.50754E+08         0.46524E+06         0.00000E+00
    0.46524E+06        -0.50004E+08         0.00000E+00
    0.00000E+00         0.00000E+00        -0.50152E+08
 
   -0.50713E+08         0.47234E+06         0.00000E+00
    0.47234E+06        -0.50002E+08         0.00000E+00
    0.00000E+00         0.00000E+00        -0.50143E+08
 
   -0.50673E+08         0.47888E+06         0.00000E+00
    0.47888E+06        -0.50000E+08         0.00000E+00
    0.00000E+00         0.00000E+00        -0.50135E+08
 
   -0.50634E+08         0.48493E+06         0.00000E+00
    0.48493E+06        -0.49998E+08         0.00000E+00
    0.00000E+00         0.00000E+00        -0.50126E+08
 
   -0.50596E+08         0.49052E+06         0.00000E+00
    0.49052E+06        -0.49996E+08         0.00000E+00
    0.00000E+00         0.00000E+00        -0.50118E+08
 
   -0.50559E+08         0.49569E+06         0.00000E+00
    0.49569E+06        -0.49994E+08         0.00000E+00
    0.00000E+00         0.00000E+00        -0.50111E+08
 
   -0.50523E+08         0.50047E+06         0.00000E+00
    0.50047E+06        -0.49992E+08         0.00000E+00
    0.00000E+00         0.00000E+00        -0.50103E+08
 
   -0.50488E+08         0.50486E+06         0.00000E+00
    0.50486E+06        -0.49991E+08         0.00000E+00
    0.00000E+00         0.00000E+00        -0.50096E+08
 
   -0.50455E+08         0.50888E+06         0.00000E+00
    0.50888E+06        -0.49990E+08         0.00000E+00
    0.00000E+00         0.00000E+00        -0.50089E+08
 
   -0.50422E+08         0.51254E+06         0.00000E+00
    0.51254E+06        -0.49989E+08         0.00000E+00
    0.00000E+00         0.00000E+00        -0.50082E+08
 
   -0.50390E+08         0.51583E+06         0.00000E+00
    0.51583E+06        -0.49988E+08         0.00000E+00
    0.00000E+00         0.00000E+00        -0.50076E+08
 
   -0.50359E+08         0.51874E+06         0.00000E+00
    0.51874E+06        -0.49988E+08         0.00000E+00
    0.00000E+00         0.00000E+00        -0.50069E+08
 
   -0.50329E+08         0.52125E+06         0.00000E+00
    0.52125E+06        -0.49988E+08         0.00000E+00
    0.00000E+00         0.00000E+00        -0.50063E+08
 
   -0.50300E+08         0.52335E+06         0.00000E+00
    0.52335E+06        -0.49988E+08         0.00000E+00
    0.00000E+00         0.00000E+00        -0.50058E+08
 
   -0.50272E+08         0.52502E+06         0.00000E+00
    0.52502E+06        -0.49989E+08         0.00000E+00
    0.00000E+00         0.00000E+00        -0.50052E+08
 
   -0.50245E+08         0.52623E+06         0.00000E+00
    0.52623E+06        -0.49990E+08         0.00000E+00
    0.00000E+00         0.00000E+00        -0.50047E+08
 
   -0.50219E+08         0.52696E+06         0.00000E+00
    0.52696E+06        -0.49992E+08         0.00000E+00
    0.00000E+00         0.00000E+00        -0.50042E+08
 
   -0.50193E+08         0.52719E+06         0.00000E+00
    0.52719E+06        -0.49994E+08         0.00000E+00
    0.00000E+00         0.00000E+00        -0.50037E+08
 
   -0.50170E+08         0.52690E+06         0.00000E+00
    0.52690E+06        -0.49996E+08         0.00000E+00
    0.00000E+00         0.00000E+00        -0.50033E+08
 
   -0.50147E+08         0.52606E+06         0.00000E+00
    0.52606E+06        -0.49999E+08         0.00000E+00
    0.00000E+00         0.00000E+00        -0.50029E+08
 
   -0.50125E+08         0.52466E+06         0.00000E+00
    0.52466E+06        -0.50002E+08         0.00000E+00
    0.00000E+00         0.00000E+00        -0.50025E+08
 
   -0.50105E+08         0.52270E+06         0.00000E+00
    0.52270E+06        -0.50005E+08         0.00000E+00
    0.00000E+00         0.00000E+00        -0.50022E+08
 
   -0.50087E+08         0.52017E+06         0.00000E+00
    0.52017E+06        -0.50008E+08         0.00000E+00
    0.00000E+00         0.00000E+00        -0.50019E+08
 
   -0.50069E+08         0.51708E+06         0.00000E+00
    0.51708E+06        -0.50011E+08         0.00000E+00
    0.00000E+00         0.00000E+00        -0.50016E+08
 
   -0.50054E+08         0.51344E+06         0.00000E+00
    0.51344E+06        -0.50015E+08         0.00000E+00
    0.00000E+00         0.00000E+00        -0.50014E+08
 
   -0.50040E+08         0.50929E+06         0.00000E+00
    0.50929E+06        -0.50018E+08         0.00000E+00
    0.00000E+00         0.00000E+00        -0.50012E+08
 
   -0.50028E+08         0.50465E+06         0.00000E+00
    0.50465E+06        -0.50022E+08         0.00000E+00
    0.00000E+00         0.00000E+00        -0.50010E+08
 
   -0.50018E+08         0.49959E+06         0.00000E+00
    0.49959E+06        -0.50025E+08         0.00000E+00
    0.00000E+00         0.00000E+00        -0.50009E+08
 
   -0.50011E+08         0.49417E+06         0.00000E+00
    0.49417E+06        -0.50028E+08         0.00000E+00
    0.00000E+00         0.00000E+00        -0.50008E+08
 
   -0.51617E+08         0.22097E+05         0.00000E+00
    0.22097E+05        -0.50000E+08         0.00000E+00
    0.00000E+00         0.00000E+00        -0.50323E+08
 
   -0.51577E+08         0.60952E+05         0.00000E+00
    0.60952E+05        -0.50001E+08         0.00000E+00
    0.00000E+00         0.00000E+00        -0.50315E+08
 
   -0.51535E+08         0.97586E+05         0.00000E+00
    0.97586E+05        -0.50002E+08         0.00000E+00
    0.00000E+00         0.00000E+00        -0.50307E+08
 
   -0.51492E+08         0.13205E+06         0.00000E+00
    0.13205E+06        -0.50004E+08         0.00000E+00
    0.00000E+00         0.00000E+00        -0.50299E+08
 
   -0.51448E+08         0.16441E+06         0.00000E+00
    0.16441E+06        -0.50006E+08         0.00000E+00
    0.00000E+00         0.00000E+00        -0.50291E+08
 
   -0.51404E+08         0.19471E+06         0.00000E+00
    0.19471E+06        -0.50008E+08         0.00000E+00
    0.00000E+00         0.00000E+00        -0.50282E+08
 
   -0.51359E+08         0.22305E+06         0.00000E+00
    0.22305E+06        -0.50011E+08         0.00000E+00
    0.00000E+00         0.00000E+00        -0.50274E+08
 
   -0.51314E+08         0.24948E+06         0.00000E+00
    0.24948E+06        -0.50014E+08         0.00000E+00
    0.00000E+00         0.00000E+00        -0.50266E+08
 
   -0.51269E+08         0.27408E+06         0.00000E+00
    0.27408E+06        -0.50017E+08         0.00000E+00
    0.00000E+00         0.00000E+00        -0.50257E+08
 
   -0.51223E+08         0.29694E+06         0.00000E+00
    0.29694E+06        -0.50020E+08         0.00000E+00
    0.00000E+00         0.00000E+00        -0.50249E+08
 
   -0.51178E+08         0.31813E+06         0.00000E+00
    0.31813E+06        -0.50023E+08         0.00000E+00
    0.00000E+00         0.00000E+00        -0.50240E+08
 
   -0.51134E+08         0.33774E+06         0.00000E+00
    0.33774E+06        -0.50026E+08         0.00000E+00
    0.00000E+00         0.00000E+00        -0.50232E+08
 
   -0.51089E+08         0.35586E+06         0.00000E+00
    0.35586E+06        -0.50029E+08         0.00000E+00
    0.00000E+00         0.00000E+00        -0.50224E+08
 
   -0.51045E+08         0.37256E+06         0.00000E+00
    0.37256E+06        -0.50032E+08         0.00000E+00
    0.00000E+00         0.00000E+00        -0.50215E+08
 
   -0.51002E+08         0.38792E+06         0.00000E+00
    0.38792E+06        -0.50034E+08         0.00000E+00
    0.00000E+00         0.00000E+00        -0.50207E+08
 
   -0.50959E+08         0.40204E+06         0.00000E+00
    0.40204E+06        -0.50037E+08         0.00000E+00
    0.00000E+00         0.00000E+00        -0.50199E+08
 
   -0.50916E+08         0.41499E+06         0.00000E+00
    0.41499E+06        -0.50039E+08         0.00000E+00
    0.00000E+00         0.00000E+00        -0.50191E+08
 
   -0.50875E+08         0.42684E+06         0.00000E+00
    0.42684E+06        -0.50042E+08         0.00000E+00
    0.00000E+00         0.00000E+00        -0.50183E+08
 
   -0.50834E+08         0.43767E+06         0.00000E+00
    0.43767E+06        -0.50044E+08         0.00000E+00
    0.00000E+00         0.00000E+00        -0.50175E+08
 
   -0.50793E+08         0.44755E+06         0.00000E+00
    0.44755E+06        -0.50046E+08         0.00000E+00
    0.00000E+00         0.00000E+00        -0.50168E+08
 
   -0.50754E+08         0.45654E+06         0.00000E+00
    0.45654E+06        -0.50048E+08         0.00000E+00
    0.00000E+00         0.00000E+00        -0.50160E+08
 
   -0.50715E+08         0.46471E+06         0.00000E+00
    0.46471E+06        -0.50050E+08         0.00000E+00
    0.00000E+00         0.00000E+00        -0.50153E+08
 
   -0.50678E+08         0.47211E+06         0.00000E+00
    0.47211E+06        -0.50051E+08         0.00000E+00
    0.00000E+00         0.00000E+00        -0.50146E+08
 
   -0.50641E+08         0.47879E+06         0.00000E+00
    0.47879E+06        -0.50053E+08         0.00000E+00
    0.00000E+00         0.00000E+00        -0.50139E+08
 
   -0.50605E+08         0.48479E+06         0.00000E+00
    0.48479E+06        -0.50055E+08         0.00000E+00
    0.00000E+00         0.00000E+00        -0.50132E+08
 
   -0.50570E+08         0.49017E+06         0.00000E+00
    0.49017E+06        -0.50057E+08         0.00000E+00
    0.00000E+00         0.00000E+00        -0.50125E+08
 
   -0.50535E+08         0.49496E+06         0.00000E+00
    0.49496E+06        -0.50059E+08         0.00000E+00
    0.00000E+00         0.00000E+00        -0.50119E+08
 
   -0.50502E+08         0.49918E+06         0.00000E+00
    0.49918E+06        -0.50060E+08         0.00000E+00
    0.00000E+00         0.00000E+00        -0.50112E+08
 
   -0.50469E+08         0.50286E+06         0.00000E+00
    0.50286E+06        -0.50062E+08         0.00000E+00
    0.00000E+00         0.00000E+00        -0.50106E+08
 
   -0.50438E+08         0.50604E+06         0.00000E+00
    0.50604E+06        -0.50064E+08         0.00000E+00
    0.00000E+00         0.00000E+00        -0.50100E+08
 
   -0.50407E+08         0.50872E+06         0.00000E+00
    0.50872E+06        -0.50066E+08         0.00000E+00
    0.00000E+00         0.00000E+00        -0.50095E+08
 
   -0.50377E+08         0.51092E+06         0.00000E+00
    0.51092E+06        -0.50068E+08         0.00000E+00
    0.00000E+00         0.00000E+00        -0.50089E+08
 
   -0.50348E+08         0.51266E+06         0.00000E+00
    0.51266E+06        -0.50071E+08         0.00000E+00
    0.00000E+00         0.00000E+00        -0.50084E+08
 
   -0.50321E+08         0.51394E+06         0.00000E+00
    0.51394E+06        -0.50073E+08         0.00000E+00
    0.00000E+00         0.00000E+00        -0.50079E+08
 
   -0.50294E+08         0.51477E+06         0.00000E+00
    0.51477E+06        -0.50076E+08         0.00000E+00
    0.00000E+00         0.00000E+00        -0.50074E+08
 
   -0.50268E+08         0.51516E+06         0.00000E+00
    0.51516E+06        -0.50079E+08         0.00000E+00
    0.00000E+00         0.00000E+00        -0.50069E+08
 
   -0.50243E+08         0.51511E+06         0.00000E+00
    0.51511E+06        -0.50082E+08         0.00000E+00
    0.00000E+00         0.00000E+00        -0.50065E+08
 
   -0.50219E+08         0.51464E+06         0.00000E+00
    0.51464E+06        -0.50085E+08         0.00000E+00
    0.00000E+00         0.00000E+00        -0.50061E+08
 
   -0.50196E+08         0.51374E+06         0.00000E+00
    0.51374E+06        -0.50088E+08         0.00000E+00
    0.00000E+00         0.00000E+00        -0.50057E+08
 
   -0.50175E+08         0.51243E+06         0.00000E+00
    0.51243E+06        -0.50091E+08         0.00000E+00
    0.00000E+00         0.00000E+00        -0.50053E+08
 
   -0.50154E+08         0.51071E+06         0.00000E+00
    0.51071E+06        -0.50094E+08         0.00000E+00
    0.00000E+00         0.00000E+00        -0.50050E+08
 
   -0.50135E+08         0.50862E+06         0.00000E+00
    0.50862E+06        -0.50098E+08         0.00000E+00
    0.00000E+00         0.00000E+00        -0.50047E+08
 
   -0.50117E+08         0.50615E+06         0.00000E+00
    0.50615E+06        -0.50101E+08         0.00000E+00
    0.00000E+00         0.00000E+00        -0.50044E+08
 
   -0.50101E+08         0.50334E+06         0.00000E+00
    0.50334E+06        -0.50105E+08         0.00000E+00
    0.00000E+00         0.00000E+00        -0.50041E+08
 
   -0.50086E+08         0.50022E+06         0.00000E+00
    0.50022E+06        -0.50108E+08         0.00000E+00
    0.00000E+00         0.00000E+00        -0.50039E+08
 
   -0.50072E+08         0.49682E+06         0.00000E+00
    0.49682E+06        -0.50112E+08         0.00000E+00
    0.00000E+00         0.00000E+00        -0.50037E+08
 
   -0.50060E+08         0.49318E+06         0.00000E+00
    0.49318E+06        -0.50115E+08         0.00000E+00
    0.00000E+00         0.00000E+00        -0.50035E+08
 
   -0.50050E+08         0.48937E+06         0.00000E+00
    0.48937E+06        -0.50118E+08         0.00000E+00
    0.00000E+00         0.00000E+00        -0.50034E+08
 
   -0.50041E+08         0.48543E+06         0.00000E+00
    0.48543E+06        -0.50121E+08         0.00000E+00
    0.00000E+00         0.00000E+00        -0.50032E+08
 
   -0.50034E+08         0.48144E+06         0.00000E+00
    0.48144E+06        -0.50123E+08         0.00000E+00
    0.00000E+00         0.00000E+00        -0.50032E+08
 
   -0.51426E+08         0.19902E+05         0.00000E+00
    0.19902E+05        -0.50000E+08         0.00000E+00
    0.00000E+00         0.00000E+00        -0.50285E+08
 
   -0.51395E+08         0.55484E+05         0.00000E+00
    0.55484E+05        -0.50001E+08         0.00000E+00
    0.00000E+00         0.00000E+00        -0.50279E+08
 
   -0.51363E+08         0.89288E+05         0.00000E+00
    0.89288E+05        -0.50002E+08         0.00000E+00
    0.00000E+00         0.00000E+00        -0.50273E+08
 
   -0.51330E+08         0.12134E+06         0.00000E+00
    0.12134E+06        -0.50004E+08         0.00000E+00
    0.00000E+00         0.00000E+00        -0.50267E+08
 
   -0.51296E+08         0.15167E+06         0.00000E+00
    0.15167E+06        -0.50007E+08         0.00000E+00
    0.00000E+00         0.00000E+00        -0.50260E+08
 
   -0.51260E+08         0.18031E+06         0.00000E+00
    0.18031E+06        -0.50010E+08         0.00000E+00
    0.00000E+00         0.00000E+00        -0.50254E+08
 
   -0.51225E+08         0.20730E+06         0.00000E+00
    0.20730E+06        -0.50013E+08         0.00000E+00
    0.00000E+00         0.00000E+00        -0.50248E+08
 
   -0.51188E+08         0.23269E+06         0.00000E+00
    0.23269E+06        -0.50017E+08         0.00000E+00
    0.00000E+00         0.00000E+00        -0.50241E+08
 
   -0.51151E+08         0.25652E+06         0.00000E+00
    0.25652E+06        -0.50021E+08         0.00000E+00
    0.00000E+00         0.00000E+00        -0.50234E+08
 
   -0.51114E+08         0.27884E+06         0.00000E+00
    0.27884E+06        -0.50025E+08         0.00000E+00
    0.00000E+00         0.00000E+00        -0.50228E+08
 
   -0.51077E+08         0.29971E+06         0.00000E+00
    0.29971E+06        -0.50029E+08         0.00000E+00
    0.00000E+00         0.00000E+00        -0.50221E+08
 
   -0.51039E+08         0.31917E+06         0.00000E+00
    0.31917E+06        -0.50033E+08         0.00000E+00
    0.00000E+00         0.00000E+00        -0.50214E+08
 
   -0.51002E+08         0.33729E+06         0.00000E+00
    0.33729E+06        -0.50038E+08         0.00000E+00
    0.00000E+00         0.00000E+00        -0.50208E+08
 
   -0.50964E+08         0.35412E+06         0.00000E+00
    0.35412E+06        -0.50042E+08         0.00000E+00
    0.00000E+00         0.00000E+00        -0.50201E+08
 
   -0.50927E+08         0.36971E+06         0.00000E+00
    0.36971E+06        -0.50047E+08         0.00000E+00
    0.00000E+00         0.00000E+00        -0.50195E+08
 
   -0.50890E+08         0.38412E+06         0.00000E+00
    0.38412E+06        -0.50051E+08         0.00000E+00
    0.00000E+00         0.00000E+00        -0.50188E+08
 
   -0.50853E+08         0.39741E+06         0.00000E+00
    0.39741E+06        -0.50056E+08         0.00000E+00
    0.00000E+00         0.00000E+00        -0.50182E+08
 
   -0.50817E+08         0.40963E+06         0.00000E+00
    0.40963E+06        -0.50060E+08         0.00000E+00
    0.00000E+00         0.00000E+00        -0.50175E+08
 
   -0.50781E+08         0.42083E+06         0.00000E+00
    0.42083E+06        -0.50064E+08         0.00000E+00
    0.00000E+00         0.00000E+00        -0.50169E+08
 
   -0.50745E+08         0.43107E+06         0.00000E+00
    0.43107E+06        -0.50069E+08         0.00000E+00
    0.00000E+00         0.00000E+00        -0.50163E+08
 
   -0.50710E+08         0.44040E+06         0.00000E+00
    0.44040E+06        -0.50073E+08         0.00000E+00
    0.00000E+00         0.00000E+00        -0.50157E+08
 
   -0.50676E+08         0.44886E+06         0.00000E+00
    0.44886E+06        -0.50077E+08         0.00000E+00
    0.00000E+00         0.00000E+00        -0.50151E+08
 
   -0.50642E+08         0.45650E+06         0.00000E+00
    0.45650E+06        -0.50082E+08         0.00000E+00
    0.00000E+00         0.00000E+00        -0.50145E+08
 
   -0.50609E+08         0.46336E+06         0.00000E+00
    0.46336E+06        -0.50086E+08         0.00000E+00
    0.00000E+00         0.00000E+00        -0.50139E+08
 
   -0.50576E+08         0.46948E+06         0.00000E+00
    0.46948E+06        -0.50090E+08         0.00000E+00
    0.00000E+00         0.00000E+00        -0.50133E+08
 
   -0.50544E+08         0.47491E+06         0.00000E+00
    0.47491E+06        -0.50094E+08         0.00000E+00
    0.00000E+00         0.00000E+00        -0.50128E+08
 
   -0.50513E+08         0.47967E+06         0.00000E+00
    0.47967E+06        -0.50098E+08         0.00000E+00
    0.00000E+00         0.00000E+00        -0.50122E+08
 
   -0.50482E+08         0.48381E+06         0.00000E+00
    0.48381E+06        -0.50102E+08         0.00000E+00
    0.00000E+00         0.00000E+00        -0.50117E+08
 
   -0.50453E+08         0.48734E+06         0.00000E+00
    0.48734E+06        -0.50107E+08         0.00000E+00
    0.00000E+00         0.00000E+00        -0.50112E+08
 
   -0.50424E+08         0.49030E+06         0.00000E+00
    0.49030E+06        -0.50111E+08         0.00000E+00
    0.00000E+00         0.00000E+00        -0.50107E+08
 
   -0.50396E+08         0.49272E+06         0.00000E+00
    0.49272E+06        -0.50115E+08         0.00000E+00
    0.00000E+00         0.00000E+00        -0.50102E+08
 
   -0.50368E+08         0.49462E+06         0.00000E+00
    0.49462E+06        -0.50119E+08         0.00000E+00
    0.00000E+00         0.00000E+00        -0.50097E+08
 
   -0.50342E+08         0.49603E+06         0.00000E+00
    0.49603E+06        -0.50123E+08         0.00000E+00
    0.00000E+00         0.00000E+00        -0.50093E+08
 
   -0.50316E+08         0.49696E+06         0.00000E+00
    0.49696E+06        -0.50127E+08         0.00000E+00
    0.00000E+00         0.00000E+00        -0.50089E+08
 
   -0.50291E+08         0.49744E+06         0.00000E+00
    0.49744E+06        -0.50131E+08         0.00000E+00
    0.00000E+00         0.00000E+00        -0.50085E+08
 
   -0.50268E+08         0.49749E+06         0.00000E+00
    0.49749E+06        -0.50135E+08         0.00000E+00
    0.00000E+00         0.00000E+00        -0.50081E+08
 
   -0.50245E+08         0.49714E+06         0.00000E+00
    0.49714E+06        -0.50140E+08         0.00000E+00
    0.00000E+00         0.00000E+00        -0.50077E+08
 
   -0.50223E+08         0.49640E+06         0.00000E+00
    0.49640E+06        -0.50144E+08         0.00000E+00
    0.00000E+00         0.00000E+00        -0.50073E+08
 
   -0.50202E+08         0.49530E+06         0.00000E+00
    0.49530E+06        -0.50148E+08         0.00000E+00
    0.00000E+00         0.00000E+00        -0.50070E+08
 
   -0.50183E+08         0.49386E+06         0.00000E+00
    0.49386E+06        -0.50152E+08         0.00000E+00
    0.00000E+00         0.00000E+00        -0.50067E+08
 
   -0.50164E+08         0.49212E+06         0.00000E+00
    0.49212E+06        -0.50156E+08         0.00000E+00
    0.00000E+00         0.00000E+00        -0.50064E+08
 
   -0.50146E+08         0.49009E+06         0.00000E+00
    0.49009E+06        -0.50160E+08         0.00000E+00
    0.00000E+00         0.00000E+00        -0.50061E+08
 
   -0.50130E+08         0.48781E+06         0.00000E+00
    0.48781E+06        -0.50164E+08         0.00000E+00
    0.00000E+00         0.00000E+00        -0.50059E+08
 
   -0.50115E+08         0.48533E+06         0.00000E+00
    0.48533E+06        -0.50168E+08         0.00000E+00
    0.00000E+00         0.00000E+00        -0.50056E+08
 
   -0.50101E+08         0.48267E+06         0.00000E+00
    0.48267E+06        -0.50172E+08         0.00000E+00
    0.00000E+00         0.00000E+00        -0.50054E+08
 
   -0.50088E+08         0.47989E+06         0.00000E+00
    0.47989E+06        -0.50175E+08         0.00000E+00
    0.00000E+00         0.00000E+00        -0.50053E+08
 
   -0.50077E+08         0.47702E+06         0.00000E+00
    0.47702E+06        -0.50179E+08         0.00000E+00
    0.00000E+00         0.00000E+00        -0.50051E+08
 
   -0.50067E+08         0.47413E+06         0.00000E+00
    0.47413E+06        -0.50182E+08         0.00000E+00
    0.00000E+00         0.00000E+00        -0.50050E+08
 
   -0.50058E+08         0.47128E+06         0.00000E+00
    0.47128E+06        -0.50185E+08         0.00000E+00
    0.00000E+00         0.00000E+00        -0.50049E+08
 
   -0.50051E+08         0.46852E+06         0.00000E+00
    0.46852E+06        -0.50188E+08         0.00000E+00
    0.00000E+00         0.00000E+00        -0.50048E+08
 
   -0.51253E+08         0.17666E+05         0.00000E+00
    0.17666E+05        -0.50000E+08         0.00000E+00
    0.00000E+00         0.00000E+00        -0.50251E+08
 
   -0.51230E+08         0.49711E+05         0.00000E+00
    0.49711E+05        -0.50001E+08         0.00000E+00
    0.00000E+00         0.00000E+00        -0.50246E+08
 
   -0.51206E+08         0.80351E+05         0.00000E+00
    0.80351E+05        -0.50002E+08         0.00000E+00
    0.00000E+00         0.00000E+00        -0.50242E+08
 
   -0.51180E+08         0.10959E+06         0.00000E+00
    0.10959E+06        -0.50004E+08         0.00000E+00
    0.00000E+00         0.00000E+00        -0.50237E+08
 
   -0.51154E+08         0.13744E+06         0.00000E+00
    0.13744E+06        -0.50007E+08         0.00000E+00
    0.00000E+00         0.00000E+00        -0.50232E+08
 
   -0.51126E+08         0.16392E+06         0.00000E+00
    0.16392E+06        -0.50010E+08         0.00000E+00
    0.00000E+00         0.00000E+00        -0.50227E+08
 
   -0.51098E+08         0.18904E+06         0.00000E+00
    0.18904E+06        -0.50014E+08         0.00000E+00
    0.00000E+00         0.00000E+00        -0.50222E+08
 
   -0.51069E+08         0.21282E+06         0.00000E+00
    0.21282E+06        -0.50018E+08         0.00000E+00
    0.00000E+00         0.00000E+00        -0.50217E+08
 
   -0.51039E+08         0.23530E+06         0.00000E+00
    0.23530E+06        -0.50022E+08         0.00000E+00
    0.00000E+00         0.00000E+00        -0.50212E+08
 
   -0.51009E+08         0.25649E+06         0.00000E+00
    0.25649E+06        -0.50027E+08         0.00000E+00
    0.00000E+00         0.00000E+00        -0.50207E+08
 
   -0.50978E+08         0.27644E+06         0.00000E+00
    0.27644E+06        -0.50032E+08         0.00000E+00
    0.00000E+00         0.00000E+00        -0.50202E+08
 
   -0.50947E+08         0.29517E+06         0.00000E+00
    0.29517E+06        -0.50037E+08         0.00000E+00
    0.00000E+00         0.00000E+00        -0.50197E+08
 
   -0.50915E+08         0.31272E+06         0.00000E+00
    0.31272E+06        -0.50042E+08         0.00000E+00
    0.00000E+00         0.00000E+00        -0.50191E+08
 
   -0.50884E+08         0.32912E+06         0.00000E+00
    0.32912E+06        -0.50047E+08         0.00000E+00
    0.00000E+00         0.00000E+00        -0.50186E+08
 
   -0.50852E+08         0.34441E+06         0.00000E+00
    0.34441E+06        -0.50053E+08         0.00000E+00
    0.00000E+00         0.00000E+00        -0.50181E+08
 
   -0.50821E+08         0.35863E+06         0.00000E+00
    0.35863E+06        -0.50058E+08         0.00000E+00
    0.00000E+00         0.00000E+00        -0.50176E+08
 
   -0.50789E+08         0.37181E+06         0.00000E+00
    0.37181E+06        -0.50064E+08         0.00000E+00
    0.00000E+00         0.00000E+00        -0.50171E+08
 
   -0.50758E+08         0.38401E+06         0.00000E+00
    0.38401E+06        -0.50069E+08         0.00000E+00
    0.00000E+00         0.00000E+00        -0.50165E+08
 
   -0.50727E+08         0.39525E+06         0.00000E+00
    0.39525E+06        -0.50075E+08         0.00000E+00
    0.00000E+00         0.00000E+00        -0.50160E+08
 
   -0.50696E+08         0.40557E+06         0.00000E+00
    0.40557E+06        -0.50081E+08         0.00000E+00
    0.00000E+00         0.00000E+00        -0.50155E+08
 
   -0.50665E+08         0.41501E+06         0.00000E+00
    0.41501E+06        -0.50087E+08         0.00000E+00
    0.00000E+00         0.00000E+00        -0.50150E+08
 
   -0.50635E+08         0.42361E+06         0.00000E+00
    0.42361E+06        -0.50092E+08         0.00000E+00
    0.00000E+00         0.00000E+00        -0.50145E+08
 
   -0.50605E+08         0.43140E+06         0.00000E+00
    0.43140E+06        -0.50098E+08         0.00000E+00
    0.00000E+00         0.00000E+00        -0.50141E+08
 
   -0.50576E+08         0.43842E+06         0.00000E+00
    0.43842E+06        -0.50104E+08         0.00000E+00
    0.00000E+00         0.00000E+00        -0.50136E+08
 
   -0.50547E+08         0.44471E+06         0.00000E+00
    0.44471E+06        -0.50109E+08         0.00000E+00
    0.00000E+00         0.00000E+00        -0.50131E+08
 
   -0.50518E+08         0.45030E+06         0.00000E+00
    0.45030E+06        -0.50115E+08         0.00000E+00
    0.00000E+00         0.00000E+00        -0.50127E+08
 
   -0.50490E+08         0.45522E+06         0.00000E+00
    0.45522E+06        -0.50120E+08         0.00000E+00
    0.00000E+00         0.00000E+00        -0.50122E+08
 
   -0.50463E+08         0.45950E+06         0.00000E+00
    0.45950E+06        -0.50126E+08         0.00000E+00
    0.00000E+00         0.00000E+00        -0.50118E+08
 
   -0.50436E+08         0.46318E+06         0.00000E+00
    0.46318E+06        -0.50131E+08         0.00000E+00
    0.00000E+00         0.00000E+00        -0.50113E+08
 
   -0.50410E+08         0.46628E+06         0.00000E+00
    0.46628E+06        -0.50137E+08         0.00000E+00
    0.00000E+00         0.00000E+00        -0.50109E+08
 
   -0.50384E+08         0.46883E+06         0.00000E+00
    0.46883E+06        -0.50142E+08         0.00000E+00
    0.00000E+00         0.00000E+00        -0.50105E+08
 
   -0.50360E+08         0.47086E+06         0.00000E+00
    0.47086E+06        -0.50147E+08         0.00000E+00
    0.00000E+00         0.00000E+00        -0.50101E+08
 
   -0.50335E+08         0.47240E+06         0.00000E+00
    0.47240E+06        -0.50153E+08         0.00000E+00
    0.00000E+00         0.00000E+00        -0.50098E+08
 
   -0.50312E+08         0.47348E+06         0.00000E+00
    0.47348E+06        -0.50158E+08         0.00000E+00
    0.00000E+00         0.00000E+00        -0.50094E+08
 
   -0.50290E+08         0.47413E+06         0.00000E+00
    0.47413E+06        -0.50163E+08         0.00000E+00
    0.00000E+00         0.00000E+00        -0.50091E+08
 
   -0.50268E+08         0.47437E+06         0.00000E+00
    0.47437E+06        -0.50168E+08         0.00000E+00
    0.00000E+00         0.00000E+00        -0.50087E+08
 
   -0.50247E+08         0.47424E+06         0.00000E+00
    0.47424E+06        -0.50173E+08         0.00000E+00
    0.00000E+00         0.00000E+00        -0.50084E+08
 
   -0.50227E+08         0.47375E+06         0.00000E+00
    0.47375E+06        -0.50178E+08         0.00000E+00
    0.00000E+00         0.00000E+00        -0.50081E+08
 
   -0.50208E+08         0.47295E+06         0.00000E+00
    0.47295E+06        -0.50183E+08         0.00000E+00
    0.00000E+00         0.00000E+00        -0.50078E+08
 
   -0.50189E+08         0.47187E+06         0.00000E+00
    0.47187E+06        -0.50188E+08         0.00000E+00
    0.00000E+00         0.00000E+00        -0.50075E+08
 
   -0.50172E+08         0.47053E+06         0.00000E+00
    0.47053E+06        -0.50192E+08         0.00000E+00
    0.00000E+00         0.00000E+00        -0.50073E+08
 
   -0.50156E+08         0.46897E+06         0.00000E+00
    0.46897E+06        -0.50197E+08         0.00000E+00
    0.00000E+00         0.00000E+00        -0.50070E+08
 
   -0.50140E+08         0.46724E+06         0.00000E+00
    0.46724E+06        -0.50201E+08         0.00000E+00
    0.00000E+00         0.00000E+00        -0.50068E+08
 
   -0.50126E+08         0.46536E+06         0.00000E+00
    0.46536E+06        -0.50205E+08         0.00000E+00
    0.00000E+00         0.00000E+00        -0.50066E+08
 
   -0.50112E+08         0.46339E+06         0.00000E+00
    0.46339E+06        -0.50210E+08         0.00000E+00
    0.00000E+00         0.00000E+00        -0.50064E+08
 
   -0.50100E+08         0.46136E+06         0.00000E+00
    0.46136E+06        -0.50213E+08         0.00000E+00
    0.00000E+00         0.00000E+00        -0.50063E+08
 
   -0.50089E+08         0.45932E+06         0.00000E+00
    0.45932E+06        -0.50217E+08         0.00000E+00
    0.00000E+00         0.00000E+00        -0.50061E+08
 
   -0.50078E+08         0.45733E+06         0.00000E+00
    0.45733E+06        -0.50221E+08         0.00000E+00
    0.00000E+00         0.00000E+00        -0.50060E+08
 
   -0.50069E+08         0.45543E+06         0.00000E+00
    0.45543E+06        -0.50224E+08         0.00000E+00
    0.00000E+00         0.00000E+00        -0.50059E+08
 
   -0.50061E+08         0.45369E+06         0.00000E+00
    0.45369E+06        -0.50228E+08         0.00000E+00
    0.00000E+00         0.00000E+00        -0.50058E+08
 
   -0.51099E+08         0.15503E+05         0.00000E+00
    0.15503E+05        -0.50000E+08         0.00000E+00
    0.00000E+00         0.00000E+00        -0.50220E+08
 
   -0.51082E+08         0.43991E+05         0.00000E+00
    0.43991E+05        -0.50001E+08         0.00000E+00
    0.00000E+00         0.00000E+00        -0.50217E+08
 
   -0.51064E+08         0.71386E+05         0.00000E+00
    0.71386E+05        -0.50002E+08         0.00000E+00
    0.00000E+00         0.00000E+00        -0.50213E+08
 
   -0.51045E+08         0.97679E+05         0.00000E+00
    0.97679E+05        -0.50004E+08         0.00000E+00
    0.00000E+00         0.00000E+00        -0.50210E+08
 
   -0.51024E+08         0.12287E+06         0.00000E+00
    0.12287E+06        -0.50007E+08         0.00000E+00
    0.00000E+00         0.00000E+00        -0.50206E+08
 
   -0.51003E+08         0.14695E+06         0.00000E+00
    0.14695E+06        -0.50010E+08         0.00000E+00
    0.00000E+00         0.00000E+00        -0.50203E+08
 
   -0.50981E+08         0.16993E+06         0.00000E+00
    0.16993E+06        -0.50014E+08         0.00000E+00
    0.00000E+00         0.00000E+00        -0.50199E+08
 
   -0.50957E+08         0.19182E+06         0.00000E+00
    0.19182E+06        -0.50018E+08         0.00000E+00
    0.00000E+00         0.00000E+00        -0.50195E+08
 
   -0.50934E+08         0.21262E+06         0.00000E+00
    0.21262E+06        -0.50022E+08         0.00000E+00
    0.00000E+00         0.00000E+00        -0.50191E+08
 
   -0.50909E+08         0.23235E+06         0.00000E+00
    0.23235E+06        -0.50027E+08         0.00000E+00
    0.00000E+00         0.00000E+00        -0.50187E+08
 
   -0.50884E+08         0.25103E+06         0.00000E+00
    0.25103E+06        -0.50032E+08         0.00000E+00
    0.00000E+00         0.00000E+00        -0.50183E+08
 
   -0.50858E+08         0.26867E+06         0.00000E+00
    0.26867E+06        -0.50037E+08         0.00000E+00
    0.00000E+00         0.00000E+00        -0.50179E+08
 
   -0.50833E+08         0.28529E+06         0.00000E+00
    0.28529E+06        -0.50043E+08         0.00000E+00
    0.00000E+00         0.00000E+00        -0.50175E+08
 
   -0.50806E+08         0.30092E+06         0.00000E+00
    0.30092E+06        -0.50048E+08         0.00000E+00
    0.00000E+00         0.00000E+00        -0.50171E+08
 
   -0.50780E+08         0.31558E+06         0.00000E+00
    0.31558E+06        -0.50054E+08         0.00000E+00
    0.00000E+00         0.00000E+00        -0.50167E+08
 
   -0.50753E+08         0.32929E+06         0.00000E+00
    0.32929E+06        -0.50060E+08         0.00000E+00
    0.00000E+00         0.00000E+00        -0.50163E+08
 
   -0.50727E+08         0.34208E+06         0.00000E+00
    0.34208E+06        -0.50066E+08         0.00000E+00
    0.00000E+00         0.00000E+00        -0.50159E+08
 
   -0.50700E+08         0.35398E+06         0.00000E+00
    0.35398E+06        -0.50073E+08         0.00000E+00
    0.00000E+00         0.00000E+00        -0.50155E+08
 
   -0.50673E+08         0.36501E+06         0.00000E+00
    0.36501E+06        -0.50079E+08         0.00000E+00
    0.00000E+00         0.00000E+00        -0.50150E+08
 
   -0.50647E+08         0.37521E+06         0.00000E+00
    0.37521E+06        -0.50085E+08         0.00000E+00
    0.00000E+00         0.00000E+00        -0.50146E+08
 
   -0.50620E+08         0.38459E+06         0.00000E+00
    0.38459E+06        -0.50092E+08         0.00000E+00
    0.00000E+00         0.00000E+00        -0.50142E+08
 
   -0.50594E+08         0.39319E+06         0.00000E+00
    0.39319E+06        -0.50098E+08         0.00000E+00
    0.00000E+00         0.00000E+00        -0.50138E+08
 
   -0.50568E+08         0.40104E+06         0.00000E+00
    0.40104E+06        -0.50104E+08         0.00000E+00
    0.00000E+00         0.00000E+00        -0.50134E+08
 
   -0.50542E+08         0.40817E+06         0.00000E+00
    0.40817E+06        -0.50111E+08         0.00000E+00
    0.00000E+00         0.00000E+00        -0.50131E+08
 
   -0.50516E+08         0.41460E+06         0.00000E+00
    0.41460E+06        -0.50117E+08         0.00000E+00
    0.00000E+00         0.00000E+00        -0.50127E+08
 
   -0.50491E+08         0.42037E+06         0.00000E+00
    0.42037E+06        -0.50123E+08         0.00000E+00
    0.00000E+00         0.00000E+00        -0.50123E+08
 
   -0.50466E+08         0.42550E+06         0.00000E+00
    0.42550E+06        -0.50130E+08         0.00000E+00
    0.00000E+00         0.00000E+00        -0.50119E+08
 
   -0.50442E+08         0.43002E+06         0.00000E+00
    0.43002E+06        -0.50136E+08         0.00000E+00
    0.00000E+00         0.00000E+00        -0.50116E+08
 
   -0.50418E+08         0.43396E+06         0.00000E+00
    0.43396E+06        -0.50142E+08         0.00000E+00
    0.00000E+00         0.00000E+00        -0.50112E+08
 
   -0.50395E+08         0.43735E+06         0.00000E+00
    0.43735E+06        -0.50148E+08         0.00000E+00
    0.00000E+00         0.00000E+00        -0.50109E+08
 
   -0.50372E+08         0.44021E+06         0.00000E+00
    0.44021E+06        -0.50154E+08         0.00000E+00
    0.00000E+00         0.00000E+00        -0.50105E+08
 
   -0.50350E+08         0.44258E+06         0.00000E+00
    0.44258E+06        -0.50160E+08         0.00000E+00
    0.00000E+00         0.00000E+00        -0.50102E+08
 
   -0.50328E+08         0.44449E+06         0.00000E+00
    0.44449E+06        -0.50166E+08         0.00000E+00
    0.00000E+00         0.00000E+00        -0.50099E+08
 
   -0.50307E+08         0.44596E+06         0.00000E+00
    0.44596E+06        -0.50172E+08         0.00000E+00
    0.00000E+00         0.00000E+00        -0.50096E+08
 
   -0.50286E+08         0.44702E+06         0.00000E+00
    0.44702E+06        -0.50178E+08         0.00000E+00
    0.00000E+00         0.00000E+00        -0.50093E+08
 
   -0.50266E+08         0.44770E+06         0.00000E+00
    0.44770E+06        -0.50183E+08         0.00000E+00
    0.00000E+00         0.00000E+00        -0.50090E+08
 
   -0.50247E+08         0.44804E+06         0.00000E+00
    0.44804E+06        -0.50189E+08         0.00000E+00
    0.00000E+00         0.00000E+00        -0.50087E+08
 
   -0.50229E+08         0.44805E+06         0.00000E+00
    0.44805E+06        -0.50194E+08         0.00000E+00
    0.00000E+00         0.00000E+00        -0.50085E+08
 
   -0.50211E+08         0.44779E+06         0.00000E+00
    0.44779E+06        -0.50200E+08         0.00000E+00
    0.00000E+00         0.00000E+00        -0.50082E+08
 
   -0.50194E+08         0.44727E+06         0.00000E+00
    0.44727E+06        -0.50205E+08         0.00000E+00
    0.00000E+00         0.00000E+00        -0.50080E+08
 
   -0.50178E+08         0.44653E+06         0.00000E+00
    0.44653E+06        -0.50210E+08         0.00000E+00
    0.00000E+00         0.00000E+00        -0.50078E+08
 
   -0.50162E+08         0.44561E+06         0.00000E+00
    0.44561E+06        -0.50215E+08         0.00000E+00
    0.00000E+00         0.00000E+00        -0.50075E+08
 
   -0.50147E+08         0.44455E+06         0.00000E+00
    0.44455E+06        -0.50220E+08         0.00000E+00
    0.00000E+00         0.00000E+00        -0.50073E+08
 
   -0.50134E+08         0.44337E+06         0.00000E+00
    0.44337E+06        -0.50224E+08         0.00000E+00
    0.00000E+00         0.00000E+00        -0.50072E+08
 
   -0.50120E+08         0.44213E+06         0.00000E+00
    0.44213E+06        -0.50229E+08         0.00000E+00
    0.00000E+00         0.00000E+00        -0.50070E+08
 
   -0.50108E+08         0.44086E+06         0.00000E+00
    0.44086E+06        -0.50233E+08         0.00000E+00
    0.00000E+00         0.00000E+00        -0.50068E+08
 
   -0.50097E+08         0.43961E+06         0.00000E+00
    0.43961E+06        -0.50237E+08         0.00000E+00
    0.00000E+00         0.00000E+00        -0.50067E+08
 
   -0.50086E+08         0.43841E+06         0.00000E+00
    0.43841E+06        -0.50242E+08         0.00000E+00
    0.00000E+00         0.00000E+00        -0.50065E+08
 
   -0.50076E+08         0.43733E+06         0.00000E+00
    0.43733E+06        -0.50245E+08         0.00000E+00
    0.00000E+00         0.00000E+00        -0.50064E+08
 
   -0.50067E+08         0.43639E+06         0.00000E+00
    0.43639E+06        -0.50249E+08         0.00000E+00
    0.00000E+00         0.00000E+00        -0.50063E+08
 
   -0.50962E+08         0.13486E+05         0.00000E+00
    0.13486E+05        -0.50000E+08         0.00000E+00
    0.00000E+00         0.00000E+00        -0.50192E+08
 
   -0.50951E+08         0.38564E+05         0.00000E+00
    0.38564E+05        -0.50001E+08         0.00000E+00
    0.00000E+00         0.00000E+00        -0.50190E+08
 
   -0.50937E+08         0.62804E+05         0.00000E+00
    0.62804E+05        -0.50002E+08         0.00000E+00
    0.00000E+00         0.00000E+00        -0.50188E+08
 
   -0.50923E+08         0.86191E+05         0.00000E+00
    0.86191E+05        -0.50004E+08         0.00000E+00
    0.00000E+00         0.00000E+00        -0.50185E+08
 
   -0.50908E+08         0.10871E+06         0.00000E+00
    0.10871E+06        -0.50006E+08         0.00000E+00
    0.00000E+00         0.00000E+00        -0.50183E+08
 
   -0.50891E+08         0.13035E+06         0.00000E+00
    0.13035E+06        -0.50009E+08         0.00000E+00
    0.00000E+00         0.00000E+00        -0.50180E+08
 
   -0.50874E+08         0.15111E+06         0.00000E+00
    0.15111E+06        -0.50013E+08         0.00000E+00
    0.00000E+00         0.00000E+00        -0.50177E+08
 
   -0.50855E+08         0.17099E+06         0.00000E+00
    0.17099E+06        -0.50017E+08         0.00000E+00
    0.00000E+00         0.00000E+00        -0.50174E+08
 
   -0.50836E+08         0.18998E+06         0.00000E+00
    0.18998E+06        -0.50021E+08         0.00000E+00
    0.00000E+00         0.00000E+00        -0.50172E+08
 
   -0.50817E+08         0.20809E+06         0.00000E+00
    0.20809E+06        -0.50026E+08         0.00000E+00
    0.00000E+00         0.00000E+00        -0.50169E+08
 
   -0.50797E+08         0.22532E+06         0.00000E+00
    0.22532E+06        -0.50031E+08         0.00000E+00
    0.00000E+00         0.00000E+00        -0.50165E+08
 
   -0.50776E+08         0.24169E+06         0.00000E+00
    0.24169E+06        -0.50036E+08         0.00000E+00
    0.00000E+00         0.00000E+00        -0.50162E+08
 
   -0.50755E+08         0.25719E+06         0.00000E+00
    0.25719E+06        -0.50041E+08         0.00000E+00
    0.00000E+00         0.00000E+00        -0.50159E+08
 
   -0.50733E+08         0.27185E+06         0.00000E+00
    0.27185E+06        -0.50047E+08         0.00000E+00
    0.00000E+00         0.00000E+00        -0.50156E+08
 
   -0.50711E+08         0.28568E+06         0.00000E+00
    0.28568E+06        -0.50053E+08         0.00000E+00
    0.00000E+00         0.00000E+00        -0.50153E+08
 
   -0.50689E+08         0.29869E+06         0.00000E+00
    0.29869E+06        -0.50059E+08         0.00000E+00
    0.00000E+00         0.00000E+00        -0.50150E+08
 
   -0.50666E+08         0.31089E+06         0.00000E+00
    0.31089E+06        -0.50065E+08         0.00000E+00
    0.00000E+00         0.00000E+00        -0.50146E+08
 
   -0.50644E+08         0.32232E+06         0.00000E+00
    0.32232E+06        -0.50072E+08         0.00000E+00
    0.00000E+00         0.00000E+00        -0.50143E+08
 
   -0.50621E+08         0.33297E+06         0.00000E+00
    0.33297E+06        -0.50078E+08         0.00000E+00
    0.00000E+00         0.00000E+00        -0.50140E+08
 
   -0.50598E+08         0.34289E+06         0.00000E+00
    0.34289E+06        -0.50084E+08         0.00000E+00
    0.00000E+00         0.00000E+00        -0.50137E+08
 
   -0.50575E+08         0.35208E+06         0.00000E+00
    0.35208E+06        -0.50091E+08         0.00000E+00
    0.00000E+00         0.00000E+00        -0.50133E+08
 
   -0.50553E+08         0.36057E+06         0.00000E+00
    0.36057E+06        -0.50098E+08         0.00000E+00
    0.00000E+00         0.00000E+00        -0.50130E+08
 
   -0.50530E+08         0.36837E+06         0.00000E+00
    0.36837E+06        -0.50104E+08         0.00000E+00
    0.00000E+00         0.00000E+00        -0.50127E+08
 
   -0.50508E+08         0.37552E+06         0.00000E+00
    0.37552E+06        -0.50111E+08         0.00000E+00
    0.00000E+00         0.00000E+00        -0.50124E+08
 
   -0.50485E+08         0.38204E+06         0.00000E+00
    0.38204E+06        -0.50117E+08         0.00000E+00
    0.00000E+00         0.00000E+00        -0.50121E+08
 
   -0.50463E+08         0.38795E+06         0.00000E+00
    0.38795E+06        -0.50124E+08         0.00000E+00
    0.00000E+00         0.00000E+00        -0.50118E+08
 
   -0.50442E+08         0.39327E+06         0.00000E+00
    0.39327E+06        -0.50131E+08         0.00000E+00
    0.00000E+00         0.00000E+00        -0.50114E+08
 
   -0.50420E+08         0.39803E+06         0.00000E+00
    0.39803E+06        -0.50137E+08         0.00000E+00
    0.00000E+00         0.00000E+00        -0.50111E+08
 
   -0.50399E+08         0.40225E+06         0.00000E+00
    0.40225E+06        -0.50144E+08         0.00000E+00
    0.00000E+00         0.00000E+00        -0.50109E+08
 
   -0.50378E+08         0.40596E+06         0.00000E+00
    0.40596E+06        -0.50150E+08         0.00000E+00
    0.00000E+00         0.00000E+00        -0.50106E+08
 
   -0.50358E+08         0.40919E+06         0.00000E+00
    0.40919E+06        -0.50156E+08         0.00000E+00
    0.00000E+00         0.00000E+00        -0.50103E+08
 
   -0.50338E+08         0.41196E+06         0.00000E+00
    0.41196E+06        -0.50163E+08         0.00000E+00
    0.00000E+00         0.00000E+00        -0.50100E+08
 
   -0.50318E+08         0.41430E+06         0.00000E+00
    0.41430E+06        -0.50169E+08         0.00000E+00
    0.00000E+00         0.00000E+00        -0.50097E+08
 
   -0.50299E+08         0.41623E+06         0.00000E+00
    0.41623E+06        -0.50175E+08         0.00000E+00
    0.00000E+00         0.00000E+00        -0.50095E+08
 
   -0.50281E+08         0.41779E+06         0.00000E+00
    0.41779E+06        -0.50181E+08         0.00000E+00
    0.00000E+00         0.00000E+00        -0.50092E+08
 
   -0.50262E+08         0.41900E+06         0.00000E+00
    0.41900E+06        -0.50187E+08         0.00000E+00
    0.00000E+00         0.00000E+00        -0.50090E+08
 
   -0.50245E+08         0.41988E+06         0.00000E+00
    0.41988E+06        -0.50193E+08         0.00000E+00
    0.00000E+00         0.00000E+00        -0.50088E+08
 
   -0.50228E+08         0.42048E+06         0.00000E+00
    0.42048E+06        -0.50199E+08         0.00000E+00
    0.00000E+00         0.00000E+00        -0.50085E+08
 
   -0.50211E+08         0.42082E+06         0.00000E+00
    0.42082E+06        -0.50204E+08         0.00000E+00
    0.00000E+00         0.00000E+00        -0.50083E+08
 
   -0.50195E+08         0.42092E+06         0.00000E+00
    0.42092E+06        -0.50210E+08         0.00000E+00
    0.00000E+00         0.00000E+00        -0.50081E+08
 
   -0.50180E+08         0.42083E+06         0.00000E+00
    0.42083E+06        -0.50215E+08         0.00000E+00
    0.00000E+00         0.00000E+00        -0.50079E+08
 
   -0.50165E+08         0.42057E+06         0.00000E+00
    0.42057E+06        -0.50220E+08         0.00000E+00
    0.00000E+00         0.00000E+00        -0.50077E+08
 
   -0.50151E+08         0.42018E+06         0.00000E+00
    0.42018E+06        -0.50225E+08         0.00000E+00
    0.00000E+00         0.00000E+00        -0.50075E+08
 
   -0.50138E+08         0.41968E+06         0.00000E+00
    0.41968E+06        -0.50230E+08         0.00000E+00
    0.00000E+00         0.00000E+00        -0.50074E+08
 
   -0.50125E+08         0.41913E+06         0.00000E+00
    0.41913E+06        -0.50235E+08         0.00000E+00
    0.00000E+00         0.00000E+00        -0.50072E+08
 
   -0.50113E+08         0.41855E+06         0.00000E+00
    0.41855E+06        -0.50240E+08         0.00000E+00
    0.00000E+00         0.00000E+00        -0.50070E+08
 
   -0.50101E+08         0.41798E+06         0.00000E+00
    0.41798E+06        -0.50244E+08         0.00000E+00
    0.00000E+00         0.00000E+00        -0.50069E+08
 
   -0.50090E+08         0.41745E+06         0.00000E+00
    0.41745E+06        -0.50249E+08         0.00000E+00
    0.00000E+00         0.00000E+00        -0.50068E+08
 
   -0.50079E+08         0.41702E+06         0.00000E+00
    0.41702E+06        -0.50253E+08         0.00000E+00
    0.00000E+00         0.00000E+00        -0.50066E+08
 
   -0.50070E+08         0.41670E+06         0.00000E+00
    0.41670E+06        -0.50257E+08         0.00000E+00
    0.00000E+00         0.00000E+00        -0.50065E+08
 
   -0.50843E+08         0.11658E+05         0.00000E+00
    0.11658E+05        -0.50000E+08         0.00000E+00
    0.00000E+00         0.00000E+00        -0.50169E+08
 
   -0.50835E+08         0.33575E+05         0.00000E+00
    0.33575E+05        -0.50000E+08         0.00000E+00
    0.00000E+00         0.00000E+00        -0.50167E+08
 
   -0.50826E+08         0.54862E+05         0.00000E+00
    0.54862E+05        -0.50002E+08         0.00000E+00
    0.00000E+00         0.00000E+00        -0.50165E+08
 
   -0.50815E+08         0.75497E+05         0.00000E+00
    0.75497E+05        -0.50004E+08         0.00000E+00
    0.00000E+00         0.00000E+00        -0.50164E+08
 
   -0.50803E+08         0.95461E+05         0.00000E+00
    0.95461E+05        -0.50006E+08         0.00000E+00
    0.00000E+00         0.00000E+00        -0.50162E+08
 
   -0.50791E+08         0.11474E+06         0.00000E+00
    0.11474E+06        -0.50009E+08         0.00000E+00
    0.00000E+00         0.00000E+00        -0.50160E+08
 
   -0.50777E+08         0.13332E+06         0.00000E+00
    0.13332E+06        -0.50012E+08         0.00000E+00
    0.00000E+00         0.00000E+00        -0.50158E+08
 
   -0.50763E+08         0.15120E+06         0.00000E+00
    0.15120E+06        -0.50016E+08         0.00000E+00
    0.00000E+00         0.00000E+00        -0.50156E+08
 
   -0.50748E+08         0.16836E+06         0.00000E+00
    0.16836E+06        -0.50020E+08         0.00000E+00
    0.00000E+00         0.00000E+00        -0.50154E+08
 
   -0.50732E+08         0.18481E+06         0.00000E+00
    0.18481E+06        -0.50024E+08         0.00000E+00
    0.00000E+00         0.00000E+00        -0.50151E+08
 
   -0.50716E+08         0.20054E+06         0.00000E+00
    0.20054E+06        -0.50029E+08         0.00000E+00
    0.00000E+00         0.00000E+00        -0.50149E+08
 
   -0.50699E+08         0.21555E+06         0.00000E+00
    0.21555E+06        -0.50034E+08         0.00000E+00
    0.00000E+00         0.00000E+00        -0.50147E+08
 
   -0.50682E+08         0.22985E+06         0.00000E+00
    0.22985E+06        -0.50039E+08         0.00000E+00
    0.00000E+00         0.00000E+00        -0.50144E+08
 
   -0.50664E+08         0.24344E+06         0.00000E+00
    0.24344E+06        -0.50044E+08         0.00000E+00
    0.00000E+00         0.00000E+00        -0.50142E+08
 
   -0.50646E+08         0.25633E+06         0.00000E+00
    0.25633E+06        -0.50050E+08         0.00000E+00
    0.00000E+00         0.00000E+00        -0.50139E+08
 
   -0.50627E+08         0.26852E+06         0.00000E+00
    0.26852E+06        -0.50056E+08         0.00000E+00
    0.00000E+00         0.00000E+00        -0.50137E+08
 
   -0.50609E+08         0.28003E+06         0.00000E+00
    0.28003E+06        -0.50062E+08         0.00000E+00
    0.00000E+00         0.00000E+00        -0.50134E+08
 
   -0.50590E+08         0.29086E+06         0.00000E+00
    0.29086E+06        -0.50068E+08         0.00000E+00
    0.00000E+00         0.00000E+00        -0.50131E+08
 
   -0.50570E+08         0.30103E+06         0.00000E+00
    0.30103E+06        -0.50074E+08         0.00000E+00
    0.00000E+00         0.00000E+00        -0.50129E+08
 
   -0.50551E+08         0.31055E+06         0.00000E+00
    0.31055E+06        -0.50080E+08         0.00000E+00
    0.00000E+00         0.00000E+00        -0.50126E+08
 
   -0.50532E+08         0.31944E+06         0.00000E+00
    0.31944E+06        -0.50087E+08         0.00000E+00
    0.00000E+00         0.00000E+00        -0.50124E+08
 
   -0.50512E+08         0.32772E+06         0.00000E+00
    0.32772E+06        -0.50093E+08         0.00000E+00
    0.00000E+00         0.00000E+00        -0.50121E+08
 
   -0.50493E+08         0.33539E+06         0.00000E+00
    0.33539E+06        -0.50100E+08         0.00000E+00
    0.00000E+00         0.00000E+00        -0.50119E+08
 
   -0.50474E+08         0.34248E+06         0.00000E+00
    0.34248E+06        -0.50106E+08         0.00000E+00
    0.00000E+00         0.00000E+00        -0.50116E+08
 
   -0.50454E+08         0.34900E+06         0.00000E+00
    0.34900E+06        -0.50113E+08         0.00000E+00
    0.00000E+00         0.00000E+00        -0.50113E+08
 
   -0.50435E+08         0.35498E+06         0.00000E+00
    0.35498E+06        -0.50119E+08         0.00000E+00
    0.00000E+00         0.00000E+00        -0.50111E+08
 
   -0.50416E+08         0.36044E+06         0.00000E+00
    0.36044E+06        -0.50126E+08         0.00000E+00
    0.00000E+00         0.00000E+00        -0.50108E+08
 
   -0.50397E+08         0.36539E+06         0.00000E+00
    0.36539E+06        -0.50133E+08         0.00000E+00
    0.00000E+00         0.00000E+00        -0.50106E+08
 
   -0.50378E+08         0.36985E+06         0.00000E+00
    0.36985E+06        -0.50139E+08         0.00000E+00
    0.00000E+00         0.00000E+00        -0.50103E+08
 
   -0.50360E+08         0.37385E+06         0.00000E+00
    0.37385E+06        -0.50145E+08         0.00000E+00
    0.00000E+00         0.00000E+00        -0.50101E+08
 
   -0.50342E+08         0.37742E+06         0.00000E+00
    0.37742E+06        -0.50152E+08         0.00000E+00
    0.00000E+00         0.00000E+00        -0.50099E+08
 
   -0.50324E+08         0.38056E+06         0.00000E+00
    0.38056E+06        -0.50158E+08         0.00000E+00
    0.00000E+00         0.00000E+00        -0.50096E+08
 
   -0.50306E+08         0.38331E+06         0.00000E+00
    0.38331E+06        -0.50164E+08         0.00000E+00
    0.00000E+00         0.00000E+00        -0.50094E+08
 
   -0.50289E+08         0.38569E+06         0.00000E+00
    0.38569E+06        -0.50171E+08         0.00000E+00
    0.00000E+00         0.00000E+00        -0.50092E+08
 
   -0.50272E+08         0.38773E+06         0.00000E+00
    0.38773E+06        -0.50177E+08         0.00000E+00
    0.00000E+00         0.00000E+00        -0.50090E+08
 
   -0.50256E+08         0.38944E+06         0.00000E+00
    0.38944E+06        -0.50183E+08         0.00000E+00
    0.00000E+00         0.00000E+00        -0.50088E+08
 
   -0.50240E+08         0.39086E+06         0.00000E+00
    0.39086E+06        -0.50189E+08         0.00000E+00
    0.00000E+00         0.00000E+00        -0.50086E+08
 
   -0.50224E+08         0.39201E+06         0.00000E+00
    0.39201E+06        -0.50194E+08         0.00000E+00
    0.00000E+00         0.00000E+00        -0.50084E+08
 
   -0.50209E+08         0.39292E+06         0.00000E+00
    0.39292E+06        -0.50200E+08         0.00000E+00
    0.00000E+00         0.00000E+00        -0.50082E+08
 
   -0.50194E+08         0.39361E+06         0.00000E+00
    0.39361E+06        -0.50206E+08         0.00000E+00
    0.00000E+00         0.00000E+00        -0.50080E+08
 
   -0.50179E+08         0.39412E+06         0.00000E+00
    0.39412E+06        -0.50211E+08         0.00000E+00
    0.00000E+00         0.00000E+00        -0.50078E+08
 
   -0.50165E+08         0.39446E+06         0.00000E+00
    0.39446E+06        -0.50216E+08         0.00000E+00
    0.00000E+00         0.00000E+00        -0.50076E+08
 
   -0.50152E+08         0.39468E+06         0.00000E+00
    0.39468E+06        -0.50222E+08         0.00000E+00
    0.00000E+00         0.00000E+00        -0.50075E+08
 
   -0.50139E+08         0.39479E+06         0.00000E+00
    0.39479E+06        -0.50227E+08         0.00000E+00
    0.00000E+00         0.00000E+00        -0.50073E+08
 
   -0.50126E+08         0.39483E+06         0.00000E+00
    0.39483E+06        -0.50232E+08         0.00000E+00
    0.00000E+00         0.00000E+00        -0.50072E+08
 
   -0.50114E+08         0.39483E+06         0.00000E+00
    0.39483E+06        -0.50237E+08         0.00000E+00
    0.00000E+00         0.00000E+00        -0.50070E+08
 
   -0.50102E+08         0.39483E+06         0.00000E+00
    0.39483E+06        -0.50241E+08         0.00000E+00
    0.00000E+00         0.00000E+00        -0.50069E+08
 
   -0.50091E+08         0.39484E+06         0.00000E+00
    0.39484E+06        -0.50246E+08         0.00000E+00
    0.00000E+00         0.00000E+00        -0.50067E+08
 
   -0.50080E+08         0.39490E+06         0.00000E+00
    0.39490E+06        -0.50251E+08         0.00000E+00
    0.00000E+00         0.00000E+00        -0.50066E+08
 
   -0.50069E+08         0.39505E+06         0.00000E+00
    0.39505E+06        -0.50255E+08         0.00000E+00
    0.00000E+00         0.00000E+00        -0.50065E+08
 
   -0.50740E+08         0.10036E+05         0.00000E+00
    0.10036E+05        -0.50000E+08         0.00000E+00
    0.00000E+00         0.00000E+00        -0.50148E+08
 
   -0.50734E+08         0.29097E+05         0.00000E+00
    0.29097E+05        -0.50000E+08         0.00000E+00
    0.00000E+00         0.00000E+00        -0.50147E+08
 
   -0.50727E+08         0.47692E+05         0.00000E+00
    0.47692E+05        -0.50002E+08         0.00000E+00
    0.00000E+00         0.00000E+00        -0.50146E+08
 
   -0.50720E+08         0.65796E+05         0.00000E+00
    0.65796E+05        -0.50003E+08         0.00000E+00
    0.00000E+00         0.00000E+00        -0.50145E+08
 
   -0.50711E+08         0.83391E+05         0.00000E+00
    0.83391E+05        -0.50005E+08         0.00000E+00
    0.00000E+00         0.00000E+00        -0.50143E+08
 
   -0.50702E+08         0.10046E+06         0.00000E+00
    0.10046E+06        -0.50008E+08         0.00000E+00
    0.00000E+00         0.00000E+00        -0.50142E+08
 
   -0.50691E+08         0.11698E+06         0.00000E+00
    0.11698E+06        -0.50011E+08         0.00000E+00
    0.00000E+00         0.00000E+00        -0.50140E+08
 
   -0.50680E+08         0.13295E+06         0.00000E+00
    0.13295E+06        -0.50014E+08         0.00000E+00
    0.00000E+00         0.00000E+00        -0.50139E+08
 
   -0.50668E+08         0.14835E+06         0.00000E+00
    0.14835E+06        -0.50018E+08         0.00000E+00
    0.00000E+00         0.00000E+00        -0.50137E+08
 
   -0.50656E+08         0.16317E+06         0.00000E+00
    0.16317E+06        -0.50022E+08         0.00000E+00
    0.00000E+00         0.00000E+00        -0.50136E+08
 
   -0.50643E+08         0.17742E+06         0.00000E+00
    0.17742E+06        -0.50026E+08         0.00000E+00
    0.00000E+00         0.00000E+00        -0.50134E+08
 
   -0.50629E+08         0.19108E+06         0.00000E+00
    0.19108E+06        -0.50031E+08         0.00000E+00
    0.00000E+00         0.00000E+00        -0.50132E+08
 
   -0.50615E+08         0.20415E+06         0.00000E+00
    0.20415E+06        -0.50035E+08         0.00000E+00
    0.00000E+00         0.00000E+00        -0.50130E+08
 
   -0.50601E+08         0.21664E+06         0.00000E+00
    0.21664E+06        -0.50040E+08         0.00000E+00
    0.00000E+00         0.00000E+00        -0.50128E+08
 
   -0.50586E+08         0.22854E+06         0.00000E+00
    0.22854E+06        -0.50046E+08         0.00000E+00
    0.00000E+00         0.00000E+00        -0.50126E+08
 
   -0.50570E+08         0.23986E+06         0.00000E+00
    0.23986E+06        -0.50051E+08         0.00000E+00
    0.00000E+00         0.00000E+00        -0.50124E+08
 
   -0.50555E+08         0.25061E+06         0.00000E+00
    0.25061E+06        -0.50057E+08         0.00000E+00
    0.00000E+00         0.00000E+00        -0.50122E+08
 
   -0.50539E+08         0.26078E+06         0.00000E+00
    0.26078E+06        -0.50063E+08         0.00000E+00
    0.00000E+00         0.00000E+00        -0.50120E+08
 
   -0.50523E+08         0.27039E+06         0.00000E+00
    0.27039E+06        -0.50068E+08         0.00000E+00
    0.00000E+00         0.00000E+00        -0.50118E+08
 
   -0.50506E+08         0.27945E+06         0.00000E+00
    0.27945E+06        -0.50074E+08         0.00000E+00
    0.00000E+00         0.00000E+00        -0.50116E+08
 
   -0.50490E+08         0.28796E+06         0.00000E+00
    0.28796E+06        -0.50080E+08         0.00000E+00
    0.00000E+00         0.00000E+00        -0.50114E+08
 
   -0.50473E+08         0.29594E+06         0.00000E+00
    0.29594E+06        -0.50087E+08         0.00000E+00
    0.00000E+00         0.00000E+00        -0.50112E+08
 
   -0.50456E+08         0.30340E+06         0.00000E+00
    0.30340E+06        -0.50093E+08         0.00000E+00
    0.00000E+00         0.00000E+00        -0.50110E+08
 
   -0.50440E+08         0.31035E+06         0.00000E+00
    0.31035E+06        -0.50099E+08         0.00000E+00
    0.00000E+00         0.00000E+00        -0.50108E+08
 
   -0.50423E+08         0.31680E+06         0.00000E+00
    0.31680E+06        -0.50105E+08         0.00000E+00
    0.00000E+00         0.00000E+00        -0.50106E+08
 
   -0.50406E+08         0.32278E+06         0.00000E+00
    0.32278E+06        -0.50112E+08         0.00000E+00
    0.00000E+00         0.00000E+00        -0.50104E+08
 
   -0.50390E+08         0.32829E+06         0.00000E+00
    0.32829E+06        -0.50118E+08         0.00000E+00
    0.00000E+00         0.00000E+00        -0.50102E+08
 
   -0.50373E+08         0.33335E+06         0.00000E+00
    0.33335E+06        -0.50124E+08         0.00000E+00
    0.00000E+00         0.00000E+00        -0.50100E+08
 
   -0.50357E+08         0.33798E+06         0.00000E+00
    0.33798E+06        -0.50131E+08         0.00000E+00
    0.00000E+00         0.00000E+00        -0.50097E+08
 
   -0.50340E+08         0.34220E+06         0.00000E+00
    0.34220E+06        -0.50137E+08         0.00000E+00
    0.00000E+00         0.00000E+00        -0.50095E+08
 
   -0.50324E+08         0.34603E+06         0.00000E+00
    0.34603E+06        -0.50143E+08         0.00000E+00
    0.00000E+00         0.00000E+00        -0.50093E+08
 
   -0.50308E+08         0.34948E+06         0.00000E+00
    0.34948E+06        -0.50149E+08         0.00000E+00
    0.00000E+00         0.00000E+00        -0.50092E+08
 
   -0.50293E+08         0.35257E+06         0.00000E+00
    0.35257E+06        -0.50155E+08         0.00000E+00
    0.00000E+00         0.00000E+00        -0.50090E+08
 
   -0.50277E+08         0.35533E+06         0.00000E+00
    0.35533E+06        -0.50161E+08         0.00000E+00
    0.00000E+00         0.00000E+00        -0.50088E+08
 
   -0.50262E+08         0.35777E+06         0.00000E+00
    0.35777E+06        -0.50167E+08         0.00000E+00
    0.00000E+00         0.00000E+00        -0.50086E+08
 
   -0.50247E+08         0.35993E+06         0.00000E+00
    0.35993E+06        -0.50173E+08         0.00000E+00
    0.00000E+00         0.00000E+00        -0.50084E+08
 
   -0.50232E+08         0.36180E+06         0.00000E+00
    0.36180E+06        -0.50179E+08         0.00000E+00
    0.00000E+00         0.00000E+00        -0.50082E+08
 
   -0.50217E+08         0.36343E+06         0.00000E+00
    0.36343E+06        -0.50185E+08         0.00000E+00
    0.00000E+00         0.00000E+00        -0.50080E+08
 
   -0.50203E+08         0.36483E+06         0.00000E+00
    0.36483E+06        -0.50190E+08         0.00000E+00
    0.00000E+00         0.00000E+00        -0.50079E+08
 
   -0.50189E+08         0.36603E+06         0.00000E+00
    0.36603E+06        -0.50196E+08         0.00000E+00
    0.00000E+00         0.00000E+00        -0.50077E+08
 
   -0.50176E+08         0.36704E+06         0.00000E+00
    0.36704E+06        -0.50201E+08         0.00000E+00
    0.00000E+00         0.00000E+00        -0.50075E+08
 
   -0.50163E+08         0.36790E+06         0.00000E+00
    0.36790E+06        -0.50207E+08         0.00000E+00
    0.00000E+00         0.00000E+00        -0.50074E+08
 
   -0.50150E+08         0.36862E+06         0.00000E+00
    0.36862E+06        -0.50212E+08         0.00000E+00
    0.00000E+00         0.00000E+00        -0.50072E+08
 
   -0.50137E+08         0.36924E+06         0.00000E+00
    0.36924E+06        -0.50217E+08         0.00000E+00
    0.00000E+00         0.00000E+00        -0.50071E+08
 
   -0.50125E+08         0.36977E+06         0.00000E+00
    0.36977E+06        -0.50222E+08         0.00000E+00
    0.00000E+00         0.00000E+00        -0.50069E+08
 
   -0.50113E+08         0.37024E+06         0.00000E+00
    0.37024E+06        -0.50227E+08         0.00000E+00
    0.00000E+00         0.00000E+00        -0.50068E+08
 
   -0.50101E+08         0.37067E+06         0.00000E+00
    0.37067E+06        -0.50232E+08         0.00000E+00
    0.00000E+00         0.00000E+00        -0.50067E+08
 
   -0.50090E+08         0.37109E+06         0.00000E+00
    0.37109E+06        -0.50237E+08         0.00000E+00
    0.00000E+00         0.00000E+00        -0.50065E+08
 
   -0.50078E+08         0.37153E+06         0.00000E+00
    0.37153E+06        -0.50242E+08         0.00000E+00
    0.00000E+00         0.00000E+00        -0.50064E+08
 
   -0.50068E+08         0.37201E+06         0.00000E+00
    0.37201E+06        -0.50247E+08         0.00000E+00
    0.00000E+00         0.00000E+00        -0.50063E+08
 
   -0.50650E+08         0.86207E+04         0.00000E+00
    0.86207E+04        -0.50000E+08         0.00000E+00
    0.00000E+00         0.00000E+00        -0.50130E+08
 
   -0.50646E+08         0.25150E+05         0.00000E+00
    0.25150E+05        -0.50000E+08         0.00000E+00
    0.00000E+00         0.00000E+00        -0.50129E+08
 
   -0.50642E+08         0.41340E+05         0.00000E+00
    0.41340E+05        -0.50001E+08         0.00000E+00
    0.00000E+00         0.00000E+00        -0.50129E+08
 
   -0.50636E+08         0.57168E+05         0.00000E+00
    0.57168E+05        -0.50003E+08         0.00000E+00
    0.00000E+00         0.00000E+00        -0.50128E+08
 
   -0.50630E+08         0.72613E+05         0.00000E+00
    0.72613E+05        -0.50005E+08         0.00000E+00
    0.00000E+00         0.00000E+00        -0.50127E+08
 
   -0.50623E+08         0.87656E+05         0.00000E+00
    0.87656E+05        -0.50007E+08         0.00000E+00
    0.00000E+00         0.00000E+00        -0.50126E+08
 
   -0.50615E+08         0.10228E+06         0.00000E+00
    0.10228E+06        -0.50009E+08         0.00000E+00
    0.00000E+00         0.00000E+00        -0.50125E+08
 
   -0.50606E+08         0.11647E+06         0.00000E+00
    0.11647E+06        -0.50012E+08         0.00000E+00
    0.00000E+00         0.00000E+00        -0.50124E+08
 
   -0.50597E+08         0.13022E+06         0.00000E+00
    0.13022E+06        -0.50016E+08         0.00000E+00
    0.00000E+00         0.00000E+00        -0.50122E+08
 
   -0.50587E+08         0.14351E+06         0.00000E+00
    0.14351E+06        -0.50019E+08         0.00000E+00
    0.00000E+00         0.00000E+00        -0.50121E+08
 
   -0.50576E+08         0.15634E+06         0.00000E+00
    0.15634E+06        -0.50023E+08         0.00000E+00
    0.00000E+00         0.00000E+00        -0.50120E+08
 
   -0.50565E+08         0.16869E+06         0.00000E+00
    0.16869E+06        -0.50027E+08         0.00000E+00
    0.00000E+00         0.00000E+00        -0.50119E+08
 
   -0.50554E+08         0.18058E+06         0.00000E+00
    0.18058E+06        -0.50032E+08         0.00000E+00
    0.00000E+00         0.00000E+00        -0.50117E+08
 
   -0.50542E+08         0.19198E+06         0.00000E+00
    0.19198E+06        -0.50036E+08         0.00000E+00
    0.00000E+00         0.00000E+00        -0.50116E+08
 
   -0.50530E+08         0.20290E+06         0.00000E+00
    0.20290E+06        -0.50041E+08         0.00000E+00
    0.00000E+00         0.00000E+00        -0.50114E+08
 
   -0.50517E+08         0.21334E+06         0.00000E+00
    0.21334E+06        -0.50046E+08         0.00000E+00
    0.00000E+00         0.00000E+00        -0.50113E+08
 
   -0.50504E+08         0.22330E+06         0.00000E+00
    0.22330E+06        -0.50051E+08         0.00000E+00
    0.00000E+00         0.00000E+00        -0.50111E+08
 
   -0.50491E+08         0.23278E+06         0.00000E+00
    0.23278E+06        -0.50057E+08         0.00000E+00
    0.00000E+00         0.00000E+00        -0.50109E+08
 
   -0.50477E+08         0.24179E+06         0.00000E+00
    0.24179E+06        -0.50062E+08         0.00000E+00
    0.00000E+00         0.00000E+00        -0.50108E+08
 
   -0.50463E+08         0.25033E+06         0.00000E+00
    0.25033E+06        -0.50067E+08         0.00000E+00
    0.00000E+00         0.00000E+00        -0.50106E+08
 
   -0.50449E+08         0.25840E+06         0.00000E+00
    0.25840E+06        -0.50073E+08         0.00000E+00
    0.00000E+00         0.00000E+00        -0.50105E+08
 
   -0.50435E+08         0.26602E+06         0.00000E+00
    0.26602E+06        -0.50079E+08         0.00000E+00
    0.00000E+00         0.00000E+00        -0.50103E+08
 
   -0.50421E+08         0.27320E+06         0.00000E+00
    0.27320E+06        -0.50085E+08         0.00000E+00
    0.00000E+00         0.00000E+00        -0.50101E+08
 
   -0.50407E+08         0.27994E+06         0.00000E+00
    0.27994E+06        -0.50091E+08         0.00000E+00
    0.00000E+00         0.00000E+00        -0.50099E+08
 
   -0.50392E+08         0.28624E+06         0.00000E+00
    0.28624E+06        -0.50096E+08         0.00000E+00
    0.00000E+00         0.00000E+00        -0.50098E+08
 
   -0.50378E+08         0.29214E+06         0.00000E+00
    0.29214E+06        -0.50102E+08         0.00000E+00
    0.00000E+00         0.00000E+00        -0.50096E+08
 
   -0.50363E+08         0.29763E+06         0.00000E+00
    0.29763E+06        -0.50108E+08         0.00000E+00
    0.00000E+00         0.00000E+00        -0.50094E+08
 
   -0.50349E+08         0.30272E+06         0.00000E+00
    0.30272E+06        -0.50114E+08         0.00000E+00
    0.00000E+00         0.00000E+00        -0.50093E+08
 
   -0.50334E+08         0.30744E+06         0.00000E+00
    0.30744E+06        -0.50120E+08         0.00000E+00
    0.00000E+00         0.00000E+00        -0.50091E+08
 
   -0.50320E+08         0.31179E+06         0.00000E+00
    0.31179E+06        -0.50126E+08         0.00000E+00
    0.00000E+00         0.00000E+00        -0.50089E+08
 
   -0.50306E+08         0.31579E+06         0.00000E+00
    0.31579E+06        -0.50132E+08         0.00000E+00
    0.00000E+00         0.00000E+00        -0.50088E+08
 
   -0.50291E+08         0.31946E+06         0.00000E+00
    0.31946E+06        -0.50138E+08         0.00000E+00
    0.00000E+00         0.00000E+00        -0.50086E+08
 
   -0.50277E+08         0.32281E+06         0.00000E+00
    0.32281E+06        -0.50144E+08         0.00000E+00
    0.00000E+00         0.00000E+00        -0.50084E+08
 
   -0.50263E+08         0.32585E+06         0.00000E+00
    0.32585E+06        -0.50150E+08         0.00000E+00
    0.00000E+00         0.00000E+00        -0.50083E+08
 
   -0.50249E+08         0.32861E+06         0.00000E+00
    0.32861E+06        -0.50155E+08         0.00000E+00
    0.00000E+00         0.00000E+00        -0.50081E+08
 
   -0.50236E+08         0.33110E+06         0.00000E+00
    0.33110E+06        -0.50161E+08         0.00000E+00
    0.00000E+00         0.00000E+00        -0.50079E+08
 
   -0.50222E+08         0.33335E+06         0.00000E+00
    0.33335E+06        -0.50167E+08         0.00000E+00
    0.00000E+00         0.00000E+00        -0.50078E+08
 
   -0.50209E+08         0.33535E+06         0.00000E+00
    0.33535E+06        -0.50172E+08         0.00000E+00
    0.00000E+00         0.00000E+00        -0.50076E+08
 
   -0.50196E+08         0.33715E+06         0.00000E+00
    0.33715E+06        -0.50178E+08         0.00000E+00
    0.00000E+00         0.00000E+00        -0.50075E+08
 
   -0.50183E+08         0.33874E+06         0.00000E+00
    0.33874E+06        -0.50183E+08         0.00000E+00
    0.00000E+00         0.00000E+00        -0.50073E+08
 
   -0.50170E+08         0.34016E+06         0.00000E+00
    0.34016E+06        -0.50189E+08         0.00000E+00
    0.00000E+00         0.00000E+00        -0.50072E+08
 
   -0.50158E+08         0.34142E+06         0.00000E+00
    0.34142E+06        -0.50194E+08         0.00000E+00
    0.00000E+00         0.00000E+00        -0.50070E+08
 
   -0.50145E+08         0.34255E+06         0.00000E+00
    0.34255E+06        -0.50199E+08         0.00000E+00
    0.00000E+00         0.00000E+00        -0.50069E+08
 
   -0.50133E+08         0.34355E+06         0.00000E+00
    0.34355E+06        -0.50204E+08         0.00000E+00
    0.00000E+00         0.00000E+00        -0.50067E+08
 
   -0.50121E+08         0.34446E+06         0.00000E+00
    0.34446E+06        -0.50209E+08         0.00000E+00
    0.00000E+00         0.00000E+00        -0.50066E+08
 
   -0.50109E+08         0.34528E+06         0.00000E+00
    0.34528E+06        -0.50214E+08         0.00000E+00
    0.00000E+00         0.00000E+00        -0.50065E+08
 
   -0.50098E+08         0.34605E+06         0.00000E+00
    0.34605E+06        -0.50219E+08         0.00000E+00
    0.00000E+00         0.00000E+00        -0.50063E+08
 
   -0.50087E+08         0.34677E+06         0.00000E+00
    0.34677E+06        -0.50224E+08         0.00000E+00
    0.00000E+00         0.00000E+00        -0.50062E+08
 
   -0.50075E+08         0.34747E+06         0.00000E+00
    0.34747E+06        -0.50229E+08         0.00000E+00
    0.00000E+00         0.00000E+00        -0.50061E+08
 
   -0.50065E+08         0.34816E+06         0.00000E+00
    0.34816E+06        -0.50234E+08         0.00000E+00
    0.00000E+00         0.00000E+00        -0.50060E+08
 
   -0.50572E+08         0.74020E+04         0.00000E+00
    0.74020E+04        -0.50000E+08         0.00000E+00
    0.00000E+00         0.00000E+00        -0.50114E+08
 
   -0.50570E+08         0.21718E+05         0.00000E+00
    0.21718E+05        -0.50000E+08         0.00000E+00
    0.00000E+00         0.00000E+00        -0.50114E+08
 
   -0.50567E+08         0.35792E+05         0.00000E+00
    0.35792E+05        -0.50001E+08         0.00000E+00
    0.00000E+00         0.00000E+00        -0.50114E+08
 
   -0.50563E+08         0.49604E+05         0.00000E+00
    0.49604E+05        -0.50002E+08         0.00000E+00
    0.00000E+00         0.00000E+00        -0.50113E+08
 
   -0.50558E+08         0.63133E+05         0.00000E+00
    0.63133E+05        -0.50004E+08         0.00000E+00
    0.00000E+00         0.00000E+00        -0.50112E+08
 
   -0.50553E+08         0.76361E+05         0.00000E+00
    0.76361E+05        -0.50006E+08         0.00000E+00
    0.00000E+00         0.00000E+00        -0.50112E+08
 
   -0.50547E+08         0.89270E+05         0.00000E+00
    0.89270E+05        -0.50008E+08         0.00000E+00
    0.00000E+00         0.00000E+00        -0.50111E+08
 
   -0.50540E+08         0.10185E+06         0.00000E+00
    0.10185E+06        -0.50011E+08         0.00000E+00
    0.00000E+00         0.00000E+00        -0.50110E+08
 
   -0.50533E+08         0.11408E+06         0.00000E+00
    0.11408E+06        -0.50014E+08         0.00000E+00
    0.00000E+00         0.00000E+00        -0.50109E+08
 
   -0.50525E+08         0.12595E+06         0.00000E+00
    0.12595E+06        -0.50017E+08         0.00000E+00
    0.00000E+00         0.00000E+00        -0.50108E+08
 
   -0.50517E+08         0.13745E+06         0.00000E+00
    0.13745E+06        -0.50020E+08         0.00000E+00
    0.00000E+00         0.00000E+00        -0.50107E+08
 
   -0.50508E+08         0.14858E+06         0.00000E+00
    0.14858E+06        -0.50024E+08         0.00000E+00
    0.00000E+00         0.00000E+00        -0.50106E+08
 
   -0.50499E+08         0.15933E+06         0.00000E+00
    0.15933E+06        -0.50028E+08         0.00000E+00
    0.00000E+00         0.00000E+00        -0.50105E+08
 
   -0.50489E+08         0.16969E+06         0.00000E+00
    0.16969E+06        -0.50032E+08         0.00000E+00
    0.00000E+00         0.00000E+00        -0.50104E+08
 
   -0.50479E+08         0.17966E+06         0.00000E+00
    0.17966E+06        -0.50036E+08         0.00000E+00
    0.00000E+00         0.00000E+00        -0.50103E+08
 
   -0.50468E+08         0.18923E+06         0.00000E+00
    0.18923E+06        -0.50041E+08         0.00000E+00
    0.00000E+00         0.00000E+00        -0.50102E+08
 
   -0.50457E+08         0.19841E+06         0.00000E+00
    0.19841E+06        -0.50046E+08         0.00000E+00
    0.00000E+00         0.00000E+00        -0.50101E+08
 
   -0.50446E+08         0.20719E+06         0.00000E+00
    0.20719E+06        -0.50050E+08         0.00000E+00
    0.00000E+00         0.00000E+00        -0.50099E+08
 
   -0.50435E+08         0.21558E+06         0.00000E+00
    0.21558E+06        -0.50055E+08         0.00000E+00
    0.00000E+00         0.00000E+00        -0.50098E+08
 
   -0.50423E+08         0.22357E+06         0.00000E+00
    0.22357E+06        -0.50060E+08         0.00000E+00
    0.00000E+00         0.00000E+00        -0.50097E+08
 
   -0.50411E+08         0.23118E+06         0.00000E+00
    0.23118E+06        -0.50065E+08         0.00000E+00
    0.00000E+00         0.00000E+00        -0.50095E+08
 
   -0.50399E+08         0.23840E+06         0.00000E+00
    0.23840E+06        -0.50071E+08         0.00000E+00
    0.00000E+00         0.00000E+00        -0.50094E+08
 
   -0.50387E+08         0.24524E+06         0.00000E+00
    0.24524E+06        -0.50076E+08         0.00000E+00
    0.00000E+00         0.00000E+00        -0.50093E+08
 
   -0.50375E+08         0.25170E+06         0.00000E+00
    0.25170E+06        -0.50081E+08         0.00000E+00
    0.00000E+00         0.00000E+00        -0.50091E+08
 
   -0.50362E+08         0.25780E+06         0.00000E+00
    0.25780E+06        -0.50087E+08         0.00000E+00
    0.00000E+00         0.00000E+00        -0.50090E+08
 
   -0.50350E+08         0.26355E+06         0.00000E+00
    0.26355E+06        -0.50092E+08         0.00000E+00
    0.00000E+00         0.00000E+00        -0.50088E+08
 
   -0.50337E+08         0.26894E+06         0.00000E+00
    0.26894E+06        -0.50098E+08         0.00000E+00
    0.00000E+00         0.00000E+00        -0.50087E+08
 
   -0.50324E+08         0.27399E+06         0.00000E+00
    0.27399E+06        -0.50103E+08         0.00000E+00
    0.00000E+00         0.00000E+00        -0.50086E+08
 
   -0.50311E+08         0.27871E+06         0.00000E+00
    0.27871E+06        -0.50109E+08         0.00000E+00
    0.00000E+00         0.00000E+00        -0.50084E+08
 
   -0.50299E+08         0.28311E+06         0.00000E+00
    0.28311E+06        -0.50115E+08         0.00000E+00
    0.00000E+00         0.00000E+00        -0.50083E+08
 
   -0.50286E+08         0.28720E+06         0.00000E+00
    0.28720E+06        -0.50120E+08         0.00000E+00
    0.00000E+00         0.00000E+00        -0.50081E+08
 
   -0.50273E+08         0.29099E+06         0.00000E+00
    0.29099E+06        -0.50126E+08         0.00000E+00
    0.00000E+00         0.00000E+00        -0.50080E+08
 
   -0.50261E+08         0.29450E+06         0.00000E+00
    0.29450E+06        -0.50131E+08         0.00000E+00
    0.00000E+00         0.00000E+00        -0.50078E+08
 
   -0.50248E+08         0.29773E+06         0.00000E+00
    0.29773E+06        -0.50137E+08         0.00000E+00
    0.00000E+00         0.00000E+00        -0.50077E+08
 
   -0.50236E+08         0.30071E+06         0.00000E+00
    0.30071E+06        -0.50142E+08         0.00000E+00
    0.00000E+00         0.00000E+00        -0.50076E+08
 
   -0.50223E+08         0.30344E+06         0.00000E+00
    0.30344E+06        -0.50147E+08         0.00000E+00
    0.00000E+00         0.00000E+00        -0.50074E+08
 
   -0.50211E+08         0.30594E+06         0.00000E+00
    0.30594E+06        -0.50153E+08         0.00000E+00
    0.00000E+00         0.00000E+00        -0.50073E+08
 
   -0.50199E+08         0.30823E+06         0.00000E+00
    0.30823E+06        -0.50158E+08         0.00000E+00
    0.00000E+00         0.00000E+00        -0.50071E+08
 
   -0.50186E+08         0.31031E+06         0.00000E+00
    0.31031E+06        -0.50163E+08         0.00000E+00
    0.00000E+00         0.00000E+00        -0.50070E+08
 
   -0.50174E+08         0.31220E+06         0.00000E+00
    0.31220E+06        -0.50169E+08         0.00000E+00
    0.00000E+00         0.00000E+00        -0.50069E+08
 
   -0.50163E+08         0.31392E+06         0.00000E+00
    0.31392E+06        -0.50174E+08         0.00000E+00
    0.00000E+00         0.00000E+00        -0.50067E+08
 
   -0.50151E+08         0.31548E+06         0.00000E+00
    0.31548E+06        -0.50179E+08         0.00000E+00
    0.00000E+00         0.00000E+00        -0.50066E+08
 
   -0.50139E+08         0.31690E+06         0.00000E+00
    0.31690E+06        -0.50184E+08         0.00000E+00
    0.00000E+00         0.00000E+00        -0.50065E+08
 
   -0.50128E+08         0.31819E+06         0.00000E+00
    0.31819E+06        -0.50189E+08         0.00000E+00
    0.00000E+00         0.00000E+00        -0.50063E+08
 
   -0.50116E+08         0.31937E+06         0.00000E+00
    0.31937E+06        -0.50194E+08         0.00000E+00
    0.00000E+00         0.00000E+00        -0.50062E+08
 
   -0.50105E+08         0.32045E+06         0.00000E+00
    0.32045E+06        -0.50199E+08         0.00000E+00
    0.00000E+00         0.00000E+00        -0.50061E+08
 
   -0.50094E+08         0.32145E+06         0.00000E+00
    0.32145E+06        -0.50204E+08         0.00000E+00
    0.00000E+00         0.00000E+00        -0.50060E+08
 
   -0.50083E+08         0.32238E+06         0.00000E+00
    0.32238E+06        -0.50209E+08         0.00000E+00
    0.00000E+00         0.00000E+00        -0.50058E+08
 
   -0.50072E+08         0.32325E+06         0.00000E+00
    0.32325E+06        -0.50214E+08         0.00000E+00
    0.00000E+00         0.00000E+00        -0.50057E+08
 
   -0.50061E+08         0.32408E+06         0.00000E+00
    0.32408E+06        -0.50218E+08         0.00000E+00
    0.00000E+00         0.00000E+00        -0.50056E+08
 
   -0.50505E+08         0.63627E+04         0.00000E+00
    0.63627E+04        -0.50000E+08         0.00000E+00
    0.00000E+00         0.00000E+00        -0.50101E+08
 
   -0.50504E+08         0.18765E+05         0.00000E+00
    0.18765E+05        -0.50000E+08         0.00000E+00
    0.00000E+00         0.00000E+00        -0.50101E+08
 
   -0.50502E+08         0.31000E+05         0.00000E+00
    0.31000E+05        -0.50001E+08         0.00000E+00
    0.00000E+00         0.00000E+00        -0.50101E+08
 
   -0.50499E+08         0.43049E+05         0.00000E+00
    0.43049E+05        -0.50002E+08         0.00000E+00
    0.00000E+00         0.00000E+00        -0.50100E+08
 
   -0.50495E+08         0.54891E+05         0.00000E+00
    0.54891E+05        -0.50003E+08         0.00000E+00
    0.00000E+00         0.00000E+00        -0.50100E+08
 
   -0.50491E+08         0.66510E+05         0.00000E+00
    0.66510E+05        -0.50005E+08         0.00000E+00
    0.00000E+00         0.00000E+00        -0.50099E+08
 
   -0.50487E+08         0.77889E+05         0.00000E+00
    0.77889E+05        -0.50007E+08         0.00000E+00
    0.00000E+00         0.00000E+00        -0.50099E+08
 
   -0.50482E+08         0.89015E+05         0.00000E+00
    0.89015E+05        -0.50009E+08         0.00000E+00
    0.00000E+00         0.00000E+00        -0.50098E+08
 
   -0.50476E+08         0.99875E+05         0.00000E+00
    0.99875E+05        -0.50012E+08         0.00000E+00
    0.00000E+00         0.00000E+00        -0.50098E+08
 
   -0.50470E+08         0.11046E+06         0.00000E+00
    0.11046E+06        -0.50015E+08         0.00000E+00
    0.00000E+00         0.00000E+00        -0.50097E+08
 
   -0.50463E+08         0.12075E+06         0.00000E+00
    0.12075E+06        -0.50018E+08         0.00000E+00
    0.00000E+00         0.00000E+00        -0.50096E+08
 
   -0.50456E+08         0.13074E+06         0.00000E+00
    0.13074E+06        -0.50021E+08         0.00000E+00
    0.00000E+00         0.00000E+00        -0.50095E+08
 
   -0.50448E+08         0.14043E+06         0.00000E+00
    0.14043E+06        -0.50024E+08         0.00000E+00
    0.00000E+00         0.00000E+00        -0.50095E+08
 
   -0.50440E+08         0.14981E+06         0.00000E+00
    0.14981E+06        -0.50028E+08         0.00000E+00
    0.00000E+00         0.00000E+00        -0.50094E+08
 
   -0.50432E+08         0.15888E+06         0.00000E+00
    0.15888E+06        -0.50032E+08         0.00000E+00
    0.00000E+00         0.00000E+00        -0.50093E+08
 
   -0.50423E+08         0.16762E+06         0.00000E+00
    0.16762E+06        -0.50036E+08         0.00000E+00
    0.00000E+00         0.00000E+00        -0.50092E+08
 
   -0.50414E+08         0.17604E+06         0.00000E+00
    0.17604E+06        -0.50040E+08         0.00000E+00
    0.00000E+00         0.00000E+00        -0.50091E+08
 
   -0.50405E+08         0.18413E+06         0.00000E+00
    0.18413E+06        -0.50044E+08         0.00000E+00
    0.00000E+00         0.00000E+00        -0.50090E+08
 
   -0.50395E+08         0.19189E+06         0.00000E+00
    0.19189E+06        -0.50049E+08         0.00000E+00
    0.00000E+00         0.00000E+00        -0.50089E+08
 
   -0.50385E+08         0.19933E+06         0.00000E+00
    0.19933E+06        -0.50053E+08         0.00000E+00
    0.00000E+00         0.00000E+00        -0.50088E+08
 
   -0.50375E+08         0.20645E+06         0.00000E+00
    0.20645E+06        -0.50058E+08         0.00000E+00
    0.00000E+00         0.00000E+00        -0.50087E+08
 
   -0.50365E+08         0.21324E+06         0.00000E+00
    0.21324E+06        -0.50063E+08         0.00000E+00
    0.00000E+00         0.00000E+00        -0.50086E+08
 
   -0.50355E+08         0.21971E+06         0.00000E+00
    0.21971E+06        -0.50068E+08         0.00000E+00
    0.00000E+00         0.00000E+00        -0.50084E+08
 
   -0.50344E+08         0.22586E+06         0.00000E+00
    0.22586E+06        -0.50072E+08         0.00000E+00
    0.00000E+00         0.00000E+00        -0.50083E+08
 
   -0.50333E+08         0.23170E+06         0.00000E+00
    0.23170E+06        -0.50077E+08         0.00000E+00
    0.00000E+00         0.00000E+00        -0.50082E+08
 
   -0.50322E+08         0.23723E+06         0.00000E+00
    0.23723E+06        -0.50082E+08         0.00000E+00
    0.00000E+00         0.00000E+00        -0.50081E+08
 
   -0.50311E+08         0.24247E+06         0.00000E+00
    0.24247E+06        -0.50087E+08         0.00000E+00
    0.00000E+00         0.00000E+00        -0.50080E+08
 
   -0.50300E+08         0.24740E+06         0.00000E+00
    0.24740E+06        -0.50093E+08         0.00000E+00
    0.00000E+00         0.00000E+00        -0.50079E+08
 
   -0.50289E+08         0.25205E+06         0.00000E+00
    0.25205E+06        -0.50098E+08         0.00000E+00
    0.00000E+00         0.00000E+00        -0.50077E+08
 
   -0.50278E+08         0.25642E+06         0.00000E+00
    0.25642E+06        -0.50103E+08         0.00000E+00
    0.00000E+00         0.00000E+00        -0.50076E+08
 
   -0.50266E+08         0.26052E+06         0.00000E+00
    0.26052E+06        -0.50108E+08         0.00000E+00
    0.00000E+00         0.00000E+00        -0.50075E+08
 
   -0.50255E+08         0.26435E+06         0.00000E+00
    0.26435E+06        -0.50113E+08         0.00000E+00
    0.00000E+00         0.00000E+00        -0.50074E+08
 
   -0.50244E+08         0.26793E+06         0.00000E+00
    0.26793E+06        -0.50118E+08         0.00000E+00
    0.00000E+00         0.00000E+00        -0.50072E+08
 
   -0.50232E+08         0.27127E+06         0.00000E+00
    0.27127E+06        -0.50123E+08         0.00000E+00
    0.00000E+00         0.00000E+00        -0.50071E+08
 
   -0.50221E+08         0.27437E+06         0.00000E+00
    0.27437E+06        -0.50128E+08         0.00000E+00
    0.00000E+00         0.00000E+00        -0.50070E+08
 
   -0.50210E+08         0.27725E+06         0.00000E+00
    0.27725E+06        -0.50134E+08         0.00000E+00
    0.00000E+00         0.00000E+00        -0.50069E+08
 
   -0.50198E+08         0.27992E+06         0.00000E+00
    0.27992E+06        -0.50139E+08         0.00000E+00
    0.00000E+00         0.00000E+00        -0.50067E+08
 
   -0.50187E+08         0.28238E+06         0.00000E+00
    0.28238E+06        -0.50144E+08         0.00000E+00
    0.00000E+00         0.00000E+00        -0.50066E+08
 
   -0.50176E+08         0.28465E+06         0.00000E+00
    0.28465E+06        -0.50149E+08         0.00000E+00
    0.00000E+00         0.00000E+00        -0.50065E+08
 
   -0.50165E+08         0.28674E+06         0.00000E+00
    0.28674E+06        -0.50154E+08         0.00000E+00
    0.00000E+00         0.00000E+00        -0.50064E+08
 
   -0.50154E+08         0.28867E+06         0.00000E+00
    0.28867E+06        -0.50159E+08         0.00000E+00
    0.00000E+00         0.00000E+00        -0.50062E+08
 
   -0.50143E+08         0.29043E+06         0.00000E+00
    0.29043E+06        -0.50163E+08         0.00000E+00
    0.00000E+00         0.00000E+00        -0.50061E+08
 
   -0.50132E+08         0.29205E+06         0.00000E+00
    0.29205E+06        -0.50168E+08         0.00000E+00
    0.00000E+00         0.00000E+00        -0.50060E+08
 
   -0.50121E+08         0.29354E+06         0.00000E+00
    0.29354E+06        -0.50173E+08         0.00000E+00
    0.00000E+00         0.00000E+00        -0.50059E+08
 
   -0.50110E+08         0.29490E+06         0.00000E+00
    0.29490E+06        -0.50178E+08         0.00000E+00
    0.00000E+00         0.00000E+00        -0.50058E+08
 
   -0.50099E+08         0.29615E+06         0.00000E+00
    0.29615E+06        -0.50183E+08         0.00000E+00
    0.00000E+00         0.00000E+00        -0.50056E+08
 
   -0.50088E+08         0.29730E+06         0.00000E+00
    0.29730E+06        -0.50188E+08         0.00000E+00
    0.00000E+00         0.00000E+00        -0.50055E+08
 
   -0.50078E+08         0.29835E+06         0.00000E+00
    0.29835E+06        -0.50192E+08         0.00000E+00
    0.00000E+00         0.00000E+00        -0.50054E+08
 
   -0.50067E+08         0.29933E+06         0.00000E+00
    0.29933E+06        -0.50197E+08         0.00000E+00
    0.00000E+00         0.00000E+00        -0.50053E+08
 
   -0.50056E+08         0.30024E+06         0.00000E+00
    0.30024E+06        -0.50202E+08         0.00000E+00
    0.00000E+00         0.00000E+00        -0.50052E+08
 
   -0.50447E+08         0.54826E+04         0.00000E+00
    0.54826E+04        -0.50000E+08         0.00000E+00
    0.00000E+00         0.00000E+00        -0.50089E+08
 
   -0.50446E+08         0.16244E+05         0.00000E+00
    0.16244E+05        -0.50000E+08         0.00000E+00
    0.00000E+00         0.00000E+00        -0.50089E+08
 
   -0.50445E+08         0.26894E+05         0.00000E+00
    0.26894E+05        -0.50001E+08         0.00000E+00
    0.00000E+00         0.00000E+00        -0.50089E+08
 
   -0.50443E+08         0.37412E+05         0.00000E+00
    0.37412E+05        -0.50002E+08         0.00000E+00
    0.00000E+00         0.00000E+00        -0.50089E+08
 
   -0.50440E+08         0.47784E+05         0.00000E+00
    0.47784E+05        -0.50003E+08         0.00000E+00
    0.00000E+00         0.00000E+00        -0.50089E+08
 
   -0.50437E+08         0.57991E+05         0.00000E+00
    0.57991E+05        -0.50004E+08         0.00000E+00
    0.00000E+00         0.00000E+00        -0.50088E+08
 
   -0.50434E+08         0.68021E+05         0.00000E+00
    0.68021E+05        -0.50006E+08         0.00000E+00
    0.00000E+00         0.00000E+00        -0.50088E+08
 
   -0.50430E+08         0.77860E+05         0.00000E+00
    0.77860E+05        -0.50008E+08         0.00000E+00
    0.00000E+00         0.00000E+00        -0.50088E+08
 
   -0.50425E+08         0.87495E+05         0.00000E+00
    0.87495E+05        -0.50010E+08         0.00000E+00
    0.00000E+00         0.00000E+00        -0.50087E+08
 
   -0.50420E+08         0.96915E+05         0.00000E+00
    0.96915E+05        -0.50013E+08         0.00000E+00
    0.00000E+00         0.00000E+00        -0.50087E+08
 
   -0.50415E+08         0.10611E+06         0.00000E+00
    0.10611E+06        -0.50015E+08         0.00000E+00
    0.00000E+00         0.00000E+00        -0.50086E+08
 
   -0.50409E+08         0.11507E+06         0.00000E+00
    0.11507E+06        -0.50018E+08         0.00000E+00
    0.00000E+00         0.00000E+00        -0.50085E+08
 
   -0.50403E+08         0.12379E+06         0.00000E+00
    0.12379E+06        -0.50021E+08         0.00000E+00
    0.00000E+00         0.00000E+00        -0.50085E+08
 
   -0.50396E+08         0.13226E+06         0.00000E+00
    0.13226E+06        -0.50024E+08         0.00000E+00
    0.00000E+00         0.00000E+00        -0.50084E+08
 
   -0.50390E+08         0.14048E+06         0.00000E+00
    0.14048E+06        -0.50028E+08         0.00000E+00
    0.00000E+00         0.00000E+00        -0.50083E+08
 
   -0.50382E+08         0.14844E+06         0.00000E+00
    0.14844E+06        -0.50031E+08         0.00000E+00
    0.00000E+00         0.00000E+00        -0.50083E+08
 
   -0.50375E+08         0.15613E+06         0.00000E+00
    0.15613E+06        -0.50035E+08         0.00000E+00
    0.00000E+00         0.00000E+00        -0.50082E+08
 
   -0.50367E+08         0.16355E+06         0.00000E+00
    0.16355E+06        -0.50039E+08         0.00000E+00
    0.00000E+00         0.00000E+00        -0.50081E+08
 
   -0.50359E+08         0.17071E+06         0.00000E+00
    0.17071E+06        -0.50043E+08         0.00000E+00
    0.00000E+00         0.00000E+00        -0.50080E+08
 
   -0.50350E+08         0.17760E+06         0.00000E+00
    0.17760E+06        -0.50047E+08         0.00000E+00
    0.00000E+00         0.00000E+00        -0.50079E+08
 
   -0.50342E+08         0.18422E+06         0.00000E+00
    0.18422E+06        -0.50051E+08         0.00000E+00
    0.00000E+00         0.00000E+00        -0.50079E+08
 
   -0.50333E+08         0.19056E+06         0.00000E+00
    0.19056E+06        -0.50055E+08         0.00000E+00
    0.00000E+00         0.00000E+00        -0.50078E+08
 
   -0.50324E+08         0.19664E+06         0.00000E+00
    0.19664E+06        -0.50060E+08         0.00000E+00
    0.00000E+00         0.00000E+00        -0.50077E+08
 
   -0.50315E+08         0.20245E+06         0.00000E+00
    0.20245E+06        -0.50064E+08         0.00000E+00
    0.00000E+00         0.00000E+00        -0.50076E+08
 
   -0.50305E+08         0.20799E+06         0.00000E+00
    0.20799E+06        -0.50068E+08         0.00000E+00
    0.00000E+00         0.00000E+00        -0.50075E+08
 
   -0.50296E+08         0.21327E+06         0.00000E+00
    0.21327E+06        -0.50073E+08         0.00000E+00
    0.00000E+00         0.00000E+00        -0.50074E+08
 
   -0.50286E+08         0.21829E+06         0.00000E+00
    0.21829E+06        -0.50078E+08         0.00000E+00
    0.00000E+00         0.00000E+00        -0.50073E+08
 
   -0.50276E+08         0.22306E+06         0.00000E+00
    0.22306E+06        -0.50082E+08         0.00000E+00
    0.00000E+00         0.00000E+00        -0.50072E+08
 
   -0.50266E+08         0.22758E+06         0.00000E+00
    0.22758E+06        -0.50087E+08         0.00000E+00
    0.00000E+00         0.00000E+00        -0.50071E+08
 
   -0.50257E+08         0.23185E+06         0.00000E+00
    0.23185E+06        -0.50092E+08         0.00000E+00
    0.00000E+00         0.00000E+00        -0.50070E+08
 
   -0.50247E+08         0.23589E+06         0.00000E+00
    0.23589E+06        -0.50096E+08         0.00000E+00
    0.00000E+00         0.00000E+00        -0.50069E+08
 
   -0.50236E+08         0.23969E+06         0.00000E+00
    0.23969E+06        -0.50101E+08         0.00000E+00
    0.00000E+00         0.00000E+00        -0.50067E+08
 
   -0.50226E+08         0.24327E+06         0.00000E+00
    0.24327E+06        -0.50106E+08         0.00000E+00
    0.00000E+00         0.00000E+00        -0.50066E+08
 
   -0.50216E+08         0.24663E+06         0.00000E+00
    0.24663E+06        -0.50110E+08         0.00000E+00
    0.00000E+00         0.00000E+00        -0.50065E+08
 
   -0.50206E+08         0.24978E+06         0.00000E+00
    0.24978E+06        -0.50115E+08         0.00000E+00
    0.00000E+00         0.00000E+00        -0.50064E+08
 
   -0.50196E+08         0.25272E+06         0.00000E+00
    0.25272E+06        -0.50120E+08         0.00000E+00
    0.00000E+00         0.00000E+00        -0.50063E+08
 
   -0.50185E+08         0.25546E+06         0.00000E+00
    0.25546E+06        -0.50125E+08         0.00000E+00
    0.00000E+00         0.00000E+00        -0.50062E+08
 
   -0.50175E+08         0.25802E+06         0.00000E+00
    0.25802E+06        -0.50129E+08         0.00000E+00
    0.00000E+00         0.00000E+00        -0.50061E+08
 
   -0.50165E+08         0.26040E+06         0.00000E+00
    0.26040E+06        -0.50134E+08         0.00000E+00
    0.00000E+00         0.00000E+00        -0.50060E+08
 
   -0.50155E+08         0.26261E+06         0.00000E+00
    0.26261E+06        -0.50139E+08         0.00000E+00
    0.00000E+00         0.00000E+00        -0.50059E+08
 
   -0.50144E+08         0.26465E+06         0.00000E+00
    0.26465E+06        -0.50143E+08         0.00000E+00
    0.00000E+00         0.00000E+00        -0.50058E+08
 
   -0.50134E+08         0.26653E+06         0.00000E+00
    0.26653E+06        -0.50148E+08         0.00000E+00
    0.00000E+00         0.00000E+00        -0.50056E+08
 
   -0.50124E+08         0.26827E+06         0.00000E+00
    0.26827E+06        -0.50153E+08         0.00000E+00
    0.00000E+00         0.00000E+00        -0.50055E+08
 
   -0.50113E+08         0.26988E+06         0.00000E+00
    0.26988E+06        -0.50157E+08         0.00000E+00
    0.00000E+00         0.00000E+00        -0.50054E+08
 
   -0.50103E+08         0.27135E+06         0.00000E+00
    0.27135E+06        -0.50162E+08         0.00000E+00
    0.00000E+00         0.00000E+00        -0.50053E+08
 
   -0.50093E+08         0.27269E+06         0.00000E+00
    0.27269E+06        -0.50167E+08         0.00000E+00
    0.00000E+00         0.00000E+00        -0.50052E+08
 
   -0.50083E+08         0.27393E+06         0.00000E+00
    0.27393E+06        -0.50171E+08         0.00000E+00
    0.00000E+00         0.00000E+00        -0.50051E+08
 
   -0.50072E+08         0.27505E+06         0.00000E+00
    0.27505E+06        -0.50176E+08         0.00000E+00
    0.00000E+00         0.00000E+00        -0.50050E+08
 
   -0.50062E+08         0.27608E+06         0.00000E+00
    0.27608E+06        -0.50180E+08         0.00000E+00
    0.00000E+00         0.00000E+00        -0.50048E+08
 
   -0.50052E+08         0.27701E+06         0.00000E+00
    0.27701E+06        -0.50185E+08         0.00000E+00
    0.00000E+00         0.00000E+00        -0.50047E+08
 
   -0.50396E+08         0.47409E+04         0.00000E+00
    0.47409E+04        -0.50000E+08         0.00000E+00
    0.00000E+00         0.00000E+00        -0.50079E+08
 
   -0.50396E+08         0.14104E+05         0.00000E+00
    0.14104E+05        -0.50000E+08         0.00000E+00
    0.00000E+00         0.00000E+00        -0.50079E+08
 
   -0.50395E+08         0.23393E+05         0.00000E+00
    0.23393E+05        -0.50001E+08         0.00000E+00
    0.00000E+00         0.00000E+00        -0.50079E+08
 
   -0.50394E+08         0.32594E+05         0.00000E+00
    0.32594E+05        -0.50001E+08         0.00000E+00
    0.00000E+00         0.00000E+00        -0.50079E+08
 
   -0.50392E+08         0.41691E+05         0.00000E+00
    0.41691E+05        -0.50002E+08         0.00000E+00
    0.00000E+00         0.00000E+00        -0.50079E+08
 
   -0.50390E+08         0.50670E+05         0.00000E+00
    0.50670E+05        -0.50004E+08         0.00000E+00
    0.00000E+00         0.00000E+00        -0.50079E+08
 
   -0.50387E+08         0.59518E+05         0.00000E+00
    0.59518E+05        -0.50005E+08         0.00000E+00
    0.00000E+00         0.00000E+00        -0.50078E+08
 
   -0.50384E+08         0.68223E+05         0.00000E+00
    0.68223E+05        -0.50007E+08         0.00000E+00
    0.00000E+00         0.00000E+00        -0.50078E+08
 
   -0.50380E+08         0.76773E+05         0.00000E+00
    0.76773E+05        -0.50009E+08         0.00000E+00
    0.00000E+00         0.00000E+00        -0.50078E+08
 
   -0.50376E+08         0.85158E+05         0.00000E+00
    0.85158E+05        -0.50011E+08         0.00000E+00
    0.00000E+00         0.00000E+00        -0.50077E+08
 
   -0.50372E+08         0.93369E+05         0.00000E+00
    0.93369E+05        -0.50013E+08         0.00000E+00
    0.00000E+00         0.00000E+00        -0.50077E+08
 
   -0.50367E+08         0.10140E+06         0.00000E+00
    0.10140E+06        -0.50016E+08         0.00000E+00
    0.00000E+00         0.00000E+00        -0.50077E+08
 
   -0.50362E+08         0.10923E+06         0.00000E+00
    0.10923E+06        -0.50018E+08         0.00000E+00
    0.00000E+00         0.00000E+00        -0.50076E+08
 
   -0.50357E+08         0.11687E+06         0.00000E+00
    0.11687E+06        -0.50021E+08         0.00000E+00
    0.00000E+00         0.00000E+00        -0.50076E+08
 
   -0.50351E+08         0.12431E+06         0.00000E+00
    0.12431E+06        -0.50024E+08         0.00000E+00
    0.00000E+00         0.00000E+00        -0.50075E+08
 
   -0.50345E+08         0.13153E+06         0.00000E+00
    0.13153E+06        -0.50027E+08         0.00000E+00
    0.00000E+00         0.00000E+00        -0.50074E+08
 
   -0.50339E+08         0.13854E+06         0.00000E+00
    0.13854E+06        -0.50030E+08         0.00000E+00
    0.00000E+00         0.00000E+00        -0.50074E+08
 
   -0.50332E+08         0.14534E+06         0.00000E+00
    0.14534E+06        -0.50034E+08         0.00000E+00
    0.00000E+00         0.00000E+00        -0.50073E+08
 
   -0.50325E+08         0.15191E+06         0.00000E+00
    0.15191E+06        -0.50037E+08         0.00000E+00
    0.00000E+00         0.00000E+00        -0.50072E+08
 
   -0.50318E+08         0.15826E+06         0.00000E+00
    0.15826E+06        -0.50041E+08         0.00000E+00
    0.00000E+00         0.00000E+00        -0.50072E+08
 
   -0.50310E+08         0.16438E+06         0.00000E+00
    0.16438E+06        -0.50044E+08         0.00000E+00
    0.00000E+00         0.00000E+00        -0.50071E+08
 
   -0.50303E+08         0.17028E+06         0.00000E+00
    0.17028E+06        -0.50048E+08         0.00000E+00
    0.00000E+00         0.00000E+00        -0.50070E+08
 
   -0.50295E+08         0.17595E+06         0.00000E+00
    0.17595E+06        -0.50052E+08         0.00000E+00
    0.00000E+00         0.00000E+00        -0.50069E+08
 
   -0.50287E+08         0.18140E+06         0.00000E+00
    0.18140E+06        -0.50056E+08         0.00000E+00
    0.00000E+00         0.00000E+00        -0.50069E+08
 
   -0.50279E+08         0.18662E+06         0.00000E+00
    0.18662E+06        -0.50060E+08         0.00000E+00
    0.00000E+00         0.00000E+00        -0.50068E+08
 
   -0.50271E+08         0.19162E+06         0.00000E+00
    0.19162E+06        -0.50064E+08         0.00000E+00
    0.00000E+00         0.00000E+00        -0.50067E+08
 
   -0.50262E+08         0.19639E+06         0.00000E+00
    0.19639E+06        -0.50068E+08         0.00000E+00
    0.00000E+00         0.00000E+00        -0.50066E+08
 
   -0.50254E+08         0.20095E+06         0.00000E+00
    0.20095E+06        -0.50073E+08         0.00000E+00
    0.00000E+00         0.00000E+00        -0.50065E+08
 
   -0.50245E+08         0.20529E+06         0.00000E+00
    0.20529E+06        -0.50077E+08         0.00000E+00
    0.00000E+00         0.00000E+00        -0.50064E+08
 
   -0.50236E+08         0.20942E+06         0.00000E+00
    0.20942E+06        -0.50081E+08         0.00000E+00
    0.00000E+00         0.00000E+00        -0.50063E+08
 
   -0.50227E+08         0.21333E+06         0.00000E+00
    0.21333E+06        -0.50085E+08         0.00000E+00
    0.00000E+00         0.00000E+00        -0.50062E+08
 
   -0.50218E+08         0.21705E+06         0.00000E+00
    0.21705E+06        -0.50090E+08         0.00000E+00
    0.00000E+00         0.00000E+00        -0.50062E+08
 
   -0.50209E+08         0.22056E+06         0.00000E+00
    0.22056E+06        -0.50094E+08         0.00000E+00
    0.00000E+00         0.00000E+00        -0.50061E+08
 
   -0.50200E+08         0.22387E+06         0.00000E+00
    0.22387E+06        -0.50098E+08         0.00000E+00
    0.00000E+00         0.00000E+00        -0.50060E+08
 
   -0.50191E+08         0.22700E+06         0.00000E+00
    0.22700E+06        -0.50103E+08         0.00000E+00
    0.00000E+00         0.00000E+00        -0.50059E+08
 
   -0.50181E+08         0.22994E+06         0.00000E+00
    0.22994E+06        -0.50107E+08         0.00000E+00
    0.00000E+00         0.00000E+00        -0.50058E+08
 
   -0.50172E+08         0.23269E+06         0.00000E+00
    0.23269E+06        -0.50111E+08         0.00000E+00
    0.00000E+00         0.00000E+00        -0.50057E+08
 
   -0.50163E+08         0.23528E+06         0.00000E+00
    0.23528E+06        -0.50116E+08         0.00000E+00
    0.00000E+00         0.00000E+00        -0.50056E+08
 
   -0.50153E+08         0.23769E+06         0.00000E+00
    0.23769E+06        -0.50120E+08         0.00000E+00
    0.00000E+00         0.00000E+00        -0.50055E+08
 
   -0.50144E+08         0.23994E+06         0.00000E+00
    0.23994E+06        -0.50125E+08         0.00000E+00
    0.00000E+00         0.00000E+00        -0.50054E+08
 
   -0.50134E+08         0.24203E+06         0.00000E+00
    0.24203E+06        -0.50129E+08         0.00000E+00
    0.00000E+00         0.00000E+00        -0.50053E+08
 
   -0.50125E+08         0.24397E+06         0.00000E+00
    0.24397E+06        -0.50133E+08         0.00000E+00
    0.00000E+00         0.00000E+00        -0.50052E+08
 
   -0.50115E+08         0.24577E+06         0.00000E+00
    0.24577E+06        -0.50138E+08         0.00000E+00
    0.00000E+00         0.00000E+00        -0.50051E+08
 
   -0.50106E+08         0.24742E+06         0.00000E+00
    0.24742E+06        -0.50142E+08         0.00000E+00
    0.00000E+00         0.00000E+00        -0.50050E+08
 
   -0.50096E+08         0.24894E+06         0.00000E+00
    0.24894E+06        -0.50146E+08         0.00000E+00
    0.00000E+00         0.00000E+00        -0.50048E+08
 
   -0.50086E+08         0.25033E+06         0.00000E+00
    0.25033E+06        -0.50151E+08         0.00000E+00
    0.00000E+00         0.00000E+00        -0.50047E+08
 
   -0.50077E+08         0.25160E+06         0.00000E+00
    0.25160E+06        -0.50155E+08         0.00000E+00
    0.00000E+00         0.00000E+00        -0.50046E+08
 
   -0.50067E+08         0.25275E+06         0.00000E+00
    0.25275E+06        -0.50159E+08         0.00000E+00
    0.00000E+00         0.00000E+00        -0.50045E+08
 
   -0.50057E+08         0.25379E+06         0.00000E+00
    0.25379E+06        -0.50164E+08         0.00000E+00
    0.00000E+00         0.00000E+00        -0.50044E+08
 
   -0.50047E+08         0.25471E+06         0.00000E+00
    0.25471E+06        -0.50168E+08         0.00000E+00
    0.00000E+00         0.00000E+00        -0.50043E+08
 
   -0.50353E+08         0.41175E+04         0.00000E+00
    0.41175E+04        -0.50000E+08         0.00000E+00
    0.00000E+00         0.00000E+00        -0.50071E+08
 
   -0.50353E+08         0.12291E+05         0.00000E+00
    0.12291E+05        -0.50000E+08         0.00000E+00
    0.00000E+00         0.00000E+00        -0.50071E+08
 
   -0.50352E+08         0.20420E+05         0.00000E+00
    0.20420E+05        -0.50001E+08         0.00000E+00
    0.00000E+00         0.00000E+00        -0.50071E+08
 
   -0.50351E+08         0.28490E+05         0.00000E+00
    0.28490E+05        -0.50001E+08         0.00000E+00
    0.00000E+00         0.00000E+00        -0.50070E+08
 
   -0.50350E+08         0.36488E+05         0.00000E+00
    0.36488E+05        -0.50002E+08         0.00000E+00
    0.00000E+00         0.00000E+00        -0.50070E+08
 
   -0.50348E+08         0.44401E+05         0.00000E+00
    0.44401E+05        -0.50003E+08         0.00000E+00
    0.00000E+00         0.00000E+00        -0.50070E+08
 
   -0.50346E+08         0.52220E+05         0.00000E+00
    0.52220E+05        -0.50004E+08         0.00000E+00
    0.00000E+00         0.00000E+00        -0.50070E+08
 
   -0.50343E+08         0.59931E+05         0.00000E+00
    0.59931E+05        -0.50006E+08         0.00000E+00
    0.00000E+00         0.00000E+00        -0.50070E+08
 
   -0.50341E+08         0.67526E+05         0.00000E+00
    0.67526E+05        -0.50008E+08         0.00000E+00
    0.00000E+00         0.00000E+00        -0.50070E+08
 
   -0.50337E+08         0.74994E+05         0.00000E+00
    0.74994E+05        -0.50009E+08         0.00000E+00
    0.00000E+00         0.00000E+00        -0.50069E+08
 
   -0.50334E+08         0.82328E+05         0.00000E+00
    0.82328E+05        -0.50011E+08         0.00000E+00
    0.00000E+00         0.00000E+00        -0.50069E+08
 
   -0.50330E+08         0.89518E+05         0.00000E+00
    0.89518E+05        -0.50013E+08         0.00000E+00
    0.00000E+00         0.00000E+00        -0.50069E+08
 
   -0.50326E+08         0.96558E+05         0.00000E+00
    0.96558E+05        -0.50016E+08         0.00000E+00
    0.00000E+00         0.00000E+00        -0.50068E+08
 
   -0.50321E+08         0.10344E+06         0.00000E+00
    0.10344E+06        -0.50018E+08         0.00000E+00
    0.00000E+00         0.00000E+00        -0.50068E+08
 
   -0.50316E+08         0.11016E+06         0.00000E+00
    0.11016E+06        -0.50021E+08         0.00000E+00
    0.00000E+00         0.00000E+00        -0.50067E+08
 
   -0.50311E+08         0.11671E+06         0.00000E+00
    0.11671E+06        -0.50023E+08         0.00000E+00
    0.00000E+00         0.00000E+00        -0.50067E+08
 
   -0.50306E+08         0.12308E+06         0.00000E+00
    0.12308E+06        -0.50026E+08         0.00000E+00
    0.00000E+00         0.00000E+00        -0.50066E+08
 
   -0.50300E+08         0.12928E+06         0.00000E+00
    0.12928E+06        -0.50029E+08         0.00000E+00
    0.00000E+00         0.00000E+00        -0.50066E+08
 
   -0.50294E+08         0.13530E+06         0.00000E+00
    0.13530E+06        -0.50032E+08         0.00000E+00
    0.00000E+00         0.00000E+00        -0.50065E+08
 
   -0.50288E+08         0.14113E+06         0.00000E+00
    0.14113E+06        -0.50035E+08         0.00000E+00
    0.00000E+00         0.00000E+00        -0.50065E+08
 
   -0.50282E+08         0.14678E+06         0.00000E+00
    0.14678E+06        -0.50039E+08         0.00000E+00
    0.00000E+00         0.00000E+00        -0.50064E+08
 
   -0.50275E+08         0.15224E+06         0.00000E+00
    0.15224E+06        -0.50042E+08         0.00000E+00
    0.00000E+00         0.00000E+00        -0.50063E+08
 
   -0.50268E+08         0.15750E+06         0.00000E+00
    0.15750E+06        -0.50046E+08         0.00000E+00
    0.00000E+00         0.00000E+00        -0.50063E+08
 
   -0.50261E+08         0.16258E+06         0.00000E+00
    0.16258E+06        -0.50049E+08         0.00000E+00
    0.00000E+00         0.00000E+00        -0.50062E+08
 
   -0.50254E+08         0.16747E+06         0.00000E+00
    0.16747E+06        -0.50053E+08         0.00000E+00
    0.00000E+00         0.00000E+00        -0.50061E+08
 
   -0.50247E+08         0.17216E+06         0.00000E+00
    0.17216E+06        -0.50056E+08         0.00000E+00
    0.00000E+00         0.00000E+00        -0.50061E+08
 
   -0.50240E+08         0.17667E+06         0.00000E+00
    0.17667E+06        -0.50060E+08         0.00000E+00
    0.00000E+00         0.00000E+00        -0.50060E+08
 
   -0.50232E+08         0.18098E+06         0.00000E+00
    0.18098E+06        -0.50064E+08         0.00000E+00
    0.00000E+00         0.00000E+00        -0.50059E+08
 
   -0.50224E+08         0.18511E+06         0.00000E+00
    0.18511E+06        -0.50068E+08         0.00000E+00
    0.00000E+00         0.00000E+00        -0.50058E+08
 
   -0.50216E+08         0.18905E+06         0.00000E+00
    0.18905E+06        -0.50071E+08         0.00000E+00
    0.00000E+00         0.00000E+00        -0.50058E+08
 
   -0.50208E+08         0.19281E+06         0.00000E+00
    0.19281E+06        -0.50075E+08         0.00000E+00
    0.00000E+00         0.00000E+00        -0.50057E+08
 
   -0.50200E+08         0.19639E+06         0.00000E+00
    0.19639E+06        -0.50079E+08         0.00000E+00
    0.00000E+00         0.00000E+00        -0.50056E+08
 
   -0.50192E+08         0.19978E+06         0.00000E+00
    0.19978E+06        -0.50083E+08         0.00000E+00
    0.00000E+00         0.00000E+00        -0.50055E+08
 
   -0.50184E+08         0.20301E+06         0.00000E+00
    0.20301E+06        -0.50087E+08         0.00000E+00
    0.00000E+00         0.00000E+00        -0.50054E+08
 
   -0.50176E+08         0.20605E+06         0.00000E+00
    0.20605E+06        -0.50091E+08         0.00000E+00
    0.00000E+00         0.00000E+00        -0.50053E+08
 
   -0.50167E+08         0.20893E+06         0.00000E+00
    0.20893E+06        -0.50095E+08         0.00000E+00
    0.00000E+00         0.00000E+00        -0.50052E+08
 
   -0.50159E+08         0.21165E+06         0.00000E+00
    0.21165E+06        -0.50099E+08         0.00000E+00
    0.00000E+00         0.00000E+00        -0.50052E+08
 
   -0.50150E+08         0.21420E+06         0.00000E+00
    0.21420E+06        -0.50103E+08         0.00000E+00
    0.00000E+00         0.00000E+00        -0.50051E+08
 
   -0.50142E+08         0.21659E+06         0.00000E+00
    0.21659E+06        -0.50107E+08         0.00000E+00
    0.00000E+00         0.00000E+00        -0.50050E+08
 
   -0.50133E+08         0.21883E+06         0.00000E+00
    0.21883E+06        -0.50111E+08         0.00000E+00
    0.00000E+00         0.00000E+00        -0.50049E+08
 
   -0.50124E+08         0.22092E+06         0.00000E+00
    0.22092E+06        -0.50115E+08         0.00000E+00
    0.00000E+00         0.00000E+00        -0.50048E+08
 
   -0.50115E+08         0.22286E+06         0.00000E+00
    0.22286E+06        -0.50120E+08         0.00000E+00
    0.00000E+00         0.00000E+00        -0.50047E+08
 
   -0.50107E+08         0.22466E+06         0.00000E+00
    0.22466E+06        -0.50124E+08         0.00000E+00
    0.00000E+00         0.00000E+00        -0.50046E+08
 
   -0.50098E+08         0.22632E+06         0.00000E+00
    0.22632E+06        -0.50128E+08         0.00000E+00
    0.00000E+00         0.00000E+00        -0.50045E+08
 
   -0.50089E+08         0.22784E+06         0.00000E+00
    0.22784E+06        -0.50132E+08         0.00000E+00
    0.00000E+00         0.00000E+00        -0.50044E+08
 
   -0.50080E+08         0.22923E+06         0.00000E+00
    0.22923E+06        -0.50136E+08         0.00000E+00
    0.00000E+00         0.00000E+00        -0.50043E+08
 
   -0.50071E+08         0.23050E+06         0.00000E+00
    0.23050E+06        -0.50140E+08         0.00000E+00
    0.00000E+00         0.00000E+00        -0.50042E+08
 
   -0.50062E+08         0.23163E+06         0.00000E+00
    0.23163E+06        -0.50144E+08         0.00000E+00
    0.00000E+00         0.00000E+00        -0.50041E+08
 
   -0.50052E+08         0.23265E+06         0.00000E+00
    0.23265E+06        -0.50148E+08         0.00000E+00
    0.00000E+00         0.00000E+00        -0.50040E+08
 
   -0.50043E+08         0.23355E+06         0.00000E+00
    0.23355E+06        -0.50152E+08         0.00000E+00
    0.00000E+00         0.00000E+00        -0.50039E+08
 
   -0.50314E+08         0.35940E+04         0.00000E+00
    0.35940E+04        -0.50000E+08         0.00000E+00
    0.00000E+00         0.00000E+00        -0.50063E+08
 
   -0.50314E+08         0.10759E+05         0.00000E+00
    0.10759E+05        -0.50000E+08         0.00000E+00
    0.00000E+00         0.00000E+00        -0.50063E+08
 
   -0.50314E+08         0.17898E+05         0.00000E+00
    0.17898E+05        -0.50001E+08         0.00000E+00
    0.00000E+00         0.00000E+00        -0.50063E+08
 
   -0.50313E+08         0.24999E+05         0.00000E+00
    0.24999E+05        -0.50001E+08         0.00000E+00
    0.00000E+00         0.00000E+00        -0.50063E+08
 
   -0.50312E+08         0.32052E+05         0.00000E+00
    0.32052E+05        -0.50002E+08         0.00000E+00
    0.00000E+00         0.00000E+00        -0.50063E+08
 
   -0.50311E+08         0.39045E+05         0.00000E+00
    0.39045E+05        -0.50003E+08         0.00000E+00
    0.00000E+00         0.00000E+00        -0.50063E+08
 
   -0.50309E+08         0.45969E+05         0.00000E+00
    0.45969E+05        -0.50004E+08         0.00000E+00
    0.00000E+00         0.00000E+00        -0.50063E+08
 
   -0.50307E+08         0.52814E+05         0.00000E+00
    0.52814E+05        -0.50005E+08         0.00000E+00
    0.00000E+00         0.00000E+00        -0.50062E+08
 
   -0.50305E+08         0.59570E+05         0.00000E+00
    0.59570E+05        -0.50006E+08         0.00000E+00
    0.00000E+00         0.00000E+00        -0.50062E+08
 
   -0.50302E+08         0.66230E+05         0.00000E+00
    0.66230E+05        -0.50008E+08         0.00000E+00
    0.00000E+00         0.00000E+00        -0.50062E+08
 
   -0.50299E+08         0.72786E+05         0.00000E+00
    0.72786E+05        -0.50010E+08         0.00000E+00
    0.00000E+00         0.00000E+00        -0.50062E+08
 
   -0.50296E+08         0.79229E+05         0.00000E+00
    0.79229E+05        -0.50012E+08         0.00000E+00
    0.00000E+00         0.00000E+00        -0.50062E+08
 
   -0.50293E+08         0.85553E+05         0.00000E+00
    0.85553E+05        -0.50013E+08         0.00000E+00
    0.00000E+00         0.00000E+00        -0.50061E+08
 
   -0.50289E+08         0.91753E+05         0.00000E+00
    0.91753E+05        -0.50016E+08         0.00000E+00
    0.00000E+00         0.00000E+00        -0.50061E+08
 
   -0.50285E+08         0.97821E+05         0.00000E+00
    0.97821E+05        -0.50018E+08         0.00000E+00
    0.00000E+00         0.00000E+00        -0.50060E+08
 
   -0.50280E+08         0.10375E+06         0.00000E+00
    0.10375E+06        -0.50020E+08         0.00000E+00
    0.00000E+00         0.00000E+00        -0.50060E+08
 
   -0.50276E+08         0.10954E+06         0.00000E+00
    0.10954E+06        -0.50023E+08         0.00000E+00
    0.00000E+00         0.00000E+00        -0.50060E+08
 
   -0.50271E+08         0.11519E+06         0.00000E+00
    0.11519E+06        -0.50025E+08         0.00000E+00
    0.00000E+00         0.00000E+00        -0.50059E+08
 
   -0.50266E+08         0.12068E+06         0.00000E+00
    0.12068E+06        -0.50028E+08         0.00000E+00
    0.00000E+00         0.00000E+00        -0.50059E+08
 
   -0.50260E+08         0.12603E+06         0.00000E+00
    0.12603E+06        -0.50031E+08         0.00000E+00
    0.00000E+00         0.00000E+00        -0.50058E+08
 
   -0.50255E+08         0.13122E+06         0.00000E+00
    0.13122E+06        -0.50034E+08         0.00000E+00
    0.00000E+00         0.00000E+00        -0.50058E+08
 
   -0.50249E+08         0.13625E+06         0.00000E+00
    0.13625E+06        -0.50037E+08         0.00000E+00
    0.00000E+00         0.00000E+00        -0.50057E+08
 
   -0.50243E+08         0.14112E+06         0.00000E+00
    0.14112E+06        -0.50040E+08         0.00000E+00
    0.00000E+00         0.00000E+00        -0.50057E+08
 
   -0.50237E+08         0.14583E+06         0.00000E+00
    0.14583E+06        -0.50043E+08         0.00000E+00
    0.00000E+00         0.00000E+00        -0.50056E+08
 
   -0.50231E+08         0.15037E+06         0.00000E+00
    0.15037E+06        -0.50046E+08         0.00000E+00
    0.00000E+00         0.00000E+00        -0.50055E+08
 
   -0.50225E+08         0.15476E+06         0.00000E+00
    0.15476E+06        -0.50049E+08         0.00000E+00
    0.00000E+00         0.00000E+00        -0.50055E+08
 
   -0.50218E+08         0.15898E+06         0.00000E+00
    0.15898E+06        -0.50053E+08         0.00000E+00
    0.00000E+00         0.00000E+00        -0.50054E+08
 
   -0.50211E+08         0.16303E+06         0.00000E+00
    0.16303E+06        -0.50056E+08         0.00000E+00
    0.00000E+00         0.00000E+00        -0.50053E+08
 
   -0.50205E+08         0.16693E+06         0.00000E+00
    0.16693E+06        -0.50059E+08         0.00000E+00
    0.00000E+00         0.00000E+00        -0.50053E+08
 
   -0.50198E+08         0.17066E+06         0.00000E+00
    0.17066E+06        -0.50063E+08         0.00000E+00
    0.00000E+00         0.00000E+00        -0.50052E+08
 
   -0.50191E+08         0.17423E+06         0.00000E+00
    0.17423E+06        -0.50066E+08         0.00000E+00
    0.00000E+00         0.00000E+00        -0.50051E+08
 
   -0.50183E+08         0.17763E+06         0.00000E+00
    0.17763E+06        -0.50070E+08         0.00000E+00
    0.00000E+00         0.00000E+00        -0.50051E+08
 
   -0.50176E+08         0.18088E+06         0.00000E+00
    0.18088E+06        -0.50073E+08         0.00000E+00
    0.00000E+00         0.00000E+00        -0.50050E+08
 
   -0.50169E+08         0.18397E+06         0.00000E+00
    0.18397E+06        -0.50077E+08         0.00000E+00
    0.00000E+00         0.00000E+00        -0.50049E+08
 
   -0.50161E+08         0.18691E+06         0.00000E+00
    0.18691E+06        -0.50081E+08         0.00000E+00
    0.00000E+00         0.00000E+00        -0.50048E+08
 
   -0.50153E+08         0.18969E+06         0.00000E+00
    0.18969E+06        -0.50084E+08         0.00000E+00
    0.00000E+00         0.00000E+00        -0.50048E+08
 
   -0.50146E+08         0.19232E+06         0.00000E+00
    0.19232E+06        -0.50088E+08         0.00000E+00
    0.00000E+00         0.00000E+00        -0.50047E+08
 
   -0.50138E+08         0.19479E+06         0.00000E+00
    0.19479E+06        -0.50092E+08         0.00000E+00
    0.00000E+00         0.00000E+00        -0.50046E+08
 
   -0.50130E+08         0.19712E+06         0.00000E+00
    0.19712E+06        -0.50096E+08         0.00000E+00
    0.00000E+00         0.00000E+00        -0.50045E+08
 
   -0.50122E+08         0.19931E+06         0.00000E+00
    0.19931E+06        -0.50099E+08         0.00000E+00
    0.00000E+00         0.00000E+00        -0.50044E+08
 
   -0.50114E+08         0.20135E+06         0.00000E+00
    0.20135E+06        -0.50103E+08         0.00000E+00
    0.00000E+00         0.00000E+00        -0.50043E+08
 
   -0.50106E+08         0.20325E+06         0.00000E+00
    0.20325E+06        -0.50107E+08         0.00000E+00
    0.00000E+00         0.00000E+00        -0.50043E+08
 
   -0.50098E+08         0.20501E+06         0.00000E+00
    0.20501E+06        -0.50111E+08         0.00000E+00
    0.00000E+00         0.00000E+00        -0.50042E+08
 
   -0.50090E+08         0.20664E+06         0.00000E+00
    0.20664E+06        -0.50114E+08         0.00000E+00
    0.00000E+00         0.00000E+00        -0.50041E+08
 
   -0.50081E+08         0.20813E+06         0.00000E+00
    0.20813E+06        -0.50118E+08         0.00000E+00
    0.00000E+00         0.00000E+00        -0.50040E+08
 
   -0.50073E+08         0.20949E+06         0.00000E+00
    0.20949E+06        -0.50122E+08         0.00000E+00
    0.00000E+00         0.00000E+00        -0.50039E+08
 
   -0.50065E+08         0.21073E+06         0.00000E+00
    0.21073E+06        -0.50126E+08         0.00000E+00
    0.00000E+00         0.00000E+00        -0.50038E+08
 
   -0.50056E+08         0.21183E+06         0.00000E+00
    0.21183E+06        -0.50130E+08         0.00000E+00
    0.00000E+00         0.00000E+00        -0.50037E+08
 
   -0.50048E+08         0.21281E+06         0.00000E+00
    0.21281E+06        -0.50133E+08         0.00000E+00
    0.00000E+00         0.00000E+00        -0.50036E+08
 
   -0.50039E+08         0.21366E+06         0.00000E+00
    0.21366E+06        -0.50137E+08         0.00000E+00
    0.00000E+00         0.00000E+00        -0.50035E+08
 
   -0.50281E+08         0.31540E+04         0.00000E+00
    0.31540E+04        -0.50000E+08         0.00000E+00
    0.00000E+00         0.00000E+00        -0.50056E+08
 
   -0.50281E+08         0.94629E+04         0.00000E+00
    0.94629E+04        -0.50000E+08         0.00000E+00
    0.00000E+00         0.00000E+00        -0.50056E+08
 
   -0.50281E+08         0.15759E+05         0.00000E+00
    0.15759E+05        -0.50000E+08         0.00000E+00
    0.00000E+00         0.00000E+00        -0.50056E+08
 
   -0.50280E+08         0.22032E+05         0.00000E+00
    0.22032E+05        -0.50001E+08         0.00000E+00
    0.00000E+00         0.00000E+00        -0.50056E+08
 
   -0.50279E+08         0.28272E+05         0.00000E+00
    0.28272E+05        -0.50002E+08         0.00000E+00
    0.00000E+00         0.00000E+00        -0.50056E+08
 
   -0.50278E+08         0.34471E+05         0.00000E+00
    0.34471E+05        -0.50002E+08         0.00000E+00
    0.00000E+00         0.00000E+00        -0.50056E+08
 
   -0.50277E+08         0.40619E+05         0.00000E+00
    0.40619E+05        -0.50003E+08         0.00000E+00
    0.00000E+00         0.00000E+00        -0.50056E+08
 
   -0.50275E+08         0.46709E+05         0.00000E+00
    0.46709E+05        -0.50004E+08         0.00000E+00
    0.00000E+00         0.00000E+00        -0.50056E+08
 
   -0.50273E+08         0.52732E+05         0.00000E+00
    0.52732E+05        -0.50005E+08         0.00000E+00
    0.00000E+00         0.00000E+00        -0.50056E+08
 
   -0.50271E+08         0.58681E+05         0.00000E+00
    0.58681E+05        -0.50007E+08         0.00000E+00
    0.00000E+00         0.00000E+00        -0.50056E+08
 
   -0.50269E+08         0.64549E+05         0.00000E+00
    0.64549E+05        -0.50008E+08         0.00000E+00
    0.00000E+00         0.00000E+00        -0.50055E+08
 
   -0.50266E+08         0.70328E+05         0.00000E+00
    0.70328E+05        -0.50010E+08         0.00000E+00
    0.00000E+00         0.00000E+00        -0.50055E+08
 
   -0.50263E+08         0.76014E+05         0.00000E+00
    0.76014E+05        -0.50012E+08         0.00000E+00
    0.00000E+00         0.00000E+00        -0.50055E+08
 
   -0.50260E+08         0.81599E+05         0.00000E+00
    0.81599E+05        -0.50013E+08         0.00000E+00
    0.00000E+00         0.00000E+00        -0.50055E+08
 
   -0.50256E+08         0.87079E+05         0.00000E+00
    0.87079E+05        -0.50015E+08         0.00000E+00
    0.00000E+00         0.00000E+00        -0.50054E+08
 
   -0.50252E+08         0.92448E+05         0.00000E+00
    0.92448E+05        -0.50017E+08         0.00000E+00
    0.00000E+00         0.00000E+00        -0.50054E+08
 
   -0.50248E+08         0.97703E+05         0.00000E+00
    0.97703E+05        -0.50020E+08         0.00000E+00
    0.00000E+00         0.00000E+00        -0.50054E+08
 
   -0.50244E+08         0.10284E+06         0.00000E+00
    0.10284E+06        -0.50022E+08         0.00000E+00
    0.00000E+00         0.00000E+00        -0.50053E+08
 
   -0.50240E+08         0.10785E+06         0.00000E+00
    0.10785E+06        -0.50024E+08         0.00000E+00
    0.00000E+00         0.00000E+00        -0.50053E+08
 
   -0.50235E+08         0.11273E+06         0.00000E+00
    0.11273E+06        -0.50027E+08         0.00000E+00
    0.00000E+00         0.00000E+00        -0.50052E+08
 
   -0.50230E+08         0.11749E+06         0.00000E+00
    0.11749E+06        -0.50029E+08         0.00000E+00
    0.00000E+00         0.00000E+00        -0.50052E+08
 
   -0.50226E+08         0.12211E+06         0.00000E+00
    0.12211E+06        -0.50032E+08         0.00000E+00
    0.00000E+00         0.00000E+00        -0.50051E+08
 
   -0.50220E+08         0.12660E+06         0.00000E+00
    0.12660E+06        -0.50035E+08         0.00000E+00
    0.00000E+00         0.00000E+00        -0.50051E+08
 
   -0.50215E+08         0.13095E+06         0.00000E+00
    0.13095E+06        -0.50037E+08         0.00000E+00
    0.00000E+00         0.00000E+00        -0.50050E+08
 
   -0.50210E+08         0.13516E+06         0.00000E+00
    0.13516E+06        -0.50040E+08         0.00000E+00
    0.00000E+00         0.00000E+00        -0.50050E+08
 
   -0.50204E+08         0.13923E+06         0.00000E+00
    0.13923E+06        -0.50043E+08         0.00000E+00
    0.00000E+00         0.00000E+00        -0.50049E+08
 
   -0.50198E+08         0.14316E+06         0.00000E+00
    0.14316E+06        -0.50046E+08         0.00000E+00
    0.00000E+00         0.00000E+00        -0.50049E+08
 
   -0.50192E+08         0.14695E+06         0.00000E+00
    0.14695E+06        -0.50049E+08         0.00000E+00
    0.00000E+00         0.00000E+00        -0.50048E+08
 
   -0.50186E+08         0.15060E+06         0.00000E+00
    0.15060E+06        -0.50052E+08         0.00000E+00
    0.00000E+00         0.00000E+00        -0.50048E+08
 
   -0.50180E+08         0.15410E+06         0.00000E+00
    0.15410E+06        -0.50055E+08         0.00000E+00
    0.00000E+00         0.00000E+00        -0.50047E+08
 
   -0.50174E+08         0.15746E+06         0.00000E+00
    0.15746E+06        -0.50058E+08         0.00000E+00
    0.00000E+00         0.00000E+00        -0.50046E+08
 
   -0.50167E+08         0.16068E+06         0.00000E+00
    0.16068E+06        -0.50062E+08         0.00000E+00
    0.00000E+00         0.00000E+00        -0.50046E+08
 
   -0.50161E+08         0.16376E+06         0.00000E+00
    0.16376E+06        -0.50065E+08         0.00000E+00
    0.00000E+00         0.00000E+00        -0.50045E+08
 
   -0.50154E+08         0.16669E+06         0.00000E+00
    0.16669E+06        -0.50068E+08         0.00000E+00
    0.00000E+00         0.00000E+00        -0.50044E+08
 
   -0.50147E+08         0.16948E+06         0.00000E+00
    0.16948E+06        -0.50071E+08         0.00000E+00
    0.00000E+00         0.00000E+00        -0.50044E+08
 
   -0.50140E+08         0.17213E+06         0.00000E+00
    0.17213E+06        -0.50075E+08         0.00000E+00
    0.00000E+00         0.00000E+00        -0.50043E+08
 
   -0.50133E+08         0.17465E+06         0.00000E+00
    0.17465E+06        -0.50078E+08         0.00000E+00
    0.00000E+00         0.00000E+00        -0.50042E+08
 
   -0.50126E+08         0.17702E+06         0.00000E+00
    0.17702E+06        -0.50081E+08         0.00000E+00
    0.00000E+00         0.00000E+00        -0.50042E+08
 
   -0.50119E+08         0.17926E+06         0.00000E+00
    0.17926E+06        -0.50085E+08         0.00000E+00
    0.00000E+00         0.00000E+00        -0.50041E+08
 
   -0.50112E+08         0.18136E+06         0.00000E+00
    0.18136E+06        -0.50088E+08         0.00000E+00
    0.00000E+00         0.00000E+00        -0.50040E+08
 
   -0.50104E+08         0.18333E+06         0.00000E+00
    0.18333E+06        -0.50092E+08         0.00000E+00
    0.00000E+00         0.00000E+00        -0.50039E+08
 
   -0.50097E+08         0.18516E+06         0.00000E+00
    0.18516E+06        -0.50095E+08         0.00000E+00
    0.00000E+00         0.00000E+00        -0.50038E+08
 
   -0.50090E+08         0.18686E+06         0.00000E+00
    0.18686E+06        -0.50099E+08         0.00000E+00
    0.00000E+00         0.00000E+00        -0.50038E+08
 
   -0.50082E+08         0.18842E+06         0.00000E+00
    0.18842E+06        -0.50102E+08         0.00000E+00
    0.00000E+00         0.00000E+00        -0.50037E+08
 
   -0.50074E+08         0.18986E+06         0.00000E+00
    0.18986E+06        -0.50106E+08         0.00000E+00
    0.00000E+00         0.00000E+00        -0.50036E+08
 
   -0.50067E+08         0.19117E+06         0.00000E+00
    0.19117E+06        -0.50109E+08         0.00000E+00
    0.00000E+00         0.00000E+00        -0.50035E+08
 
   -0.50059E+08         0.19235E+06         0.00000E+00
    0.19235E+06        -0.50113E+08         0.00000E+00
    0.00000E+00         0.00000E+00        -0.50034E+08
 
   -0.50051E+08         0.19340E+06         0.00000E+00
    0.19340E+06        -0.50116E+08         0.00000E+00
    0.00000E+00         0.00000E+00        -0.50033E+08
 
   -0.50043E+08         0.19433E+06         0.00000E+00
    0.19433E+06        -0.50120E+08         0.00000E+00
    0.00000E+00         0.00000E+00        -0.50033E+08
 
   -0.50035E+08         0.19513E+06         0.00000E+00
    0.19513E+06        -0.50123E+08         0.00000E+00
    0.00000E+00         0.00000E+00        -0.50032E+08
 
   -0.50251E+08         0.27834E+04         0.00000E+00
    0.27834E+04        -0.50000E+08         0.00000E+00
    0.00000E+00         0.00000E+00        -0.50050E+08
 
   -0.50251E+08         0.83649E+04         0.00000E+00
    0.83649E+04        -0.50000E+08         0.00000E+00
    0.00000E+00         0.00000E+00        -0.50050E+08
 
   -0.50251E+08         0.13942E+05         0.00000E+00
    0.13942E+05        -0.50000E+08         0.00000E+00
    0.00000E+00         0.00000E+00        -0.50050E+08
 
   -0.50251E+08         0.19505E+05         0.00000E+00
    0.19505E+05        -0.50001E+08         0.00000E+00
    0.00000E+00         0.00000E+00        -0.50050E+08
 
   -0.50250E+08         0.25047E+05         0.00000E+00
    0.25047E+05        -0.50001E+08         0.00000E+00
    0.00000E+00         0.00000E+00        -0.50050E+08
 
   -0.50249E+08         0.30560E+05         0.00000E+00
    0.30560E+05        -0.50002E+08         0.00000E+00
    0.00000E+00         0.00000E+00        -0.50050E+08
 
   -0.50248E+08         0.36037E+05         0.00000E+00
    0.36037E+05        -0.50003E+08         0.00000E+00
    0.00000E+00         0.00000E+00        -0.50050E+08
 
   -0.50247E+08         0.41470E+05         0.00000E+00
    0.41470E+05        -0.50004E+08         0.00000E+00
    0.00000E+00         0.00000E+00        -0.50050E+08
 
   -0.50245E+08         0.46852E+05         0.00000E+00
    0.46852E+05        -0.50005E+08         0.00000E+00
    0.00000E+00         0.00000E+00        -0.50050E+08
 
   -0.50243E+08         0.52176E+05         0.00000E+00
    0.52176E+05        -0.50006E+08         0.00000E+00
    0.00000E+00         0.00000E+00        -0.50050E+08
 
   -0.50241E+08         0.57438E+05         0.00000E+00
    0.57438E+05        -0.50007E+08         0.00000E+00
    0.00000E+00         0.00000E+00        -0.50050E+08
 
   -0.50239E+08         0.62629E+05         0.00000E+00
    0.62629E+05        -0.50008E+08         0.00000E+00
    0.00000E+00         0.00000E+00        -0.50049E+08
 
   -0.50236E+08         0.67746E+05         0.00000E+00
    0.67746E+05        -0.50010E+08         0.00000E+00
    0.00000E+00         0.00000E+00        -0.50049E+08
 
   -0.50233E+08         0.72782E+05         0.00000E+00
    0.72782E+05        -0.50012E+08         0.00000E+00
    0.00000E+00         0.00000E+00        -0.50049E+08
 
   -0.50230E+08         0.77732E+05         0.00000E+00
    0.77732E+05        -0.50013E+08         0.00000E+00
    0.00000E+00         0.00000E+00        -0.50049E+08
 
   -0.50227E+08         0.82592E+05         0.00000E+00
    0.82592E+05        -0.50015E+08         0.00000E+00
    0.00000E+00         0.00000E+00        -0.50048E+08
 
   -0.50224E+08         0.87358E+05         0.00000E+00
    0.87358E+05        -0.50017E+08         0.00000E+00
    0.00000E+00         0.00000E+00        -0.50048E+08
 
   -0.50220E+08         0.92025E+05         0.00000E+00
    0.92025E+05        -0.50019E+08         0.00000E+00
    0.00000E+00         0.00000E+00        -0.50048E+08
 
   -0.50216E+08         0.96589E+05         0.00000E+00
    0.96589E+05        -0.50021E+08         0.00000E+00
    0.00000E+00         0.00000E+00        -0.50047E+08
 
   -0.50212E+08         0.10105E+06         0.00000E+00
    0.10105E+06        -0.50023E+08         0.00000E+00
    0.00000E+00         0.00000E+00        -0.50047E+08
 
   -0.50208E+08         0.10540E+06         0.00000E+00
    0.10540E+06        -0.50025E+08         0.00000E+00
    0.00000E+00         0.00000E+00        -0.50047E+08
 
   -0.50204E+08         0.10963E+06         0.00000E+00
    0.10963E+06        -0.50028E+08         0.00000E+00
    0.00000E+00         0.00000E+00        -0.50046E+08
 
   -0.50199E+08         0.11376E+06         0.00000E+00
    0.11376E+06        -0.50030E+08         0.00000E+00
    0.00000E+00         0.00000E+00        -0.50046E+08
 
   -0.50194E+08         0.11776E+06         0.00000E+00
    0.11776E+06        -0.50032E+08         0.00000E+00
    0.00000E+00         0.00000E+00        -0.50045E+08
 
   -0.50190E+08         0.12165E+06         0.00000E+00
    0.12165E+06        -0.50035E+08         0.00000E+00
    0.00000E+00         0.00000E+00        -0.50045E+08
 
   -0.50185E+08         0.12542E+06         0.00000E+00
    0.12542E+06        -0.50038E+08         0.00000E+00
    0.00000E+00         0.00000E+00        -0.50044E+08
 
   -0.50180E+08         0.12906E+06         0.00000E+00
    0.12906E+06        -0.50040E+08         0.00000E+00
    0.00000E+00         0.00000E+00        -0.50044E+08
 
   -0.50174E+08         0.13258E+06         0.00000E+00
    0.13258E+06        -0.50043E+08         0.00000E+00
    0.00000E+00         0.00000E+00        -0.50043E+08
 
   -0.50169E+08         0.13598E+06         0.00000E+00
    0.13598E+06        -0.50046E+08         0.00000E+00
    0.00000E+00         0.00000E+00        -0.50043E+08
 
   -0.50163E+08         0.13925E+06         0.00000E+00
    0.13925E+06        -0.50048E+08         0.00000E+00
    0.00000E+00         0.00000E+00        -0.50042E+08
 
   -0.50158E+08         0.14239E+06         0.00000E+00
    0.14239E+06        -0.50051E+08         0.00000E+00
    0.00000E+00         0.00000E+00        -0.50042E+08
 
   -0.50152E+08         0.14541E+06         0.00000E+00
    0.14541E+06        -0.50054E+08         0.00000E+00
    0.00000E+00         0.00000E+00        -0.50041E+08
 
   -0.50146E+08         0.14829E+06         0.00000E+00
    0.14829E+06        -0.50057E+08         0.00000E+00
    0.00000E+00         0.00000E+00        -0.50041E+08
 
   -0.50140E+08         0.15106E+06         0.00000E+00
    0.15106E+06        -0.50060E+08         0.00000E+00
    0.00000E+00         0.00000E+00        -0.50040E+08
 
   -0.50134E+08         0.15369E+06         0.00000E+00
    0.15369E+06        -0.50063E+08         0.00000E+00
    0.00000E+00         0.00000E+00        -0.50039E+08
 
   -0.50128E+08         0.15619E+06         0.00000E+00
    0.15619E+06        -0.50066E+08         0.00000E+00
    0.00000E+00         0.00000E+00        -0.50039E+08
 
   -0.50121E+08         0.15857E+06         0.00000E+00
    0.15857E+06        -0.50069E+08         0.00000E+00
    0.00000E+00         0.00000E+00        -0.50038E+08
 
   -0.50115E+08         0.16082E+06         0.00000E+00
    0.16082E+06        -0.50072E+08         0.00000E+00
    0.00000E+00         0.00000E+00        -0.50037E+08
 
   -0.50108E+08         0.16295E+06         0.00000E+00
    0.16295E+06        -0.50075E+08         0.00000E+00
    0.00000E+00         0.00000E+00        -0.50037E+08
 
   -0.50102E+08         0.16494E+06         0.00000E+00
    0.16494E+06        -0.50078E+08         0.00000E+00
    0.00000E+00         0.00000E+00        -0.50036E+08
 
   -0.50095E+08         0.16681E+06         0.00000E+00
    0.16681E+06        -0.50082E+08         0.00000E+00
    0.00000E+00         0.00000E+00        -0.50035E+08
 
   -0.50088E+08         0.16856E+06         0.00000E+00
    0.16856E+06        -0.50085E+08         0.00000E+00
    0.00000E+00         0.00000E+00        -0.50035E+08
 
   -0.50082E+08         0.17017E+06         0.00000E+00
    0.17017E+06        -0.50088E+08         0.00000E+00
    0.00000E+00         0.00000E+00        -0.50034E+08
 
   -0.50075E+08         0.17166E+06         0.00000E+00
    0.17166E+06        -0.50091E+08         0.00000E+00
    0.00000E+00         0.00000E+00        -0.50033E+08
 
   -0.50068E+08         0.17303E+06         0.00000E+00
    0.17303E+06        -0.50094E+08         0.00000E+00
    0.00000E+00         0.00000E+00        -0.50032E+08
 
   -0.50061E+08         0.17427E+06         0.00000E+00
    0.17427E+06        -0.50098E+08         0.00000E+00
    0.00000E+00         0.00000E+00        -0.50032E+08
 
   -0.50054E+08         0.17539E+06         0.00000E+00
    0.17539E+06        -0.50101E+08         0.00000E+00
    0.00000E+00         0.00000E+00        -0.50031E+08
 
   -0.50046E+08         0.17638E+06         0.00000E+00
    0.17638E+06        -0.50104E+08         0.00000E+00
    0.00000E+00         0.00000E+00        -0.50030E+08
 
   -0.50039E+08         0.17725E+06         0.00000E+00
    0.17725E+06        -0.50107E+08         0.00000E+00
    0.00000E+00         0.00000E+00        -0.50029E+08
 
   -0.50032E+08         0.17799E+06         0.00000E+00
    0.17799E+06        -0.50111E+08         0.00000E+00
    0.00000E+00         0.00000E+00        -0.50028E+08
 
   -0.50225E+08         0.24701E+04         0.00000E+00
    0.24701E+04        -0.50000E+08         0.00000E+00
    0.00000E+00         0.00000E+00        -0.50045E+08
 
   -0.50225E+08         0.74321E+04         0.00000E+00
    0.74321E+04        -0.50000E+08         0.00000E+00
    0.00000E+00         0.00000E+00        -0.50045E+08
 
   -0.50225E+08         0.12394E+05         0.00000E+00
    0.12394E+05        -0.50000E+08         0.00000E+00
    0.00000E+00         0.00000E+00        -0.50045E+08
 
   -0.50224E+08         0.17349E+05         0.00000E+00
    0.17349E+05        -0.50001E+08         0.00000E+00
    0.00000E+00         0.00000E+00        -0.50045E+08
 
   -0.50224E+08         0.22291E+05         0.00000E+00
    0.22291E+05        -0.50001E+08         0.00000E+00
    0.00000E+00         0.00000E+00        -0.50045E+08
 
   -0.50223E+08         0.27211E+05         0.00000E+00
    0.27211E+05        -0.50002E+08         0.00000E+00
    0.00000E+00         0.00000E+00        -0.50045E+08
 
   -0.50222E+08         0.32105E+05         0.00000E+00
    0.32105E+05        -0.50002E+08         0.00000E+00
    0.00000E+00         0.00000E+00        -0.50045E+08
 
   -0.50221E+08         0.36967E+05         0.00000E+00
    0.36967E+05        -0.50003E+08         0.00000E+00
    0.00000E+00         0.00000E+00        -0.50045E+08
 
   -0.50220E+08         0.41789E+05         0.00000E+00
    0.41789E+05        -0.50004E+08         0.00000E+00
    0.00000E+00         0.00000E+00        -0.50045E+08
 
   -0.50218E+08         0.46566E+05         0.00000E+00
    0.46566E+05        -0.50005E+08         0.00000E+00
    0.00000E+00         0.00000E+00        -0.50045E+08
 
   -0.50216E+08         0.51293E+05         0.00000E+00
    0.51293E+05        -0.50006E+08         0.00000E+00
    0.00000E+00         0.00000E+00        -0.50044E+08
 
   -0.50214E+08         0.55964E+05         0.00000E+00
    0.55964E+05        -0.50007E+08         0.00000E+00
    0.00000E+00         0.00000E+00        -0.50044E+08
 
   -0.50212E+08         0.60575E+05         0.00000E+00
    0.60575E+05        -0.50009E+08         0.00000E+00
    0.00000E+00         0.00000E+00        -0.50044E+08
 
   -0.50210E+08         0.65120E+05         0.00000E+00
    0.65120E+05        -0.50010E+08         0.00000E+00
    0.00000E+00         0.00000E+00        -0.50044E+08
 
   -0.50207E+08         0.69596E+05         0.00000E+00
    0.69596E+05        -0.50011E+08         0.00000E+00
    0.00000E+00         0.00000E+00        -0.50044E+08
 
   -0.50204E+08         0.73997E+05         0.00000E+00
    0.73997E+05        -0.50013E+08         0.00000E+00
    0.00000E+00         0.00000E+00        -0.50043E+08
 
   -0.50201E+08         0.78319E+05         0.00000E+00
    0.78319E+05        -0.50015E+08         0.00000E+00
    0.00000E+00         0.00000E+00        -0.50043E+08
 
   -0.50198E+08         0.82560E+05         0.00000E+00
    0.82560E+05        -0.50016E+08         0.00000E+00
    0.00000E+00         0.00000E+00        -0.50043E+08
 
   -0.50195E+08         0.86714E+05         0.00000E+00
    0.86714E+05        -0.50018E+08         0.00000E+00
    0.00000E+00         0.00000E+00        -0.50043E+08
 
   -0.50191E+08         0.90779E+05         0.00000E+00
    0.90779E+05        -0.50020E+08         0.00000E+00
    0.00000E+00         0.00000E+00        -0.50042E+08
 
   -0.50187E+08         0.94752E+05         0.00000E+00
    0.94752E+05        -0.50022E+08         0.00000E+00
    0.00000E+00         0.00000E+00        -0.50042E+08
 
   -0.50184E+08         0.98630E+05         0.00000E+00
    0.98630E+05        -0.50024E+08         0.00000E+00
    0.00000E+00         0.00000E+00        -0.50042E+08
 
   -0.50180E+08         0.10241E+06         0.00000E+00
    0.10241E+06        -0.50026E+08         0.00000E+00
    0.00000E+00         0.00000E+00        -0.50041E+08
 
   -0.50176E+08         0.10609E+06         0.00000E+00
    0.10609E+06        -0.50028E+08         0.00000E+00
    0.00000E+00         0.00000E+00        -0.50041E+08
 
   -0.50171E+08         0.10967E+06         0.00000E+00
    0.10967E+06        -0.50031E+08         0.00000E+00
    0.00000E+00         0.00000E+00        -0.50040E+08
 
   -0.50167E+08         0.11314E+06         0.00000E+00
    0.11314E+06        -0.50033E+08         0.00000E+00
    0.00000E+00         0.00000E+00        -0.50040E+08
 
   -0.50162E+08         0.11650E+06         0.00000E+00
    0.11650E+06        -0.50035E+08         0.00000E+00
    0.00000E+00         0.00000E+00        -0.50040E+08
 
   -0.50158E+08         0.11976E+06         0.00000E+00
    0.11976E+06        -0.50038E+08         0.00000E+00
    0.00000E+00         0.00000E+00        -0.50039E+08
 
   -0.50153E+08         0.12291E+06         0.00000E+00
    0.12291E+06        -0.50040E+08         0.00000E+00
    0.00000E+00         0.00000E+00        -0.50039E+08
 
   -0.50148E+08         0.12594E+06         0.00000E+00
    0.12594E+06        -0.50043E+08         0.00000E+00
    0.00000E+00         0.00000E+00        -0.50038E+08
 
   -0.50143E+08         0.12887E+06         0.00000E+00
    0.12887E+06        -0.50045E+08         0.00000E+00
    0.00000E+00         0.00000E+00        -0.50038E+08
 
   -0.50138E+08         0.13168E+06         0.00000E+00
    0.13168E+06        -0.50048E+08         0.00000E+00
    0.00000E+00         0.00000E+00        -0.50037E+08
 
   -0.50132E+08         0.13437E+06         0.00000E+00
    0.13437E+06        -0.50050E+08         0.00000E+00
    0.00000E+00         0.00000E+00        -0.50037E+08
 
   -0.50127E+08         0.13696E+06         0.00000E+00
    0.13696E+06        -0.50053E+08         0.00000E+00
    0.00000E+00         0.00000E+00        -0.50036E+08
 
   -0.50121E+08         0.13942E+06         0.00000E+00
    0.13942E+06        -0.50056E+08         0.00000E+00
    0.00000E+00         0.00000E+00        -0.50035E+08
 
   -0.50116E+08         0.14177E+06         0.00000E+00
    0.14177E+06        -0.50058E+08         0.00000E+00
    0.00000E+00         0.00000E+00        -0.50035E+08
 
   -0.50110E+08         0.14400E+06         0.00000E+00
    0.14400E+06        -0.50061E+08         0.00000E+00
    0.00000E+00         0.00000E+00        -0.50034E+08
 
   -0.50104E+08         0.14612E+06         0.00000E+00
    0.14612E+06        -0.50064E+08         0.00000E+00
    0.00000E+00         0.00000E+00        -0.50034E+08
 
   -0.50098E+08         0.14811E+06         0.00000E+00
    0.14811E+06        -0.50067E+08         0.00000E+00
    0.00000E+00         0.00000E+00        -0.50033E+08
 
   -0.50093E+08         0.14999E+06         0.00000E+00
    0.14999E+06        -0.50070E+08         0.00000E+00
    0.00000E+00         0.00000E+00        -0.50032E+08
 
   -0.50086E+08         0.15175E+06         0.00000E+00
    0.15175E+06        -0.50072E+08         0.00000E+00
    0.00000E+00         0.00000E+00        -0.50032E+08
 
   -0.50080E+08         0.15340E+06         0.00000E+00
    0.15340E+06        -0.50075E+08         0.00000E+00
    0.00000E+00         0.00000E+00        -0.50031E+08
 
   -0.50074E+08         0.15492E+06         0.00000E+00
    0.15492E+06        -0.50078E+08         0.00000E+00
    0.00000E+00         0.00000E+00        -0.50030E+08
 
   -0.50068E+08         0.15633E+06         0.00000E+00
    0.15633E+06        -0.50081E+08         0.00000E+00
    0.00000E+00         0.00000E+00        -0.50030E+08
 
   -0.50061E+08         0.15761E+06         0.00000E+00
    0.15761E+06        -0.50084E+08         0.00000E+00
    0.00000E+00         0.00000E+00        -0.50029E+08
 
   -0.50055E+08         0.15878E+06         0.00000E+00
    0.15878E+06        -0.50087E+08         0.00000E+00
    0.00000E+00         0.00000E+00        -0.50028E+08
 
   -0.50048E+08         0.15982E+06         0.00000E+00
    0.15982E+06        -0.50090E+08         0.00000E+00
    0.00000E+00         0.00000E+00        -0.50028E+08
 
   -0.50042E+08         0.16075E+06         0.00000E+00
    0.16075E+06        -0.50093E+08         0.00000E+00
    0.00000E+00         0.00000E+00        -0.50027E+08
 
   -0.50035E+08         0.16155E+06         0.00000E+00
    0.16155E+06        -0.50096E+08         0.00000E+00
    0.00000E+00         0.00000E+00        -0.50026E+08
 
   -0.50028E+08         0.16224E+06         0.00000E+00
    0.16224E+06        -0.50099E+08         0.00000E+00
    0.00000E+00         0.00000E+00        -0.50025E+08
 
   -0.50201E+08         0.22041E+04         0.00000E+00
    0.22041E+04        -0.50000E+08         0.00000E+00
    0.00000E+00         0.00000E+00        -0.50040E+08
 
   -0.50201E+08         0.66367E+04         0.00000E+00
    0.66367E+04        -0.50000E+08         0.00000E+00
    0.00000E+00         0.00000E+00        -0.50040E+08
 
   -0.50201E+08         0.11072E+05         0.00000E+00
    0.11072E+05        -0.50000E+08         0.00000E+00
    0.00000E+00         0.00000E+00        -0.50040E+08
 
   -0.50201E+08         0.15504E+05         0.00000E+00
    0.15504E+05        -0.50001E+08         0.00000E+00
    0.00000E+00         0.00000E+00        -0.50040E+08
 
   -0.50201E+08         0.19927E+05         0.00000E+00
    0.19927E+05        -0.50001E+08         0.00000E+00
    0.00000E+00         0.00000E+00        -0.50040E+08
 
   -0.50200E+08         0.24336E+05         0.00000E+00
    0.24336E+05        -0.50001E+08         0.00000E+00
    0.00000E+00         0.00000E+00        -0.50040E+08
 
   -0.50199E+08         0.28724E+05         0.00000E+00
    0.28724E+05        -0.50002E+08         0.00000E+00
    0.00000E+00         0.00000E+00        -0.50040E+08
 
   -0.50198E+08         0.33087E+05         0.00000E+00
    0.33087E+05        -0.50003E+08         0.00000E+00
    0.00000E+00         0.00000E+00        -0.50040E+08
 
   -0.50197E+08         0.37420E+05         0.00000E+00
    0.37420E+05        -0.50003E+08         0.00000E+00
    0.00000E+00         0.00000E+00        -0.50040E+08
 
   -0.50195E+08         0.41717E+05         0.00000E+00
    0.41717E+05        -0.50004E+08         0.00000E+00
    0.00000E+00         0.00000E+00        -0.50040E+08
 
   -0.50194E+08         0.45974E+05         0.00000E+00
    0.45974E+05        -0.50005E+08         0.00000E+00
    0.00000E+00         0.00000E+00        -0.50040E+08
 
   -0.50192E+08         0.50186E+05         0.00000E+00
    0.50186E+05        -0.50006E+08         0.00000E+00
    0.00000E+00         0.00000E+00        -0.50040E+08
 
   -0.50190E+08         0.54348E+05         0.00000E+00
    0.54348E+05        -0.50007E+08         0.00000E+00
    0.00000E+00         0.00000E+00        -0.50040E+08
 
   -0.50188E+08         0.58456E+05         0.00000E+00
    0.58456E+05        -0.50009E+08         0.00000E+00
    0.00000E+00         0.00000E+00        -0.50039E+08
 
   -0.50186E+08         0.62506E+05         0.00000E+00
    0.62506E+05        -0.50010E+08         0.00000E+00
    0.00000E+00         0.00000E+00        -0.50039E+08
 
   -0.50183E+08         0.66495E+05         0.00000E+00
    0.66495E+05        -0.50011E+08         0.00000E+00
    0.00000E+00         0.00000E+00        -0.50039E+08
 
   -0.50181E+08         0.70417E+05         0.00000E+00
    0.70417E+05        -0.50013E+08         0.00000E+00
    0.00000E+00         0.00000E+00        -0.50039E+08
 
   -0.50178E+08         0.74271E+05         0.00000E+00
    0.74271E+05        -0.50014E+08         0.00000E+00
    0.00000E+00         0.00000E+00        -0.50038E+08
 
   -0.50175E+08         0.78052E+05         0.00000E+00
    0.78052E+05        -0.50016E+08         0.00000E+00
    0.00000E+00         0.00000E+00        -0.50038E+08
 
   -0.50172E+08         0.81757E+05         0.00000E+00
    0.81757E+05        -0.50017E+08         0.00000E+00
    0.00000E+00         0.00000E+00        -0.50038E+08
 
   -0.50169E+08         0.85383E+05         0.00000E+00
    0.85383E+05        -0.50019E+08         0.00000E+00
    0.00000E+00         0.00000E+00        -0.50038E+08
 
   -0.50165E+08         0.88927E+05         0.00000E+00
    0.88927E+05        -0.50021E+08         0.00000E+00
    0.00000E+00         0.00000E+00        -0.50037E+08
 
   -0.50162E+08         0.92387E+05         0.00000E+00
    0.92387E+05        -0.50023E+08         0.00000E+00
    0.00000E+00         0.00000E+00        -0.50037E+08
 
   -0.50158E+08         0.95760E+05         0.00000E+00
    0.95760E+05        -0.50025E+08         0.00000E+00
    0.00000E+00         0.00000E+00        -0.50037E+08
 
   -0.50154E+08         0.99044E+05         0.00000E+00
    0.99044E+05        -0.50027E+08         0.00000E+00
    0.00000E+00         0.00000E+00        -0.50036E+08
 
   -0.50150E+08         0.10224E+06         0.00000E+00
    0.10224E+06        -0.50029E+08         0.00000E+00
    0.00000E+00         0.00000E+00        -0.50036E+08
 
   -0.50146E+08         0.10534E+06         0.00000E+00
    0.10534E+06        -0.50031E+08         0.00000E+00
    0.00000E+00         0.00000E+00        -0.50035E+08
 
   -0.50142E+08         0.10834E+06         0.00000E+00
    0.10834E+06        -0.50033E+08         0.00000E+00
    0.00000E+00         0.00000E+00        -0.50035E+08
 
   -0.50138E+08         0.11125E+06         0.00000E+00
    0.11125E+06        -0.50035E+08         0.00000E+00
    0.00000E+00         0.00000E+00        -0.50035E+08
 
   -0.50134E+08         0.11405E+06         0.00000E+00
    0.11405E+06        -0.50037E+08         0.00000E+00
    0.00000E+00         0.00000E+00        -0.50034E+08
 
   -0.50129E+08         0.11676E+06         0.00000E+00
    0.11676E+06        -0.50040E+08         0.00000E+00
    0.00000E+00         0.00000E+00        -0.50034E+08
 
   -0.50124E+08         0.11937E+06         0.00000E+00
    0.11937E+06        -0.50042E+08         0.00000E+00
    0.00000E+00         0.00000E+00        -0.50033E+08
 
   -0.50120E+08         0.12187E+06         0.00000E+00
    0.12187E+06        -0.50044E+08         0.00000E+00
    0.00000E+00         0.00000E+00        -0.50033E+08
 
   -0.50115E+08         0.12427E+06         0.00000E+00
    0.12427E+06        -0.50047E+08         0.00000E+00
    0.00000E+00         0.00000E+00        -0.50032E+08
 
   -0.50110E+08         0.12657E+06         0.00000E+00
    0.12657E+06        -0.50049E+08         0.00000E+00
    0.00000E+00         0.00000E+00        -0.50032E+08
 
   -0.50105E+08         0.12876E+06         0.00000E+00
    0.12876E+06        -0.50052E+08         0.00000E+00
    0.00000E+00         0.00000E+00        -0.50031E+08
 
   -0.50100E+08         0.13084E+06         0.00000E+00
    0.13084E+06        -0.50054E+08         0.00000E+00
    0.00000E+00         0.00000E+00        -0.50031E+08
 
   -0.50094E+08         0.13281E+06         0.00000E+00
    0.13281E+06        -0.50057E+08         0.00000E+00
    0.00000E+00         0.00000E+00        -0.50030E+08
 
   -0.50089E+08         0.13468E+06         0.00000E+00
    0.13468E+06        -0.50059E+08         0.00000E+00
    0.00000E+00         0.00000E+00        -0.50030E+08
 
   -0.50084E+08         0.13643E+06         0.00000E+00
    0.13643E+06        -0.50062E+08         0.00000E+00
    0.00000E+00         0.00000E+00        -0.50029E+08
 
   -0.50078E+08         0.13808E+06         0.00000E+00
    0.13808E+06        -0.50064E+08         0.00000E+00
    0.00000E+00         0.00000E+00        -0.50028E+08
 
   -0.50073E+08         0.13962E+06         0.00000E+00
    0.13962E+06        -0.50067E+08         0.00000E+00
    0.00000E+00         0.00000E+00        -0.50028E+08
 
   -0.50067E+08         0.14104E+06         0.00000E+00
    0.14104E+06        -0.50069E+08         0.00000E+00
    0.00000E+00         0.00000E+00        -0.50027E+08
 
   -0.50061E+08         0.14235E+06         0.00000E+00
    0.14235E+06        -0.50072E+08         0.00000E+00
    0.00000E+00         0.00000E+00        -0.50027E+08
 
   -0.50056E+08         0.14355E+06         0.00000E+00
    0.14355E+06        -0.50075E+08         0.00000E+00
    0.00000E+00         0.00000E+00        -0.50026E+08
 
   -0.50050E+08         0.14464E+06         0.00000E+00
    0.14464E+06        -0.50078E+08         0.00000E+00
    0.00000E+00         0.00000E+00        -0.50025E+08
 
   -0.50044E+08         0.14561E+06         0.00000E+00
    0.14561E+06        -0.50080E+08         0.00000E+00
    0.00000E+00         0.00000E+00        -0.50025E+08
 
   -0.50038E+08         0.14647E+06         0.00000E+00
    0.14647E+06        -0.50083E+08         0.00000E+00
    0.00000E+00         0.00000E+00        -0.50024E+08
 
   -0.50032E+08         0.14721E+06         0.00000E+00
    0.14721E+06        -0.50086E+08         0.00000E+00
    0.00000E+00         0.00000E+00        -0.50023E+08
 
   -0.50026E+08         0.14784E+06         0.00000E+00
    0.14784E+06        -0.50088E+08         0.00000E+00
    0.00000E+00         0.00000E+00        -0.50023E+08
 
   -0.50180E+08         0.19771E+04         0.00000E+00
    0.19771E+04        -0.50000E+08         0.00000E+00
    0.00000E+00         0.00000E+00        -0.50036E+08
 
   -0.50180E+08         0.59556E+04         0.00000E+00
    0.59556E+04        -0.50000E+08         0.00000E+00
    0.00000E+00         0.00000E+00        -0.50036E+08
 
   -0.50180E+08         0.99378E+04         0.00000E+00
    0.99378E+04        -0.50000E+08         0.00000E+00
    0.00000E+00         0.00000E+00        -0.50036E+08
 
   -0.50180E+08         0.13919E+05         0.00000E+00
    0.13919E+05        -0.50000E+08         0.00000E+00
    0.00000E+00         0.00000E+00        -0.50036E+08
 
   -0.50180E+08         0.17894E+05         0.00000E+00
    0.17894E+05        -0.50001E+08         0.00000E+00
    0.00000E+00         0.00000E+00        -0.50036E+08
 
   -0.50179E+08         0.21859E+05         0.00000E+00
    0.21859E+05        -0.50001E+08         0.00000E+00
    0.00000E+00         0.00000E+00        -0.50036E+08
 
   -0.50178E+08         0.25808E+05         0.00000E+00
    0.25808E+05        -0.50002E+08         0.00000E+00
    0.00000E+00         0.00000E+00        -0.50036E+08
 
   -0.50177E+08         0.29737E+05         0.00000E+00
    0.29737E+05        -0.50002E+08         0.00000E+00
    0.00000E+00         0.00000E+00        -0.50036E+08
 
   -0.50176E+08         0.33641E+05         0.00000E+00
    0.33641E+05        -0.50003E+08         0.00000E+00
    0.00000E+00         0.00000E+00        -0.50036E+08
 
   -0.50175E+08         0.37517E+05         0.00000E+00
    0.37517E+05        -0.50004E+08         0.00000E+00
    0.00000E+00         0.00000E+00        -0.50036E+08
 
   -0.50174E+08         0.41360E+05         0.00000E+00
    0.41360E+05        -0.50005E+08         0.00000E+00
    0.00000E+00         0.00000E+00        -0.50036E+08
 
   -0.50172E+08         0.45166E+05         0.00000E+00
    0.45166E+05        -0.50005E+08         0.00000E+00
    0.00000E+00         0.00000E+00        -0.50036E+08
 
   -0.50170E+08         0.48930E+05         0.00000E+00
    0.48930E+05        -0.50006E+08         0.00000E+00
    0.00000E+00         0.00000E+00        -0.50035E+08
 
   -0.50169E+08         0.52650E+05         0.00000E+00
    0.52650E+05        -0.50007E+08         0.00000E+00
    0.00000E+00         0.00000E+00        -0.50035E+08
 
   -0.50167E+08         0.56321E+05         0.00000E+00
    0.56321E+05        -0.50009E+08         0.00000E+00
    0.00000E+00         0.00000E+00        -0.50035E+08
 
   -0.50164E+08         0.59939E+05         0.00000E+00
    0.59939E+05        -0.50010E+08         0.00000E+00
    0.00000E+00         0.00000E+00        -0.50035E+08
 
   -0.50162E+08         0.63502E+05         0.00000E+00
    0.63502E+05        -0.50011E+08         0.00000E+00
    0.00000E+00         0.00000E+00        -0.50035E+08
 
   -0.50160E+08         0.67006E+05         0.00000E+00
    0.67006E+05        -0.50012E+08         0.00000E+00
    0.00000E+00         0.00000E+00        -0.50034E+08
 
   -0.50157E+08         0.70448E+05         0.00000E+00
    0.70448E+05        -0.50014E+08         0.00000E+00
    0.00000E+00         0.00000E+00        -0.50034E+08
 
   -0.50154E+08         0.73825E+05         0.00000E+00
    0.73825E+05        -0.50015E+08         0.00000E+00
    0.00000E+00         0.00000E+00        -0.50034E+08
 
   -0.50152E+08         0.77134E+05         0.00000E+00
    0.77134E+05        -0.50017E+08         0.00000E+00
    0.00000E+00         0.00000E+00        -0.50034E+08
 
   -0.50149E+08         0.80372E+05         0.00000E+00
    0.80372E+05        -0.50018E+08         0.00000E+00
    0.00000E+00         0.00000E+00        -0.50033E+08
 
   -0.50145E+08         0.83537E+05         0.00000E+00
    0.83537E+05        -0.50020E+08         0.00000E+00
    0.00000E+00         0.00000E+00        -0.50033E+08
 
   -0.50142E+08         0.86626E+05         0.00000E+00
    0.86626E+05        -0.50022E+08         0.00000E+00
    0.00000E+00         0.00000E+00        -0.50033E+08
 
   -0.50139E+08         0.89636E+05         0.00000E+00
    0.89636E+05        -0.50023E+08         0.00000E+00
    0.00000E+00         0.00000E+00        -0.50032E+08
 
   -0.50135E+08         0.92567E+05         0.00000E+00
    0.92567E+05        -0.50025E+08         0.00000E+00
    0.00000E+00         0.00000E+00        -0.50032E+08
 
   -0.50132E+08         0.95415E+05         0.00000E+00
    0.95415E+05        -0.50027E+08         0.00000E+00
    0.00000E+00         0.00000E+00        -0.50032E+08
 
   -0.50128E+08         0.98179E+05         0.00000E+00
    0.98179E+05        -0.50029E+08         0.00000E+00
    0.00000E+00         0.00000E+00        -0.50031E+08
 
   -0.50124E+08         0.10086E+06         0.00000E+00
    0.10086E+06        -0.50031E+08         0.00000E+00
    0.00000E+00         0.00000E+00        -0.50031E+08
 
   -0.50120E+08         0.10345E+06         0.00000E+00
    0.10345E+06        -0.50033E+08         0.00000E+00
    0.00000E+00         0.00000E+00        -0.50031E+08
 
   -0.50116E+08         0.10595E+06         0.00000E+00
    0.10595E+06        -0.50035E+08         0.00000E+00
    0.00000E+00         0.00000E+00        -0.50030E+08
 
   -0.50112E+08         0.10835E+06         0.00000E+00
    0.10835E+06        -0.50037E+08         0.00000E+00
    0.00000E+00         0.00000E+00        -0.50030E+08
 
   -0.50108E+08         0.11067E+06         0.00000E+00
    0.11067E+06        -0.50039E+08         0.00000E+00
    0.00000E+00         0.00000E+00        -0.50029E+08
 
   -0.50103E+08         0.11289E+06         0.00000E+00
    0.11289E+06        -0.50041E+08         0.00000E+00
    0.00000E+00         0.00000E+00        -0.50029E+08
 
   -0.50099E+08         0.11502E+06         0.00000E+00
    0.11502E+06        -0.50043E+08         0.00000E+00
    0.00000E+00         0.00000E+00        -0.50028E+08
 
   -0.50095E+08         0.11705E+06         0.00000E+00
    0.11705E+06        -0.50046E+08         0.00000E+00
    0.00000E+00         0.00000E+00        -0.50028E+08
 
   -0.50090E+08         0.11898E+06         0.00000E+00
    0.11898E+06        -0.50048E+08         0.00000E+00
    0.00000E+00         0.00000E+00        -0.50028E+08
 
   -0.50085E+08         0.12081E+06         0.00000E+00
    0.12081E+06        -0.50050E+08         0.00000E+00
    0.00000E+00         0.00000E+00        -0.50027E+08
 
   -0.50080E+08         0.12255E+06         0.00000E+00
    0.12255E+06        -0.50052E+08         0.00000E+00
    0.00000E+00         0.00000E+00        -0.50027E+08
 
   -0.50076E+08         0.12418E+06         0.00000E+00
    0.12418E+06        -0.50055E+08         0.00000E+00
    0.00000E+00         0.00000E+00        -0.50026E+08
 
   -0.50071E+08         0.12571E+06         0.00000E+00
    0.12571E+06        -0.50057E+08         0.00000E+00
    0.00000E+00         0.00000E+00        -0.50026E+08
 
   -0.50066E+08         0.12714E+06         0.00000E+00
    0.12714E+06        -0.50059E+08         0.00000E+00
    0.00000E+00         0.00000E+00        -0.50025E+08
 
   -0.50060E+08         0.12846E+06         0.00000E+00
    0.12846E+06        -0.50062E+08         0.00000E+00
    0.00000E+00         0.00000E+00        -0.50024E+08
 
   -0.50055E+08         0.12968E+06         0.00000E+00
    0.12968E+06        -0.50064E+08         0.00000E+00
    0.00000E+00         0.00000E+00        -0.50024E+08
 
   -0.50050E+08         0.13079E+06         0.00000E+00
    0.13079E+06        -0.50067E+08         0.00000E+00
    0.00000E+00         0.00000E+00        -0.50023E+08
 
   -0.50045E+08         0.13180E+06         0.00000E+00
    0.13180E+06        -0.50069E+08         0.00000E+00
    0.00000E+00         0.00000E+00        -0.50023E+08
 
   -0.50039E+08         0.13270E+06         0.00000E+00
    0.13270E+06        -0.50071E+08         0.00000E+00
    0.00000E+00         0.00000E+00        -0.50022E+08
 
   -0.50034E+08         0.13349E+06         0.00000E+00
    0.13349E+06        -0.50074E+08         0.00000E+00
    0.00000E+00         0.00000E+00        -0.50022E+08
 
   -0.50028E+08         0.13417E+06         0.00000E+00
    0.13417E+06        -0.50076E+08         0.00000E+00
    0.00000E+00         0.00000E+00        -0.50021E+08
 
   -0.50023E+08         0.13474E+06         0.00000E+00
    0.13474E+06        -0.50079E+08         0.00000E+00
    0.00000E+00         0.00000E+00        -0.50020E+08
 
   -0.50161E+08         0.17825E+04         0.00000E+00
    0.17825E+04        -0.50000E+08         0.00000E+00
    0.00000E+00         0.00000E+00        -0.50032E+08
 
   -0.50161E+08         0.53698E+04         0.00000E+00
    0.53698E+04        -0.50000E+08         0.00000E+00
    0.00000E+00         0.00000E+00        -0.50032E+08
 
   -0.50161E+08         0.89612E+04         0.00000E+00
    0.89612E+04        -0.50000E+08         0.00000E+00
    0.00000E+00         0.00000E+00        -0.50032E+08
 
   -0.50161E+08         0.12552E+05         0.00000E+00
    0.12552E+05        -0.50000E+08         0.00000E+00
    0.00000E+00         0.00000E+00        -0.50032E+08
 
   -0.50161E+08         0.16139E+05         0.00000E+00
    0.16139E+05        -0.50001E+08         0.00000E+00
    0.00000E+00         0.00000E+00        -0.50032E+08
 
   -0.50160E+08         0.19718E+05         0.00000E+00
    0.19718E+05        -0.50001E+08         0.00000E+00
    0.00000E+00         0.00000E+00        -0.50032E+08
 
   -0.50160E+08         0.23284E+05         0.00000E+00
    0.23284E+05        -0.50001E+08         0.00000E+00
    0.00000E+00         0.00000E+00        -0.50032E+08
 
   -0.50159E+08         0.26834E+05         0.00000E+00
    0.26834E+05        -0.50002E+08         0.00000E+00
    0.00000E+00         0.00000E+00        -0.50032E+08
 
   -0.50158E+08         0.30364E+05         0.00000E+00
    0.30364E+05        -0.50003E+08         0.00000E+00
    0.00000E+00         0.00000E+00        -0.50032E+08
 
   -0.50157E+08         0.33870E+05         0.00000E+00
    0.33870E+05        -0.50003E+08         0.00000E+00
    0.00000E+00         0.00000E+00        -0.50032E+08
 
   -0.50156E+08         0.37349E+05         0.00000E+00
    0.37349E+05        -0.50004E+08         0.00000E+00
    0.00000E+00         0.00000E+00        -0.50032E+08
 
   -0.50154E+08         0.40796E+05         0.00000E+00
    0.40796E+05        -0.50005E+08         0.00000E+00
    0.00000E+00         0.00000E+00        -0.50032E+08
 
   -0.50153E+08         0.44209E+05         0.00000E+00
    0.44209E+05        -0.50006E+08         0.00000E+00
    0.00000E+00         0.00000E+00        -0.50032E+08
 
   -0.50151E+08         0.47583E+05         0.00000E+00
    0.47583E+05        -0.50006E+08         0.00000E+00
    0.00000E+00         0.00000E+00        -0.50032E+08
 
   -0.50149E+08         0.50916E+05         0.00000E+00
    0.50916E+05        -0.50007E+08         0.00000E+00
    0.00000E+00         0.00000E+00        -0.50031E+08
 
   -0.50147E+08         0.54204E+05         0.00000E+00
    0.54204E+05        -0.50009E+08         0.00000E+00
    0.00000E+00         0.00000E+00        -0.50031E+08
 
   -0.50145E+08         0.57444E+05         0.00000E+00
    0.57444E+05        -0.50010E+08         0.00000E+00
    0.00000E+00         0.00000E+00        -0.50031E+08
 
   -0.50143E+08         0.60634E+05         0.00000E+00
    0.60634E+05        -0.50011E+08         0.00000E+00
    0.00000E+00         0.00000E+00        -0.50031E+08
 
   -0.50141E+08         0.63770E+05         0.00000E+00
    0.63770E+05        -0.50012E+08         0.00000E+00
    0.00000E+00         0.00000E+00        -0.50031E+08
 
   -0.50138E+08         0.66849E+05         0.00000E+00
    0.66849E+05        -0.50013E+08         0.00000E+00
    0.00000E+00         0.00000E+00        -0.50030E+08
 
   -0.50136E+08         0.69869E+05         0.00000E+00
    0.69869E+05        -0.50015E+08         0.00000E+00
    0.00000E+00         0.00000E+00        -0.50030E+08
 
   -0.50133E+08         0.72827E+05         0.00000E+00
    0.72827E+05        -0.50016E+08         0.00000E+00
    0.00000E+00         0.00000E+00        -0.50030E+08
 
   -0.50131E+08         0.75721E+05         0.00000E+00
    0.75721E+05        -0.50017E+08         0.00000E+00
    0.00000E+00         0.00000E+00        -0.50030E+08
 
   -0.50128E+08         0.78549E+05         0.00000E+00
    0.78549E+05        -0.50019E+08         0.00000E+00
    0.00000E+00         0.00000E+00        -0.50029E+08
 
   -0.50125E+08         0.81307E+05         0.00000E+00
    0.81307E+05        -0.50020E+08         0.00000E+00
    0.00000E+00         0.00000E+00        -0.50029E+08
 
   -0.50122E+08         0.83995E+05         0.00000E+00
    0.83995E+05        -0.50022E+08         0.00000E+00
    0.00000E+00         0.00000E+00        -0.50029E+08
 
   -0.50118E+08         0.86609E+05         0.00000E+00
    0.86609E+05        -0.50024E+08         0.00000E+00
    0.00000E+00         0.00000E+00        -0.50028E+08
 
   -0.50115E+08         0.89148E+05         0.00000E+00
    0.89148E+05        -0.50025E+08         0.00000E+00
    0.00000E+00         0.00000E+00        -0.50028E+08
 
   -0.50112E+08         0.91610E+05         0.00000E+00
    0.91610E+05        -0.50027E+08         0.00000E+00
    0.00000E+00         0.00000E+00        -0.50028E+08
 
   -0.50108E+08         0.93993E+05         0.00000E+00
    0.93993E+05        -0.50029E+08         0.00000E+00
    0.00000E+00         0.00000E+00        -0.50027E+08
 
   -0.50104E+08         0.96295E+05         0.00000E+00
    0.96295E+05        -0.50031E+08         0.00000E+00
    0.00000E+00         0.00000E+00        -0.50027E+08
 
   -0.50101E+08         0.98516E+05         0.00000E+00
    0.98516E+05        -0.50033E+08         0.00000E+00
    0.00000E+00         0.00000E+00        -0.50027E+08
 
   -0.50097E+08         0.10065E+06         0.00000E+00
    0.10065E+06        -0.50034E+08         0.00000E+00
    0.00000E+00         0.00000E+00        -0.50026E+08
 
   -0.50093E+08         0.10270E+06         0.00000E+00
    0.10270E+06        -0.50036E+08         0.00000E+00
    0.00000E+00         0.00000E+00        -0.50026E+08
 
   -0.50089E+08         0.10467E+06         0.00000E+00
    0.10467E+06        -0.50038E+08         0.00000E+00
    0.00000E+00         0.00000E+00        -0.50025E+08
 
   -0.50085E+08         0.10654E+06         0.00000E+00
    0.10654E+06        -0.50040E+08         0.00000E+00
    0.00000E+00         0.00000E+00        -0.50025E+08
 
   -0.50081E+08         0.10833E+06         0.00000E+00
    0.10833E+06        -0.50042E+08         0.00000E+00
    0.00000E+00         0.00000E+00        -0.50025E+08
 
   -0.50077E+08         0.11003E+06         0.00000E+00
    0.11003E+06        -0.50044E+08         0.00000E+00
    0.00000E+00         0.00000E+00        -0.50024E+08
 
   -0.50072E+08         0.11163E+06         0.00000E+00
    0.11163E+06        -0.50046E+08         0.00000E+00
    0.00000E+00         0.00000E+00        -0.50024E+08
 
   -0.50068E+08         0.11314E+06         0.00000E+00
    0.11314E+06        -0.50048E+08         0.00000E+00
    0.00000E+00         0.00000E+00        -0.50023E+08
 
   -0.50063E+08         0.11456E+06         0.00000E+00
    0.11456E+06        -0.50051E+08         0.00000E+00
    0.00000E+00         0.00000E+00        -0.50023E+08
 
   -0.50059E+08         0.11588E+06         0.00000E+00
    0.11588E+06        -0.50053E+08         0.00000E+00
    0.00000E+00         0.00000E+00        -0.50022E+08
 
   -0.50054E+08         0.11710E+06         0.00000E+00
    0.11710E+06        -0.50055E+08         0.00000E+00
    0.00000E+00         0.00000E+00        -0.50022E+08
 
   -0.50050E+08         0.11823E+06         0.00000E+00
    0.11823E+06        -0.50057E+08         0.00000E+00
    0.00000E+00         0.00000E+00        -0.50021E+08
 
   -0.50045E+08         0.11926E+06         0.00000E+00
    0.11926E+06        -0.50059E+08         0.00000E+00
    0.00000E+00         0.00000E+00        -0.50021E+08
 
   -0.50040E+08         0.12019E+06         0.00000E+00
    0.12019E+06        -0.50061E+08         0.00000E+00
    0.00000E+00         0.00000E+00        -0.50020E+08
 
   -0.50035E+08         0.12102E+06         0.00000E+00
    0.12102E+06        -0.50064E+08         0.00000E+00
    0.00000E+00         0.00000E+00        -0.50020E+08
 
   -0.50030E+08         0.12174E+06         0.00000E+00
    0.12174E+06        -0.50066E+08         0.00000E+00
    0.00000E+00         0.00000E+00        -0.50019E+08
 
   -0.50025E+08         0.12237E+06         0.00000E+00
    0.12237E+06        -0.50068E+08         0.00000E+00
    0.00000E+00         0.00000E+00        -0.50019E+08
 
   -0.50020E+08         0.12289E+06         0.00000E+00
    0.12289E+06        -0.50070E+08         0.00000E+00
    0.00000E+00         0.00000E+00        -0.50018E+08
 
   -0.50144E+08         0.16149E+04         0.00000E+00
    0.16149E+04        -0.50000E+08         0.00000E+00
    0.00000E+00         0.00000E+00        -0.50029E+08
 
   -0.50144E+08         0.48640E+04         0.00000E+00
    0.48640E+04        -0.50000E+08         0.00000E+00
    0.00000E+00         0.00000E+00        -0.50029E+08
 
   -0.50144E+08         0.81169E+04         0.00000E+00
    0.81169E+04        -0.50000E+08         0.00000E+00
    0.00000E+00         0.00000E+00        -0.50029E+08
 
   -0.50144E+08         0.11370E+05         0.00000E+00
    0.11370E+05        -0.50000E+08         0.00000E+00
    0.00000E+00         0.00000E+00        -0.50029E+08
 
   -0.50144E+08         0.14620E+05         0.00000E+00
    0.14620E+05        -0.50001E+08         0.00000E+00
    0.00000E+00         0.00000E+00        -0.50029E+08
 
   -0.50143E+08         0.17862E+05         0.00000E+00
    0.17862E+05        -0.50001E+08         0.00000E+00
    0.00000E+00         0.00000E+00        -0.50029E+08
 
   -0.50143E+08         0.21095E+05         0.00000E+00
    0.21095E+05        -0.50001E+08         0.00000E+00
    0.00000E+00         0.00000E+00        -0.50029E+08
 
   -0.50142E+08         0.24314E+05         0.00000E+00
    0.24314E+05        -0.50002E+08         0.00000E+00
    0.00000E+00         0.00000E+00        -0.50029E+08
 
   -0.50141E+08         0.27515E+05         0.00000E+00
    0.27515E+05        -0.50002E+08         0.00000E+00
    0.00000E+00         0.00000E+00        -0.50029E+08
 
   -0.50140E+08         0.30697E+05         0.00000E+00
    0.30697E+05        -0.50003E+08         0.00000E+00
    0.00000E+00         0.00000E+00        -0.50029E+08
 
   -0.50139E+08         0.33855E+05         0.00000E+00
    0.33855E+05        -0.50003E+08         0.00000E+00
    0.00000E+00         0.00000E+00        -0.50028E+08
 
   -0.50138E+08         0.36986E+05         0.00000E+00
    0.36986E+05        -0.50004E+08         0.00000E+00
    0.00000E+00         0.00000E+00        -0.50028E+08
 
   -0.50136E+08         0.40087E+05         0.00000E+00
    0.40087E+05        -0.50005E+08         0.00000E+00
    0.00000E+00         0.00000E+00        -0.50028E+08
 
   -0.50135E+08         0.43155E+05         0.00000E+00
    0.43155E+05        -0.50006E+08         0.00000E+00
    0.00000E+00         0.00000E+00        -0.50028E+08
 
   -0.50133E+08         0.46187E+05         0.00000E+00
    0.46187E+05        -0.50007E+08         0.00000E+00
    0.00000E+00         0.00000E+00        -0.50028E+08
 
   -0.50132E+08         0.49181E+05         0.00000E+00
    0.49181E+05        -0.50007E+08         0.00000E+00
    0.00000E+00         0.00000E+00        -0.50028E+08
 
   -0.50130E+08         0.52133E+05         0.00000E+00
    0.52133E+05        -0.50008E+08         0.00000E+00
    0.00000E+00         0.00000E+00        -0.50028E+08
 
   -0.50128E+08         0.55040E+05         0.00000E+00
    0.55040E+05        -0.50009E+08         0.00000E+00
    0.00000E+00         0.00000E+00        -0.50027E+08
 
   -0.50126E+08         0.57901E+05         0.00000E+00
    0.57901E+05        -0.50010E+08         0.00000E+00
    0.00000E+00         0.00000E+00        -0.50027E+08
 
   -0.50124E+08         0.60711E+05         0.00000E+00
    0.60711E+05        -0.50012E+08         0.00000E+00
    0.00000E+00         0.00000E+00        -0.50027E+08
 
   -0.50122E+08         0.63470E+05         0.00000E+00
    0.63470E+05        -0.50013E+08         0.00000E+00
    0.00000E+00         0.00000E+00        -0.50027E+08
 
   -0.50119E+08         0.66175E+05         0.00000E+00
    0.66175E+05        -0.50014E+08         0.00000E+00
    0.00000E+00         0.00000E+00        -0.50027E+08
 
   -0.50117E+08         0.68822E+05         0.00000E+00
    0.68822E+05        -0.50015E+08         0.00000E+00
    0.00000E+00         0.00000E+00        -0.50026E+08
 
   -0.50114E+08         0.71410E+05         0.00000E+00
    0.71410E+05        -0.50017E+08         0.00000E+00
    0.00000E+00         0.00000E+00        -0.50026E+08
 
   -0.50112E+08         0.73938E+05         0.00000E+00
    0.73938E+05        -0.50018E+08         0.00000E+00
    0.00000E+00         0.00000E+00        -0.50026E+08
 
   -0.50109E+08         0.76401E+05         0.00000E+00
    0.76401E+05        -0.50019E+08         0.00000E+00
    0.00000E+00         0.00000E+00        -0.50026E+08
 
   -0.50106E+08         0.78800E+05         0.00000E+00
    0.78800E+05        -0.50021E+08         0.00000E+00
    0.00000E+00         0.00000E+00        -0.50025E+08
 
   -0.50103E+08         0.81130E+05         0.00000E+00
    0.81130E+05        -0.50022E+08         0.00000E+00
    0.00000E+00         0.00000E+00        -0.50025E+08
 
   -0.50100E+08         0.83392E+05         0.00000E+00
    0.83392E+05        -0.50024E+08         0.00000E+00
    0.00000E+00         0.00000E+00        -0.50025E+08
 
   -0.50097E+08         0.85583E+05         0.00000E+00
    0.85583E+05        -0.50025E+08         0.00000E+00
    0.00000E+00         0.00000E+00        -0.50024E+08
 
   -0.50094E+08         0.87701E+05         0.00000E+00
    0.87701E+05        -0.50027E+08         0.00000E+00
    0.00000E+00         0.00000E+00        -0.50024E+08
 
   -0.50090E+08         0.89744E+05         0.00000E+00
    0.89744E+05        -0.50029E+08         0.00000E+00
    0.00000E+00         0.00000E+00        -0.50024E+08
 
   -0.50087E+08         0.91712E+05         0.00000E+00
    0.91712E+05        -0.50030E+08         0.00000E+00
    0.00000E+00         0.00000E+00        -0.50023E+08
 
   -0.50083E+08         0.93601E+05         0.00000E+00
    0.93601E+05        -0.50032E+08         0.00000E+00
    0.00000E+00         0.00000E+00        -0.50023E+08
 
   -0.50080E+08         0.95412E+05         0.00000E+00
    0.95412E+05        -0.50034E+08         0.00000E+00
    0.00000E+00         0.00000E+00        -0.50023E+08
 
   -0.50076E+08         0.97142E+05         0.00000E+00
    0.97142E+05        -0.50036E+08         0.00000E+00
    0.00000E+00         0.00000E+00        -0.50022E+08
 
   -0.50072E+08         0.98790E+05         0.00000E+00
    0.98790E+05        -0.50037E+08         0.00000E+00
    0.00000E+00         0.00000E+00        -0.50022E+08
 
   -0.50069E+08         0.10036E+06         0.00000E+00
    0.10036E+06        -0.50039E+08         0.00000E+00
    0.00000E+00         0.00000E+00        -0.50022E+08
 
   -0.50065E+08         0.10184E+06         0.00000E+00
    0.10184E+06        -0.50041E+08         0.00000E+00
    0.00000E+00         0.00000E+00        -0.50021E+08
 
   -0.50061E+08         0.10323E+06         0.00000E+00
    0.10323E+06        -0.50043E+08         0.00000E+00
    0.00000E+00         0.00000E+00        -0.50021E+08
 
   -0.50057E+08         0.10454E+06         0.00000E+00
    0.10454E+06        -0.50045E+08         0.00000E+00
    0.00000E+00         0.00000E+00        -0.50020E+08
 
   -0.50053E+08         0.10576E+06         0.00000E+00
    0.10576E+06        -0.50047E+08         0.00000E+00
    0.00000E+00         0.00000E+00        -0.50020E+08
 
   -0.50049E+08         0.10689E+06         0.00000E+00
    0.10689E+06        -0.50049E+08         0.00000E+00
    0.00000E+00         0.00000E+00        -0.50019E+08
 
   -0.50044E+08         0.10793E+06         0.00000E+00
    0.10793E+06        -0.50051E+08         0.00000E+00
    0.00000E+00         0.00000E+00        -0.50019E+08
 
   -0.50040E+08         0.10887E+06         0.00000E+00
    0.10887E+06        -0.50052E+08         0.00000E+00
    0.00000E+00         0.00000E+00        -0.50019E+08
 
   -0.50036E+08         0.10973E+06         0.00000E+00
    0.10973E+06        -0.50054E+08         0.00000E+00
    0.00000E+00         0.00000E+00        -0.50018E+08
 
   -0.50032E+08         0.11049E+06         0.00000E+00
    0.11049E+06        -0.50056E+08         0.00000E+00
    0.00000E+00         0.00000E+00        -0.50018E+08
 
   -0.50027E+08         0.11116E+06         0.00000E+00
    0.11116E+06        -0.50058E+08         0.00000E+00
    0.00000E+00         0.00000E+00        -0.50017E+08
 
   -0.50023E+08         0.11173E+06         0.00000E+00
    0.11173E+06        -0.50060E+08         0.00000E+00
    0.00000E+00         0.00000E+00        -0.50017E+08
 
   -0.50018E+08         0.11220E+06         0.00000E+00
    0.11220E+06        -0.50062E+08         0.00000E+00
    0.00000E+00         0.00000E+00        -0.50016E+08
 
   -0.50129E+08         0.14698E+04         0.00000E+00
    0.14698E+04        -0.50000E+08         0.00000E+00
    0.00000E+00         0.00000E+00        -0.50026E+08
 
   -0.50129E+08         0.44256E+04         0.00000E+00
    0.44256E+04        -0.50000E+08         0.00000E+00
    0.00000E+00         0.00000E+00        -0.50026E+08
 
   -0.50129E+08         0.73845E+04         0.00000E+00
    0.73845E+04        -0.50000E+08         0.00000E+00
    0.00000E+00         0.00000E+00        -0.50026E+08
 
   -0.50128E+08         0.10343E+05         0.00000E+00
    0.10343E+05        -0.50000E+08         0.00000E+00
    0.00000E+00         0.00000E+00        -0.50026E+08
 
   -0.50128E+08         0.13299E+05         0.00000E+00
    0.13299E+05        -0.50001E+08         0.00000E+00
    0.00000E+00         0.00000E+00        -0.50026E+08
 
   -0.50128E+08         0.16249E+05         0.00000E+00
    0.16249E+05        -0.50001E+08         0.00000E+00
    0.00000E+00         0.00000E+00        -0.50026E+08
 
   -0.50127E+08         0.19190E+05         0.00000E+00
    0.19190E+05        -0.50001E+08         0.00000E+00
    0.00000E+00         0.00000E+00        -0.50026E+08
 
   -0.50127E+08         0.22119E+05         0.00000E+00
    0.22119E+05        -0.50002E+08         0.00000E+00
    0.00000E+00         0.00000E+00        -0.50026E+08
 
   -0.50126E+08         0.25033E+05         0.00000E+00
    0.25033E+05        -0.50002E+08         0.00000E+00
    0.00000E+00         0.00000E+00        -0.50026E+08
 
   -0.50125E+08         0.27930E+05         0.00000E+00
    0.27930E+05        -0.50002E+08         0.00000E+00
    0.00000E+00         0.00000E+00        -0.50025E+08
 
   -0.50124E+08         0.30805E+05         0.00000E+00
    0.30805E+05        -0.50003E+08         0.00000E+00
    0.00000E+00         0.00000E+00        -0.50025E+08
 
   -0.50123E+08         0.33657E+05         0.00000E+00
    0.33657E+05        -0.50004E+08         0.00000E+00
    0.00000E+00         0.00000E+00        -0.50025E+08
 
   -0.50122E+08         0.36483E+05         0.00000E+00
    0.36483E+05        -0.50004E+08         0.00000E+00
    0.00000E+00         0.00000E+00        -0.50025E+08
 
   -0.50120E+08         0.39281E+05         0.00000E+00
    0.39281E+05        -0.50005E+08         0.00000E+00
    0.00000E+00         0.00000E+00        -0.50025E+08
 
   -0.50119E+08         0.42046E+05         0.00000E+00
    0.42046E+05        -0.50006E+08         0.00000E+00
    0.00000E+00         0.00000E+00        -0.50025E+08
 
   -0.50118E+08         0.44778E+05         0.00000E+00
    0.44778E+05        -0.50006E+08         0.00000E+00
    0.00000E+00         0.00000E+00        -0.50025E+08
 
   -0.50116E+08         0.47472E+05         0.00000E+00
    0.47472E+05        -0.50007E+08         0.00000E+00
    0.00000E+00         0.00000E+00        -0.50025E+08
 
   -0.50114E+08         0.50128E+05         0.00000E+00
    0.50128E+05        -0.50008E+08         0.00000E+00
    0.00000E+00         0.00000E+00        -0.50024E+08
 
   -0.50112E+08         0.52742E+05         0.00000E+00
    0.52742E+05        -0.50009E+08         0.00000E+00
    0.00000E+00         0.00000E+00        -0.50024E+08
 
   -0.50111E+08         0.55312E+05         0.00000E+00
    0.55312E+05        -0.50010E+08         0.00000E+00
    0.00000E+00         0.00000E+00        -0.50024E+08
 
   -0.50109E+08         0.57835E+05         0.00000E+00
    0.57835E+05        -0.50011E+08         0.00000E+00
    0.00000E+00         0.00000E+00        -0.50024E+08
 
   -0.50106E+08         0.60310E+05         0.00000E+00
    0.60310E+05        -0.50012E+08         0.00000E+00
    0.00000E+00         0.00000E+00        -0.50024E+08
 
   -0.50104E+08         0.62735E+05         0.00000E+00
    0.62735E+05        -0.50013E+08         0.00000E+00
    0.00000E+00         0.00000E+00        -0.50024E+08
 
   -0.50102E+08         0.65106E+05         0.00000E+00
    0.65106E+05        -0.50015E+08         0.00000E+00
    0.00000E+00         0.00000E+00        -0.50023E+08
 
   -0.50100E+08         0.67423E+05         0.00000E+00
    0.67423E+05        -0.50016E+08         0.00000E+00
    0.00000E+00         0.00000E+00        -0.50023E+08
 
   -0.50097E+08         0.69682E+05         0.00000E+00
    0.69682E+05        -0.50017E+08         0.00000E+00
    0.00000E+00         0.00000E+00        -0.50023E+08
 
   -0.50095E+08         0.71883E+05         0.00000E+00
    0.71883E+05        -0.50018E+08         0.00000E+00
    0.00000E+00         0.00000E+00        -0.50023E+08
 
   -0.50092E+08         0.74023E+05         0.00000E+00
    0.74023E+05        -0.50020E+08         0.00000E+00
    0.00000E+00         0.00000E+00        -0.50022E+08
 
   -0.50089E+08         0.76101E+05         0.00000E+00
    0.76101E+05        -0.50021E+08         0.00000E+00
    0.00000E+00         0.00000E+00        -0.50022E+08
 
   -0.50086E+08         0.78114E+05         0.00000E+00
    0.78114E+05        -0.50022E+08         0.00000E+00
    0.00000E+00         0.00000E+00        -0.50022E+08
 
   -0.50084E+08         0.80061E+05         0.00000E+00
    0.80061E+05        -0.50024E+08         0.00000E+00
    0.00000E+00         0.00000E+00        -0.50021E+08
 
   -0.50081E+08         0.81941E+05         0.00000E+00
    0.81941E+05        -0.50025E+08         0.00000E+00
    0.00000E+00         0.00000E+00        -0.50021E+08
 
   -0.50078E+08         0.83751E+05         0.00000E+00
    0.83751E+05        -0.50027E+08         0.00000E+00
    0.00000E+00         0.00000E+00        -0.50021E+08
 
   -0.50075E+08         0.85491E+05         0.00000E+00
    0.85491E+05        -0.50028E+08         0.00000E+00
    0.00000E+00         0.00000E+00        -0.50021E+08
 
   -0.50071E+08         0.87158E+05         0.00000E+00
    0.87158E+05        -0.50030E+08         0.00000E+00
    0.00000E+00         0.00000E+00        -0.50020E+08
 
   -0.50068E+08         0.88752E+05         0.00000E+00
    0.88752E+05        -0.50031E+08         0.00000E+00
    0.00000E+00         0.00000E+00        -0.50020E+08
 
   -0.50065E+08         0.90270E+05         0.00000E+00
    0.90270E+05        -0.50033E+08         0.00000E+00
    0.00000E+00         0.00000E+00        -0.50020E+08
 
   -0.50061E+08         0.91712E+05         0.00000E+00
    0.91712E+05        -0.50035E+08         0.00000E+00
    0.00000E+00         0.00000E+00        -0.50019E+08
 
   -0.50058E+08         0.93077E+05         0.00000E+00
    0.93077E+05        -0.50036E+08         0.00000E+00
    0.00000E+00         0.00000E+00        -0.50019E+08
 
   -0.50054E+08         0.94362E+05         0.00000E+00
    0.94362E+05        -0.50038E+08         0.00000E+00
    0.00000E+00         0.00000E+00        -0.50018E+08
 
   -0.50051E+08         0.95567E+05         0.00000E+00
    0.95567E+05        -0.50040E+08         0.00000E+00
    0.00000E+00         0.00000E+00        -0.50018E+08
 
   -0.50047E+08         0.96690E+05         0.00000E+00
    0.96690E+05        -0.50041E+08         0.00000E+00
    0.00000E+00         0.00000E+00        -0.50018E+08
 
   -0.50043E+08         0.97731E+05         0.00000E+00
    0.97731E+05        -0.50043E+08         0.00000E+00
    0.00000E+00         0.00000E+00        -0.50017E+08
 
   -0.50040E+08         0.98687E+05         0.00000E+00
    0.98687E+05        -0.50045E+08         0.00000E+00
    0.00000E+00         0.00000E+00        -0.50017E+08
 
   -0.50036E+08         0.99559E+05         0.00000E+00
    0.99559E+05        -0.50046E+08         0.00000E+00
    0.00000E+00         0.00000E+00        -0.50016E+08
 
   -0.50032E+08         0.10034E+06         0.00000E+00
    0.10034E+06        -0.50048E+08         0.00000E+00
    0.00000E+00         0.00000E+00        -0.50016E+08
 
   -0.50028E+08         0.10104E+06         0.00000E+00
    0.10104E+06        -0.50050E+08         0.00000E+00
    0.00000E+00         0.00000E+00        -0.50016E+08
 
   -0.50024E+08         0.10165E+06         0.00000E+00
    0.10165E+06        -0.50052E+08         0.00000E+00
    0.00000E+00         0.00000E+00        -0.50015E+08
 
   -0.50020E+08         0.10217E+06         0.00000E+00
    0.10217E+06        -0.50054E+08         0.00000E+00
    0.00000E+00         0.00000E+00        -0.50015E+08
 
   -0.50016E+08         0.10261E+06         0.00000E+00
    0.10261E+06        -0.50055E+08         0.00000E+00
    0.00000E+00         0.00000E+00        -0.50014E+08
 
   -0.50115E+08         0.13438E+04         0.00000E+00
    0.13438E+04        -0.50000E+08         0.00000E+00
    0.00000E+00         0.00000E+00        -0.50023E+08
 
   -0.50115E+08         0.40446E+04         0.00000E+00
    0.40446E+04        -0.50000E+08         0.00000E+00
    0.00000E+00         0.00000E+00        -0.50023E+08
 
   -0.50115E+08         0.67477E+04         0.00000E+00
    0.67477E+04        -0.50000E+08         0.00000E+00
    0.00000E+00         0.00000E+00        -0.50023E+08
 
   -0.50114E+08         0.94505E+04         0.00000E+00
    0.94505E+04        -0.50000E+08         0.00000E+00
    0.00000E+00         0.00000E+00        -0.50023E+08
 
   -0.50114E+08         0.12150E+05         0.00000E+00
    0.12150E+05        -0.50000E+08         0.00000E+00
    0.00000E+00         0.00000E+00        -0.50023E+08
 
   -0.50114E+08         0.14845E+05         0.00000E+00
    0.14845E+05        -0.50001E+08         0.00000E+00
    0.00000E+00         0.00000E+00        -0.50023E+08
 
   -0.50113E+08         0.17531E+05         0.00000E+00
    0.17531E+05        -0.50001E+08         0.00000E+00
    0.00000E+00         0.00000E+00        -0.50023E+08
 
   -0.50113E+08         0.20206E+05         0.00000E+00
    0.20206E+05        -0.50001E+08         0.00000E+00
    0.00000E+00         0.00000E+00        -0.50023E+08
 
   -0.50112E+08         0.22868E+05         0.00000E+00
    0.22868E+05        -0.50002E+08         0.00000E+00
    0.00000E+00         0.00000E+00        -0.50023E+08
 
   -0.50111E+08         0.25514E+05         0.00000E+00
    0.25514E+05        -0.50002E+08         0.00000E+00
    0.00000E+00         0.00000E+00        -0.50023E+08
 
   -0.50110E+08         0.28142E+05         0.00000E+00
    0.28142E+05        -0.50003E+08         0.00000E+00
    0.00000E+00         0.00000E+00        -0.50023E+08
 
   -0.50109E+08         0.30748E+05         0.00000E+00
    0.30748E+05        -0.50003E+08         0.00000E+00
    0.00000E+00         0.00000E+00        -0.50022E+08
 
   -0.50108E+08         0.33332E+05         0.00000E+00
    0.33332E+05        -0.50004E+08         0.00000E+00
    0.00000E+00         0.00000E+00        -0.50022E+08
 
   -0.50107E+08         0.35889E+05         0.00000E+00
    0.35889E+05        -0.50004E+08         0.00000E+00
    0.00000E+00         0.00000E+00        -0.50022E+08
 
   -0.50106E+08         0.38419E+05         0.00000E+00
    0.38419E+05        -0.50005E+08         0.00000E+00
    0.00000E+00         0.00000E+00        -0.50022E+08
 
   -0.50105E+08         0.40918E+05         0.00000E+00
    0.40918E+05        -0.50006E+08         0.00000E+00
    0.00000E+00         0.00000E+00        -0.50022E+08
 
   -0.50103E+08         0.43384E+05         0.00000E+00
    0.43384E+05        -0.50006E+08         0.00000E+00
    0.00000E+00         0.00000E+00        -0.50022E+08
 
   -0.50102E+08         0.45815E+05         0.00000E+00
    0.45815E+05        -0.50007E+08         0.00000E+00
    0.00000E+00         0.00000E+00        -0.50022E+08
 
   -0.50100E+08         0.48209E+05         0.00000E+00
    0.48209E+05        -0.50008E+08         0.00000E+00
    0.00000E+00         0.00000E+00        -0.50022E+08
 
   -0.50098E+08         0.50563E+05         0.00000E+00
    0.50563E+05        -0.50009E+08         0.00000E+00
    0.00000E+00         0.00000E+00        -0.50021E+08
 
   -0.50097E+08         0.52876E+05         0.00000E+00
    0.52876E+05        -0.50010E+08         0.00000E+00
    0.00000E+00         0.00000E+00        -0.50021E+08
 
   -0.50095E+08         0.55145E+05         0.00000E+00
    0.55145E+05        -0.50011E+08         0.00000E+00
    0.00000E+00         0.00000E+00        -0.50021E+08
 
   -0.50093E+08         0.57369E+05         0.00000E+00
    0.57369E+05        -0.50012E+08         0.00000E+00
    0.00000E+00         0.00000E+00        -0.50021E+08
 
   -0.50091E+08         0.59545E+05         0.00000E+00
    0.59545E+05        -0.50013E+08         0.00000E+00
    0.00000E+00         0.00000E+00        -0.50021E+08
 
   -0.50089E+08         0.61671E+05         0.00000E+00
    0.61671E+05        -0.50014E+08         0.00000E+00
    0.00000E+00         0.00000E+00        -0.50021E+08
 
   -0.50087E+08         0.63746E+05         0.00000E+00
    0.63746E+05        -0.50015E+08         0.00000E+00
    0.00000E+00         0.00000E+00        -0.50020E+08
 
   -0.50084E+08         0.65768E+05         0.00000E+00
    0.65768E+05        -0.50016E+08         0.00000E+00
    0.00000E+00         0.00000E+00        -0.50020E+08
 
   -0.50082E+08         0.67734E+05         0.00000E+00
    0.67734E+05        -0.50017E+08         0.00000E+00
    0.00000E+00         0.00000E+00        -0.50020E+08
 
   -0.50079E+08         0.69644E+05         0.00000E+00
    0.69644E+05        -0.50018E+08         0.00000E+00
    0.00000E+00         0.00000E+00        -0.50020E+08
 
   -0.50077E+08         0.71495E+05         0.00000E+00
    0.71495E+05        -0.50020E+08         0.00000E+00
    0.00000E+00         0.00000E+00        -0.50019E+08
 
   -0.50074E+08         0.73286E+05         0.00000E+00
    0.73286E+05        -0.50021E+08         0.00000E+00
    0.00000E+00         0.00000E+00        -0.50019E+08
 
   -0.50072E+08         0.75016E+05         0.00000E+00
    0.75016E+05        -0.50022E+08         0.00000E+00
    0.00000E+00         0.00000E+00        -0.50019E+08
 
   -0.50069E+08         0.76682E+05         0.00000E+00
    0.76682E+05        -0.50024E+08         0.00000E+00
    0.00000E+00         0.00000E+00        -0.50019E+08
 
   -0.50066E+08         0.78284E+05         0.00000E+00
    0.78284E+05        -0.50025E+08         0.00000E+00
    0.00000E+00         0.00000E+00        -0.50018E+08
 
   -0.50064E+08         0.79819E+05         0.00000E+00
    0.79819E+05        -0.50026E+08         0.00000E+00
    0.00000E+00         0.00000E+00        -0.50018E+08
 
   -0.50061E+08         0.81287E+05         0.00000E+00
    0.81287E+05        -0.50028E+08         0.00000E+00
    0.00000E+00         0.00000E+00        -0.50018E+08
 
   -0.50058E+08         0.82685E+05         0.00000E+00
    0.82685E+05        -0.50029E+08         0.00000E+00
    0.00000E+00         0.00000E+00        -0.50017E+08
 
   -0.50055E+08         0.84014E+05         0.00000E+00
    0.84014E+05        -0.50030E+08         0.00000E+00
    0.00000E+00         0.00000E+00        -0.50017E+08
 
   -0.50052E+08         0.85270E+05         0.00000E+00
    0.85270E+05        -0.50032E+08         0.00000E+00
    0.00000E+00         0.00000E+00        -0.50017E+08
 
   -0.50048E+08         0.86454E+05         0.00000E+00
    0.86454E+05        -0.50033E+08         0.00000E+00
    0.00000E+00         0.00000E+00        -0.50016E+08
 
   -0.50045E+08         0.87564E+05         0.00000E+00
    0.87564E+05        -0.50035E+08         0.00000E+00
    0.00000E+00         0.00000E+00        -0.50016E+08
 
   -0.50042E+08         0.88598E+05         0.00000E+00
    0.88598E+05        -0.50036E+08         0.00000E+00
    0.00000E+00         0.00000E+00        -0.50016E+08
 
   -0.50039E+08         0.89556E+05         0.00000E+00
    0.89556E+05        -0.50038E+08         0.00000E+00
    0.00000E+00         0.00000E+00        -0.50015E+08
 
   -0.50035E+08         0.90436E+05         0.00000E+00
    0.90436E+05        -0.50040E+08         0.00000E+00
    0.00000E+00         0.00000E+00        -0.50015E+08
 
   -0.50032E+08         0.91238E+05         0.00000E+00
    0.91238E+05        -0.50041E+08         0.00000E+00
    0.00000E+00         0.00000E+00        -0.50015E+08
 
   -0.50028E+08         0.91960E+05         0.00000E+00
    0.91960E+05        -0.50043E+08         0.00000E+00
    0.00000E+00         0.00000E+00        -0.50014E+08
 
   -0.50025E+08         0.92601E+05         0.00000E+00
    0.92601E+05        -0.50044E+08         0.00000E+00
    0.00000E+00         0.00000E+00        -0.50014E+08
 
   -0.50021E+08         0.93160E+05         0.00000E+00
    0.93160E+05        -0.50046E+08         0.00000E+00
    0.00000E+00         0.00000E+00        -0.50013E+08
 
   -0.50018E+08         0.93636E+05         0.00000E+00
    0.93636E+05        -0.50047E+08         0.00000E+00
    0.00000E+00         0.00000E+00        -0.50013E+08
 
   -0.50014E+08         0.94029E+05         0.00000E+00
    0.94029E+05        -0.50049E+08         0.00000E+00
    0.00000E+00         0.00000E+00        -0.50013E+08
 
   -0.50102E+08         0.12342E+04         0.00000E+00
    0.12342E+04        -0.50000E+08         0.00000E+00
    0.00000E+00         0.00000E+00        -0.50020E+08
 
   -0.50102E+08         0.37130E+04         0.00000E+00
    0.37130E+04        -0.50000E+08         0.00000E+00
    0.00000E+00         0.00000E+00        -0.50020E+08
 
   -0.50102E+08         0.61933E+04         0.00000E+00
    0.61933E+04        -0.50000E+08         0.00000E+00
    0.00000E+00         0.00000E+00        -0.50020E+08
 
   -0.50101E+08         0.86727E+04         0.00000E+00
    0.86727E+04        -0.50000E+08         0.00000E+00
    0.00000E+00         0.00000E+00        -0.50020E+08
 
   -0.50101E+08         0.11149E+05         0.00000E+00
    0.11149E+05        -0.50000E+08         0.00000E+00
    0.00000E+00         0.00000E+00        -0.50020E+08
 
   -0.50101E+08         0.13620E+05         0.00000E+00
    0.13620E+05        -0.50001E+08         0.00000E+00
    0.00000E+00         0.00000E+00        -0.50020E+08
 
   -0.50100E+08         0.16083E+05         0.00000E+00
    0.16083E+05        -0.50001E+08         0.00000E+00
    0.00000E+00         0.00000E+00        -0.50020E+08
 
   -0.50100E+08         0.18537E+05         0.00000E+00
    0.18537E+05        -0.50001E+08         0.00000E+00
    0.00000E+00         0.00000E+00        -0.50020E+08
 
   -0.50099E+08         0.20978E+05         0.00000E+00
    0.20978E+05        -0.50001E+08         0.00000E+00
    0.00000E+00         0.00000E+00        -0.50020E+08
 
   -0.50099E+08         0.23405E+05         0.00000E+00
    0.23405E+05        -0.50002E+08         0.00000E+00
    0.00000E+00         0.00000E+00        -0.50020E+08
 
   -0.50098E+08         0.25815E+05         0.00000E+00
    0.25815E+05        -0.50002E+08         0.00000E+00
    0.00000E+00         0.00000E+00        -0.50020E+08
 
   -0.50097E+08         0.28206E+05         0.00000E+00
    0.28206E+05        -0.50003E+08         0.00000E+00
    0.00000E+00         0.00000E+00        -0.50020E+08
 
   -0.50096E+08         0.30575E+05         0.00000E+00
    0.30575E+05        -0.50003E+08         0.00000E+00
    0.00000E+00         0.00000E+00        -0.50020E+08
 
   -0.50095E+08         0.32922E+05         0.00000E+00
    0.32922E+05        -0.50004E+08         0.00000E+00
    0.00000E+00         0.00000E+00        -0.50020E+08
 
   -0.50094E+08         0.35243E+05         0.00000E+00
    0.35243E+05        -0.50004E+08         0.00000E+00
    0.00000E+00         0.00000E+00        -0.50020E+08
 
   -0.50093E+08         0.37537E+05         0.00000E+00
    0.37537E+05        -0.50005E+08         0.00000E+00
    0.00000E+00         0.00000E+00        -0.50020E+08
 
   -0.50091E+08         0.39801E+05         0.00000E+00
    0.39801E+05        -0.50006E+08         0.00000E+00
    0.00000E+00         0.00000E+00        -0.50019E+08
 
   -0.50090E+08         0.42033E+05         0.00000E+00
    0.42033E+05        -0.50006E+08         0.00000E+00
    0.00000E+00         0.00000E+00        -0.50019E+08
 
   -0.50089E+08         0.44231E+05         0.00000E+00
    0.44231E+05        -0.50007E+08         0.00000E+00
    0.00000E+00         0.00000E+00        -0.50019E+08
 
   -0.50087E+08         0.46394E+05         0.00000E+00
    0.46394E+05        -0.50008E+08         0.00000E+00
    0.00000E+00         0.00000E+00        -0.50019E+08
 
   -0.50086E+08         0.48519E+05         0.00000E+00
    0.48519E+05        -0.50009E+08         0.00000E+00
    0.00000E+00         0.00000E+00        -0.50019E+08
 
   -0.50084E+08         0.50604E+05         0.00000E+00
    0.50604E+05        -0.50009E+08         0.00000E+00
    0.00000E+00         0.00000E+00        -0.50019E+08
 
   -0.50082E+08         0.52648E+05         0.00000E+00
    0.52648E+05        -0.50010E+08         0.00000E+00
    0.00000E+00         0.00000E+00        -0.50019E+08
 
   -0.50080E+08         0.54649E+05         0.00000E+00
    0.54649E+05        -0.50011E+08         0.00000E+00
    0.00000E+00         0.00000E+00        -0.50018E+08
 
   -0.50079E+08         0.56605E+05         0.00000E+00
    0.56605E+05        -0.50012E+08         0.00000E+00
    0.00000E+00         0.00000E+00        -0.50018E+08
 
   -0.50077E+08         0.58514E+05         0.00000E+00
    0.58514E+05        -0.50013E+08         0.00000E+00
    0.00000E+00         0.00000E+00        -0.50018E+08
 
   -0.50075E+08         0.60374E+05         0.00000E+00
    0.60374E+05        -0.50014E+08         0.00000E+00
    0.00000E+00         0.00000E+00        -0.50018E+08
 
   -0.50073E+08         0.62184E+05         0.00000E+00
    0.62184E+05        -0.50015E+08         0.00000E+00
    0.00000E+00         0.00000E+00        -0.50018E+08
 
   -0.50070E+08         0.63942E+05         0.00000E+00
    0.63942E+05        -0.50016E+08         0.00000E+00
    0.00000E+00         0.00000E+00        -0.50017E+08
 
   -0.50068E+08         0.65647E+05         0.00000E+00
    0.65647E+05        -0.50017E+08         0.00000E+00
    0.00000E+00         0.00000E+00        -0.50017E+08
 
   -0.50066E+08         0.67297E+05         0.00000E+00
    0.67297E+05        -0.50018E+08         0.00000E+00
    0.00000E+00         0.00000E+00        -0.50017E+08
 
   -0.50064E+08         0.68890E+05         0.00000E+00
    0.68890E+05        -0.50019E+08         0.00000E+00
    0.00000E+00         0.00000E+00        -0.50017E+08
 
   -0.50061E+08         0.70425E+05         0.00000E+00
    0.70425E+05        -0.50021E+08         0.00000E+00
    0.00000E+00         0.00000E+00        -0.50016E+08
 
   -0.50059E+08         0.71901E+05         0.00000E+00
    0.71901E+05        -0.50022E+08         0.00000E+00
    0.00000E+00         0.00000E+00        -0.50016E+08
 
   -0.50056E+08         0.73316E+05         0.00000E+00
    0.73316E+05        -0.50023E+08         0.00000E+00
    0.00000E+00         0.00000E+00        -0.50016E+08
 
   -0.50054E+08         0.74669E+05         0.00000E+00
    0.74669E+05        -0.50024E+08         0.00000E+00
    0.00000E+00         0.00000E+00        -0.50016E+08
 
   -0.50051E+08         0.75958E+05         0.00000E+00
    0.75958E+05        -0.50026E+08         0.00000E+00
    0.00000E+00         0.00000E+00        -0.50015E+08
 
   -0.50048E+08         0.77182E+05         0.00000E+00
    0.77182E+05        -0.50027E+08         0.00000E+00
    0.00000E+00         0.00000E+00        -0.50015E+08
 
   -0.50046E+08         0.78341E+05         0.00000E+00
    0.78341E+05        -0.50028E+08         0.00000E+00
    0.00000E+00         0.00000E+00        -0.50015E+08
 
   -0.50043E+08         0.79432E+05         0.00000E+00
    0.79432E+05        -0.50029E+08         0.00000E+00
    0.00000E+00         0.00000E+00        -0.50014E+08
 
   -0.50040E+08         0.80454E+05         0.00000E+00
    0.80454E+05        -0.50031E+08         0.00000E+00
    0.00000E+00         0.00000E+00        -0.50014E+08
 
   -0.50037E+08         0.81407E+05         0.00000E+00
    0.81407E+05        -0.50032E+08         0.00000E+00
    0.00000E+00         0.00000E+00        -0.50014E+08
 
   -0.50034E+08         0.82290E+05         0.00000E+00
    0.82290E+05        -0.50033E+08         0.00000E+00
    0.00000E+00         0.00000E+00        -0.50014E+08
 
   -0.50031E+08         0.83100E+05         0.00000E+00
    0.83100E+05        -0.50035E+08         0.00000E+00
    0.00000E+00         0.00000E+00        -0.50013E+08
 
   -0.50028E+08         0.83838E+05         0.00000E+00
    0.83838E+05        -0.50036E+08         0.00000E+00
    0.00000E+00         0.00000E+00        -0.50013E+08
 
   -0.50025E+08         0.84502E+05         0.00000E+00
    0.84502E+05        -0.50038E+08         0.00000E+00
    0.00000E+00         0.00000E+00        -0.50013E+08
 
   -0.50022E+08         0.85090E+05         0.00000E+00
    0.85090E+05        -0.50039E+08         0.00000E+00
    0.00000E+00         0.00000E+00        -0.50012E+08
 
   -0.50019E+08         0.85603E+05         0.00000E+00
    0.85603E+05        -0.50040E+08         0.00000E+00
    0.00000E+00         0.00000E+00        -0.50012E+08
 
   -0.50016E+08         0.86039E+05         0.00000E+00
    0.86039E+05        -0.50042E+08         0.00000E+00
    0.00000E+00         0.00000E+00        -0.50012E+08
 
   -0.50013E+08         0.86398E+05         0.00000E+00
    0.86398E+05        -0.50043E+08         0.00000E+00
    0.00000E+00         0.00000E+00        -0.50011E+08
 
   -0.50090E+08         0.11388E+04         0.00000E+00
    0.11388E+04        -0.50000E+08         0.00000E+00
    0.00000E+00         0.00000E+00        -0.50018E+08
 
   -0.50090E+08         0.34243E+04         0.00000E+00
    0.34243E+04        -0.50000E+08         0.00000E+00
    0.00000E+00         0.00000E+00        -0.50018E+08
 
   -0.50090E+08         0.57105E+04         0.00000E+00
    0.57105E+04        -0.50000E+08         0.00000E+00
    0.00000E+00         0.00000E+00        -0.50018E+08
 
   -0.50090E+08         0.79954E+04         0.00000E+00
    0.79954E+04        -0.50000E+08         0.00000E+00
    0.00000E+00         0.00000E+00        -0.50018E+08
 
   -0.50089E+08         0.10277E+05         0.00000E+00
    0.10277E+05        -0.50000E+08         0.00000E+00
    0.00000E+00         0.00000E+00        -0.50018E+08
 
   -0.50089E+08         0.12553E+05         0.00000E+00
    0.12553E+05        -0.50001E+08         0.00000E+00
    0.00000E+00         0.00000E+00        -0.50018E+08
 
   -0.50089E+08         0.14822E+05         0.00000E+00
    0.14822E+05        -0.50001E+08         0.00000E+00
    0.00000E+00         0.00000E+00        -0.50018E+08
 
   -0.50088E+08         0.17082E+05         0.00000E+00
    0.17082E+05        -0.50001E+08         0.00000E+00
    0.00000E+00         0.00000E+00        -0.50018E+08
 
   -0.50088E+08         0.19330E+05         0.00000E+00
    0.19330E+05        -0.50001E+08         0.00000E+00
    0.00000E+00         0.00000E+00        -0.50018E+08
 
   -0.50087E+08         0.21565E+05         0.00000E+00
    0.21565E+05        -0.50002E+08         0.00000E+00
    0.00000E+00         0.00000E+00        -0.50018E+08
 
   -0.50086E+08         0.23784E+05         0.00000E+00
    0.23784E+05        -0.50002E+08         0.00000E+00
    0.00000E+00         0.00000E+00        -0.50018E+08
 
   -0.50085E+08         0.25986E+05         0.00000E+00
    0.25986E+05        -0.50002E+08         0.00000E+00
    0.00000E+00         0.00000E+00        -0.50018E+08
 
   -0.50085E+08         0.28169E+05         0.00000E+00
    0.28169E+05        -0.50003E+08         0.00000E+00
    0.00000E+00         0.00000E+00        -0.50017E+08
 
   -0.50084E+08         0.30330E+05         0.00000E+00
    0.30330E+05        -0.50003E+08         0.00000E+00
    0.00000E+00         0.00000E+00        -0.50017E+08
 
   -0.50083E+08         0.32468E+05         0.00000E+00
    0.32468E+05        -0.50004E+08         0.00000E+00
    0.00000E+00         0.00000E+00        -0.50017E+08
 
   -0.50082E+08         0.34580E+05         0.00000E+00
    0.34580E+05        -0.50004E+08         0.00000E+00
    0.00000E+00         0.00000E+00        -0.50017E+08
 
   -0.50081E+08         0.36666E+05         0.00000E+00
    0.36666E+05        -0.50005E+08         0.00000E+00
    0.00000E+00         0.00000E+00        -0.50017E+08
 
   -0.50079E+08         0.38722E+05         0.00000E+00
    0.38722E+05        -0.50005E+08         0.00000E+00
    0.00000E+00         0.00000E+00        -0.50017E+08
 
   -0.50078E+08         0.40748E+05         0.00000E+00
    0.40748E+05        -0.50006E+08         0.00000E+00
    0.00000E+00         0.00000E+00        -0.50017E+08
 
   -0.50077E+08         0.42741E+05         0.00000E+00
    0.42741E+05        -0.50007E+08         0.00000E+00
    0.00000E+00         0.00000E+00        -0.50017E+08
 
   -0.50076E+08         0.44700E+05         0.00000E+00
    0.44700E+05        -0.50007E+08         0.00000E+00
    0.00000E+00         0.00000E+00        -0.50017E+08
 
   -0.50074E+08         0.46622E+05         0.00000E+00
    0.46622E+05        -0.50008E+08         0.00000E+00
    0.00000E+00         0.00000E+00        -0.50016E+08
 
   -0.50073E+08         0.48507E+05         0.00000E+00
    0.48507E+05        -0.50009E+08         0.00000E+00
    0.00000E+00         0.00000E+00        -0.50016E+08
 
   -0.50071E+08         0.50352E+05         0.00000E+00
    0.50352E+05        -0.50010E+08         0.00000E+00
    0.00000E+00         0.00000E+00        -0.50016E+08
 
   -0.50069E+08         0.52155E+05         0.00000E+00
    0.52155E+05        -0.50011E+08         0.00000E+00
    0.00000E+00         0.00000E+00        -0.50016E+08
 
   -0.50068E+08         0.53916E+05         0.00000E+00
    0.53916E+05        -0.50011E+08         0.00000E+00
    0.00000E+00         0.00000E+00        -0.50016E+08
 
   -0.50066E+08         0.55632E+05         0.00000E+00
    0.55632E+05        -0.50012E+08         0.00000E+00
    0.00000E+00         0.00000E+00        -0.50016E+08
 
   -0.50064E+08         0.57302E+05         0.00000E+00
    0.57302E+05        -0.50013E+08         0.00000E+00
    0.00000E+00         0.00000E+00        -0.50015E+08
 
   -0.50062E+08         0.58925E+05         0.00000E+00
    0.58925E+05        -0.50014E+08         0.00000E+00
    0.00000E+00         0.00000E+00        -0.50015E+08
 
   -0.50060E+08         0.60498E+05         0.00000E+00
    0.60498E+05        -0.50015E+08         0.00000E+00
    0.00000E+00         0.00000E+00        -0.50015E+08
 
   -0.50058E+08         0.62021E+05         0.00000E+00
    0.62021E+05        -0.50016E+08         0.00000E+00
    0.00000E+00         0.00000E+00        -0.50015E+08
 
   -0.50056E+08         0.63492E+05         0.00000E+00
    0.63492E+05        -0.50017E+08         0.00000E+00
    0.00000E+00         0.00000E+00        -0.50015E+08
 
   -0.50054E+08         0.64909E+05         0.00000E+00
    0.64909E+05        -0.50018E+08         0.00000E+00
    0.00000E+00         0.00000E+00        -0.50014E+08
 
   -0.50052E+08         0.66272E+05         0.00000E+00
    0.66272E+05        -0.50019E+08         0.00000E+00
    0.00000E+00         0.00000E+00        -0.50014E+08
 
   -0.50050E+08         0.67578E+05         0.00000E+00
    0.67578E+05        -0.50020E+08         0.00000E+00
    0.00000E+00         0.00000E+00        -0.50014E+08
 
   -0.50047E+08         0.68827E+05         0.00000E+00
    0.68827E+05        -0.50021E+08         0.00000E+00
    0.00000E+00         0.00000E+00        -0.50014E+08
 
   -0.50045E+08         0.70018E+05         0.00000E+00
    0.70018E+05        -0.50022E+08         0.00000E+00
    0.00000E+00         0.00000E+00        -0.50013E+08
 
   -0.50043E+08         0.71149E+05         0.00000E+00
    0.71149E+05        -0.50023E+08         0.00000E+00
    0.00000E+00         0.00000E+00        -0.50013E+08
 
   -0.50040E+08         0.72218E+05         0.00000E+00
    0.72218E+05        -0.50025E+08         0.00000E+00
    0.00000E+00         0.00000E+00        -0.50013E+08
 
   -0.50038E+08         0.73225E+05         0.00000E+00
    0.73225E+05        -0.50026E+08         0.00000E+00
    0.00000E+00         0.00000E+00        -0.50013E+08
 
   -0.50035E+08         0.74169E+05         0.00000E+00
    0.74169E+05        -0.50027E+08         0.00000E+00
    0.00000E+00         0.00000E+00        -0.50012E+08
 
   -0.50033E+08         0.75049E+05         0.00000E+00
    0.75049E+05        -0.50028E+08         0.00000E+00
    0.00000E+00         0.00000E+00        -0.50012E+08
 
   -0.50030E+08         0.75863E+05         0.00000E+00
    0.75863E+05        -0.50029E+08         0.00000E+00
    0.00000E+00         0.00000E+00        -0.50012E+08
 
   -0.50028E+08         0.76610E+05         0.00000E+00
    0.76610E+05        -0.50031E+08         0.00000E+00
    0.00000E+00         0.00000E+00        -0.50012E+08
 
   -0.50025E+08         0.77290E+05         0.00000E+00
    0.77290E+05        -0.50032E+08         0.00000E+00
    0.00000E+00         0.00000E+00        -0.50011E+08
 
   -0.50022E+08         0.77902E+05         0.00000E+00
    0.77902E+05        -0.50033E+08         0.00000E+00
    0.00000E+00         0.00000E+00        -0.50011E+08
 
   -0.50019E+08         0.78444E+05         0.00000E+00
    0.78444E+05        -0.50034E+08         0.00000E+00
    0.00000E+00         0.00000E+00        -0.50011E+08
 
   -0.50017E+08         0.78915E+05         0.00000E+00
    0.78915E+05        -0.50036E+08         0.00000E+00
    0.00000E+00         0.00000E+00        -0.50010E+08
 
   -0.50014E+08         0.79316E+05         0.00000E+00
    0.79316E+05        -0.50037E+08         0.00000E+00
    0.00000E+00         0.00000E+00        -0.50010E+08
 
   -0.50011E+08         0.79644E+05         0.00000E+00
    0.79644E+05        -0.50038E+08         0.00000E+00
    0.00000E+00         0.00000E+00        -0.50010E+08
 
   -0.50079E+08         0.10559E+04         0.00000E+00
    0.10559E+04        -0.50000E+08         0.00000E+00
    0.00000E+00         0.00000E+00        -0.50016E+08
 
   -0.50079E+08         0.31733E+04         0.00000E+00
    0.31733E+04        -0.50000E+08         0.00000E+00
    0.00000E+00         0.00000E+00        -0.50016E+08
 
   -0.50079E+08         0.52909E+04         0.00000E+00
    0.52909E+04        -0.50000E+08         0.00000E+00
    0.00000E+00         0.00000E+00        -0.50016E+08
 
   -0.50079E+08         0.74068E+04         0.00000E+00
    0.74068E+04        -0.50000E+08         0.00000E+00
    0.00000E+00         0.00000E+00        -0.50016E+08
 
   -0.50078E+08         0.95191E+04         0.00000E+00
    0.95191E+04        -0.50000E+08         0.00000E+00
    0.00000E+00         0.00000E+00        -0.50016E+08
 
   -0.50078E+08         0.11626E+05         0.00000E+00
    0.11626E+05        -0.50000E+08         0.00000E+00
    0.00000E+00         0.00000E+00        -0.50016E+08
 
   -0.50078E+08         0.13726E+05         0.00000E+00
    0.13726E+05        -0.50001E+08         0.00000E+00
    0.00000E+00         0.00000E+00        -0.50016E+08
 
   -0.50077E+08         0.15817E+05         0.00000E+00
    0.15817E+05        -0.50001E+08         0.00000E+00
    0.00000E+00         0.00000E+00        -0.50016E+08
 
   -0.50077E+08         0.17897E+05         0.00000E+00
    0.17897E+05        -0.50001E+08         0.00000E+00
    0.00000E+00         0.00000E+00        -0.50016E+08
 
   -0.50076E+08         0.19965E+05         0.00000E+00
    0.19965E+05        -0.50001E+08         0.00000E+00
    0.00000E+00         0.00000E+00        -0.50016E+08
 
   -0.50076E+08         0.22018E+05         0.00000E+00
    0.22018E+05        -0.50002E+08         0.00000E+00
    0.00000E+00         0.00000E+00        -0.50015E+08
 
   -0.50075E+08         0.24055E+05         0.00000E+00
    0.24055E+05        -0.50002E+08         0.00000E+00
    0.00000E+00         0.00000E+00        -0.50015E+08
 
   -0.50074E+08         0.26073E+05         0.00000E+00
    0.26073E+05        -0.50002E+08         0.00000E+00
    0.00000E+00         0.00000E+00        -0.50015E+08
 
   -0.50073E+08         0.28072E+05         0.00000E+00
    0.28072E+05        -0.50003E+08         0.00000E+00
    0.00000E+00         0.00000E+00        -0.50015E+08
 
   -0.50073E+08         0.30050E+05         0.00000E+00
    0.30050E+05        -0.50003E+08         0.00000E+00
    0.00000E+00         0.00000E+00        -0.50015E+08
 
   -0.50072E+08         0.32004E+05         0.00000E+00
    0.32004E+05        -0.50004E+08         0.00000E+00
    0.00000E+00         0.00000E+00        -0.50015E+08
 
   -0.50071E+08         0.33933E+05         0.00000E+00
    0.33933E+05        -0.50004E+08         0.00000E+00
    0.00000E+00         0.00000E+00        -0.50015E+08
 
   -0.50070E+08         0.35836E+05         0.00000E+00
    0.35836E+05        -0.50005E+08         0.00000E+00
    0.00000E+00         0.00000E+00        -0.50015E+08
 
   -0.50069E+08         0.37710E+05         0.00000E+00
    0.37710E+05        -0.50005E+08         0.00000E+00
    0.00000E+00         0.00000E+00        -0.50015E+08
 
   -0.50067E+08         0.39554E+05         0.00000E+00
    0.39554E+05        -0.50006E+08         0.00000E+00
    0.00000E+00         0.00000E+00        -0.50015E+08
 
   -0.50066E+08         0.41366E+05         0.00000E+00
    0.41366E+05        -0.50006E+08         0.00000E+00
    0.00000E+00         0.00000E+00        -0.50015E+08
 
   -0.50065E+08         0.43145E+05         0.00000E+00
    0.43145E+05        -0.50007E+08         0.00000E+00
    0.00000E+00         0.00000E+00        -0.50014E+08
 
   -0.50064E+08         0.44889E+05         0.00000E+00
    0.44889E+05        -0.50008E+08         0.00000E+00
    0.00000E+00         0.00000E+00        -0.50014E+08
 
   -0.50062E+08         0.46596E+05         0.00000E+00
    0.46596E+05        -0.50008E+08         0.00000E+00
    0.00000E+00         0.00000E+00        -0.50014E+08
 
   -0.50061E+08         0.48265E+05         0.00000E+00
    0.48265E+05        -0.50009E+08         0.00000E+00
    0.00000E+00         0.00000E+00        -0.50014E+08
 
   -0.50059E+08         0.49895E+05         0.00000E+00
    0.49895E+05        -0.50010E+08         0.00000E+00
    0.00000E+00         0.00000E+00        -0.50014E+08
 
   -0.50058E+08         0.51483E+05         0.00000E+00
    0.51483E+05        -0.50011E+08         0.00000E+00
    0.00000E+00         0.00000E+00        -0.50014E+08
 
   -0.50056E+08         0.53029E+05         0.00000E+00
    0.53029E+05        -0.50011E+08         0.00000E+00
    0.00000E+00         0.00000E+00        -0.50014E+08
 
   -0.50054E+08         0.54531E+05         0.00000E+00
    0.54531E+05        -0.50012E+08         0.00000E+00
    0.00000E+00         0.00000E+00        -0.50013E+08
 
   -0.50053E+08         0.55988E+05         0.00000E+00
    0.55988E+05        -0.50013E+08         0.00000E+00
    0.00000E+00         0.00000E+00        -0.50013E+08
 
   -0.50051E+08         0.57398E+05         0.00000E+00
    0.57398E+05        -0.50014E+08         0.00000E+00
    0.00000E+00         0.00000E+00        -0.50013E+08
 
   -0.50049E+08         0.58760E+05         0.00000E+00
    0.58760E+05        -0.50015E+08         0.00000E+00
    0.00000E+00         0.00000E+00        -0.50013E+08
 
   -0.50047E+08         0.60072E+05         0.00000E+00
    0.60072E+05        -0.50016E+08         0.00000E+00
    0.00000E+00         0.00000E+00        -0.50013E+08
 
   -0.50045E+08         0.61334E+05         0.00000E+00
    0.61334E+05        -0.50017E+08         0.00000E+00
    0.00000E+00         0.00000E+00        -0.50012E+08
 
   -0.50043E+08         0.62544E+05         0.00000E+00
    0.62544E+05        -0.50018E+08         0.00000E+00
    0.00000E+00         0.00000E+00        -0.50012E+08
 
   -0.50042E+08         0.63700E+05         0.00000E+00
    0.63700E+05        -0.50019E+08         0.00000E+00
    0.00000E+00         0.00000E+00        -0.50012E+08
 
   -0.50039E+08         0.64803E+05         0.00000E+00
    0.64803E+05        -0.50020E+08         0.00000E+00
    0.00000E+00         0.00000E+00        -0.50012E+08
 
   -0.50037E+08         0.65849E+05         0.00000E+00
    0.65849E+05        -0.50020E+08         0.00000E+00
    0.00000E+00         0.00000E+00        -0.50012E+08
 
   -0.50035E+08         0.66840E+05         0.00000E+00
    0.66840E+05        -0.50021E+08         0.00000E+00
    0.00000E+00         0.00000E+00        -0.50011E+08
 
   -0.50033E+08         0.67772E+05         0.00000E+00
    0.67772E+05        -0.50023E+08         0.00000E+00
    0.00000E+00         0.00000E+00        -0.50011E+08
 
   -0.50031E+08         0.68646E+05         0.00000E+00
    0.68646E+05        -0.50024E+08         0.00000E+00
    0.00000E+00         0.00000E+00        -0.50011E+08
 
   -0.50029E+08         0.69459E+05         0.00000E+00
    0.69459E+05        -0.50025E+08         0.00000E+00
    0.00000E+00         0.00000E+00        -0.50011E+08
 
   -0.50026E+08         0.70212E+05         0.00000E+00
    0.70212E+05        -0.50026E+08         0.00000E+00
    0.00000E+00         0.00000E+00        -0.50010E+08
 
   -0.50024E+08         0.70904E+05         0.00000E+00
    0.70904E+05        -0.50027E+08         0.00000E+00
    0.00000E+00         0.00000E+00        -0.50010E+08
 
   -0.50022E+08         0.71532E+05         0.00000E+00
    0.71532E+05        -0.50028E+08         0.00000E+00
    0.00000E+00         0.00000E+00        -0.50010E+08
 
   -0.50019E+08         0.72097E+05         0.00000E+00
    0.72097E+05        -0.50029E+08         0.00000E+00
    0.00000E+00         0.00000E+00        -0.50010E+08
 
   -0.50017E+08         0.72598E+05         0.00000E+00
    0.72598E+05        -0.50030E+08         0.00000E+00
    0.00000E+00         0.00000E+00        -0.50009E+08
 
   -0.50015E+08         0.73033E+05         0.00000E+00
    0.73033E+05        -0.50031E+08         0.00000E+00
    0.00000E+00         0.00000E+00        -0.50009E+08
 
   -0.50012E+08         0.73402E+05         0.00000E+00
    0.73402E+05        -0.50032E+08         0.00000E+00
    0.00000E+00         0.00000E+00        -0.50009E+08
 
   -0.50010E+08         0.73704E+05         0.00000E+00
    0.73704E+05        -0.50033E+08         0.00000E+00
    0.00000E+00         0.00000E+00        -0.50009E+08
 
   -0.50069E+08         0.98409E+03         0.00000E+00
    0.98409E+03        -0.50000E+08         0.00000E+00
    0.00000E+00         0.00000E+00        -0.50014E+08
 
   -0.50069E+08         0.29562E+04         0.00000E+00
    0.29562E+04        -0.50000E+08         0.00000E+00
    0.00000E+00         0.00000E+00        -0.50014E+08
 
   -0.50068E+08         0.49278E+04         0.00000E+00
    0.49278E+04        -0.50000E+08         0.00000E+00
    0.00000E+00         0.00000E+00        -0.50014E+08
 
   -0.50068E+08         0.68974E+04         0.00000E+00
    0.68974E+04        -0.50000E+08         0.00000E+00
    0.00000E+00         0.00000E+00        -0.50014E+08
 
   -0.50068E+08         0.88632E+04         0.00000E+00
    0.88632E+04        -0.50000E+08         0.00000E+00
    0.00000E+00         0.00000E+00        -0.50014E+08
 
   -0.50068E+08         0.10824E+05         0.00000E+00
    0.10824E+05        -0.50000E+08         0.00000E+00
    0.00000E+00         0.00000E+00        -0.50014E+08
 
   -0.50068E+08         0.12777E+05         0.00000E+00
    0.12777E+05        -0.50001E+08         0.00000E+00
    0.00000E+00         0.00000E+00        -0.50014E+08
 
   -0.50067E+08         0.14722E+05         0.00000E+00
    0.14722E+05        -0.50001E+08         0.00000E+00
    0.00000E+00         0.00000E+00        -0.50014E+08
 
   -0.50067E+08         0.16657E+05         0.00000E+00
    0.16657E+05        -0.50001E+08         0.00000E+00
    0.00000E+00         0.00000E+00        -0.50014E+08
 
   -0.50066E+08         0.18579E+05         0.00000E+00
    0.18579E+05        -0.50001E+08         0.00000E+00
    0.00000E+00         0.00000E+00        -0.50013E+08
 
   -0.50066E+08         0.20488E+05         0.00000E+00
    0.20488E+05        -0.50001E+08         0.00000E+00
    0.00000E+00         0.00000E+00        -0.50013E+08
 
   -0.50065E+08         0.22382E+05         0.00000E+00
    0.22382E+05        -0.50002E+08         0.00000E+00
    0.00000E+00         0.00000E+00        -0.50013E+08
 
   -0.50065E+08         0.24258E+05         0.00000E+00
    0.24258E+05        -0.50002E+08         0.00000E+00
    0.00000E+00         0.00000E+00        -0.50013E+08
 
   -0.50064E+08         0.26117E+05         0.00000E+00
    0.26117E+05        -0.50002E+08         0.00000E+00
    0.00000E+00         0.00000E+00        -0.50013E+08
 
   -0.50063E+08         0.27955E+05         0.00000E+00
    0.27955E+05        -0.50003E+08         0.00000E+00
    0.00000E+00         0.00000E+00        -0.50013E+08
 
   -0.50062E+08         0.29771E+05         0.00000E+00
    0.29771E+05        -0.50003E+08         0.00000E+00
    0.00000E+00         0.00000E+00        -0.50013E+08
 
   -0.50061E+08         0.31564E+05         0.00000E+00
    0.31564E+05        -0.50004E+08         0.00000E+00
    0.00000E+00         0.00000E+00        -0.50013E+08
 
   -0.50061E+08         0.33332E+05         0.00000E+00
    0.33332E+05        -0.50004E+08         0.00000E+00
    0.00000E+00         0.00000E+00        -0.50013E+08
 
   -0.50060E+08         0.35074E+05         0.00000E+00
    0.35074E+05        -0.50005E+08         0.00000E+00
    0.00000E+00         0.00000E+00        -0.50013E+08
 
   -0.50059E+08         0.36788E+05         0.00000E+00
    0.36788E+05        -0.50005E+08         0.00000E+00
    0.00000E+00         0.00000E+00        -0.50013E+08
 
   -0.50058E+08         0.38472E+05         0.00000E+00
    0.38472E+05        -0.50006E+08         0.00000E+00
    0.00000E+00         0.00000E+00        -0.50013E+08
 
   -0.50056E+08         0.40125E+05         0.00000E+00
    0.40125E+05        -0.50006E+08         0.00000E+00
    0.00000E+00         0.00000E+00        -0.50013E+08
 
   -0.50055E+08         0.41746E+05         0.00000E+00
    0.41746E+05        -0.50007E+08         0.00000E+00
    0.00000E+00         0.00000E+00        -0.50012E+08
 
   -0.50054E+08         0.43333E+05         0.00000E+00
    0.43333E+05        -0.50007E+08         0.00000E+00
    0.00000E+00         0.00000E+00        -0.50012E+08
 
   -0.50053E+08         0.44885E+05         0.00000E+00
    0.44885E+05        -0.50008E+08         0.00000E+00
    0.00000E+00         0.00000E+00        -0.50012E+08
 
   -0.50052E+08         0.46399E+05         0.00000E+00
    0.46399E+05        -0.50009E+08         0.00000E+00
    0.00000E+00         0.00000E+00        -0.50012E+08
 
   -0.50050E+08         0.47876E+05         0.00000E+00
    0.47876E+05        -0.50009E+08         0.00000E+00
    0.00000E+00         0.00000E+00        -0.50012E+08
 
   -0.50049E+08         0.49313E+05         0.00000E+00
    0.49313E+05        -0.50010E+08         0.00000E+00
    0.00000E+00         0.00000E+00        -0.50012E+08
 
   -0.50047E+08         0.50709E+05         0.00000E+00
    0.50709E+05        -0.50011E+08         0.00000E+00
    0.00000E+00         0.00000E+00        -0.50012E+08
 
   -0.50046E+08         0.52063E+05         0.00000E+00
    0.52063E+05        -0.50011E+08         0.00000E+00
    0.00000E+00         0.00000E+00        -0.50011E+08
 
   -0.50044E+08         0.53374E+05         0.00000E+00
    0.53374E+05        -0.50012E+08         0.00000E+00
    0.00000E+00         0.00000E+00        -0.50011E+08
 
   -0.50043E+08         0.54640E+05         0.00000E+00
    0.54640E+05        -0.50013E+08         0.00000E+00
    0.00000E+00         0.00000E+00        -0.50011E+08
 
   -0.50041E+08         0.55859E+05         0.00000E+00
    0.55859E+05        -0.50014E+08         0.00000E+00
    0.00000E+00         0.00000E+00        -0.50011E+08
 
   -0.50039E+08         0.57032E+05         0.00000E+00
    0.57032E+05        -0.50014E+08         0.00000E+00
    0.00000E+00         0.00000E+00        -0.50011E+08
 
   -0.50038E+08         0.58157E+05         0.00000E+00
    0.58157E+05        -0.50015E+08         0.00000E+00
    0.00000E+00         0.00000E+00        -0.50011E+08
 
   -0.50036E+08         0.59232E+05         0.00000E+00
    0.59232E+05        -0.50016E+08         0.00000E+00
    0.00000E+00         0.00000E+00        -0.50010E+08
 
   -0.50034E+08         0.60256E+05         0.00000E+00
    0.60256E+05        -0.50017E+08         0.00000E+00
    0.00000E+00         0.00000E+00        -0.50010E+08
 
   -0.50032E+08         0.61229E+05         0.00000E+00
    0.61229E+05        -0.50018E+08         0.00000E+00
    0.00000E+00         0.00000E+00        -0.50010E+08
 
   -0.50031E+08         0.62149E+05         0.00000E+00
    0.62149E+05        -0.50019E+08         0.00000E+00
    0.00000E+00         0.00000E+00        -0.50010E+08
 
   -0.50029E+08         0.63015E+05         0.00000E+00
    0.63015E+05        -0.50019E+08         0.00000E+00
    0.00000E+00         0.00000E+00        -0.50010E+08
 
   -0.50027E+08         0.63827E+05         0.00000E+00
    0.63827E+05        -0.50020E+08         0.00000E+00
    0.00000E+00         0.00000E+00        -0.50009E+08
 
   -0.50025E+08         0.64583E+05         0.00000E+00
    0.64583E+05        -0.50021E+08         0.00000E+00
    0.00000E+00         0.00000E+00        -0.50009E+08
 
   -0.50023E+08         0.65282E+05         0.00000E+00
    0.65282E+05        -0.50022E+08         0.00000E+00
    0.00000E+00         0.00000E+00        -0.50009E+08
 
   -0.50021E+08         0.65923E+05         0.00000E+00
    0.65923E+05        -0.50023E+08         0.00000E+00
    0.00000E+00         0.00000E+00        -0.50009E+08
 
   -0.50019E+08         0.66507E+05         0.00000E+00
    0.66507E+05        -0.50024E+08         0.00000E+00
    0.00000E+00         0.00000E+00        -0.50009E+08
 
   -0.50017E+08         0.67031E+05         0.00000E+00
    0.67031E+05        -0.50025E+08         0.00000E+00
    0.00000E+00         0.00000E+00        -0.50008E+08
 
   -0.50015E+08         0.67495E+05         0.00000E+00
    0.67495E+05        -0.50026E+08         0.00000E+00
    0.00000E+00         0.00000E+00        -0.50008E+08
 
   -0.50013E+08         0.67898E+05         0.00000E+00
    0.67898E+05        -0.50027E+08         0.00000E+00
    0.00000E+00         0.00000E+00        -0.50008E+08
 
   -0.50011E+08         0.68239E+05         0.00000E+00
    0.68239E+05        -0.50028E+08         0.00000E+00
    0.00000E+00         0.00000E+00        -0.50008E+08
 
   -0.50008E+08         0.68519E+05         0.00000E+00
    0.68519E+05        -0.50029E+08         0.00000E+00
    0.00000E+00         0.00000E+00        -0.50007E+08
 
   -0.50059E+08         0.92235E+03         0.00000E+00
    0.92235E+03        -0.50000E+08         0.00000E+00
    0.00000E+00         0.00000E+00        -0.50012E+08
 
   -0.50059E+08         0.27695E+04         0.00000E+00
    0.27695E+04        -0.50000E+08         0.00000E+00
    0.00000E+00         0.00000E+00        -0.50012E+08
 
   -0.50059E+08         0.46157E+04         0.00000E+00
    0.46157E+04        -0.50000E+08         0.00000E+00
    0.00000E+00         0.00000E+00        -0.50012E+08
 
   -0.50059E+08         0.64596E+04         0.00000E+00
    0.64596E+04        -0.50000E+08         0.00000E+00
    0.00000E+00         0.00000E+00        -0.50012E+08
 
   -0.50059E+08         0.82996E+04         0.00000E+00
    0.82996E+04        -0.50000E+08         0.00000E+00
    0.00000E+00         0.00000E+00        -0.50012E+08
 
   -0.50058E+08         0.10134E+05         0.00000E+00
    0.10134E+05        -0.50000E+08         0.00000E+00
    0.00000E+00         0.00000E+00        -0.50012E+08
 
   -0.50058E+08         0.11962E+05         0.00000E+00
    0.11962E+05        -0.50000E+08         0.00000E+00
    0.00000E+00         0.00000E+00        -0.50012E+08
 
   -0.50058E+08         0.13781E+05         0.00000E+00
    0.13781E+05        -0.50001E+08         0.00000E+00
    0.00000E+00         0.00000E+00        -0.50012E+08
 
   -0.50057E+08         0.15591E+05         0.00000E+00
    0.15591E+05        -0.50001E+08         0.00000E+00
    0.00000E+00         0.00000E+00        -0.50012E+08
 
   -0.50057E+08         0.17388E+05         0.00000E+00
    0.17388E+05        -0.50001E+08         0.00000E+00
    0.00000E+00         0.00000E+00        -0.50012E+08
 
   -0.50057E+08         0.19173E+05         0.00000E+00
    0.19173E+05        -0.50001E+08         0.00000E+00
    0.00000E+00         0.00000E+00        -0.50012E+08
 
   -0.50056E+08         0.20944E+05         0.00000E+00
    0.20944E+05        -0.50002E+08         0.00000E+00
    0.00000E+00         0.00000E+00        -0.50012E+08
 
   -0.50056E+08         0.22698E+05         0.00000E+00
    0.22698E+05        -0.50002E+08         0.00000E+00
    0.00000E+00         0.00000E+00        -0.50011E+08
 
   -0.50055E+08         0.24435E+05         0.00000E+00
    0.24435E+05        -0.50002E+08         0.00000E+00
    0.00000E+00         0.00000E+00        -0.50011E+08
 
   -0.50054E+08         0.26153E+05         0.00000E+00
    0.26153E+05        -0.50002E+08         0.00000E+00
    0.00000E+00         0.00000E+00        -0.50011E+08
 
   -0.50054E+08         0.27851E+05         0.00000E+00
    0.27851E+05        -0.50003E+08         0.00000E+00
    0.00000E+00         0.00000E+00        -0.50011E+08
 
   -0.50053E+08         0.29526E+05         0.00000E+00
    0.29526E+05        -0.50003E+08         0.00000E+00
    0.00000E+00         0.00000E+00        -0.50011E+08
 
   -0.50052E+08         0.31179E+05         0.00000E+00
    0.31179E+05        -0.50004E+08         0.00000E+00
    0.00000E+00         0.00000E+00        -0.50011E+08
 
   -0.50051E+08         0.32806E+05         0.00000E+00
    0.32806E+05        -0.50004E+08         0.00000E+00
    0.00000E+00         0.00000E+00        -0.50011E+08
 
   -0.50050E+08         0.34407E+05         0.00000E+00
    0.34407E+05        -0.50004E+08         0.00000E+00
    0.00000E+00         0.00000E+00        -0.50011E+08
 
   -0.50049E+08         0.35981E+05         0.00000E+00
    0.35981E+05        -0.50005E+08         0.00000E+00
    0.00000E+00         0.00000E+00        -0.50011E+08
 
   -0.50049E+08         0.37526E+05         0.00000E+00
    0.37526E+05        -0.50005E+08         0.00000E+00
    0.00000E+00         0.00000E+00        -0.50011E+08
 
   -0.50048E+08         0.39040E+05         0.00000E+00
    0.39040E+05        -0.50006E+08         0.00000E+00
    0.00000E+00         0.00000E+00        -0.50011E+08
 
   -0.50046E+08         0.40523E+05         0.00000E+00
    0.40523E+05        -0.50006E+08         0.00000E+00
    0.00000E+00         0.00000E+00        -0.50011E+08
 
   -0.50045E+08         0.41972E+05         0.00000E+00
    0.41972E+05        -0.50007E+08         0.00000E+00
    0.00000E+00         0.00000E+00        -0.50010E+08
 
   -0.50044E+08         0.43387E+05         0.00000E+00
    0.43387E+05        -0.50007E+08         0.00000E+00
    0.00000E+00         0.00000E+00        -0.50010E+08
 
   -0.50043E+08         0.44766E+05         0.00000E+00
    0.44766E+05        -0.50008E+08         0.00000E+00
    0.00000E+00         0.00000E+00        -0.50010E+08
 
   -0.50042E+08         0.46109E+05         0.00000E+00
    0.46109E+05        -0.50008E+08         0.00000E+00
    0.00000E+00         0.00000E+00        -0.50010E+08
 
   -0.50041E+08         0.47413E+05         0.00000E+00
    0.47413E+05        -0.50009E+08         0.00000E+00
    0.00000E+00         0.00000E+00        -0.50010E+08
 
   -0.50039E+08         0.48678E+05         0.00000E+00
    0.48678E+05        -0.50010E+08         0.00000E+00
    0.00000E+00         0.00000E+00        -0.50010E+08
 
   -0.50038E+08         0.49902E+05         0.00000E+00
    0.49902E+05        -0.50010E+08         0.00000E+00
    0.00000E+00         0.00000E+00        -0.50010E+08
 
   -0.50037E+08         0.51084E+05         0.00000E+00
    0.51084E+05        -0.50011E+08         0.00000E+00
    0.00000E+00         0.00000E+00        -0.50010E+08
 
   -0.50035E+08         0.52224E+05         0.00000E+00
    0.52224E+05        -0.50012E+08         0.00000E+00
    0.00000E+00         0.00000E+00        -0.50009E+08
 
   -0.50034E+08         0.53319E+05         0.00000E+00
    0.53319E+05        -0.50012E+08         0.00000E+00
    0.00000E+00         0.00000E+00        -0.50009E+08
 
   -0.50032E+08         0.54369E+05         0.00000E+00
    0.54369E+05        -0.50013E+08         0.00000E+00
    0.00000E+00         0.00000E+00        -0.50009E+08
 
   -0.50031E+08         0.55373E+05         0.00000E+00
    0.55373E+05        -0.50014E+08         0.00000E+00
    0.00000E+00         0.00000E+00        -0.50009E+08
 
   -0.50029E+08         0.56329E+05         0.00000E+00
    0.56329E+05        -0.50014E+08         0.00000E+00
    0.00000E+00         0.00000E+00        -0.50009E+08
 
   -0.50028E+08         0.57238E+05         0.00000E+00
    0.57238E+05        -0.50015E+08         0.00000E+00
    0.00000E+00         0.00000E+00        -0.50009E+08
 
   -0.50026E+08         0.58097E+05         0.00000E+00
    0.58097E+05        -0.50016E+08         0.00000E+00
    0.00000E+00         0.00000E+00        -0.50008E+08
 
   -0.50025E+08         0.58905E+05         0.00000E+00
    0.58905E+05        -0.50017E+08         0.00000E+00
    0.00000E+00         0.00000E+00        -0.50008E+08
 
   -0.50023E+08         0.59663E+05         0.00000E+00
    0.59663E+05        -0.50017E+08         0.00000E+00
    0.00000E+00         0.00000E+00        -0.50008E+08
 
   -0.50021E+08         0.60368E+05         0.00000E+00
    0.60368E+05        -0.50018E+08         0.00000E+00
    0.00000E+00         0.00000E+00        -0.50008E+08
 
   -0.50020E+08         0.61020E+05         0.00000E+00
    0.61020E+05        -0.50019E+08         0.00000E+00
    0.00000E+00         0.00000E+00        -0.50008E+08
 
   -0.50018E+08         0.61619E+05         0.00000E+00
    0.61619E+05        -0.50020E+08         0.00000E+00
    0.00000E+00         0.00000E+00        -0.50008E+08
 
   -0.50016E+08         0.62163E+05         0.00000E+00
    0.62163E+05        -0.50021E+08         0.00000E+00
    0.00000E+00         0.00000E+00        -0.50007E+08
 
   -0.50014E+08         0.62651E+05         0.00000E+00
    0.62651E+05        -0.50021E+08         0.00000E+00
    0.00000E+00         0.00000E+00        -0.50007E+08
 
   -0.50013E+08         0.63083E+05         0.00000E+00
    0.63083E+05        -0.50022E+08         0.00000E+00
    0.00000E+00         0.00000E+00        -0.50007E+08
 
   -0.50011E+08         0.63459E+05         0.00000E+00
    0.63459E+05        -0.50023E+08         0.00000E+00
    0.00000E+00         0.00000E+00        -0.50007E+08
 
   -0.50009E+08         0.63777E+05         0.00000E+00
    0.63777E+05        -0.50024E+08         0.00000E+00
    0.00000E+00         0.00000E+00        -0.50007E+08
 
   -0.50007E+08         0.64036E+05         0.00000E+00
    0.64036E+05        -0.50025E+08         0.00000E+00
    0.00000E+00         0.00000E+00        -0.50006E+08
 
   -0.50050E+08         0.86983E+03         0.00000E+00
    0.86983E+03        -0.50000E+08         0.00000E+00
    0.00000E+00         0.00000E+00        -0.50010E+08
 
   -0.50050E+08         0.26108E+04         0.00000E+00
    0.26108E+04        -0.50000E+08         0.00000E+00
    0.00000E+00         0.00000E+00        -0.50010E+08
 
   -0.50050E+08         0.43504E+04         0.00000E+00
    0.43504E+04        -0.50000E+08         0.00000E+00
    0.00000E+00         0.00000E+00        -0.50010E+08
 
   -0.50050E+08         0.60875E+04         0.00000E+00
    0.60875E+04        -0.50000E+08         0.00000E+00
    0.00000E+00         0.00000E+00        -0.50010E+08
 
   -0.50050E+08         0.78206E+04         0.00000E+00
    0.78206E+04        -0.50000E+08         0.00000E+00
    0.00000E+00         0.00000E+00        -0.50010E+08
 
   -0.50050E+08         0.95482E+04         0.00000E+00
    0.95482E+04        -0.50000E+08         0.00000E+00
    0.00000E+00         0.00000E+00        -0.50010E+08
 
   -0.50049E+08         0.11269E+05         0.00000E+00
    0.11269E+05        -0.50000E+08         0.00000E+00
    0.00000E+00         0.00000E+00        -0.50010E+08
 
   -0.50049E+08         0.12982E+05         0.00000E+00
    0.12982E+05        -0.50001E+08         0.00000E+00
    0.00000E+00         0.00000E+00        -0.50010E+08
 
   -0.50049E+08         0.14685E+05         0.00000E+00
    0.14685E+05        -0.50001E+08         0.00000E+00
    0.00000E+00         0.00000E+00        -0.50010E+08
 
   -0.50048E+08         0.16376E+05         0.00000E+00
    0.16376E+05        -0.50001E+08         0.00000E+00
    0.00000E+00         0.00000E+00        -0.50010E+08
 
   -0.50048E+08         0.18056E+05         0.00000E+00
    0.18056E+05        -0.50001E+08         0.00000E+00
    0.00000E+00         0.00000E+00        -0.50010E+08
 
   -0.50048E+08         0.19721E+05         0.00000E+00
    0.19721E+05        -0.50001E+08         0.00000E+00
    0.00000E+00         0.00000E+00        -0.50010E+08
 
   -0.50047E+08         0.21372E+05         0.00000E+00
    0.21372E+05        -0.50002E+08         0.00000E+00
    0.00000E+00         0.00000E+00        -0.50010E+08
 
   -0.50047E+08         0.23006E+05         0.00000E+00
    0.23006E+05        -0.50002E+08         0.00000E+00
    0.00000E+00         0.00000E+00        -0.50010E+08
 
   -0.50046E+08         0.24621E+05         0.00000E+00
    0.24621E+05        -0.50002E+08         0.00000E+00
    0.00000E+00         0.00000E+00        -0.50010E+08
 
   -0.50045E+08         0.26218E+05         0.00000E+00
    0.26218E+05        -0.50002E+08         0.00000E+00
    0.00000E+00         0.00000E+00        -0.50010E+08
 
   -0.50045E+08         0.27793E+05         0.00000E+00
    0.27793E+05        -0.50003E+08         0.00000E+00
    0.00000E+00         0.00000E+00        -0.50009E+08
 
   -0.50044E+08         0.29347E+05         0.00000E+00
    0.29347E+05        -0.50003E+08         0.00000E+00
    0.00000E+00         0.00000E+00        -0.50009E+08
 
   -0.50043E+08         0.30877E+05         0.00000E+00
    0.30877E+05        -0.50003E+08         0.00000E+00
    0.00000E+00         0.00000E+00        -0.50009E+08
 
   -0.50043E+08         0.32382E+05         0.00000E+00
    0.32382E+05        -0.50004E+08         0.00000E+00
    0.00000E+00         0.00000E+00        -0.50009E+08
 
   -0.50042E+08         0.33862E+05         0.00000E+00
    0.33862E+05        -0.50004E+08         0.00000E+00
    0.00000E+00         0.00000E+00        -0.50009E+08
 
   -0.50041E+08         0.35313E+05         0.00000E+00
    0.35313E+05        -0.50004E+08         0.00000E+00
    0.00000E+00         0.00000E+00        -0.50009E+08
 
   -0.50040E+08         0.36737E+05         0.00000E+00
    0.36737E+05        -0.50005E+08         0.00000E+00
    0.00000E+00         0.00000E+00        -0.50009E+08
 
   -0.50039E+08         0.38130E+05         0.00000E+00
    0.38130E+05        -0.50005E+08         0.00000E+00
    0.00000E+00         0.00000E+00        -0.50009E+08
 
   -0.50038E+08         0.39492E+05         0.00000E+00
    0.39492E+05        -0.50006E+08         0.00000E+00
    0.00000E+00         0.00000E+00        -0.50009E+08
 
   -0.50038E+08         0.40822E+05         0.00000E+00
    0.40822E+05        -0.50006E+08         0.00000E+00
    0.00000E+00         0.00000E+00        -0.50009E+08
 
   -0.50037E+08         0.42118E+05         0.00000E+00
    0.42118E+05        -0.50007E+08         0.00000E+00
    0.00000E+00         0.00000E+00        -0.50009E+08
 
   -0.50036E+08         0.43380E+05         0.00000E+00
    0.43380E+05        -0.50007E+08         0.00000E+00
    0.00000E+00         0.00000E+00        -0.50009E+08
 
   -0.50034E+08         0.44605E+05         0.00000E+00
    0.44605E+05        -0.50008E+08         0.00000E+00
    0.00000E+00         0.00000E+00        -0.50008E+08
 
   -0.50033E+08         0.45793E+05         0.00000E+00
    0.45793E+05        -0.50008E+08         0.00000E+00
    0.00000E+00         0.00000E+00        -0.50008E+08
 
   -0.50032E+08         0.46943E+05         0.00000E+00
    0.46943E+05        -0.50009E+08         0.00000E+00
    0.00000E+00         0.00000E+00        -0.50008E+08
 
   -0.50031E+08         0.48054E+05         0.00000E+00
    0.48054E+05        -0.50009E+08         0.00000E+00
    0.00000E+00         0.00000E+00        -0.50008E+08
 
   -0.50030E+08         0.49124E+05         0.00000E+00
    0.49124E+05        -0.50010E+08         0.00000E+00
    0.00000E+00         0.00000E+00        -0.50008E+08
 
   -0.50029E+08         0.50153E+05         0.00000E+00
    0.50153E+05        -0.50010E+08         0.00000E+00
    0.00000E+00         0.00000E+00        -0.50008E+08
 
   -0.50028E+08         0.51139E+05         0.00000E+00
    0.51139E+05        -0.50011E+08         0.00000E+00
    0.00000E+00         0.00000E+00        -0.50008E+08
 
   -0.50026E+08         0.52082E+05         0.00000E+00
    0.52082E+05        -0.50012E+08         0.00000E+00
    0.00000E+00         0.00000E+00        -0.50008E+08
 
   -0.50025E+08         0.52980E+05         0.00000E+00
    0.52980E+05        -0.50012E+08         0.00000E+00
    0.00000E+00         0.00000E+00        -0.50007E+08
 
   -0.50024E+08         0.53833E+05         0.00000E+00
    0.53833E+05        -0.50013E+08         0.00000E+00
    0.00000E+00         0.00000E+00        -0.50007E+08
 
   -0.50022E+08         0.54639E+05         0.00000E+00
    0.54639E+05        -0.50013E+08         0.00000E+00
    0.00000E+00         0.00000E+00        -0.50007E+08
 
   -0.50021E+08         0.55399E+05         0.00000E+00
    0.55399E+05        -0.50014E+08         0.00000E+00
    0.00000E+00         0.00000E+00        -0.50007E+08
 
   -0.50020E+08         0.56109E+05         0.00000E+00
    0.56109E+05        -0.50015E+08         0.00000E+00
    0.00000E+00         0.00000E+00        -0.50007E+08
 
   -0.50018E+08         0.56771E+05         0.00000E+00
    0.56771E+05        -0.50015E+08         0.00000E+00
    0.00000E+00         0.00000E+00        -0.50007E+08
 
   -0.50017E+08         0.57383E+05         0.00000E+00
    0.57383E+05        -0.50016E+08         0.00000E+00
    0.00000E+00         0.00000E+00        -0.50007E+08
 
   -0.50015E+08         0.57945E+05         0.00000E+00
    0.57945E+05        -0.50017E+08         0.00000E+00
    0.00000E+00         0.00000E+00        -0.50006E+08
 
   -0.50014E+08         0.58455E+05         0.00000E+00
    0.58455E+05        -0.50017E+08         0.00000E+00
    0.00000E+00         0.00000E+00        -0.50006E+08
 
   -0.50012E+08         0.58913E+05         0.00000E+00
    0.58913E+05        -0.50018E+08         0.00000E+00
    0.00000E+00         0.00000E+00        -0.50006E+08
 
   -0.50011E+08         0.59318E+05         0.00000E+00
    0.59318E+05        -0.50019E+08         0.00000E+00
    0.00000E+00         0.00000E+00        -0.50006E+08
 
   -0.50009E+08         0.59670E+05         0.00000E+00
    0.59670E+05        -0.50019E+08         0.00000E+00
    0.00000E+00         0.00000E+00        -0.50006E+08
 
   -0.50008E+08         0.59968E+05         0.00000E+00
    0.59968E+05        -0.50020E+08         0.00000E+00
    0.00000E+00         0.00000E+00        -0.50006E+08
 
   -0.50006E+08         0.60211E+05         0.00000E+00
    0.60211E+05        -0.50021E+08         0.00000E+00
    0.00000E+00         0.00000E+00        -0.50005E+08
 
   -0.50042E+08         0.82586E+03         0.00000E+00
    0.82586E+03        -0.50000E+08         0.00000E+00
    0.00000E+00         0.00000E+00        -0.50008E+08
 
   -0.50042E+08         0.24779E+04         0.00000E+00
    0.24779E+04        -0.50000E+08         0.00000E+00
    0.00000E+00         0.00000E+00        -0.50008E+08
 
   -0.50042E+08         0.41285E+04         0.00000E+00
    0.41285E+04        -0.50000E+08         0.00000E+00
    0.00000E+00         0.00000E+00        -0.50008E+08
 
   -0.50041E+08         0.57763E+04         0.00000E+00
    0.57763E+04        -0.50000E+08         0.00000E+00
    0.00000E+00         0.00000E+00        -0.50008E+08
 
   -0.50041E+08         0.74199E+04         0.00000E+00
    0.74199E+04        -0.50000E+08         0.00000E+00
    0.00000E+00         0.00000E+00        -0.50008E+08
 
   -0.50041E+08         0.90581E+04         0.00000E+00
    0.90581E+04        -0.50000E+08         0.00000E+00
    0.00000E+00         0.00000E+00        -0.50008E+08
 
   -0.50041E+08         0.10690E+05         0.00000E+00
    0.10690E+05        -0.50000E+08         0.00000E+00
    0.00000E+00         0.00000E+00        -0.50008E+08
 
   -0.50041E+08         0.12313E+05         0.00000E+00
    0.12313E+05        -0.50000E+08         0.00000E+00
    0.00000E+00         0.00000E+00        -0.50008E+08
 
   -0.50040E+08         0.13927E+05         0.00000E+00
    0.13927E+05        -0.50001E+08         0.00000E+00
    0.00000E+00         0.00000E+00        -0.50008E+08
 
   -0.50040E+08         0.15530E+05         0.00000E+00
    0.15530E+05        -0.50001E+08         0.00000E+00
    0.00000E+00         0.00000E+00        -0.50008E+08
 
   -0.50040E+08         0.17121E+05         0.00000E+00
    0.17121E+05        -0.50001E+08         0.00000E+00
    0.00000E+00         0.00000E+00        -0.50008E+08
 
   -0.50039E+08         0.18699E+05         0.00000E+00
    0.18699E+05        -0.50001E+08         0.00000E+00
    0.00000E+00         0.00000E+00        -0.50008E+08
 
   -0.50039E+08         0.20263E+05         0.00000E+00
    0.20263E+05        -0.50001E+08         0.00000E+00
    0.00000E+00         0.00000E+00        -0.50008E+08
 
   -0.50039E+08         0.21810E+05         0.00000E+00
    0.21810E+05        -0.50001E+08         0.00000E+00
    0.00000E+00         0.00000E+00        -0.50008E+08
 
   -0.50038E+08         0.23340E+05         0.00000E+00
    0.23340E+05        -0.50002E+08         0.00000E+00
    0.00000E+00         0.00000E+00        -0.50008E+08
 
   -0.50038E+08         0.24852E+05         0.00000E+00
    0.24852E+05        -0.50002E+08         0.00000E+00
    0.00000E+00         0.00000E+00        -0.50008E+08
 
   -0.50037E+08         0.26344E+05         0.00000E+00
    0.26344E+05        -0.50002E+08         0.00000E+00
    0.00000E+00         0.00000E+00        -0.50008E+08
 
   -0.50037E+08         0.27814E+05         0.00000E+00
    0.27814E+05        -0.50002E+08         0.00000E+00
    0.00000E+00         0.00000E+00        -0.50008E+08
 
   -0.50036E+08         0.29263E+05         0.00000E+00
    0.29263E+05        -0.50003E+08         0.00000E+00
    0.00000E+00         0.00000E+00        -0.50008E+08
 
   -0.50035E+08         0.30688E+05         0.00000E+00
    0.30688E+05        -0.50003E+08         0.00000E+00
    0.00000E+00         0.00000E+00        -0.50008E+08
 
   -0.50035E+08         0.32088E+05         0.00000E+00
    0.32088E+05        -0.50003E+08         0.00000E+00
    0.00000E+00         0.00000E+00        -0.50008E+08
 
   -0.50034E+08         0.33462E+05         0.00000E+00
    0.33462E+05        -0.50004E+08         0.00000E+00
    0.00000E+00         0.00000E+00        -0.50008E+08
 
   -0.50033E+08         0.34809E+05         0.00000E+00
    0.34809E+05        -0.50004E+08         0.00000E+00
    0.00000E+00         0.00000E+00        -0.50007E+08
 
   -0.50033E+08         0.36127E+05         0.00000E+00
    0.36127E+05        -0.50004E+08         0.00000E+00
    0.00000E+00         0.00000E+00        -0.50007E+08
 
   -0.50032E+08         0.37416E+05         0.00000E+00
    0.37416E+05        -0.50005E+08         0.00000E+00
    0.00000E+00         0.00000E+00        -0.50007E+08
 
   -0.50031E+08         0.38674E+05         0.00000E+00
    0.38674E+05        -0.50005E+08         0.00000E+00
    0.00000E+00         0.00000E+00        -0.50007E+08
 
   -0.50030E+08         0.39900E+05         0.00000E+00
    0.39900E+05        -0.50006E+08         0.00000E+00
    0.00000E+00         0.00000E+00        -0.50007E+08
 
   -0.50029E+08         0.41094E+05         0.00000E+00
    0.41094E+05        -0.50006E+08         0.00000E+00
    0.00000E+00         0.00000E+00        -0.50007E+08
 
   -0.50029E+08         0.42253E+05         0.00000E+00
    0.42253E+05        -0.50006E+08         0.00000E+00
    0.00000E+00         0.00000E+00        -0.50007E+08
 
   -0.50028E+08         0.43377E+05         0.00000E+00
    0.43377E+05        -0.50007E+08         0.00000E+00
    0.00000E+00         0.00000E+00        -0.50007E+08
 
   -0.50027E+08         0.44464E+05         0.00000E+00
    0.44464E+05        -0.50007E+08         0.00000E+00
    0.00000E+00         0.00000E+00        -0.50007E+08
 
   -0.50026E+08         0.45515E+05         0.00000E+00
    0.45515E+05        -0.50008E+08         0.00000E+00
    0.00000E+00         0.00000E+00        -0.50007E+08
 
   -0.50025E+08         0.46527E+05         0.00000E+00
    0.46527E+05        -0.50008E+08         0.00000E+00
    0.00000E+00         0.00000E+00        -0.50007E+08
 
   -0.50024E+08         0.47500E+05         0.00000E+00
    0.47500E+05        -0.50009E+08         0.00000E+00
    0.00000E+00         0.00000E+00        -0.50006E+08
 
   -0.50023E+08         0.48432E+05         0.00000E+00
    0.48432E+05        -0.50009E+08         0.00000E+00
    0.00000E+00         0.00000E+00        -0.50006E+08
 
   -0.50022E+08         0.49323E+05         0.00000E+00
    0.49323E+05        -0.50010E+08         0.00000E+00
    0.00000E+00         0.00000E+00        -0.50006E+08
 
   -0.50021E+08         0.50173E+05         0.00000E+00
    0.50173E+05        -0.50010E+08         0.00000E+00
    0.00000E+00         0.00000E+00        -0.50006E+08
 
   -0.50020E+08         0.50979E+05         0.00000E+00
    0.50979E+05        -0.50011E+08         0.00000E+00
    0.00000E+00         0.00000E+00        -0.50006E+08
 
   -0.50018E+08         0.51741E+05         0.00000E+00
    0.51741E+05        -0.50011E+08         0.00000E+00
    0.00000E+00         0.00000E+00        -0.50006E+08
 
   -0.50017E+08         0.52458E+05         0.00000E+00
    0.52458E+05        -0.50012E+08         0.00000E+00
    0.00000E+00         0.00000E+00        -0.50006E+08
 
   -0.50016E+08         0.53130E+05         0.00000E+00
    0.53130E+05        -0.50012E+08         0.00000E+00
    0.00000E+00         0.00000E+00        -0.50006E+08
 
   -0.50015E+08         0.53755E+05         0.00000E+00
    0.53755E+05        -0.50013E+08         0.00000E+00
    0.00000E+00         0.00000E+00        -0.50006E+08
 
   -0.50014E+08         0.54333E+05         0.00000E+00
    0.54333E+05        -0.50013E+08         0.00000E+00
    0.00000E+00         0.00000E+00        -0.50005E+08
 
   -0.50013E+08         0.54864E+05         0.00000E+00
    0.54864E+05        -0.50014E+08         0.00000E+00
    0.00000E+00         0.00000E+00        -0.50005E+08
 
   -0.50011E+08         0.55345E+05         0.00000E+00
    0.55345E+05        -0.50014E+08         0.00000E+00
    0.00000E+00         0.00000E+00        -0.50005E+08
 
   -0.50010E+08         0.55778E+05         0.00000E+00
    0.55778E+05        -0.50015E+08         0.00000E+00
    0.00000E+00         0.00000E+00        -0.50005E+08
 
   -0.50009E+08         0.56160E+05         0.00000E+00
    0.56160E+05        -0.50016E+08         0.00000E+00
    0.00000E+00         0.00000E+00        -0.50005E+08
 
   -0.50008E+08         0.56492E+05         0.00000E+00
    0.56492E+05        -0.50016E+08         0.00000E+00
    0.00000E+00         0.00000E+00        -0.50005E+08
 
   -0.50006E+08         0.56773E+05         0.00000E+00
    0.56773E+05        -0.50017E+08         0.00000E+00
    0.00000E+00         0.00000E+00        -0.50005E+08
 
   -0.50005E+08         0.57003E+05         0.00000E+00
    0.57003E+05        -0.50017E+08         0.00000E+00
    0.00000E+00         0.00000E+00        -0.50004E+08
 
   -0.50034E+08         0.78993E+03         0.00000E+00
    0.78993E+03        -0.50000E+08         0.00000E+00
    0.00000E+00         0.00000E+00        -0.50007E+08
 
   -0.50034E+08         0.23695E+04         0.00000E+00
    0.23695E+04        -0.50000E+08         0.00000E+00
    0.00000E+00         0.00000E+00        -0.50007E+08
 
   -0.50033E+08         0.39473E+04         0.00000E+00
    0.39473E+04        -0.50000E+08         0.00000E+00
    0.00000E+00         0.00000E+00        -0.50007E+08
 
   -0.50033E+08         0.55221E+04         0.00000E+00
    0.55221E+04        -0.50000E+08         0.00000E+00
    0.00000E+00         0.00000E+00        -0.50007E+08
 
   -0.50033E+08         0.70928E+04         0.00000E+00
    0.70928E+04        -0.50000E+08         0.00000E+00
    0.00000E+00         0.00000E+00        -0.50007E+08
 
   -0.50033E+08         0.86580E+04         0.00000E+00
    0.86580E+04        -0.50000E+08         0.00000E+00
    0.00000E+00         0.00000E+00        -0.50007E+08
 
   -0.50033E+08         0.10216E+05         0.00000E+00
    0.10216E+05        -0.50000E+08         0.00000E+00
    0.00000E+00         0.00000E+00        -0.50007E+08
 
   -0.50033E+08         0.11767E+05         0.00000E+00
    0.11767E+05        -0.50000E+08         0.00000E+00
    0.00000E+00         0.00000E+00        -0.50007E+08
 
   -0.50033E+08         0.13308E+05         0.00000E+00
    0.13308E+05        -0.50000E+08         0.00000E+00
    0.00000E+00         0.00000E+00        -0.50007E+08
 
   -0.50032E+08         0.14839E+05         0.00000E+00
    0.14839E+05        -0.50001E+08         0.00000E+00
    0.00000E+00         0.00000E+00        -0.50007E+08
 
   -0.50032E+08         0.16359E+05         0.00000E+00
    0.16359E+05        -0.50001E+08         0.00000E+00
    0.00000E+00         0.00000E+00        -0.50007E+08
 
   -0.50032E+08         0.17865E+05         0.00000E+00
    0.17865E+05        -0.50001E+08         0.00000E+00
    0.00000E+00         0.00000E+00        -0.50007E+08
 
   -0.50031E+08         0.19357E+05         0.00000E+00
    0.19357E+05        -0.50001E+08         0.00000E+00
    0.00000E+00         0.00000E+00        -0.50006E+08
 
   -0.50031E+08         0.20834E+05         0.00000E+00
    0.20834E+05        -0.50001E+08         0.00000E+00
    0.00000E+00         0.00000E+00        -0.50006E+08
 
   -0.50031E+08         0.22294E+05         0.00000E+00
    0.22294E+05        -0.50001E+08         0.00000E+00
    0.00000E+00         0.00000E+00        -0.50006E+08
 
   -0.50030E+08         0.23736E+05         0.00000E+00
    0.23736E+05        -0.50002E+08         0.00000E+00
    0.00000E+00         0.00000E+00        -0.50006E+08
 
   -0.50030E+08         0.25160E+05         0.00000E+00
    0.25160E+05        -0.50002E+08         0.00000E+00
    0.00000E+00         0.00000E+00        -0.50006E+08
 
   -0.50029E+08         0.26563E+05         0.00000E+00
    0.26563E+05        -0.50002E+08         0.00000E+00
    0.00000E+00         0.00000E+00        -0.50006E+08
 
   -0.50029E+08         0.27945E+05         0.00000E+00
    0.27945E+05        -0.50002E+08         0.00000E+00
    0.00000E+00         0.00000E+00        -0.50006E+08
 
   -0.50029E+08         0.29304E+05         0.00000E+00
    0.29304E+05        -0.50002E+08         0.00000E+00
    0.00000E+00         0.00000E+00        -0.50006E+08
 
   -0.50028E+08         0.30639E+05         0.00000E+00
    0.30639E+05        -0.50003E+08         0.00000E+00
    0.00000E+00         0.00000E+00        -0.50006E+08
 
   -0.50027E+08         0.31949E+05         0.00000E+00
    0.31949E+05        -0.50003E+08         0.00000E+00
    0.00000E+00         0.00000E+00        -0.50006E+08
 
   -0.50027E+08         0.33234E+05         0.00000E+00
    0.33234E+05        -0.50003E+08         0.00000E+00
    0.00000E+00         0.00000E+00        -0.50006E+08
 
   -0.50026E+08         0.34491E+05         0.00000E+00
    0.34491E+05        -0.50004E+08         0.00000E+00
    0.00000E+00         0.00000E+00        -0.50006E+08
 
   -0.50026E+08         0.35720E+05         0.00000E+00
    0.35720E+05        -0.50004E+08         0.00000E+00
    0.00000E+00         0.00000E+00        -0.50006E+08
 
   -0.50025E+08         0.36919E+05         0.00000E+00
    0.36919E+05        -0.50004E+08         0.00000E+00
    0.00000E+00         0.00000E+00        -0.50006E+08
 
   -0.50024E+08         0.38088E+05         0.00000E+00
    0.38088E+05        -0.50004E+08         0.00000E+00
    0.00000E+00         0.00000E+00        -0.50006E+08
 
   -0.50024E+08         0.39225E+05         0.00000E+00
    0.39225E+05        -0.50005E+08         0.00000E+00
    0.00000E+00         0.00000E+00        -0.50006E+08
 
   -0.50023E+08         0.40330E+05         0.00000E+00
    0.40330E+05        -0.50005E+08         0.00000E+00
    0.00000E+00         0.00000E+00        -0.50006E+08
 
   -0.50022E+08         0.41401E+05         0.00000E+00
    0.41401E+05        -0.50005E+08         0.00000E+00
    0.00000E+00         0.00000E+00        -0.50006E+08
 
   -0.50022E+08         0.42438E+05         0.00000E+00
    0.42438E+05        -0.50006E+08         0.00000E+00
    0.00000E+00         0.00000E+00        -0.50005E+08
 
   -0.50021E+08         0.43439E+05         0.00000E+00
    0.43439E+05        -0.50006E+08         0.00000E+00
    0.00000E+00         0.00000E+00        -0.50005E+08
 
   -0.50020E+08         0.44403E+05         0.00000E+00
    0.44403E+05        -0.50007E+08         0.00000E+00
    0.00000E+00         0.00000E+00        -0.50005E+08
 
   -0.50019E+08         0.45330E+05         0.00000E+00
    0.45330E+05        -0.50007E+08         0.00000E+00
    0.00000E+00         0.00000E+00        -0.50005E+08
 
   -0.50018E+08         0.46218E+05         0.00000E+00
    0.46218E+05        -0.50007E+08         0.00000E+00
    0.00000E+00         0.00000E+00        -0.50005E+08
 
   -0.50018E+08         0.47067E+05         0.00000E+00
    0.47067E+05        -0.50008E+08         0.00000E+00
    0.00000E+00         0.00000E+00        -0.50005E+08
 
   -0.50017E+08         0.47876E+05         0.00000E+00
    0.47876E+05        -0.50008E+08         0.00000E+00
    0.00000E+00         0.00000E+00        -0.50005E+08
 
   -0.50016E+08         0.48643E+05         0.00000E+00
    0.48643E+05        -0.50009E+08         0.00000E+00
    0.00000E+00         0.00000E+00        -0.50005E+08
 
   -0.50015E+08         0.49369E+05         0.00000E+00
    0.49369E+05        -0.50009E+08         0.00000E+00
    0.00000E+00         0.00000E+00        -0.50005E+08
 
   -0.50014E+08         0.50052E+05         0.00000E+00
    0.50052E+05        -0.50009E+08         0.00000E+00
    0.00000E+00         0.00000E+00        -0.50005E+08
 
   -0.50013E+08         0.50692E+05         0.00000E+00
    0.50692E+05        -0.50010E+08         0.00000E+00
    0.00000E+00         0.00000E+00        -0.50005E+08
 
   -0.50012E+08         0.51287E+05         0.00000E+00
    0.51287E+05        -0.50010E+08         0.00000E+00
    0.00000E+00         0.00000E+00        -0.50004E+08
 
   -0.50011E+08         0.51838E+05         0.00000E+00
    0.51838E+05        -0.50011E+08         0.00000E+00
    0.00000E+00         0.00000E+00        -0.50004E+08
 
   -0.50010E+08         0.52342E+05         0.00000E+00
    0.52342E+05        -0.50011E+08         0.00000E+00
    0.00000E+00         0.00000E+00        -0.50004E+08
 
   -0.50009E+08         0.52801E+05         0.00000E+00
    0.52801E+05        -0.50012E+08         0.00000E+00
    0.00000E+00         0.00000E+00        -0.50004E+08
 
   -0.50008E+08         0.53212E+05         0.00000E+00
    0.53212E+05        -0.50012E+08         0.00000E+00
    0.00000E+00         0.00000E+00        -0.50004E+08
 
   -0.50007E+08         0.53576E+05         0.00000E+00
    0.53576E+05        -0.50013E+08         0.00000E+00
    0.00000E+00         0.00000E+00        -0.50004E+08
 
   -0.50006E+08         0.53892E+05         0.00000E+00
    0.53892E+05        -0.50013E+08         0.00000E+00
    0.00000E+00         0.00000E+00        -0.50004E+08
 
   -0.50005E+08         0.54159E+05         0.00000E+00
    0.54159E+05        -0.50013E+08         0.00000E+00
    0.00000E+00         0.00000E+00        -0.50004E+08
 
   -0.50004E+08         0.54377E+05         0.00000E+00
    0.54377E+05        -0.50014E+08         0.00000E+00
    0.00000E+00         0.00000E+00        -0.50004E+08
 
   -0.50026E+08         0.76165E+03         0.00000E+00
    0.76165E+03        -0.50000E+08         0.00000E+00
    0.00000E+00         0.00000E+00        -0.50005E+08
 
   -0.50026E+08         0.22841E+04         0.00000E+00
    0.22841E+04        -0.50000E+08         0.00000E+00
    0.00000E+00         0.00000E+00        -0.50005E+08
 
   -0.50026E+08         0.38047E+04         0.00000E+00
    0.38047E+04        -0.50000E+08         0.00000E+00
    0.00000E+00         0.00000E+00        -0.50005E+08
 
   -0.50026E+08         0.53221E+04         0.00000E+00
    0.53221E+04        -0.50000E+08         0.00000E+00
    0.00000E+00         0.00000E+00        -0.50005E+08
 
   -0.50026E+08         0.68354E+04         0.00000E+00
    0.68354E+04        -0.50000E+08         0.00000E+00
    0.00000E+00         0.00000E+00        -0.50005E+08
 
   -0.50025E+08         0.83431E+04         0.00000E+00
    0.83431E+04        -0.50000E+08         0.00000E+00
    0.00000E+00         0.00000E+00        -0.50005E+08
 
   -0.50025E+08         0.98443E+04         0.00000E+00
    0.98443E+04        -0.50000E+08         0.00000E+00
    0.00000E+00         0.00000E+00        -0.50005E+08
 
   -0.50025E+08         0.11338E+05         0.00000E+00
    0.11338E+05        -0.50000E+08         0.00000E+00
    0.00000E+00         0.00000E+00        -0.50005E+08
 
   -0.50025E+08         0.12822E+05         0.00000E+00
    0.12822E+05        -0.50000E+08         0.00000E+00
    0.00000E+00         0.00000E+00        -0.50005E+08
 
   -0.50025E+08         0.14296E+05         0.00000E+00
    0.14296E+05        -0.50000E+08         0.00000E+00
    0.00000E+00         0.00000E+00        -0.50005E+08
 
   -0.50025E+08         0.15758E+05         0.00000E+00
    0.15758E+05        -0.50001E+08         0.00000E+00
    0.00000E+00         0.00000E+00        -0.50005E+08
 
   -0.50024E+08         0.17208E+05         0.00000E+00
    0.17208E+05        -0.50001E+08         0.00000E+00
    0.00000E+00         0.00000E+00        -0.50005E+08
 
   -0.50024E+08         0.18645E+05         0.00000E+00
    0.18645E+05        -0.50001E+08         0.00000E+00
    0.00000E+00         0.00000E+00        -0.50005E+08
 
   -0.50024E+08         0.20066E+05         0.00000E+00
    0.20066E+05        -0.50001E+08         0.00000E+00
    0.00000E+00         0.00000E+00        -0.50005E+08
 
   -0.50024E+08         0.21471E+05         0.00000E+00
    0.21471E+05        -0.50001E+08         0.00000E+00
    0.00000E+00         0.00000E+00        -0.50005E+08
 
   -0.50023E+08         0.22859E+05         0.00000E+00
    0.22859E+05        -0.50001E+08         0.00000E+00
    0.00000E+00         0.00000E+00        -0.50005E+08
 
   -0.50023E+08         0.24228E+05         0.00000E+00
    0.24228E+05        -0.50001E+08         0.00000E+00
    0.00000E+00         0.00000E+00        -0.50005E+08
 
   -0.50023E+08         0.25578E+05         0.00000E+00
    0.25578E+05        -0.50002E+08         0.00000E+00
    0.00000E+00         0.00000E+00        -0.50005E+08
 
   -0.50022E+08         0.26907E+05         0.00000E+00
    0.26907E+05        -0.50002E+08         0.00000E+00
    0.00000E+00         0.00000E+00        -0.50005E+08
 
   -0.50022E+08         0.28214E+05         0.00000E+00
    0.28214E+05        -0.50002E+08         0.00000E+00
    0.00000E+00         0.00000E+00        -0.50005E+08
 
   -0.50022E+08         0.29498E+05         0.00000E+00
    0.29498E+05        -0.50002E+08         0.00000E+00
    0.00000E+00         0.00000E+00        -0.50005E+08
 
   -0.50021E+08         0.30758E+05         0.00000E+00
    0.30758E+05        -0.50002E+08         0.00000E+00
    0.00000E+00         0.00000E+00        -0.50005E+08
 
   -0.50021E+08         0.31993E+05         0.00000E+00
    0.31993E+05        -0.50002E+08         0.00000E+00
    0.00000E+00         0.00000E+00        -0.50005E+08
 
   -0.50020E+08         0.33202E+05         0.00000E+00
    0.33202E+05        -0.50003E+08         0.00000E+00
    0.00000E+00         0.00000E+00        -0.50005E+08
 
   -0.50020E+08         0.34383E+05         0.00000E+00
    0.34383E+05        -0.50003E+08         0.00000E+00
    0.00000E+00         0.00000E+00        -0.50005E+08
 
   -0.50019E+08         0.35536E+05         0.00000E+00
    0.35536E+05        -0.50003E+08         0.00000E+00
    0.00000E+00         0.00000E+00        -0.50004E+08
 
   -0.50019E+08         0.36660E+05         0.00000E+00
    0.36660E+05        -0.50003E+08         0.00000E+00
    0.00000E+00         0.00000E+00        -0.50004E+08
 
   -0.50018E+08         0.37753E+05         0.00000E+00
    0.37753E+05        -0.50004E+08         0.00000E+00
    0.00000E+00         0.00000E+00        -0.50004E+08
 
   -0.50018E+08         0.38815E+05         0.00000E+00
    0.38815E+05        -0.50004E+08         0.00000E+00
    0.00000E+00         0.00000E+00        -0.50004E+08
 
   -0.50017E+08         0.39844E+05         0.00000E+00
    0.39844E+05        -0.50004E+08         0.00000E+00
    0.00000E+00         0.00000E+00        -0.50004E+08
 
   -0.50017E+08         0.40840E+05         0.00000E+00
    0.40840E+05        -0.50004E+08         0.00000E+00
    0.00000E+00         0.00000E+00        -0.50004E+08
 
   -0.50016E+08         0.41802E+05         0.00000E+00
    0.41802E+05        -0.50005E+08         0.00000E+00
    0.00000E+00         0.00000E+00        -0.50004E+08
 
   -0.50015E+08         0.42729E+05         0.00000E+00
    0.42729E+05        -0.50005E+08         0.00000E+00
    0.00000E+00         0.00000E+00        -0.50004E+08
 
   -0.50015E+08         0.43619E+05         0.00000E+00
    0.43619E+05        -0.50005E+08         0.00000E+00
    0.00000E+00         0.00000E+00        -0.50004E+08
 
   -0.50014E+08         0.44472E+05         0.00000E+00
    0.44472E+05        -0.50006E+08         0.00000E+00
    0.00000E+00         0.00000E+00        -0.50004E+08
 
   -0.50013E+08         0.45288E+05         0.00000E+00
    0.45288E+05        -0.50006E+08         0.00000E+00
    0.00000E+00         0.00000E+00        -0.50004E+08
 
   -0.50013E+08         0.46065E+05         0.00000E+00
    0.46065E+05        -0.50006E+08         0.00000E+00
    0.00000E+00         0.00000E+00        -0.50004E+08
 
   -0.50012E+08         0.46802E+05         0.00000E+00
    0.46802E+05        -0.50007E+08         0.00000E+00
    0.00000E+00         0.00000E+00        -0.50004E+08
 
   -0.50011E+08         0.47499E+05         0.00000E+00
    0.47499E+05        -0.50007E+08         0.00000E+00
    0.00000E+00         0.00000E+00        -0.50004E+08
 
   -0.50011E+08         0.48155E+05         0.00000E+00
    0.48155E+05        -0.50007E+08         0.00000E+00
    0.00000E+00         0.00000E+00        -0.50004E+08
 
   -0.50010E+08         0.48769E+05         0.00000E+00
    0.48769E+05        -0.50008E+08         0.00000E+00
    0.00000E+00         0.00000E+00        -0.50004E+08
 
   -0.50009E+08         0.49341E+05         0.00000E+00
    0.49341E+05        -0.50008E+08         0.00000E+00
    0.00000E+00         0.00000E+00        -0.50003E+08
 
   -0.50009E+08         0.49869E+05         0.00000E+00
    0.49869E+05        -0.50008E+08         0.00000E+00
    0.00000E+00         0.00000E+00        -0.50003E+08
 
   -0.50008E+08         0.50354E+05         0.00000E+00
    0.50354E+05        -0.50009E+08         0.00000E+00
    0.00000E+00         0.00000E+00        -0.50003E+08
 
   -0.50007E+08         0.50794E+05         0.00000E+00
    0.50794E+05        -0.50009E+08         0.00000E+00
    0.00000E+00         0.00000E+00        -0.50003E+08
 
   -0.50006E+08         0.51189E+05         0.00000E+00
    0.51189E+05        -0.50009E+08         0.00000E+00
    0.00000E+00         0.00000E+00        -0.50003E+08
 
   -0.50006E+08         0.51538E+05         0.00000E+00
    0.51538E+05        -0.50010E+08         0.00000E+00
    0.00000E+00         0.00000E+00        -0.50003E+08
 
   -0.50005E+08         0.51841E+05         0.00000E+00
    0.51841E+05        -0.50010E+08         0.00000E+00
    0.00000E+00         0.00000E+00        -0.50003E+08
 
   -0.50004E+08         0.52097E+05         0.00000E+00
    0.52097E+05        -0.50010E+08         0.00000E+00
    0.00000E+00         0.00000E+00        -0.50003E+08
 
   -0.50003E+08         0.52306E+05         0.00000E+00
    0.52306E+05        -0.50011E+08         0.00000E+00
    0.00000E+00         0.00000E+00        -0.50003E+08
 
   -0.50018E+08         0.74072E+03         0.00000E+00
    0.74072E+03        -0.50000E+08         0.00000E+00
    0.00000E+00         0.00000E+00        -0.50004E+08
 
   -0.50018E+08         0.22209E+04         0.00000E+00
    0.22209E+04        -0.50000E+08         0.00000E+00
    0.00000E+00         0.00000E+00        -0.50004E+08
 
   -0.50018E+08         0.36991E+04         0.00000E+00
    0.36991E+04        -0.50000E+08         0.00000E+00
    0.00000E+00         0.00000E+00        -0.50004E+08
 
   -0.50018E+08         0.51742E+04         0.00000E+00
    0.51742E+04        -0.50000E+08         0.00000E+00
    0.00000E+00         0.00000E+00        -0.50004E+08
 
   -0.50018E+08         0.66449E+04         0.00000E+00
    0.66449E+04        -0.50000E+08         0.00000E+00
    0.00000E+00         0.00000E+00        -0.50004E+08
 
   -0.50018E+08         0.81102E+04         0.00000E+00
    0.81102E+04        -0.50000E+08         0.00000E+00
    0.00000E+00         0.00000E+00        -0.50004E+08
 
   -0.50018E+08         0.95688E+04         0.00000E+00
    0.95688E+04        -0.50000E+08         0.00000E+00
    0.00000E+00         0.00000E+00        -0.50004E+08
 
   -0.50018E+08         0.11020E+05         0.00000E+00
    0.11020E+05        -0.50000E+08         0.00000E+00
    0.00000E+00         0.00000E+00        -0.50004E+08
 
   -0.50018E+08         0.12462E+05         0.00000E+00
    0.12462E+05        -0.50000E+08         0.00000E+00
    0.00000E+00         0.00000E+00        -0.50004E+08
 
   -0.50018E+08         0.13893E+05         0.00000E+00
    0.13893E+05        -0.50000E+08         0.00000E+00
    0.00000E+00         0.00000E+00        -0.50004E+08
 
   -0.50017E+08         0.15314E+05         0.00000E+00
    0.15314E+05        -0.50000E+08         0.00000E+00
    0.00000E+00         0.00000E+00        -0.50004E+08
 
   -0.50017E+08         0.16722E+05         0.00000E+00
    0.16722E+05        -0.50000E+08         0.00000E+00
    0.00000E+00         0.00000E+00        -0.50004E+08
 
   -0.50017E+08         0.18117E+05         0.00000E+00
    0.18117E+05        -0.50001E+08         0.00000E+00
    0.00000E+00         0.00000E+00        -0.50004E+08
 
   -0.50017E+08         0.19497E+05         0.00000E+00
    0.19497E+05        -0.50001E+08         0.00000E+00
    0.00000E+00         0.00000E+00        -0.50004E+08
 
   -0.50017E+08         0.20861E+05         0.00000E+00
    0.20861E+05        -0.50001E+08         0.00000E+00
    0.00000E+00         0.00000E+00        -0.50003E+08
 
   -0.50017E+08         0.22209E+05         0.00000E+00
    0.22209E+05        -0.50001E+08         0.00000E+00
    0.00000E+00         0.00000E+00        -0.50003E+08
 
   -0.50016E+08         0.23538E+05         0.00000E+00
    0.23538E+05        -0.50001E+08         0.00000E+00
    0.00000E+00         0.00000E+00        -0.50003E+08
 
   -0.50016E+08         0.24848E+05         0.00000E+00
    0.24848E+05        -0.50001E+08         0.00000E+00
    0.00000E+00         0.00000E+00        -0.50003E+08
 
   -0.50016E+08         0.26138E+05         0.00000E+00
    0.26138E+05        -0.50001E+08         0.00000E+00
    0.00000E+00         0.00000E+00        -0.50003E+08
 
   -0.50016E+08         0.27407E+05         0.00000E+00
    0.27407E+05        -0.50001E+08         0.00000E+00
    0.00000E+00         0.00000E+00        -0.50003E+08
 
   -0.50015E+08         0.28653E+05         0.00000E+00
    0.28653E+05        -0.50001E+08         0.00000E+00
    0.00000E+00         0.00000E+00        -0.50003E+08
 
   -0.50015E+08         0.29876E+05         0.00000E+00
    0.29876E+05        -0.50002E+08         0.00000E+00
    0.00000E+00         0.00000E+00        -0.50003E+08
 
   -0.50015E+08         0.31074E+05         0.00000E+00
    0.31074E+05        -0.50002E+08         0.00000E+00
    0.00000E+00         0.00000E+00        -0.50003E+08
 
   -0.50014E+08         0.32247E+05         0.00000E+00
    0.32247E+05        -0.50002E+08         0.00000E+00
    0.00000E+00         0.00000E+00        -0.50003E+08
 
   -0.50014E+08         0.33393E+05         0.00000E+00
    0.33393E+05        -0.50002E+08         0.00000E+00
    0.00000E+00         0.00000E+00        -0.50003E+08
 
   -0.50014E+08         0.34511E+05         0.00000E+00
    0.34511E+05        -0.50002E+08         0.00000E+00
    0.00000E+00         0.00000E+00        -0.50003E+08
 
   -0.50013E+08         0.35601E+05         0.00000E+00
    0.35601E+05        -0.50002E+08         0.00000E+00
    0.00000E+00         0.00000E+00        -0.50003E+08
 
   -0.50013E+08         0.36661E+05         0.00000E+00
    0.36661E+05        -0.50003E+08         0.00000E+00
    0.00000E+00         0.00000E+00        -0.50003E+08
 
   -0.50013E+08         0.37691E+05         0.00000E+00
    0.37691E+05        -0.50003E+08         0.00000E+00
    0.00000E+00         0.00000E+00        -0.50003E+08
 
   -0.50012E+08         0.38690E+05         0.00000E+00
    0.38690E+05        -0.50003E+08         0.00000E+00
    0.00000E+00         0.00000E+00        -0.50003E+08
 
   -0.50012E+08         0.39655E+05         0.00000E+00
    0.39655E+05        -0.50003E+08         0.00000E+00
    0.00000E+00         0.00000E+00        -0.50003E+08
 
   -0.50011E+08         0.40588E+05         0.00000E+00
    0.40588E+05        -0.50003E+08         0.00000E+00
    0.00000E+00         0.00000E+00        -0.50003E+08
 
   -0.50011E+08         0.41486E+05         0.00000E+00
    0.41486E+05        -0.50004E+08         0.00000E+00
    0.00000E+00         0.00000E+00        -0.50003E+08
 
   -0.50010E+08         0.42350E+05         0.00000E+00
    0.42350E+05        -0.50004E+08         0.00000E+00
    0.00000E+00         0.00000E+00        -0.50003E+08
 
   -0.50010E+08         0.43177E+05         0.00000E+00
    0.43177E+05        -0.50004E+08         0.00000E+00
    0.00000E+00         0.00000E+00        -0.50003E+08
 
   -0.50010E+08         0.43967E+05         0.00000E+00
    0.43967E+05        -0.50004E+08         0.00000E+00
    0.00000E+00         0.00000E+00        -0.50003E+08
 
   -0.50009E+08         0.44720E+05         0.00000E+00
    0.44720E+05        -0.50004E+08         0.00000E+00
    0.00000E+00         0.00000E+00        -0.50003E+08
 
   -0.50009E+08         0.45435E+05         0.00000E+00
    0.45435E+05        -0.50005E+08         0.00000E+00
    0.00000E+00         0.00000E+00        -0.50003E+08
 
   -0.50008E+08         0.46111E+05         0.00000E+00
    0.46111E+05        -0.50005E+08         0.00000E+00
    0.00000E+00         0.00000E+00        -0.50003E+08
 
   -0.50008E+08         0.46746E+05         0.00000E+00
    0.46746E+05        -0.50005E+08         0.00000E+00
    0.00000E+00         0.00000E+00        -0.50003E+08
 
   -0.50007E+08         0.47341E+05         0.00000E+00
    0.47341E+05        -0.50005E+08         0.00000E+00
    0.00000E+00         0.00000E+00        -0.50002E+08
 
   -0.50007E+08         0.47895E+05         0.00000E+00
    0.47895E+05        -0.50006E+08         0.00000E+00
    0.00000E+00         0.00000E+00        -0.50002E+08
 
   -0.50006E+08         0.48407E+05         0.00000E+00
    0.48407E+05        -0.50006E+08         0.00000E+00
    0.00000E+00         0.00000E+00        -0.50002E+08
 
   -0.50006E+08         0.48877E+05         0.00000E+00
    0.48877E+05        -0.50006E+08         0.00000E+00
    0.00000E+00         0.00000E+00        -0.50002E+08
 
   -0.50005E+08         0.49303E+05         0.00000E+00
    0.49303E+05        -0.50006E+08         0.00000E+00
    0.00000E+00         0.00000E+00        -0.50002E+08
 
   -0.50004E+08         0.49686E+05         0.00000E+00
    0.49686E+05        -0.50007E+08         0.00000E+00
    0.00000E+00         0.00000E+00        -0.50002E+08
 
   -0.50004E+08         0.50024E+05         0.00000E+00
    0.50024E+05        -0.50007E+08         0.00000E+00
    0.00000E+00         0.00000E+00        -0.50002E+08
 
   -0.50003E+08         0.50318E+05         0.00000E+00
    0.50318E+05        -0.50007E+08         0.00000E+00
    0.00000E+00         0.00000E+00        -0.50002E+08
 
   -0.50003E+08         0.50566E+05         0.00000E+00
    0.50566E+05        -0.50007E+08         0.00000E+00
    0.00000E+00         0.00000E+00        -0.50002E+08
 
   -0.50002E+08         0.50768E+05         0.00000E+00
    0.50768E+05        -0.50008E+08         0.00000E+00
    0.00000E+00         0.00000E+00        -0.50002E+08
 
   -0.50011E+08         0.72694E+03         0.00000E+00
    0.72694E+03        -0.50000E+08         0.00000E+00
    0.00000E+00         0.00000E+00        -0.50002E+08
 
   -0.50011E+08         0.21793E+04         0.00000E+00
    0.21793E+04        -0.50000E+08         0.00000E+00
    0.00000E+00         0.00000E+00        -0.50002E+08
 
   -0.50011E+08         0.36296E+04         0.00000E+00
    0.36296E+04        -0.50000E+08         0.00000E+00
    0.00000E+00         0.00000E+00        -0.50002E+08
 
   -0.50011E+08         0.50766E+04         0.00000E+00
    0.50766E+04        -0.50000E+08         0.00000E+00
    0.00000E+00         0.00000E+00        -0.50002E+08
 
   -0.50011E+08         0.65193E+04         0.00000E+00
    0.65193E+04        -0.50000E+08         0.00000E+00
    0.00000E+00         0.00000E+00        -0.50002E+08
 
   -0.50011E+08         0.79565E+04         0.00000E+00
    0.79565E+04        -0.50000E+08         0.00000E+00
    0.00000E+00         0.00000E+00        -0.50002E+08
 
   -0.50011E+08         0.93871E+04         0.00000E+00
    0.93871E+04        -0.50000E+08         0.00000E+00
    0.00000E+00         0.00000E+00        -0.50002E+08
 
   -0.50011E+08         0.10810E+05         0.00000E+00
    0.10810E+05        -0.50000E+08         0.00000E+00
    0.00000E+00         0.00000E+00        -0.50002E+08
 
   -0.50011E+08         0.12224E+05         0.00000E+00
    0.12224E+05        -0.50000E+08         0.00000E+00
    0.00000E+00         0.00000E+00        -0.50002E+08
 
   -0.50011E+08         0.13628E+05         0.00000E+00
    0.13628E+05        -0.50000E+08         0.00000E+00
    0.00000E+00         0.00000E+00        -0.50002E+08
 
   -0.50010E+08         0.15021E+05         0.00000E+00
    0.15021E+05        -0.50000E+08         0.00000E+00
    0.00000E+00         0.00000E+00        -0.50002E+08
 
   -0.50010E+08         0.16401E+05         0.00000E+00
    0.16401E+05        -0.50000E+08         0.00000E+00
    0.00000E+00         0.00000E+00        -0.50002E+08
 
   -0.50010E+08         0.17769E+05         0.00000E+00
    0.17769E+05        -0.50000E+08         0.00000E+00
    0.00000E+00         0.00000E+00        -0.50002E+08
 
   -0.50010E+08         0.19121E+05         0.00000E+00
    0.19121E+05        -0.50000E+08         0.00000E+00
    0.00000E+00         0.00000E+00        -0.50002E+08
 
   -0.50010E+08         0.20458E+05         0.00000E+00
    0.20458E+05        -0.50000E+08         0.00000E+00
    0.00000E+00         0.00000E+00        -0.50002E+08
 
   -0.50010E+08         0.21779E+05         0.00000E+00
    0.21779E+05        -0.50000E+08         0.00000E+00
    0.00000E+00         0.00000E+00        -0.50002E+08
 
   -0.50010E+08         0.23082E+05         0.00000E+00
    0.23082E+05        -0.50001E+08         0.00000E+00
    0.00000E+00         0.00000E+00        -0.50002E+08
 
   -0.50010E+08         0.24366E+05         0.00000E+00
    0.24366E+05        -0.50001E+08         0.00000E+00
    0.00000E+00         0.00000E+00        -0.50002E+08
 
   -0.50009E+08         0.25630E+05         0.00000E+00
    0.25630E+05        -0.50001E+08         0.00000E+00
    0.00000E+00         0.00000E+00        -0.50002E+08
 
   -0.50009E+08         0.26873E+05         0.00000E+00
    0.26873E+05        -0.50001E+08         0.00000E+00
    0.00000E+00         0.00000E+00        -0.50002E+08
 
   -0.50009E+08         0.28094E+05         0.00000E+00
    0.28094E+05        -0.50001E+08         0.00000E+00
    0.00000E+00         0.00000E+00        -0.50002E+08
 
   -0.50009E+08         0.29291E+05         0.00000E+00
    0.29291E+05        -0.50001E+08         0.00000E+00
    0.00000E+00         0.00000E+00        -0.50002E+08
 
   -0.50009E+08         0.30465E+05         0.00000E+00
    0.30465E+05        -0.50001E+08         0.00000E+00
    0.00000E+00         0.00000E+00        -0.50002E+08
 
   -0.50009E+08         0.31614E+05         0.00000E+00
    0.31614E+05        -0.50001E+08         0.00000E+00
    0.00000E+00         0.00000E+00        -0.50002E+08
 
   -0.50008E+08         0.32737E+05         0.00000E+00
    0.32737E+05        -0.50001E+08         0.00000E+00
    0.00000E+00         0.00000E+00        -0.50002E+08
 
   -0.50008E+08         0.33832E+05         0.00000E+00
    0.33832E+05        -0.50001E+08         0.00000E+00
    0.00000E+00         0.00000E+00        -0.50002E+08
 
   -0.50008E+08         0.34899E+05         0.00000E+00
    0.34899E+05        -0.50001E+08         0.00000E+00
    0.00000E+00         0.00000E+00        -0.50002E+08
 
   -0.50008E+08         0.35938E+05         0.00000E+00
    0.35938E+05        -0.50002E+08         0.00000E+00
    0.00000E+00         0.00000E+00        -0.50002E+08
 
   -0.50008E+08         0.36946E+05         0.00000E+00
    0.36946E+05        -0.50002E+08         0.00000E+00
    0.00000E+00         0.00000E+00        -0.50002E+08
 
   -0.50007E+08         0.37924E+05         0.00000E+00
    0.37924E+05        -0.50002E+08         0.00000E+00
    0.00000E+00         0.00000E+00        -0.50002E+08
 
   -0.50007E+08         0.38869E+05         0.00000E+00
    0.38869E+05        -0.50002E+08         0.00000E+00
    0.00000E+00         0.00000E+00        -0.50002E+08
 
   -0.50007E+08         0.39783E+05         0.00000E+00
    0.39783E+05        -0.50002E+08         0.00000E+00
    0.00000E+00         0.00000E+00        -0.50002E+08
 
   -0.50007E+08         0.40662E+05         0.00000E+00
    0.40662E+05        -0.50002E+08         0.00000E+00
    0.00000E+00         0.00000E+00        -0.50002E+08
 
   -0.50006E+08         0.41507E+05         0.00000E+00
    0.41507E+05        -0.50002E+08         0.00000E+00
    0.00000E+00         0.00000E+00        -0.50002E+08
 
   -0.50006E+08         0.42317E+05         0.00000E+00
    0.42317E+05        -0.50002E+08         0.00000E+00
    0.00000E+00         0.00000E+00        -0.50002E+08
 
   -0.50006E+08         0.43091E+05         0.00000E+00
    0.43091E+05        -0.50003E+08         0.00000E+00
    0.00000E+00         0.00000E+00        -0.50002E+08
 
   -0.50005E+08         0.43828E+05         0.00000E+00
    0.43828E+05        -0.50003E+08         0.00000E+00
    0.00000E+00         0.00000E+00        -0.50002E+08
 
   -0.50005E+08         0.44527E+05         0.00000E+00
    0.44527E+05        -0.50003E+08         0.00000E+00
    0.00000E+00         0.00000E+00        -0.50002E+08
 
   -0.50005E+08         0.45189E+05         0.00000E+00
    0.45189E+05        -0.50003E+08         0.00000E+00
    0.00000E+00         0.00000E+00        -0.50002E+08
 
   -0.50005E+08         0.45811E+05         0.00000E+00
    0.45811E+05        -0.50003E+08         0.00000E+00
    0.00000E+00         0.00000E+00        -0.50002E+08
 
   -0.50004E+08         0.46393E+05         0.00000E+00
    0.46393E+05        -0.50003E+08         0.00000E+00
    0.00000E+00         0.00000E+00        -0.50001E+08
 
   -0.50004E+08         0.46935E+05         0.00000E+00
    0.46935E+05        -0.50003E+08         0.00000E+00
    0.00000E+00         0.00000E+00        -0.50001E+08
 
   -0.50004E+08         0.47436E+05         0.00000E+00
    0.47436E+05        -0.50003E+08         0.00000E+00
    0.00000E+00         0.00000E+00        -0.50001E+08
 
   -0.50003E+08         0.47895E+05         0.00000E+00
    0.47895E+05        -0.50004E+08         0.00000E+00
    0.00000E+00         0.00000E+00        -0.50001E+08
 
   -0.50003E+08         0.48313E+05         0.00000E+00
    0.48313E+05        -0.50004E+08         0.00000E+00
    0.00000E+00         0.00000E+00        -0.50001E+08
 
   -0.50003E+08         0.48687E+05         0.00000E+00
    0.48687E+05        -0.50004E+08         0.00000E+00
    0.00000E+00         0.00000E+00        -0.50001E+08
 
   -0.50002E+08         0.49018E+05         0.00000E+00
    0.49018E+05        -0.50004E+08         0.00000E+00
    0.00000E+00         0.00000E+00        -0.50001E+08
 
   -0.50002E+08         0.49305E+05         0.00000E+00
    0.49305E+05        -0.50004E+08         0.00000E+00
    0.00000E+00         0.00000E+00        -0.50001E+08
 
   -0.50002E+08         0.49548E+05         0.00000E+00
    0.49548E+05        -0.50004E+08         0.00000E+00
    0.00000E+00         0.00000E+00        -0.50001E+08
 
   -0.50001E+08         0.49746E+05         0.00000E+00
    0.49746E+05        -0.50005E+08         0.00000E+00
    0.00000E+00         0.00000E+00        -0.50001E+08
 
   -0.50004E+08         0.72018E+03         0.00000E+00
    0.72018E+03        -0.50000E+08         0.00000E+00
    0.00000E+00         0.00000E+00        -0.50001E+08
 
   -0.50004E+08         0.21588E+04         0.00000E+00
    0.21588E+04        -0.50000E+08         0.00000E+00
    0.00000E+00         0.00000E+00        -0.50001E+08
 
   -0.50004E+08         0.35953E+04         0.00000E+00
    0.35953E+04        -0.50000E+08         0.00000E+00
    0.00000E+00         0.00000E+00        -0.50001E+08
 
   -0.50004E+08         0.50285E+04         0.00000E+00
    0.50285E+04        -0.50000E+08         0.00000E+00
    0.00000E+00         0.00000E+00        -0.50001E+08
 
   -0.50004E+08         0.64573E+04         0.00000E+00
    0.64573E+04        -0.50000E+08         0.00000E+00
    0.00000E+00         0.00000E+00        -0.50001E+08
 
   -0.50004E+08         0.78806E+04         0.00000E+00
    0.78806E+04        -0.50000E+08         0.00000E+00
    0.00000E+00         0.00000E+00        -0.50001E+08
 
   -0.50004E+08         0.92973E+04         0.00000E+00
    0.92973E+04        -0.50000E+08         0.00000E+00
    0.00000E+00         0.00000E+00        -0.50001E+08
 
   -0.50004E+08         0.10706E+05         0.00000E+00
    0.10706E+05        -0.50000E+08         0.00000E+00
    0.00000E+00         0.00000E+00        -0.50001E+08
 
   -0.50004E+08         0.12106E+05         0.00000E+00
    0.12106E+05        -0.50000E+08         0.00000E+00
    0.00000E+00         0.00000E+00        -0.50001E+08
 
   -0.50004E+08         0.13496E+05         0.00000E+00
    0.13496E+05        -0.50000E+08         0.00000E+00
    0.00000E+00         0.00000E+00        -0.50001E+08
 
   -0.50004E+08         0.14875E+05         0.00000E+00
    0.14875E+05        -0.50000E+08         0.00000E+00
    0.00000E+00         0.00000E+00        -0.50001E+08
 
   -0.50004E+08         0.16242E+05         0.00000E+00
    0.16242E+05        -0.50000E+08         0.00000E+00
    0.00000E+00         0.00000E+00        -0.50001E+08
 
   -0.50004E+08         0.17595E+05         0.00000E+00
    0.17595E+05        -0.50000E+08         0.00000E+00
    0.00000E+00         0.00000E+00        -0.50001E+08
 
   -0.50003E+08         0.18934E+05         0.00000E+00
    0.18934E+05        -0.50000E+08         0.00000E+00
    0.00000E+00         0.00000E+00        -0.50001E+08
 
   -0.50003E+08         0.20258E+05         0.00000E+00
    0.20258E+05        -0.50000E+08         0.00000E+00
    0.00000E+00         0.00000E+00        -0.50001E+08
 
   -0.50003E+08         0.21565E+05         0.00000E+00
    0.21565E+05        -0.50000E+08         0.00000E+00
    0.00000E+00         0.00000E+00        -0.50001E+08
 
   -0.50003E+08         0.22854E+05         0.00000E+00
    0.22854E+05        -0.50000E+08         0.00000E+00
    0.00000E+00         0.00000E+00        -0.50001E+08
 
   -0.50003E+08         0.24125E+05         0.00000E+00
    0.24125E+05        -0.50000E+08         0.00000E+00
    0.00000E+00         0.00000E+00        -0.50001E+08
 
   -0.50003E+08         0.25376E+05         0.00000E+00
    0.25376E+05        -0.50000E+08         0.00000E+00
    0.00000E+00         0.00000E+00        -0.50001E+08
 
   -0.50003E+08         0.26606E+05         0.00000E+00
    0.26606E+05        -0.50000E+08         0.00000E+00
    0.00000E+00         0.00000E+00        -0.50001E+08
 
   -0.50003E+08         0.27814E+05         0.00000E+00
    0.27814E+05        -0.50000E+08         0.00000E+00
    0.00000E+00         0.00000E+00        -0.50001E+08
 
   -0.50003E+08         0.28999E+05         0.00000E+00
    0.28999E+05        -0.50000E+08         0.00000E+00
    0.00000E+00         0.00000E+00        -0.50001E+08
 
   -0.50003E+08         0.30160E+05         0.00000E+00
    0.30160E+05        -0.50000E+08         0.00000E+00
    0.00000E+00         0.00000E+00        -0.50001E+08
 
   -0.50003E+08         0.31297E+05         0.00000E+00
    0.31297E+05        -0.50000E+08         0.00000E+00
    0.00000E+00         0.00000E+00        -0.50001E+08
 
   -0.50003E+08         0.32407E+05         0.00000E+00
    0.32407E+05        -0.50000E+08         0.00000E+00
    0.00000E+00         0.00000E+00        -0.50001E+08
 
   -0.50003E+08         0.33491E+05         0.00000E+00
    0.33491E+05        -0.50000E+08         0.00000E+00
    0.00000E+00         0.00000E+00        -0.50001E+08
 
   -0.50003E+08         0.34547E+05         0.00000E+00
    0.34547E+05        -0.50000E+08         0.00000E+00
    0.00000E+00         0.00000E+00        -0.50001E+08
 
   -0.50003E+08         0.35574E+05         0.00000E+00
    0.35574E+05        -0.50001E+08         0.00000E+00
    0.00000E+00         0.00000E+00        -0.50001E+08
 
   -0.50003E+08         0.36572E+05         0.00000E+00
    0.36572E+05        -0.50001E+08         0.00000E+00
    0.00000E+00         0.00000E+00        -0.50001E+08
 
   -0.50003E+08         0.37539E+05         0.00000E+00
    0.37539E+05        -0.50001E+08         0.00000E+00
    0.00000E+00         0.00000E+00        -0.50001E+08
 
   -0.50002E+08         0.38474E+05         0.00000E+00
    0.38474E+05        -0.50001E+08         0.00000E+00
    0.00000E+00         0.00000E+00        -0.50001E+08
 
   -0.50002E+08         0.39377E+05         0.00000E+00
    0.39377E+05        -0.50001E+08         0.00000E+00
    0.00000E+00         0.00000E+00        -0.50001E+08
 
   -0.50002E+08         0.40247E+05         0.00000E+00
    0.40247E+05        -0.50001E+08         0.00000E+00
    0.00000E+00         0.00000E+00        -0.50001E+08
 
   -0.50002E+08         0.41083E+05         0.00000E+00
    0.41083E+05        -0.50001E+08         0.00000E+00
    0.00000E+00         0.00000E+00        -0.50001E+08
 
   -0.50002E+08         0.41883E+05         0.00000E+00
    0.41883E+05        -0.50001E+08         0.00000E+00
    0.00000E+00         0.00000E+00        -0.50001E+08
 
   -0.50002E+08         0.42649E+05         0.00000E+00
    0.42649E+05        -0.50001E+08         0.00000E+00
    0.00000E+00         0.00000E+00        -0.50001E+08
 
   -0.50002E+08         0.43377E+05         0.00000E+00
    0.43377E+05        -0.50001E+08         0.00000E+00
    0.00000E+00         0.00000E+00        -0.50001E+08
 
   -0.50002E+08         0.44069E+05         0.00000E+00
    0.44069E+05        -0.50001E+08         0.00000E+00
    0.00000E+00         0.00000E+00        -0.50001E+08
 
   -0.50002E+08         0.44723E+05         0.00000E+00
    0.44723E+05        -0.50001E+08         0.00000E+00
    0.00000E+00         0.00000E+00        -0.50001E+08
 
   -0.50002E+08         0.45338E+05         0.00000E+00
    0.45338E+05        -0.50001E+08         0.00000E+00
    0.00000E+00         0.00000E+00        -0.50001E+08
 
   -0.50001E+08         0.45914E+05         0.00000E+00
    0.45914E+05        -0.50001E+08         0.00000E+00
    0.00000E+00         0.00000E+00        -0.50001E+08
 
   -0.50001E+08         0.46450E+05         0.00000E+00
    0.46450E+05        -0.50001E+08         0.00000E+00
    0.00000E+00         0.00000E+00        -0.50001E+08
 
   -0.50001E+08         0.46945E+05         0.00000E+00
    0.46945E+05        -0.50001E+08         0.00000E+00
    0.00000E+00         0.00000E+00        -0.50000E+08
 
   -0.50001E+08         0.47399E+05         0.00000E+00
    0.47399E+05        -0.50001E+08         0.00000E+00
    0.00000E+00         0.00000E+00        -0.50000E+08
 
   -0.50001E+08         0.47811E+05         0.00000E+00
    0.47811E+05        -0.50001E+08         0.00000E+00
    0.00000E+00         0.00000E+00        -0.50000E+08
 
   -0.50001E+08         0.48181E+05         0.00000E+00
    0.48181E+05        -0.50001E+08         0.00000E+00
    0.00000E+00         0.00000E+00        -0.50000E+08
 
   -0.50001E+08         0.48509E+05         0.00000E+00
    0.48509E+05        -0.50001E+08         0.00000E+00
    0.00000E+00         0.00000E+00        -0.50000E+08
 
   -0.50001E+08         0.48792E+05         0.00000E+00
    0.48792E+05        -0.50001E+08         0.00000E+00
    0.00000E+00         0.00000E+00        -0.50000E+08
 
   -0.50001E+08         0.49032E+05         0.00000E+00
    0.49032E+05        -0.50002E+08         0.00000E+00
    0.00000E+00         0.00000E+00        -0.50000E+08
 
   -0.50000E+08         0.49228E+05         0.00000E+00
    0.49228E+05        -0.50002E+08         0.00000E+00
    0.00000E+00         0.00000E+00        -0.50000E+08
 
   -0.49997E+08         0.72038E+03         0.00000E+00
    0.72038E+03        -0.50000E+08         0.00000E+00
    0.00000E+00         0.00000E+00        -0.49999E+08
 
   -0.49997E+08         0.21593E+04         0.00000E+00
    0.21593E+04        -0.50000E+08         0.00000E+00
    0.00000E+00         0.00000E+00        -0.49999E+08
 
   -0.49997E+08         0.35960E+04         0.00000E+00
    0.35960E+04        -0.50000E+08         0.00000E+00
    0.00000E+00         0.00000E+00        -0.49999E+08
 
   -0.49997E+08         0.50294E+04         0.00000E+00
    0.50294E+04        -0.50000E+08         0.00000E+00
    0.00000E+00         0.00000E+00        -0.49999E+08
 
   -0.49997E+08         0.64583E+04         0.00000E+00
    0.64583E+04        -0.50000E+08         0.00000E+00
    0.00000E+00         0.00000E+00        -0.49999E+08
 
   -0.49997E+08         0.78817E+04         0.00000E+00
    0.78817E+04        -0.50000E+08         0.00000E+00
    0.00000E+00         0.00000E+00        -0.49999E+08
 
   -0.49997E+08         0.92983E+04         0.00000E+00
    0.92983E+04        -0.50000E+08         0.00000E+00
    0.00000E+00         0.00000E+00        -0.49999E+08
 
   -0.49997E+08         0.10707E+05         0.00000E+00
    0.10707E+05        -0.50000E+08         0.00000E+00
    0.00000E+00         0.00000E+00        -0.49999E+08
 
   -0.49997E+08         0.12107E+05         0.00000E+00
    0.12107E+05        -0.50000E+08         0.00000E+00
    0.00000E+00         0.00000E+00        -0.49999E+08
 
   -0.49997E+08         0.13497E+05         0.00000E+00
    0.13497E+05        -0.50000E+08         0.00000E+00
    0.00000E+00         0.00000E+00        -0.49999E+08
 
   -0.49997E+08         0.14876E+05         0.00000E+00
    0.14876E+05        -0.50000E+08         0.00000E+00
    0.00000E+00         0.00000E+00        -0.49999E+08
 
   -0.49997E+08         0.16242E+05         0.00000E+00
    0.16242E+05        -0.50000E+08         0.00000E+00
    0.00000E+00         0.00000E+00        -0.49999E+08
 
   -0.49997E+08         0.17595E+05         0.00000E+00
    0.17595E+05        -0.50000E+08         0.00000E+00
    0.00000E+00         0.00000E+00        -0.49999E+08
 
   -0.49997E+08         0.18934E+05         0.00000E+00
    0.18934E+05        -0.50000E+08         0.00000E+00
    0.00000E+00         0.00000E+00        -0.49999E+08
 
   -0.49997E+08         0.20257E+05         0.00000E+00
    0.20257E+05        -0.50000E+08         0.00000E+00
    0.00000E+00         0.00000E+00        -0.49999E+08
 
   -0.49997E+08         0.21564E+05         0.00000E+00
    0.21564E+05        -0.50000E+08         0.00000E+00
    0.00000E+00         0.00000E+00        -0.49999E+08
 
   -0.49997E+08         0.22853E+05         0.00000E+00
    0.22853E+05        -0.50000E+08         0.00000E+00
    0.00000E+00         0.00000E+00        -0.49999E+08
 
   -0.49997E+08         0.24123E+05         0.00000E+00
    0.24123E+05        -0.50000E+08         0.00000E+00
    0.00000E+00         0.00000E+00        -0.49999E+08
 
   -0.49997E+08         0.25373E+05         0.00000E+00
    0.25373E+05        -0.50000E+08         0.00000E+00
    0.00000E+00         0.00000E+00        -0.49999E+08
 
   -0.49997E+08         0.26603E+05         0.00000E+00
    0.26603E+05        -0.50000E+08         0.00000E+00
    0.00000E+00         0.00000E+00        -0.49999E+08
 
   -0.49997E+08         0.27810E+05         0.00000E+00
    0.27810E+05        -0.50000E+08         0.00000E+00
    0.00000E+00         0.00000E+00        -0.49999E+08
 
   -0.49997E+08         0.28995E+05         0.00000E+00
    0.28995E+05        -0.50000E+08         0.00000E+00
    0.00000E+00         0.00000E+00        -0.49999E+08
 
   -0.49997E+08         0.30156E+05         0.00000E+00
    0.30156E+05        -0.50000E+08         0.00000E+00
    0.00000E+00         0.00000E+00        -0.49999E+08
 
   -0.49997E+08         0.31292E+05         0.00000E+00
    0.31292E+05        -0.50000E+08         0.00000E+00
    0.00000E+00         0.00000E+00        -0.49999E+08
 
   -0.49997E+08         0.32402E+05         0.00000E+00
    0.32402E+05        -0.50000E+08         0.00000E+00
    0.00000E+00         0.00000E+00        -0.49999E+08
 
   -0.49997E+08         0.33485E+05         0.00000E+00
    0.33485E+05        -0.50000E+08         0.00000E+00
    0.00000E+00         0.00000E+00        -0.49999E+08
 
   -0.49998E+08         0.34540E+05         0.00000E+00
    0.34540E+05        -0.50000E+08         0.00000E+00
    0.00000E+00         0.00000E+00        -0.49999E+08
 
   -0.49998E+08         0.35567E+05         0.00000E+00
    0.35567E+05        -0.49999E+08         0.00000E+00
    0.00000E+00         0.00000E+00        -0.49999E+08
 
   -0.49998E+08         0.36563E+05         0.00000E+00
    0.36563E+05        -0.49999E+08         0.00000E+00
    0.00000E+00         0.00000E+00        -0.49999E+08
 
   -0.49998E+08         0.37530E+05         0.00000E+00
    0.37530E+05        -0.49999E+08         0.00000E+00
    0.00000E+00         0.00000E+00        -0.49999E+08
 
   -0.49998E+08         0.38464E+05         0.00000E+00
    0.38464E+05        -0.49999E+08         0.00000E+00
    0.00000E+00         0.00000E+00        -0.49999E+08
 
   -0.49998E+08         0.39367E+05         0.00000E+00
    0.39367E+05        -0.49999E+08         0.00000E+00
    0.00000E+00         0.00000E+00        -0.49999E+08
 
   -0.49998E+08         0.40236E+05         0.00000E+00
    0.40236E+05        -0.49999E+08         0.00000E+00
    0.00000E+00         0.00000E+00        -0.49999E+08
 
   -0.49998E+08         0.41071E+05         0.00000E+00
    0.41071E+05        -0.49999E+08         0.00000E+00
    0.00000E+00         0.00000E+00        -0.49999E+08
 
   -0.49998E+08         0.41871E+05         0.00000E+00
    0.41871E+05        -0.49999E+08         0.00000E+00
    0.00000E+00         0.00000E+00        -0.49999E+08
 
   -0.49998E+08         0.42636E+05         0.00000E+00
    0.42636E+05        -0.49999E+08         0.00000E+00
    0.00000E+00         0.00000E+00        -0.49999E+08
 
   -0.49998E+08         0.43364E+05         0.00000E+00
    0.43364E+05        -0.49999E+08         0.00000E+00
    0.00000E+00         0.00000E+00        -0.49999E+08
 
   -0.49998E+08         0.44055E+05         0.00000E+00
    0.44055E+05        -0.49999E+08         0.00000E+00
    0.00000E+00         0.00000E+00        -0.50000E+08
 
   -0.49999E+08         0.44708E+05         0.00000E+00
    0.44708E+05        -0.49999E+08         0.00000E+00
    0.00000E+00         0.00000E+00        -0.50000E+08
 
   -0.49999E+08         0.45323E+05         0.00000E+00
    0.45323E+05        -0.49999E+08         0.00000E+00
    0.00000E+00         0.00000E+00        -0.50000E+08
 
   -0.49999E+08         0.45898E+05         0.00000E+00
    0.45898E+05        -0.49999E+08         0.00000E+00
    0.00000E+00         0.00000E+00        -0.50000E+08
 
   -0.49999E+08         0.46433E+05         0.00000E+00
    0.46433E+05        -0.49999E+08         0.00000E+00
    0.00000E+00         0.00000E+00        -0.50000E+08
 
   -0.49999E+08         0.46928E+05         0.00000E+00
    0.46928E+05        -0.49999E+08         0.00000E+00
    0.00000E+00         0.00000E+00        -0.50000E+08
 
   -0.49999E+08         0.47382E+05         0.00000E+00
    0.47382E+05        -0.49999E+08         0.00000E+00
    0.00000E+00         0.00000E+00        -0.50000E+08
 
   -0.49999E+08         0.47794E+05         0.00000E+00
    0.47794E+05        -0.49999E+08         0.00000E+00
    0.00000E+00         0.00000E+00        -0.50000E+08
 
   -0.49999E+08         0.48163E+05         0.00000E+00
    0.48163E+05        -0.49999E+08         0.00000E+00
    0.00000E+00         0.00000E+00        -0.50000E+08
 
   -0.49999E+08         0.48490E+05         0.00000E+00
    0.48490E+05        -0.49999E+08         0.00000E+00
    0.00000E+00         0.00000E+00        -0.50000E+08
 
   -0.49999E+08         0.48774E+05         0.00000E+00
    0.48774E+05        -0.49999E+08         0.00000E+00
    0.00000E+00         0.00000E+00        -0.50000E+08
 
   -0.49999E+08         0.49013E+05         0.00000E+00
    0.49013E+05        -0.49999E+08         0.00000E+00
    0.00000E+00         0.00000E+00        -0.50000E+08
 
   -0.50000E+08         0.49209E+05         0.00000E+00
    0.49209E+05        -0.49999E+08         0.00000E+00
    0.00000E+00         0.00000E+00        -0.50000E+08
 
   -0.49989E+08         0.72754E+03         0.00000E+00
    0.72754E+03        -0.50000E+08         0.00000E+00
    0.00000E+00         0.00000E+00        -0.49998E+08
 
   -0.49989E+08         0.21807E+04         0.00000E+00
    0.21807E+04        -0.50000E+08         0.00000E+00
    0.00000E+00         0.00000E+00        -0.49998E+08
 
   -0.49989E+08         0.36317E+04         0.00000E+00
    0.36317E+04        -0.50000E+08         0.00000E+00
    0.00000E+00         0.00000E+00        -0.49998E+08
 
   -0.49989E+08         0.50792E+04         0.00000E+00
    0.50792E+04        -0.50000E+08         0.00000E+00
    0.00000E+00         0.00000E+00        -0.49998E+08
 
   -0.49989E+08         0.65222E+04         0.00000E+00
    0.65222E+04        -0.50000E+08         0.00000E+00
    0.00000E+00         0.00000E+00        -0.49998E+08
 
   -0.49989E+08         0.79596E+04         0.00000E+00
    0.79596E+04        -0.50000E+08         0.00000E+00
    0.00000E+00         0.00000E+00        -0.49998E+08
 
   -0.49990E+08         0.93902E+04         0.00000E+00
    0.93902E+04        -0.50000E+08         0.00000E+00
    0.00000E+00         0.00000E+00        -0.49998E+08
 
   -0.49990E+08         0.10813E+05         0.00000E+00
    0.10813E+05        -0.50000E+08         0.00000E+00
    0.00000E+00         0.00000E+00        -0.49998E+08
 
   -0.49990E+08         0.12227E+05         0.00000E+00
    0.12227E+05        -0.50000E+08         0.00000E+00
    0.00000E+00         0.00000E+00        -0.49998E+08
 
   -0.49990E+08         0.13630E+05         0.00000E+00
    0.13630E+05        -0.50000E+08         0.00000E+00
    0.00000E+00         0.00000E+00        -0.49998E+08
 
   -0.49990E+08         0.15022E+05         0.00000E+00
    0.15022E+05        -0.50000E+08         0.00000E+00
    0.00000E+00         0.00000E+00        -0.49998E+08
 
   -0.49990E+08         0.16402E+05         0.00000E+00
    0.16402E+05        -0.50000E+08         0.00000E+00
    0.00000E+00         0.00000E+00        -0.49998E+08
 
   -0.49990E+08         0.17769E+05         0.00000E+00
    0.17769E+05        -0.50000E+08         0.00000E+00
    0.00000E+00         0.00000E+00        -0.49998E+08
 
   -0.49990E+08         0.19120E+05         0.00000E+00
    0.19120E+05        -0.50000E+08         0.00000E+00
    0.00000E+00         0.00000E+00        -0.49998E+08
 
   -0.49990E+08         0.20457E+05         0.00000E+00
    0.20457E+05        -0.50000E+08         0.00000E+00
    0.00000E+00         0.00000E+00        -0.49998E+08
 
   -0.49990E+08         0.21776E+05         0.00000E+00
    0.21776E+05        -0.49999E+08         0.00000E+00
    0.00000E+00         0.00000E+00        -0.49998E+08
 
   -0.49991E+08         0.23077E+05         0.00000E+00
    0.23077E+05        -0.49999E+08         0.00000E+00
    0.00000E+00         0.00000E+00        -0.49998E+08
 
   -0.49991E+08         0.24360E+05         0.00000E+00
    0.24360E+05        -0.49999E+08         0.00000E+00
    0.00000E+00         0.00000E+00        -0.49998E+08
 
   -0.49991E+08         0.25622E+05         0.00000E+00
    0.25622E+05        -0.49999E+08         0.00000E+00
    0.00000E+00         0.00000E+00        -0.49998E+08
 
   -0.49991E+08         0.26864E+05         0.00000E+00
    0.26864E+05        -0.49999E+08         0.00000E+00
    0.00000E+00         0.00000E+00        -0.49998E+08
 
   -0.49991E+08         0.28083E+05         0.00000E+00
    0.28083E+05        -0.49999E+08         0.00000E+00
    0.00000E+00         0.00000E+00        -0.49998E+08
 
   -0.49991E+08         0.29279E+05         0.00000E+00
    0.29279E+05        -0.49999E+08         0.00000E+00
    0.00000E+00         0.00000E+00        -0.49998E+08
 
   -0.49992E+08         0.30451E+05         0.00000E+00
    0.30451E+05        -0.49999E+08         0.00000E+00
    0.00000E+00         0.00000E+00        -0.49998E+08
 
   -0.49992E+08         0.31598E+05         0.00000E+00
    0.31598E+05        -0.49999E+08         0.00000E+00
    0.00000E+00         0.00000E+00        -0.49998E+08
 
   -0.49992E+08         0.32719E+05         0.00000E+00
    0.32719E+05        -0.49999E+08         0.00000E+00
    0.00000E+00         0.00000E+00        -0.49998E+08
 
   -0.49992E+08         0.33813E+05         0.00000E+00
    0.33813E+05        -0.49999E+08         0.00000E+00
    0.00000E+00         0.00000E+00        -0.49998E+08
 
   -0.49992E+08         0.34878E+05         0.00000E+00
    0.34878E+05        -0.49999E+08         0.00000E+00
    0.00000E+00         0.00000E+00        -0.49998E+08
 
   -0.49993E+08         0.35914E+05         0.00000E+00
    0.35914E+05        -0.49998E+08         0.00000E+00
    0.00000E+00         0.00000E+00        -0.49998E+08
 
   -0.49993E+08         0.36921E+05         0.00000E+00
    0.36921E+05        -0.49998E+08         0.00000E+00
    0.00000E+00         0.00000E+00        -0.49998E+08
 
   -0.49993E+08         0.37896E+05         0.00000E+00
    0.37896E+05        -0.49998E+08         0.00000E+00
    0.00000E+00         0.00000E+00        -0.49998E+08
 
   -0.49993E+08         0.38840E+05         0.00000E+00
    0.38840E+05        -0.49998E+08         0.00000E+00
    0.00000E+00         0.00000E+00        -0.49998E+08
 
   -0.49993E+08         0.39751E+05         0.00000E+00
    0.39751E+05        -0.49998E+08         0.00000E+00
    0.00000E+00         0.00000E+00        -0.49998E+08
 
   -0.49994E+08         0.40629E+05         0.00000E+00
    0.40629E+05        -0.49998E+08         0.00000E+00
    0.00000E+00         0.00000E+00        -0.49998E+08
 
   -0.49994E+08         0.41472E+05         0.00000E+00
    0.41472E+05        -0.49998E+08         0.00000E+00
    0.00000E+00         0.00000E+00        -0.49998E+08
 
   -0.49994E+08         0.42280E+05         0.00000E+00
    0.42280E+05        -0.49998E+08         0.00000E+00
    0.00000E+00         0.00000E+00        -0.49998E+08
 
   -0.49995E+08         0.43052E+05         0.00000E+00
    0.43052E+05        -0.49998E+08         0.00000E+00
    0.00000E+00         0.00000E+00        -0.49998E+08
 
   -0.49995E+08         0.43787E+05         0.00000E+00
    0.43787E+05        -0.49997E+08         0.00000E+00
    0.00000E+00         0.00000E+00        -0.49998E+08
 
   -0.49995E+08         0.44485E+05         0.00000E+00
    0.44485E+05        -0.49997E+08         0.00000E+00
    0.00000E+00         0.00000E+00        -0.49998E+08
 
   -0.49995E+08         0.45144E+05         0.00000E+00
    0.45144E+05        -0.49997E+08         0.00000E+00
    0.00000E+00         0.00000E+00        -0.49998E+08
 
   -0.49996E+08         0.45764E+05         0.00000E+00
    0.45764E+05        -0.49997E+08         0.00000E+00
    0.00000E+00         0.00000E+00        -0.49999E+08
 
   -0.49996E+08         0.46345E+05         0.00000E+00
    0.46345E+05        -0.49997E+08         0.00000E+00
    0.00000E+00         0.00000E+00        -0.49999E+08
 
   -0.49996E+08         0.46886E+05         0.00000E+00
    0.46886E+05        -0.49997E+08         0.00000E+00
    0.00000E+00         0.00000E+00        -0.49999E+08
 
   -0.49997E+08         0.47385E+05         0.00000E+00
    0.47385E+05        -0.49997E+08         0.00000E+00
    0.00000E+00         0.00000E+00        -0.49999E+08
 
   -0.49997E+08         0.47843E+05         0.00000E+00
    0.47843E+05        -0.49996E+08         0.00000E+00
    0.00000E+00         0.00000E+00        -0.49999E+08
 
   -0.49997E+08         0.48259E+05         0.00000E+00
    0.48259E+05        -0.49996E+08         0.00000E+00
    0.00000E+00         0.00000E+00        -0.49999E+08
 
   -0.49997E+08         0.48632E+05         0.00000E+00
    0.48632E+05        -0.49996E+08         0.00000E+00
    0.00000E+00         0.00000E+00        -0.49999E+08
 
   -0.49998E+08         0.48962E+05         0.00000E+00
    0.48962E+05        -0.49996E+08         0.00000E+00
    0.00000E+00         0.00000E+00        -0.49999E+08
 
   -0.49998E+08         0.49248E+05         0.00000E+00
    0.49248E+05        -0.49996E+08         0.00000E+00
    0.00000E+00         0.00000E+00        -0.49999E+08
 
   -0.49998E+08         0.49490E+05         0.00000E+00
    0.49490E+05        -0.49996E+08         0.00000E+00
    0.00000E+00         0.00000E+00        -0.49999E+08
 
   -0.49999E+08         0.49688E+05         0.00000E+00
    0.49688E+05        -0.49996E+08         0.00000E+00
    0.00000E+00         0.00000E+00        -0.49999E+08
 
   -0.49982E+08         0.74173E+03         0.00000E+00
    0.74173E+03        -0.50000E+08         0.00000E+00
    0.00000E+00         0.00000E+00        -0.49996E+08
 
   -0.49982E+08         0.22233E+04         0.00000E+00
    0.22233E+04        -0.50000E+08         0.00000E+00
    0.00000E+00         0.00000E+00        -0.49996E+08
 
   -0.49982E+08         0.37026E+04         0.00000E+00
    0.37026E+04        -0.50000E+08         0.00000E+00
    0.00000E+00         0.00000E+00        -0.49996E+08
 
   -0.49982E+08         0.51784E+04         0.00000E+00
    0.51784E+04        -0.50000E+08         0.00000E+00
    0.00000E+00         0.00000E+00        -0.49996E+08
 
   -0.49982E+08         0.66497E+04         0.00000E+00
    0.66497E+04        -0.50000E+08         0.00000E+00
    0.00000E+00         0.00000E+00        -0.49996E+08
 
   -0.49982E+08         0.81152E+04         0.00000E+00
    0.81152E+04        -0.50000E+08         0.00000E+00
    0.00000E+00         0.00000E+00        -0.49996E+08
 
   -0.49982E+08         0.95738E+04         0.00000E+00
    0.95738E+04        -0.50000E+08         0.00000E+00
    0.00000E+00         0.00000E+00        -0.49996E+08
 
   -0.49982E+08         0.11024E+05         0.00000E+00
    0.11024E+05        -0.50000E+08         0.00000E+00
    0.00000E+00         0.00000E+00        -0.49996E+08
 
   -0.49983E+08         0.12466E+05         0.00000E+00
    0.12466E+05        -0.50000E+08         0.00000E+00
    0.00000E+00         0.00000E+00        -0.49996E+08
 
   -0.49983E+08         0.13897E+05         0.00000E+00
    0.13897E+05        -0.50000E+08         0.00000E+00
    0.00000E+00         0.00000E+00        -0.49996E+08
 
   -0.49983E+08         0.15316E+05         0.00000E+00
    0.15316E+05        -0.50000E+08         0.00000E+00
    0.00000E+00         0.00000E+00        -0.49996E+08
 
   -0.49983E+08         0.16723E+05         0.00000E+00
    0.16723E+05        -0.50000E+08         0.00000E+00
    0.00000E+00         0.00000E+00        -0.49997E+08
 
   -0.49983E+08         0.18117E+05         0.00000E+00
    0.18117E+05        -0.49999E+08         0.00000E+00
    0.00000E+00         0.00000E+00        -0.49997E+08
 
   -0.49983E+08         0.19495E+05         0.00000E+00
    0.19495E+05        -0.49999E+08         0.00000E+00
    0.00000E+00         0.00000E+00        -0.49997E+08
 
   -0.49984E+08         0.20858E+05         0.00000E+00
    0.20858E+05        -0.49999E+08         0.00000E+00
    0.00000E+00         0.00000E+00        -0.49997E+08
 
   -0.49984E+08         0.22203E+05         0.00000E+00
    0.22203E+05        -0.49999E+08         0.00000E+00
    0.00000E+00         0.00000E+00        -0.49997E+08
 
   -0.49984E+08         0.23530E+05         0.00000E+00
    0.23530E+05        -0.49999E+08         0.00000E+00
    0.00000E+00         0.00000E+00        -0.49997E+08
 
   -0.49984E+08         0.24838E+05         0.00000E+00
    0.24838E+05        -0.49999E+08         0.00000E+00
    0.00000E+00         0.00000E+00        -0.49997E+08
 
   -0.49985E+08         0.26125E+05         0.00000E+00
    0.26125E+05        -0.49999E+08         0.00000E+00
    0.00000E+00         0.00000E+00        -0.49997E+08
 
   -0.49985E+08         0.27391E+05         0.00000E+00
    0.27391E+05        -0.49999E+08         0.00000E+00
    0.00000E+00         0.00000E+00        -0.49997E+08
 
   -0.49985E+08         0.28635E+05         0.00000E+00
    0.28635E+05        -0.49999E+08         0.00000E+00
    0.00000E+00         0.00000E+00        -0.49997E+08
 
   -0.49985E+08         0.29855E+05         0.00000E+00
    0.29855E+05        -0.49998E+08         0.00000E+00
    0.00000E+00         0.00000E+00        -0.49997E+08
 
   -0.49986E+08         0.31050E+05         0.00000E+00
    0.31050E+05        -0.49998E+08         0.00000E+00
    0.00000E+00         0.00000E+00        -0.49997E+08
 
   -0.49986E+08         0.32219E+05         0.00000E+00
    0.32219E+05        -0.49998E+08         0.00000E+00
    0.00000E+00         0.00000E+00        -0.49997E+08
 
   -0.49986E+08         0.33362E+05         0.00000E+00
    0.33362E+05        -0.49998E+08         0.00000E+00
    0.00000E+00         0.00000E+00        -0.49997E+08
 
   -0.49987E+08         0.34478E+05         0.00000E+00
    0.34478E+05        -0.49998E+08         0.00000E+00
    0.00000E+00         0.00000E+00        -0.49997E+08
 
   -0.49987E+08         0.35564E+05         0.00000E+00
    0.35564E+05        -0.49998E+08         0.00000E+00
    0.00000E+00         0.00000E+00        -0.49997E+08
 
   -0.49987E+08         0.36621E+05         0.00000E+00
    0.36621E+05        -0.49997E+08         0.00000E+00
    0.00000E+00         0.00000E+00        -0.49997E+08
 
   -0.49988E+08         0.37648E+05         0.00000E+00
    0.37648E+05        -0.49997E+08         0.00000E+00
    0.00000E+00         0.00000E+00        -0.49997E+08
 
   -0.49988E+08         0.38643E+05         0.00000E+00
    0.38643E+05        -0.49997E+08         0.00000E+00
    0.00000E+00         0.00000E+00        -0.49997E+08
 
   -0.49989E+08         0.39605E+05         0.00000E+00
    0.39605E+05        -0.49997E+08         0.00000E+00
    0.00000E+00         0.00000E+00        -0.49997E+08
 
   -0.49989E+08         0.40534E+05         0.00000E+00
    0.40534E+05        -0.49997E+08         0.00000E+00
    0.00000E+00         0.00000E+00        -0.49997E+08
 
   -0.49989E+08         0.41429E+05         0.00000E+00
    0.41429E+05        -0.49996E+08         0.00000E+00
    0.00000E+00         0.00000E+00        -0.49997E+08
 
   -0.49990E+08         0.42289E+05         0.00000E+00
    0.42289E+05        -0.49996E+08         0.00000E+00
    0.00000E+00         0.00000E+00        -0.49997E+08
 
   -0.49990E+08         0.43113E+05         0.00000E+00
    0.43113E+05        -0.49996E+08         0.00000E+00
    0.00000E+00         0.00000E+00        -0.49997E+08
 
   -0.49991E+08         0.43901E+05         0.00000E+00
    0.43901E+05        -0.49996E+08         0.00000E+00
    0.00000E+00         0.00000E+00        -0.49997E+08
 
   -0.49991E+08         0.44651E+05         0.00000E+00
    0.44651E+05        -0.49996E+08         0.00000E+00
    0.00000E+00         0.00000E+00        -0.49997E+08
 
   -0.49992E+08         0.45362E+05         0.00000E+00
    0.45362E+05        -0.49995E+08         0.00000E+00
    0.00000E+00         0.00000E+00        -0.49997E+08
 
   -0.49992E+08         0.46035E+05         0.00000E+00
    0.46035E+05        -0.49995E+08         0.00000E+00
    0.00000E+00         0.00000E+00        -0.49997E+08
 
   -0.49993E+08         0.46667E+05         0.00000E+00
    0.46667E+05        -0.49995E+08         0.00000E+00
    0.00000E+00         0.00000E+00        -0.49998E+08
 
   -0.49993E+08         0.47260E+05         0.00000E+00
    0.47260E+05        -0.49995E+08         0.00000E+00
    0.00000E+00         0.00000E+00        -0.49998E+08
 
   -0.49994E+08         0.47811E+05         0.00000E+00
    0.47811E+05        -0.49995E+08         0.00000E+00
    0.00000E+00         0.00000E+00        -0.49998E+08
 
   -0.49994E+08         0.48321E+05         0.00000E+00
    0.48321E+05        -0.49994E+08         0.00000E+00
    0.00000E+00         0.00000E+00        -0.49998E+08
 
   -0.49995E+08         0.48788E+05         0.00000E+00
    0.48788E+05        -0.49994E+08         0.00000E+00
    0.00000E+00         0.00000E+00        -0.49998E+08
 
   -0.49995E+08         0.49212E+05         0.00000E+00
    0.49212E+05        -0.49994E+08         0.00000E+00
    0.00000E+00         0.00000E+00        -0.49998E+08
 
   -0.49996E+08         0.49593E+05         0.00000E+00
    0.49593E+05        -0.49994E+08         0.00000E+00
    0.00000E+00         0.00000E+00        -0.49998E+08
 
   -0.49996E+08         0.49929E+05         0.00000E+00
    0.49929E+05        -0.49993E+08         0.00000E+00
    0.00000E+00         0.00000E+00        -0.49998E+08
 
   -0.49997E+08         0.50221E+05         0.00000E+00
    0.50221E+05        -0.49993E+08         0.00000E+00
    0.00000E+00         0.00000E+00        -0.49998E+08
 
   -0.49997E+08         0.50468E+05         0.00000E+00
    0.50468E+05        -0.49993E+08         0.00000E+00
    0.00000E+00         0.00000E+00        -0.49998E+08
 
   -0.49998E+08         0.50669E+05         0.00000E+00
    0.50669E+05        -0.49993E+08         0.00000E+00
    0.00000E+00         0.00000E+00        -0.49998E+08
 
   -0.49974E+08         0.76308E+03         0.00000E+00
    0.76308E+03        -0.50000E+08         0.00000E+00
    0.00000E+00         0.00000E+00        -0.49995E+08
 
   -0.49974E+08         0.22874E+04         0.00000E+00
    0.22874E+04        -0.50000E+08         0.00000E+00
    0.00000E+00         0.00000E+00        -0.49995E+08
 
   -0.49975E+08         0.38094E+04         0.00000E+00
    0.38094E+04        -0.50000E+08         0.00000E+00
    0.00000E+00         0.00000E+00        -0.49995E+08
 
   -0.49975E+08         0.53280E+04         0.00000E+00
    0.53280E+04        -0.50000E+08         0.00000E+00
    0.00000E+00         0.00000E+00        -0.49995E+08
 
   -0.49975E+08         0.68419E+04         0.00000E+00
    0.68419E+04        -0.50000E+08         0.00000E+00
    0.00000E+00         0.00000E+00        -0.49995E+08
 
   -0.49975E+08         0.83499E+04         0.00000E+00
    0.83499E+04        -0.50000E+08         0.00000E+00
    0.00000E+00         0.00000E+00        -0.49995E+08
 
   -0.49975E+08         0.98509E+04         0.00000E+00
    0.98509E+04        -0.50000E+08         0.00000E+00
    0.00000E+00         0.00000E+00        -0.49995E+08
 
   -0.49975E+08         0.11344E+05         0.00000E+00
    0.11344E+05        -0.50000E+08         0.00000E+00
    0.00000E+00         0.00000E+00        -0.49995E+08
 
   -0.49975E+08         0.12827E+05         0.00000E+00
    0.12827E+05        -0.50000E+08         0.00000E+00
    0.00000E+00         0.00000E+00        -0.49995E+08
 
   -0.49975E+08         0.14300E+05         0.00000E+00
    0.14300E+05        -0.50000E+08         0.00000E+00
    0.00000E+00         0.00000E+00        -0.49995E+08
 
   -0.49976E+08         0.15761E+05         0.00000E+00
    0.15761E+05        -0.49999E+08         0.00000E+00
    0.00000E+00         0.00000E+00        -0.49995E+08
 
   -0.49976E+08         0.17209E+05         0.00000E+00
    0.17209E+05        -0.49999E+08         0.00000E+00
    0.00000E+00         0.00000E+00        -0.49995E+08
 
   -0.49976E+08         0.18643E+05         0.00000E+00
    0.18643E+05        -0.49999E+08         0.00000E+00
    0.00000E+00         0.00000E+00        -0.49995E+08
 
   -0.49976E+08         0.20062E+05         0.00000E+00
    0.20062E+05        -0.49999E+08         0.00000E+00
    0.00000E+00         0.00000E+00        -0.49995E+08
 
   -0.49977E+08         0.21464E+05         0.00000E+00
    0.21464E+05        -0.49999E+08         0.00000E+00
    0.00000E+00         0.00000E+00        -0.49995E+08
 
   -0.49977E+08         0.22849E+05         0.00000E+00
    0.22849E+05        -0.49999E+08         0.00000E+00
    0.00000E+00         0.00000E+00        -0.49995E+08
 
   -0.49977E+08         0.24215E+05         0.00000E+00
    0.24215E+05        -0.49999E+08         0.00000E+00
    0.00000E+00         0.00000E+00        -0.49995E+08
 
   -0.49978E+08         0.25562E+05         0.00000E+00
    0.25562E+05        -0.49998E+08         0.00000E+00
    0.00000E+00         0.00000E+00        -0.49995E+08
 
   -0.49978E+08         0.26887E+05         0.00000E+00
    0.26887E+05        -0.49998E+08         0.00000E+00
    0.00000E+00         0.00000E+00        -0.49995E+08
 
   -0.49978E+08         0.28190E+05         0.00000E+00
    0.28190E+05        -0.49998E+08         0.00000E+00
    0.00000E+00         0.00000E+00        -0.49995E+08
 
   -0.49979E+08         0.29471E+05         0.00000E+00
    0.29471E+05        -0.49998E+08         0.00000E+00
    0.00000E+00         0.00000E+00        -0.49995E+08
 
   -0.49979E+08         0.30726E+05         0.00000E+00
    0.30726E+05        -0.49998E+08         0.00000E+00
    0.00000E+00         0.00000E+00        -0.49995E+08
 
   -0.49980E+08         0.31957E+05         0.00000E+00
    0.31957E+05        -0.49998E+08         0.00000E+00
    0.00000E+00         0.00000E+00        -0.49995E+08
 
   -0.49980E+08         0.33161E+05         0.00000E+00
    0.33161E+05        -0.49997E+08         0.00000E+00
    0.00000E+00         0.00000E+00        -0.49995E+08
 
   -0.49981E+08         0.34338E+05         0.00000E+00
    0.34338E+05        -0.49997E+08         0.00000E+00
    0.00000E+00         0.00000E+00        -0.49996E+08
 
   -0.49981E+08         0.35487E+05         0.00000E+00
    0.35487E+05        -0.49997E+08         0.00000E+00
    0.00000E+00         0.00000E+00        -0.49996E+08
 
   -0.49982E+08         0.36606E+05         0.00000E+00
    0.36606E+05        -0.49997E+08         0.00000E+00
    0.00000E+00         0.00000E+00        -0.49996E+08
 
   -0.49982E+08         0.37694E+05         0.00000E+00
    0.37694E+05        -0.49996E+08         0.00000E+00
    0.00000E+00         0.00000E+00        -0.49996E+08
 
   -0.49983E+08         0.38751E+05         0.00000E+00
    0.38751E+05        -0.49996E+08         0.00000E+00
    0.00000E+00         0.00000E+00        -0.49996E+08
 
   -0.49983E+08         0.39776E+05         0.00000E+00
    0.39776E+05        -0.49996E+08         0.00000E+00
    0.00000E+00         0.00000E+00        -0.49996E+08
 
   -0.49984E+08         0.40767E+05         0.00000E+00
    0.40767E+05        -0.49996E+08         0.00000E+00
    0.00000E+00         0.00000E+00        -0.49996E+08
 
   -0.49984E+08         0.41724E+05         0.00000E+00
    0.41724E+05        -0.49995E+08         0.00000E+00
    0.00000E+00         0.00000E+00        -0.49996E+08
 
   -0.49985E+08         0.42646E+05         0.00000E+00
    0.42646E+05        -0.49995E+08         0.00000E+00
    0.00000E+00         0.00000E+00        -0.49996E+08
 
   -0.49986E+08         0.43531E+05         0.00000E+00
    0.43531E+05        -0.49995E+08         0.00000E+00
    0.00000E+00         0.00000E+00        -0.49996E+08
 
   -0.49986E+08         0.44380E+05         0.00000E+00
    0.44380E+05        -0.49994E+08         0.00000E+00
    0.00000E+00         0.00000E+00        -0.49996E+08
 
   -0.49987E+08         0.45191E+05         0.00000E+00
    0.45191E+05        -0.49994E+08         0.00000E+00
    0.00000E+00         0.00000E+00        -0.49996E+08
 
   -0.49987E+08         0.45964E+05         0.00000E+00
    0.45964E+05        -0.49994E+08         0.00000E+00
    0.00000E+00         0.00000E+00        -0.49996E+08
 
   -0.49988E+08         0.46697E+05         0.00000E+00
    0.46697E+05        -0.49994E+08         0.00000E+00
    0.00000E+00         0.00000E+00        -0.49996E+08
 
   -0.49989E+08         0.47389E+05         0.00000E+00
    0.47389E+05        -0.49993E+08         0.00000E+00
    0.00000E+00         0.00000E+00        -0.49996E+08
 
   -0.49989E+08         0.48041E+05         0.00000E+00
    0.48041E+05        -0.49993E+08         0.00000E+00
    0.00000E+00         0.00000E+00        -0.49996E+08
 
   -0.49990E+08         0.48651E+05         0.00000E+00
    0.48651E+05        -0.49993E+08         0.00000E+00
    0.00000E+00         0.00000E+00        -0.49997E+08
 
   -0.49991E+08         0.49219E+05         0.00000E+00
    0.49219E+05        -0.49992E+08         0.00000E+00
    0.00000E+00         0.00000E+00        -0.49997E+08
 
   -0.49992E+08         0.49744E+05         0.00000E+00
    0.49744E+05        -0.49992E+08         0.00000E+00
    0.00000E+00         0.00000E+00        -0.49997E+08
 
   -0.49992E+08         0.50225E+05         0.00000E+00
    0.50225E+05        -0.49992E+08         0.00000E+00
    0.00000E+00         0.00000E+00        -0.49997E+08
 
   -0.49993E+08         0.50662E+05         0.00000E+00
    0.50662E+05        -0.49991E+08         0.00000E+00
    0.00000E+00         0.00000E+00        -0.49997E+08
 
   -0.49994E+08         0.51055E+05         0.00000E+00
    0.51055E+05        -0.49991E+08         0.00000E+00
    0.00000E+00         0.00000E+00        -0.49997E+08
 
   -0.49995E+08         0.51401E+05         0.00000E+00
    0.51401E+05        -0.49991E+08         0.00000E+00
    0.00000E+00         0.00000E+00        -0.49997E+08
 
   -0.49995E+08         0.51702E+05         0.00000E+00
    0.51702E+05        -0.49990E+08         0.00000E+00
    0.00000E+00         0.00000E+00        -0.49997E+08
 
   -0.49996E+08         0.51956E+05         0.00000E+00
    0.51956E+05        -0.49990E+08         0.00000E+00
    0.00000E+00         0.00000E+00        -0.49997E+08
 
   -0.49997E+08         0.52164E+05         0.00000E+00
    0.52164E+05        -0.49989E+08         0.00000E+00
    0.00000E+00         0.00000E+00        -0.49997E+08
 
   -0.49967E+08         0.79179E+03         0.00000E+00
    0.79179E+03        -0.50000E+08         0.00000E+00
    0.00000E+00         0.00000E+00        -0.49993E+08
 
   -0.49967E+08         0.23737E+04         0.00000E+00
    0.23737E+04        -0.50000E+08         0.00000E+00
    0.00000E+00         0.00000E+00        -0.49993E+08
 
   -0.49967E+08         0.39533E+04         0.00000E+00
    0.39533E+04        -0.50000E+08         0.00000E+00
    0.00000E+00         0.00000E+00        -0.49993E+08
 
   -0.49967E+08         0.55293E+04         0.00000E+00
    0.55293E+04        -0.50000E+08         0.00000E+00
    0.00000E+00         0.00000E+00        -0.49993E+08
 
   -0.49967E+08         0.71006E+04         0.00000E+00
    0.71006E+04        -0.50000E+08         0.00000E+00
    0.00000E+00         0.00000E+00        -0.49993E+08
 
   -0.49967E+08         0.86660E+04         0.00000E+00
    0.86660E+04        -0.50000E+08         0.00000E+00
    0.00000E+00         0.00000E+00        -0.49993E+08
 
   -0.49967E+08         0.10224E+05         0.00000E+00
    0.10224E+05        -0.50000E+08         0.00000E+00
    0.00000E+00         0.00000E+00        -0.49993E+08
 
   -0.49968E+08         0.11774E+05         0.00000E+00
    0.11774E+05        -0.50000E+08         0.00000E+00
    0.00000E+00         0.00000E+00        -0.49993E+08
 
   -0.49968E+08         0.13314E+05         0.00000E+00
    0.13314E+05        -0.50000E+08         0.00000E+00
    0.00000E+00         0.00000E+00        -0.49993E+08
 
   -0.49968E+08         0.14843E+05         0.00000E+00
    0.14843E+05        -0.49999E+08         0.00000E+00
    0.00000E+00         0.00000E+00        -0.49993E+08
 
   -0.49968E+08         0.16360E+05         0.00000E+00
    0.16360E+05        -0.49999E+08         0.00000E+00
    0.00000E+00         0.00000E+00        -0.49994E+08
 
   -0.49969E+08         0.17864E+05         0.00000E+00
    0.17864E+05        -0.49999E+08         0.00000E+00
    0.00000E+00         0.00000E+00        -0.49994E+08
 
   -0.49969E+08         0.19353E+05         0.00000E+00
    0.19353E+05        -0.49999E+08         0.00000E+00
    0.00000E+00         0.00000E+00        -0.49994E+08
 
   -0.49969E+08         0.20826E+05         0.00000E+00
    0.20826E+05        -0.49999E+08         0.00000E+00
    0.00000E+00         0.00000E+00        -0.49994E+08
 
   -0.49970E+08         0.22283E+05         0.00000E+00
    0.22283E+05        -0.49999E+08         0.00000E+00
    0.00000E+00         0.00000E+00        -0.49994E+08
 
   -0.49970E+08         0.23721E+05         0.00000E+00
    0.23721E+05        -0.49998E+08         0.00000E+00
    0.00000E+00         0.00000E+00        -0.49994E+08
 
   -0.49970E+08         0.25140E+05         0.00000E+00
    0.25140E+05        -0.49998E+08         0.00000E+00
    0.00000E+00         0.00000E+00        -0.49994E+08
 
   -0.49971E+08         0.26538E+05         0.00000E+00
    0.26538E+05        -0.49998E+08         0.00000E+00
    0.00000E+00         0.00000E+00        -0.49994E+08
 
   -0.49971E+08         0.27915E+05         0.00000E+00
    0.27915E+05        -0.49998E+08         0.00000E+00
    0.00000E+00         0.00000E+00        -0.49994E+08
 
   -0.49972E+08         0.29269E+05         0.00000E+00
    0.29269E+05        -0.49998E+08         0.00000E+00
    0.00000E+00         0.00000E+00        -0.49994E+08
 
   -0.49972E+08         0.30599E+05         0.00000E+00
    0.30599E+05        -0.49997E+08         0.00000E+00
    0.00000E+00         0.00000E+00        -0.49994E+08
 
   -0.49973E+08         0.31904E+05         0.00000E+00
    0.31904E+05        -0.49997E+08         0.00000E+00
    0.00000E+00         0.00000E+00        -0.49994E+08
 
   -0.49973E+08         0.33182E+05         0.00000E+00
    0.33182E+05        -0.49997E+08         0.00000E+00
    0.00000E+00         0.00000E+00        -0.49994E+08
 
   -0.49974E+08         0.34434E+05         0.00000E+00
    0.34434E+05        -0.49997E+08         0.00000E+00
    0.00000E+00         0.00000E+00        -0.49994E+08
 
   -0.49975E+08         0.35657E+05         0.00000E+00
    0.35657E+05        -0.49996E+08         0.00000E+00
    0.00000E+00         0.00000E+00        -0.49994E+08
 
   -0.49975E+08         0.36850E+05         0.00000E+00
    0.36850E+05        -0.49996E+08         0.00000E+00
    0.00000E+00         0.00000E+00        -0.49994E+08
 
   -0.49976E+08         0.38013E+05         0.00000E+00
    0.38013E+05        -0.49996E+08         0.00000E+00
    0.00000E+00         0.00000E+00        -0.49994E+08
 
   -0.49977E+08         0.39144E+05         0.00000E+00
    0.39144E+05        -0.49995E+08         0.00000E+00
    0.00000E+00         0.00000E+00        -0.49994E+08
 
   -0.49977E+08         0.40243E+05         0.00000E+00
    0.40243E+05        -0.49995E+08         0.00000E+00
    0.00000E+00         0.00000E+00        -0.49994E+08
 
   -0.49978E+08         0.41307E+05         0.00000E+00
    0.41307E+05        -0.49995E+08         0.00000E+00
    0.00000E+00         0.00000E+00        -0.49995E+08
 
   -0.49979E+08         0.42338E+05         0.00000E+00
    0.42338E+05        -0.49994E+08         0.00000E+00
    0.00000E+00         0.00000E+00        -0.49995E+08
 
   -0.49980E+08         0.43332E+05         0.00000E+00
    0.43332E+05        -0.49994E+08         0.00000E+00
    0.00000E+00         0.00000E+00        -0.49995E+08
 
   -0.49980E+08         0.44291E+05         0.00000E+00
    0.44291E+05        -0.49994E+08         0.00000E+00
    0.00000E+00         0.00000E+00        -0.49995E+08
 
   -0.49981E+08         0.45211E+05         0.00000E+00
    0.45211E+05        -0.49993E+08         0.00000E+00
    0.00000E+00         0.00000E+00        -0.49995E+08
 
   -0.49982E+08         0.46094E+05         0.00000E+00
    0.46094E+05        -0.49993E+08         0.00000E+00
    0.00000E+00         0.00000E+00        -0.49995E+08
 
   -0.49983E+08         0.46937E+05         0.00000E+00
    0.46937E+05        -0.49992E+08         0.00000E+00
    0.00000E+00         0.00000E+00        -0.49995E+08
 
   -0.49984E+08         0.47740E+05         0.00000E+00
    0.47740E+05        -0.49992E+08         0.00000E+00
    0.00000E+00         0.00000E+00        -0.49995E+08
 
   -0.49984E+08         0.48502E+05         0.00000E+00
    0.48502E+05        -0.49992E+08         0.00000E+00
    0.00000E+00         0.00000E+00        -0.49995E+08
 
   -0.49985E+08         0.49222E+05         0.00000E+00
    0.49222E+05        -0.49991E+08         0.00000E+00
    0.00000E+00         0.00000E+00        -0.49995E+08
 
   -0.49986E+08         0.49900E+05         0.00000E+00
    0.49900E+05        -0.49991E+08         0.00000E+00
    0.00000E+00         0.00000E+00        -0.49995E+08
 
   -0.49987E+08         0.50534E+05         0.00000E+00
    0.50534E+05        -0.49990E+08         0.00000E+00
    0.00000E+00         0.00000E+00        -0.49995E+08
 
   -0.49988E+08         0.51125E+05         0.00000E+00
    0.51125E+05        -0.49990E+08         0.00000E+00
    0.00000E+00         0.00000E+00        -0.49996E+08
 
   -0.49989E+08         0.51671E+05         0.00000E+00
    0.51671E+05        -0.49989E+08         0.00000E+00
    0.00000E+00         0.00000E+00        -0.49996E+08
 
   -0.49990E+08         0.52171E+05         0.00000E+00
    0.52171E+05        -0.49989E+08         0.00000E+00
    0.00000E+00         0.00000E+00        -0.49996E+08
 
   -0.49991E+08         0.52625E+05         0.00000E+00
    0.52625E+05        -0.49989E+08         0.00000E+00
    0.00000E+00         0.00000E+00        -0.49996E+08
 
   -0.49992E+08         0.53033E+05         0.00000E+00
    0.53033E+05        -0.49988E+08         0.00000E+00
    0.00000E+00         0.00000E+00        -0.49996E+08
 
   -0.49993E+08         0.53394E+05         0.00000E+00
    0.53394E+05        -0.49988E+08         0.00000E+00
    0.00000E+00         0.00000E+00        -0.49996E+08
 
   -0.49994E+08         0.53707E+05         0.00000E+00
    0.53707E+05        -0.49987E+08         0.00000E+00
    0.00000E+00         0.00000E+00        -0.49996E+08
 
   -0.49995E+08         0.53971E+05         0.00000E+00
    0.53971E+05        -0.49987E+08         0.00000E+00
    0.00000E+00         0.00000E+00        -0.49996E+08
 
   -0.49996E+08         0.54187E+05         0.00000E+00
    0.54187E+05        -0.49986E+08         0.00000E+00
    0.00000E+00         0.00000E+00        -0.49996E+08
 
   -0.49959E+08         0.82812E+03         0.00000E+00
    0.82812E+03        -0.50000E+08         0.00000E+00
    0.00000E+00         0.00000E+00        -0.49992E+08
 
   -0.49959E+08         0.24829E+04         0.00000E+00
    0.24829E+04        -0.50000E+08         0.00000E+00
    0.00000E+00         0.00000E+00        -0.49992E+08
 
   -0.49959E+08         0.41354E+04         0.00000E+00
    0.41354E+04        -0.50000E+08         0.00000E+00
    0.00000E+00         0.00000E+00        -0.49992E+08
 
   -0.49959E+08         0.57844E+04         0.00000E+00
    0.57844E+04        -0.50000E+08         0.00000E+00
    0.00000E+00         0.00000E+00        -0.49992E+08
 
   -0.49959E+08         0.74285E+04         0.00000E+00
    0.74285E+04        -0.50000E+08         0.00000E+00
    0.00000E+00         0.00000E+00        -0.49992E+08
 
   -0.49959E+08         0.90665E+04         0.00000E+00
    0.90665E+04        -0.50000E+08         0.00000E+00
    0.00000E+00         0.00000E+00        -0.49992E+08
 
   -0.49959E+08         0.10697E+05         0.00000E+00
    0.10697E+05        -0.50000E+08         0.00000E+00
    0.00000E+00         0.00000E+00        -0.49992E+08
 
   -0.49960E+08         0.12319E+05         0.00000E+00
    0.12319E+05        -0.50000E+08         0.00000E+00
    0.00000E+00         0.00000E+00        -0.49992E+08
 
   -0.49960E+08         0.13931E+05         0.00000E+00
    0.13931E+05        -0.49999E+08         0.00000E+00
    0.00000E+00         0.00000E+00        -0.49992E+08
 
   -0.49960E+08         0.15532E+05         0.00000E+00
    0.15532E+05        -0.49999E+08         0.00000E+00
    0.00000E+00         0.00000E+00        -0.49992E+08
 
   -0.49961E+08         0.17120E+05         0.00000E+00
    0.17120E+05        -0.49999E+08         0.00000E+00
    0.00000E+00         0.00000E+00        -0.49992E+08
 
   -0.49961E+08         0.18694E+05         0.00000E+00
    0.18694E+05        -0.49999E+08         0.00000E+00
    0.00000E+00         0.00000E+00        -0.49992E+08
 
   -0.49961E+08         0.20253E+05         0.00000E+00
    0.20253E+05        -0.49999E+08         0.00000E+00
    0.00000E+00         0.00000E+00        -0.49992E+08
 
   -0.49962E+08         0.21796E+05         0.00000E+00
    0.21796E+05        -0.49999E+08         0.00000E+00
    0.00000E+00         0.00000E+00        -0.49992E+08
 
   -0.49962E+08         0.23321E+05         0.00000E+00
    0.23321E+05        -0.49998E+08         0.00000E+00
    0.00000E+00         0.00000E+00        -0.49992E+08
 
   -0.49963E+08         0.24827E+05         0.00000E+00
    0.24827E+05        -0.49998E+08         0.00000E+00
    0.00000E+00         0.00000E+00        -0.49992E+08
 
   -0.49963E+08         0.26313E+05         0.00000E+00
    0.26313E+05        -0.49998E+08         0.00000E+00
    0.00000E+00         0.00000E+00        -0.49992E+08
 
   -0.49964E+08         0.27778E+05         0.00000E+00
    0.27778E+05        -0.49998E+08         0.00000E+00
    0.00000E+00         0.00000E+00        -0.49992E+08
 
   -0.49964E+08         0.29220E+05         0.00000E+00
    0.29220E+05        -0.49997E+08         0.00000E+00
    0.00000E+00         0.00000E+00        -0.49992E+08
 
   -0.49965E+08         0.30638E+05         0.00000E+00
    0.30638E+05        -0.49997E+08         0.00000E+00
    0.00000E+00         0.00000E+00        -0.49992E+08
 
   -0.49966E+08         0.32032E+05         0.00000E+00
    0.32032E+05        -0.49997E+08         0.00000E+00
    0.00000E+00         0.00000E+00        -0.49992E+08
 
   -0.49966E+08         0.33399E+05         0.00000E+00
    0.33399E+05        -0.49996E+08         0.00000E+00
    0.00000E+00         0.00000E+00        -0.49993E+08
 
   -0.49967E+08         0.34738E+05         0.00000E+00
    0.34738E+05        -0.49996E+08         0.00000E+00
    0.00000E+00         0.00000E+00        -0.49993E+08
 
   -0.49968E+08         0.36050E+05         0.00000E+00
    0.36050E+05        -0.49996E+08         0.00000E+00
    0.00000E+00         0.00000E+00        -0.49993E+08
 
   -0.49968E+08         0.37331E+05         0.00000E+00
    0.37331E+05        -0.49995E+08         0.00000E+00
    0.00000E+00         0.00000E+00        -0.49993E+08
 
   -0.49969E+08         0.38582E+05         0.00000E+00
    0.38582E+05        -0.49995E+08         0.00000E+00
    0.00000E+00         0.00000E+00        -0.49993E+08
 
   -0.49970E+08         0.39800E+05         0.00000E+00
    0.39800E+05        -0.49995E+08         0.00000E+00
    0.00000E+00         0.00000E+00        -0.49993E+08
 
   -0.49971E+08         0.40986E+05         0.00000E+00
    0.40986E+05        -0.49994E+08         0.00000E+00
    0.00000E+00         0.00000E+00        -0.49993E+08
 
   -0.49972E+08         0.42137E+05         0.00000E+00
    0.42137E+05        -0.49994E+08         0.00000E+00
    0.00000E+00         0.00000E+00        -0.49993E+08
 
   -0.49973E+08         0.43253E+05         0.00000E+00
    0.43253E+05        -0.49993E+08         0.00000E+00
    0.00000E+00         0.00000E+00        -0.49993E+08
 
   -0.49974E+08         0.44334E+05         0.00000E+00
    0.44334E+05        -0.49993E+08         0.00000E+00
    0.00000E+00         0.00000E+00        -0.49993E+08
 
   -0.49975E+08         0.45376E+05         0.00000E+00
    0.45376E+05        -0.49992E+08         0.00000E+00
    0.00000E+00         0.00000E+00        -0.49993E+08
 
   -0.49976E+08         0.46381E+05         0.00000E+00
    0.46381E+05        -0.49992E+08         0.00000E+00
    0.00000E+00         0.00000E+00        -0.49993E+08
 
   -0.49977E+08         0.47346E+05         0.00000E+00
    0.47346E+05        -0.49991E+08         0.00000E+00
    0.00000E+00         0.00000E+00        -0.49994E+08
 
   -0.49978E+08         0.48271E+05         0.00000E+00
    0.48271E+05        -0.49991E+08         0.00000E+00
    0.00000E+00         0.00000E+00        -0.49994E+08
 
   -0.49979E+08         0.49155E+05         0.00000E+00
    0.49155E+05        -0.49990E+08         0.00000E+00
    0.00000E+00         0.00000E+00        -0.49994E+08
 
   -0.49980E+08         0.49997E+05         0.00000E+00
    0.49997E+05        -0.49990E+08         0.00000E+00
    0.00000E+00         0.00000E+00        -0.49994E+08
 
   -0.49981E+08         0.50796E+05         0.00000E+00
    0.50796E+05        -0.49989E+08         0.00000E+00
    0.00000E+00         0.00000E+00        -0.49994E+08
 
   -0.49982E+08         0.51552E+05         0.00000E+00
    0.51552E+05        -0.49989E+08         0.00000E+00
    0.00000E+00         0.00000E+00        -0.49994E+08
 
   -0.49983E+08         0.52263E+05         0.00000E+00
    0.52263E+05        -0.49988E+08         0.00000E+00
    0.00000E+00         0.00000E+00        -0.49994E+08
 
   -0.49984E+08         0.52928E+05         0.00000E+00
    0.52928E+05        -0.49988E+08         0.00000E+00
    0.00000E+00         0.00000E+00        -0.49994E+08
 
   -0.49985E+08         0.53548E+05         0.00000E+00
    0.53548E+05        -0.49987E+08         0.00000E+00
    0.00000E+00         0.00000E+00        -0.49995E+08
 
   -0.49986E+08         0.54120E+05         0.00000E+00
    0.54120E+05        -0.49987E+08         0.00000E+00
    0.00000E+00         0.00000E+00        -0.49995E+08
 
   -0.49988E+08         0.54645E+05         0.00000E+00
    0.54645E+05        -0.49986E+08         0.00000E+00
    0.00000E+00         0.00000E+00        -0.49995E+08
 
   -0.49989E+08         0.55122E+05         0.00000E+00
    0.55122E+05        -0.49986E+08         0.00000E+00
    0.00000E+00         0.00000E+00        -0.49995E+08
 
   -0.49990E+08         0.55549E+05         0.00000E+00
    0.55549E+05        -0.49985E+08         0.00000E+00
    0.00000E+00         0.00000E+00        -0.49995E+08
 
   -0.49991E+08         0.55928E+05         0.00000E+00
    0.55928E+05        -0.49985E+08         0.00000E+00
    0.00000E+00         0.00000E+00        -0.49995E+08
 
   -0.49992E+08         0.56256E+05         0.00000E+00
    0.56256E+05        -0.49984E+08         0.00000E+00
    0.00000E+00         0.00000E+00        -0.49995E+08
 
   -0.49994E+08         0.56533E+05         0.00000E+00
    0.56533E+05        -0.49984E+08         0.00000E+00
    0.00000E+00         0.00000E+00        -0.49995E+08
 
   -0.49995E+08         0.56760E+05         0.00000E+00
    0.56760E+05        -0.49983E+08         0.00000E+00
    0.00000E+00         0.00000E+00        -0.49996E+08
 
   -0.49950E+08         0.87240E+03         0.00000E+00
    0.87240E+03        -0.50000E+08         0.00000E+00
    0.00000E+00         0.00000E+00        -0.49990E+08
 
   -0.49950E+08         0.26161E+04         0.00000E+00
    0.26161E+04        -0.50000E+08         0.00000E+00
    0.00000E+00         0.00000E+00        -0.49990E+08
 
   -0.49950E+08         0.43576E+04         0.00000E+00
    0.43576E+04        -0.50000E+08         0.00000E+00
    0.00000E+00         0.00000E+00        -0.49990E+08
 
   -0.49950E+08         0.60956E+04         0.00000E+00
    0.60956E+04        -0.50000E+08         0.00000E+00
    0.00000E+00         0.00000E+00        -0.49990E+08
 
   -0.49951E+08         0.78286E+04         0.00000E+00
    0.78286E+04        -0.50000E+08         0.00000E+00
    0.00000E+00         0.00000E+00        -0.49990E+08
 
   -0.49951E+08         0.95554E+04         0.00000E+00
    0.95554E+04        -0.50000E+08         0.00000E+00
    0.00000E+00         0.00000E+00        -0.49990E+08
 
   -0.49951E+08         0.11274E+05         0.00000E+00
    0.11274E+05        -0.50000E+08         0.00000E+00
    0.00000E+00         0.00000E+00        -0.49990E+08
 
   -0.49951E+08         0.12985E+05         0.00000E+00
    0.12985E+05        -0.49999E+08         0.00000E+00
    0.00000E+00         0.00000E+00        -0.49990E+08
 
   -0.49952E+08         0.14684E+05         0.00000E+00
    0.14684E+05        -0.49999E+08         0.00000E+00
    0.00000E+00         0.00000E+00        -0.49990E+08
 
   -0.49952E+08         0.16372E+05         0.00000E+00
    0.16372E+05        -0.49999E+08         0.00000E+00
    0.00000E+00         0.00000E+00        -0.49990E+08
 
   -0.49952E+08         0.18047E+05         0.00000E+00
    0.18047E+05        -0.49999E+08         0.00000E+00
    0.00000E+00         0.00000E+00        -0.49990E+08
 
   -0.49953E+08         0.19708E+05         0.00000E+00
    0.19708E+05        -0.49999E+08         0.00000E+00
    0.00000E+00         0.00000E+00        -0.49990E+08
 
   -0.49953E+08         0.21353E+05         0.00000E+00
    0.21353E+05        -0.49998E+08         0.00000E+00
    0.00000E+00         0.00000E+00        -0.49990E+08
 
   -0.49954E+08         0.22980E+05         0.00000E+00
    0.22980E+05        -0.49998E+08         0.00000E+00
    0.00000E+00         0.00000E+00        -0.49990E+08
 
   -0.49954E+08         0.24590E+05         0.00000E+00
    0.24590E+05        -0.49998E+08         0.00000E+00
    0.00000E+00         0.00000E+00        -0.49990E+08
 
   -0.49955E+08         0.26179E+05         0.00000E+00
    0.26179E+05        -0.49998E+08         0.00000E+00
    0.00000E+00         0.00000E+00        -0.49991E+08
 
   -0.49956E+08         0.27747E+05         0.00000E+00
    0.27747E+05        -0.49997E+08         0.00000E+00
    0.00000E+00         0.00000E+00        -0.49991E+08
 
   -0.49956E+08         0.29293E+05         0.00000E+00
    0.29293E+05        -0.49997E+08         0.00000E+00
    0.00000E+00         0.00000E+00        -0.49991E+08
 
   -0.49957E+08         0.30815E+05         0.00000E+00
    0.30815E+05        -0.49997E+08         0.00000E+00
    0.00000E+00         0.00000E+00        -0.49991E+08
 
   -0.49958E+08         0.32313E+05         0.00000E+00
    0.32313E+05        -0.49996E+08         0.00000E+00
    0.00000E+00         0.00000E+00        -0.49991E+08
 
   -0.49959E+08         0.33783E+05         0.00000E+00
    0.33783E+05        -0.49996E+08         0.00000E+00
    0.00000E+00         0.00000E+00        -0.49991E+08
 
   -0.49959E+08         0.35227E+05         0.00000E+00
    0.35227E+05        -0.49996E+08         0.00000E+00
    0.00000E+00         0.00000E+00        -0.49991E+08
 
   -0.49960E+08         0.36641E+05         0.00000E+00
    0.36641E+05        -0.49995E+08         0.00000E+00
    0.00000E+00         0.00000E+00        -0.49991E+08
 
   -0.49961E+08         0.38026E+05         0.00000E+00
    0.38026E+05        -0.49995E+08         0.00000E+00
    0.00000E+00         0.00000E+00        -0.49991E+08
 
   -0.49962E+08         0.39379E+05         0.00000E+00
    0.39379E+05        -0.49994E+08         0.00000E+00
    0.00000E+00         0.00000E+00        -0.49991E+08
 
   -0.49963E+08         0.40699E+05         0.00000E+00
    0.40699E+05        -0.49994E+08         0.00000E+00
    0.00000E+00         0.00000E+00        -0.49991E+08
 
   -0.49964E+08         0.41986E+05         0.00000E+00
    0.41986E+05        -0.49993E+08         0.00000E+00
    0.00000E+00         0.00000E+00        -0.49991E+08
 
   -0.49965E+08         0.43239E+05         0.00000E+00
    0.43239E+05        -0.49993E+08         0.00000E+00
    0.00000E+00         0.00000E+00        -0.49992E+08
 
   -0.49966E+08         0.44455E+05         0.00000E+00
    0.44455E+05        -0.49992E+08         0.00000E+00
    0.00000E+00         0.00000E+00        -0.49992E+08
 
   -0.49967E+08         0.45634E+05         0.00000E+00
    0.45634E+05        -0.49992E+08         0.00000E+00
    0.00000E+00         0.00000E+00        -0.49992E+08
 
   -0.49968E+08         0.46775E+05         0.00000E+00
    0.46775E+05        -0.49991E+08         0.00000E+00
    0.00000E+00         0.00000E+00        -0.49992E+08
 
   -0.49969E+08         0.47877E+05         0.00000E+00
    0.47877E+05        -0.49991E+08         0.00000E+00
    0.00000E+00         0.00000E+00        -0.49992E+08
 
   -0.49970E+08         0.48938E+05         0.00000E+00
    0.48938E+05        -0.49990E+08         0.00000E+00
    0.00000E+00         0.00000E+00        -0.49992E+08
 
   -0.49972E+08         0.49958E+05         0.00000E+00
    0.49958E+05        -0.49990E+08         0.00000E+00
    0.00000E+00         0.00000E+00        -0.49992E+08
 
   -0.49973E+08         0.50936E+05         0.00000E+00
    0.50936E+05        -0.49989E+08         0.00000E+00
    0.00000E+00         0.00000E+00        -0.49992E+08
 
   -0.49974E+08         0.51870E+05         0.00000E+00
    0.51870E+05        -0.49989E+08         0.00000E+00
    0.00000E+00         0.00000E+00        -0.49993E+08
 
   -0.49975E+08         0.52760E+05         0.00000E+00
    0.52760E+05        -0.49988E+08         0.00000E+00
    0.00000E+00         0.00000E+00        -0.49993E+08
 
   -0.49977E+08         0.53605E+05         0.00000E+00
    0.53605E+05        -0.49987E+08         0.00000E+00
    0.00000E+00         0.00000E+00        -0.49993E+08
 
   -0.49978E+08         0.54403E+05         0.00000E+00
    0.54403E+05        -0.49987E+08         0.00000E+00
    0.00000E+00         0.00000E+00        -0.49993E+08
 
   -0.49979E+08         0.55155E+05         0.00000E+00
    0.55155E+05        -0.49986E+08         0.00000E+00
    0.00000E+00         0.00000E+00        -0.49993E+08
 
   -0.49981E+08         0.55858E+05         0.00000E+00
    0.55858E+05        -0.49985E+08         0.00000E+00
    0.00000E+00         0.00000E+00        -0.49993E+08
 
   -0.49982E+08         0.56513E+05         0.00000E+00
    0.56513E+05        -0.49985E+08         0.00000E+00
    0.00000E+00         0.00000E+00        -0.49993E+08
 
   -0.49984E+08         0.57118E+05         0.00000E+00
    0.57118E+05        -0.49984E+08         0.00000E+00
    0.00000E+00         0.00000E+00        -0.49994E+08
 
   -0.49985E+08         0.57673E+05         0.00000E+00
    0.57673E+05        -0.49983E+08         0.00000E+00
    0.00000E+00         0.00000E+00        -0.49994E+08
 
   -0.49986E+08         0.58177E+05         0.00000E+00
    0.58177E+05        -0.49983E+08         0.00000E+00
    0.00000E+00         0.00000E+00        -0.49994E+08
 
   -0.49988E+08         0.58630E+05         0.00000E+00
    0.58630E+05        -0.49982E+08         0.00000E+00
    0.00000E+00         0.00000E+00        -0.49994E+08
 
   -0.49989E+08         0.59030E+05         0.00000E+00
    0.59030E+05        -0.49981E+08         0.00000E+00
    0.00000E+00         0.00000E+00        -0.49994E+08
 
   -0.49991E+08         0.59377E+05         0.00000E+00
    0.59377E+05        -0.49981E+08         0.00000E+00
    0.00000E+00         0.00000E+00        -0.49994E+08
 
   -0.49992E+08         0.59670E+05         0.00000E+00
    0.59670E+05        -0.49980E+08         0.00000E+00
    0.00000E+00         0.00000E+00        -0.49995E+08
 
   -0.49994E+08         0.59909E+05         0.00000E+00
    0.59909E+05        -0.49979E+08         0.00000E+00
    0.00000E+00         0.00000E+00        -0.49995E+08
 
   -0.49941E+08         0.92506E+03         0.00000E+00
    0.92506E+03        -0.50000E+08         0.00000E+00
    0.00000E+00         0.00000E+00        -0.49988E+08
 
   -0.49941E+08         0.27746E+04         0.00000E+00
    0.27746E+04        -0.50000E+08         0.00000E+00
    0.00000E+00         0.00000E+00        -0.49988E+08
 
   -0.49941E+08         0.46221E+04         0.00000E+00
    0.46221E+04        -0.50000E+08         0.00000E+00
    0.00000E+00         0.00000E+00        -0.49988E+08
 
   -0.49941E+08         0.64660E+04         0.00000E+00
    0.64660E+04        -0.50000E+08         0.00000E+00
    0.00000E+00         0.00000E+00        -0.49988E+08
 
   -0.49942E+08         0.83050E+04         0.00000E+00
    0.83050E+04        -0.50000E+08         0.00000E+00
    0.00000E+00         0.00000E+00        -0.49988E+08
 
   -0.49942E+08         0.10138E+05         0.00000E+00
    0.10138E+05        -0.50000E+08         0.00000E+00
    0.00000E+00         0.00000E+00        -0.49988E+08
 
   -0.49942E+08         0.11962E+05         0.00000E+00
    0.11962E+05        -0.50000E+08         0.00000E+00
    0.00000E+00         0.00000E+00        -0.49988E+08
 
   -0.49943E+08         0.13778E+05         0.00000E+00
    0.13778E+05        -0.49999E+08         0.00000E+00
    0.00000E+00         0.00000E+00        -0.49988E+08
 
   -0.49943E+08         0.15582E+05         0.00000E+00
    0.15582E+05        -0.49999E+08         0.00000E+00
    0.00000E+00         0.00000E+00        -0.49988E+08
 
   -0.49943E+08         0.17374E+05         0.00000E+00
    0.17374E+05        -0.49999E+08         0.00000E+00
    0.00000E+00         0.00000E+00        -0.49988E+08
 
   -0.49944E+08         0.19153E+05         0.00000E+00
    0.19153E+05        -0.49999E+08         0.00000E+00
    0.00000E+00         0.00000E+00        -0.49989E+08
 
   -0.49944E+08         0.20917E+05         0.00000E+00
    0.20917E+05        -0.49998E+08         0.00000E+00
    0.00000E+00         0.00000E+00        -0.49989E+08
 
   -0.49945E+08         0.22664E+05         0.00000E+00
    0.22664E+05        -0.49998E+08         0.00000E+00
    0.00000E+00         0.00000E+00        -0.49989E+08
 
   -0.49946E+08         0.24393E+05         0.00000E+00
    0.24393E+05        -0.49998E+08         0.00000E+00
    0.00000E+00         0.00000E+00        -0.49989E+08
 
   -0.49946E+08         0.26102E+05         0.00000E+00
    0.26102E+05        -0.49998E+08         0.00000E+00
    0.00000E+00         0.00000E+00        -0.49989E+08
 
   -0.49947E+08         0.27791E+05         0.00000E+00
    0.27791E+05        -0.49997E+08         0.00000E+00
    0.00000E+00         0.00000E+00        -0.49989E+08
 
   -0.49948E+08         0.29457E+05         0.00000E+00
    0.29457E+05        -0.49997E+08         0.00000E+00
    0.00000E+00         0.00000E+00        -0.49989E+08
 
   -0.49948E+08         0.31100E+05         0.00000E+00
    0.31100E+05        -0.49997E+08         0.00000E+00
    0.00000E+00         0.00000E+00        -0.49989E+08
 
   -0.49949E+08         0.32718E+05         0.00000E+00
    0.32718E+05        -0.49996E+08         0.00000E+00
    0.00000E+00         0.00000E+00        -0.49989E+08
 
   -0.49950E+08         0.34309E+05         0.00000E+00
    0.34309E+05        -0.49996E+08         0.00000E+00
    0.00000E+00         0.00000E+00        -0.49989E+08
 
   -0.49951E+08         0.35872E+05         0.00000E+00
    0.35872E+05        -0.49995E+08         0.00000E+00
    0.00000E+00         0.00000E+00        -0.49989E+08
 
   -0.49952E+08         0.37407E+05         0.00000E+00
    0.37407E+05        -0.49995E+08         0.00000E+00
    0.00000E+00         0.00000E+00        -0.49989E+08
 
   -0.49953E+08         0.38910E+05         0.00000E+00
    0.38910E+05        -0.49994E+08         0.00000E+00
    0.00000E+00         0.00000E+00        -0.49989E+08
 
   -0.49954E+08         0.40382E+05         0.00000E+00
    0.40382E+05        -0.49994E+08         0.00000E+00
    0.00000E+00         0.00000E+00        -0.49990E+08
 
   -0.49955E+08         0.41821E+05         0.00000E+00
    0.41821E+05        -0.49993E+08         0.00000E+00
    0.00000E+00         0.00000E+00        -0.49990E+08
 
   -0.49956E+08         0.43226E+05         0.00000E+00
    0.43226E+05        -0.49993E+08         0.00000E+00
    0.00000E+00         0.00000E+00        -0.49990E+08
 
   -0.49957E+08         0.44595E+05         0.00000E+00
    0.44595E+05        -0.49992E+08         0.00000E+00
    0.00000E+00         0.00000E+00        -0.49990E+08
 
   -0.49959E+08         0.45926E+05         0.00000E+00
    0.45926E+05        -0.49992E+08         0.00000E+00
    0.00000E+00         0.00000E+00        -0.49990E+08
 
   -0.49960E+08         0.47220E+05         0.00000E+00
    0.47220E+05        -0.49991E+08         0.00000E+00
    0.00000E+00         0.00000E+00        -0.49990E+08
 
   -0.49961E+08         0.48475E+05         0.00000E+00
    0.48475E+05        -0.49990E+08         0.00000E+00
    0.00000E+00         0.00000E+00        -0.49990E+08
 
   -0.49962E+08         0.49688E+05         0.00000E+00
    0.49688E+05        -0.49990E+08         0.00000E+00
    0.00000E+00         0.00000E+00        -0.49990E+08
 
   -0.49964E+08         0.50860E+05         0.00000E+00
    0.50860E+05        -0.49989E+08         0.00000E+00
    0.00000E+00         0.00000E+00        -0.49991E+08
 
   -0.49965E+08         0.51990E+05         0.00000E+00
    0.51990E+05        -0.49989E+08         0.00000E+00
    0.00000E+00         0.00000E+00        -0.49991E+08
 
   -0.49967E+08         0.53075E+05         0.00000E+00
    0.53075E+05        -0.49988E+08         0.00000E+00
    0.00000E+00         0.00000E+00        -0.49991E+08
 
   -0.49968E+08         0.54115E+05         0.00000E+00
    0.54115E+05        -0.49987E+08         0.00000E+00
    0.00000E+00         0.00000E+00        -0.49991E+08
 
   -0.49969E+08         0.55110E+05         0.00000E+00
    0.55110E+05        -0.49986E+08         0.00000E+00
    0.00000E+00         0.00000E+00        -0.49991E+08
 
   -0.49971E+08         0.56057E+05         0.00000E+00
    0.56057E+05        -0.49986E+08         0.00000E+00
    0.00000E+00         0.00000E+00        -0.49991E+08
 
   -0.49972E+08         0.56956E+05         0.00000E+00
    0.56956E+05        -0.49985E+08         0.00000E+00
    0.00000E+00         0.00000E+00        -0.49991E+08
 
   -0.49974E+08         0.57806E+05         0.00000E+00
    0.57806E+05        -0.49984E+08         0.00000E+00
    0.00000E+00         0.00000E+00        -0.49992E+08
 
   -0.49976E+08         0.58606E+05         0.00000E+00
    0.58606E+05        -0.49984E+08         0.00000E+00
    0.00000E+00         0.00000E+00        -0.49992E+08
 
   -0.49977E+08         0.59355E+05         0.00000E+00
    0.59355E+05        -0.49983E+08         0.00000E+00
    0.00000E+00         0.00000E+00        -0.49992E+08
 
   -0.49979E+08         0.60052E+05         0.00000E+00
    0.60052E+05        -0.49982E+08         0.00000E+00
    0.00000E+00         0.00000E+00        -0.49992E+08
 
   -0.49981E+08         0.60697E+05         0.00000E+00
    0.60697E+05        -0.49981E+08         0.00000E+00
    0.00000E+00         0.00000E+00        -0.49992E+08
 
   -0.49982E+08         0.61288E+05         0.00000E+00
    0.61288E+05        -0.49980E+08         0.00000E+00
    0.00000E+00         0.00000E+00        -0.49993E+08
 
   -0.49984E+08         0.61824E+05         0.00000E+00
    0.61824E+05        -0.49980E+08         0.00000E+00
    0.00000E+00         0.00000E+00        -0.49993E+08
 
   -0.49986E+08         0.62306E+05         0.00000E+00
    0.62306E+05        -0.49979E+08         0.00000E+00
    0.00000E+00         0.00000E+00        -0.49993E+08
 
   -0.49987E+08         0.62732E+05         0.00000E+00
    0.62732E+05        -0.49978E+08         0.00000E+00
    0.00000E+00         0.00000E+00        -0.49993E+08
 
   -0.49989E+08         0.63102E+05         0.00000E+00
    0.63102E+05        -0.49977E+08         0.00000E+00
    0.00000E+00         0.00000E+00        -0.49993E+08
 
   -0.49991E+08         0.63414E+05         0.00000E+00
    0.63414E+05        -0.49976E+08         0.00000E+00
    0.00000E+00         0.00000E+00        -0.49994E+08
 
   -0.49993E+08         0.63669E+05         0.00000E+00
    0.63669E+05        -0.49976E+08         0.00000E+00
    0.00000E+00         0.00000E+00        -0.49994E+08
 
   -0.49932E+08         0.98661E+03         0.00000E+00
    0.98661E+03        -0.50000E+08         0.00000E+00
    0.00000E+00         0.00000E+00        -0.49986E+08
 
   -0.49932E+08         0.29600E+04         0.00000E+00
    0.29600E+04        -0.50000E+08         0.00000E+00
    0.00000E+00         0.00000E+00        -0.49986E+08
 
   -0.49932E+08         0.49315E+04         0.00000E+00
    0.49315E+04        -0.50000E+08         0.00000E+00
    0.00000E+00         0.00000E+00        -0.49986E+08
 
   -0.49932E+08         0.68995E+04         0.00000E+00
    0.68995E+04        -0.50000E+08         0.00000E+00
    0.00000E+00         0.00000E+00        -0.49986E+08
 
   -0.49932E+08         0.88625E+04         0.00000E+00
    0.88625E+04        -0.50000E+08         0.00000E+00
    0.00000E+00         0.00000E+00        -0.49986E+08
 
   -0.49932E+08         0.10819E+05         0.00000E+00
    0.10819E+05        -0.50000E+08         0.00000E+00
    0.00000E+00         0.00000E+00        -0.49986E+08
 
   -0.49933E+08         0.12767E+05         0.00000E+00
    0.12767E+05        -0.49999E+08         0.00000E+00
    0.00000E+00         0.00000E+00        -0.49986E+08
 
   -0.49933E+08         0.14706E+05         0.00000E+00
    0.14706E+05        -0.49999E+08         0.00000E+00
    0.00000E+00         0.00000E+00        -0.49986E+08
 
   -0.49934E+08         0.16633E+05         0.00000E+00
    0.16633E+05        -0.49999E+08         0.00000E+00
    0.00000E+00         0.00000E+00        -0.49987E+08
 
   -0.49934E+08         0.18548E+05         0.00000E+00
    0.18548E+05        -0.49999E+08         0.00000E+00
    0.00000E+00         0.00000E+00        -0.49987E+08
 
   -0.49935E+08         0.20448E+05         0.00000E+00
    0.20448E+05        -0.49999E+08         0.00000E+00
    0.00000E+00         0.00000E+00        -0.49987E+08
 
   -0.49935E+08         0.22332E+05         0.00000E+00
    0.22332E+05        -0.49998E+08         0.00000E+00
    0.00000E+00         0.00000E+00        -0.49987E+08
 
   -0.49936E+08         0.24199E+05         0.00000E+00
    0.24199E+05        -0.49998E+08         0.00000E+00
    0.00000E+00         0.00000E+00        -0.49987E+08
 
   -0.49937E+08         0.26047E+05         0.00000E+00
    0.26047E+05        -0.49998E+08         0.00000E+00
    0.00000E+00         0.00000E+00        -0.49987E+08
 
   -0.49937E+08         0.27874E+05         0.00000E+00
    0.27874E+05        -0.49997E+08         0.00000E+00
    0.00000E+00         0.00000E+00        -0.49987E+08
 
   -0.49938E+08         0.29679E+05         0.00000E+00
    0.29679E+05        -0.49997E+08         0.00000E+00
    0.00000E+00         0.00000E+00        -0.49987E+08
 
   -0.49939E+08         0.31461E+05         0.00000E+00
    0.31461E+05        -0.49996E+08         0.00000E+00
    0.00000E+00         0.00000E+00        -0.49987E+08
 
   -0.49940E+08         0.33217E+05         0.00000E+00
    0.33217E+05        -0.49996E+08         0.00000E+00
    0.00000E+00         0.00000E+00        -0.49987E+08
 
   -0.49941E+08         0.34947E+05         0.00000E+00
    0.34947E+05        -0.49995E+08         0.00000E+00
    0.00000E+00         0.00000E+00        -0.49987E+08
 
   -0.49942E+08         0.36649E+05         0.00000E+00
    0.36649E+05        -0.49995E+08         0.00000E+00
    0.00000E+00         0.00000E+00        -0.49987E+08
 
   -0.49943E+08         0.38321E+05         0.00000E+00
    0.38321E+05        -0.49994E+08         0.00000E+00
    0.00000E+00         0.00000E+00        -0.49988E+08
 
   -0.49944E+08         0.39962E+05         0.00000E+00
    0.39962E+05        -0.49994E+08         0.00000E+00
    0.00000E+00         0.00000E+00        -0.49988E+08
 
   -0.49945E+08         0.41571E+05         0.00000E+00
    0.41571E+05        -0.49993E+08         0.00000E+00
    0.00000E+00         0.00000E+00        -0.49988E+08
 
   -0.49946E+08         0.43145E+05         0.00000E+00
    0.43145E+05        -0.49993E+08         0.00000E+00
    0.00000E+00         0.00000E+00        -0.49988E+08
 
   -0.49948E+08         0.44685E+05         0.00000E+00
    0.44685E+05        -0.49992E+08         0.00000E+00
    0.00000E+00         0.00000E+00        -0.49988E+08
 
   -0.49949E+08         0.46188E+05         0.00000E+00
    0.46188E+05        -0.49992E+08         0.00000E+00
    0.00000E+00         0.00000E+00        -0.49988E+08
 
   -0.49950E+08         0.47652E+05         0.00000E+00
    0.47652E+05        -0.49991E+08         0.00000E+00
    0.00000E+00         0.00000E+00        -0.49988E+08
 
   -0.49952E+08         0.49078E+05         0.00000E+00
    0.49078E+05        -0.49990E+08         0.00000E+00
    0.00000E+00         0.00000E+00        -0.49988E+08
 
   -0.49953E+08         0.50462E+05         0.00000E+00
    0.50462E+05        -0.49990E+08         0.00000E+00
    0.00000E+00         0.00000E+00        -0.49989E+08
 
   -0.49955E+08         0.51805E+05         0.00000E+00
    0.51805E+05        -0.49989E+08         0.00000E+00
    0.00000E+00         0.00000E+00        -0.49989E+08
 
   -0.49956E+08         0.53104E+05         0.00000E+00
    0.53104E+05        -0.49988E+08         0.00000E+00
    0.00000E+00         0.00000E+00        -0.49989E+08
 
   -0.49958E+08         0.54359E+05         0.00000E+00
    0.54359E+05        -0.49987E+08         0.00000E+00
    0.00000E+00         0.00000E+00        -0.49989E+08
 
   -0.49959E+08         0.55568E+05         0.00000E+00
    0.55568E+05        -0.49987E+08         0.00000E+00
    0.00000E+00         0.00000E+00        -0.49989E+08
 
   -0.49961E+08         0.56730E+05         0.00000E+00
    0.56730E+05        -0.49986E+08         0.00000E+00
    0.00000E+00         0.00000E+00        -0.49989E+08
 
   -0.49963E+08         0.57844E+05         0.00000E+00
    0.57844E+05        -0.49985E+08         0.00000E+00
    0.00000E+00         0.00000E+00        -0.49990E+08
 
   -0.49964E+08         0.58908E+05         0.00000E+00
    0.58908E+05        -0.49984E+08         0.00000E+00
    0.00000E+00         0.00000E+00        -0.49990E+08
 
   -0.49966E+08         0.59923E+05         0.00000E+00
    0.59923E+05        -0.49983E+08         0.00000E+00
    0.00000E+00         0.00000E+00        -0.49990E+08
 
   -0.49968E+08         0.60886E+05         0.00000E+00
    0.60886E+05        -0.49983E+08         0.00000E+00
    0.00000E+00         0.00000E+00        -0.49990E+08
 
   -0.49970E+08         0.61796E+05         0.00000E+00
    0.61796E+05        -0.49982E+08         0.00000E+00
    0.00000E+00         0.00000E+00        -0.49990E+08
 
   -0.49972E+08         0.62653E+05         0.00000E+00
    0.62653E+05        -0.49981E+08         0.00000E+00
    0.00000E+00         0.00000E+00        -0.49990E+08
 
   -0.49974E+08         0.63455E+05         0.00000E+00
    0.63455E+05        -0.49980E+08         0.00000E+00
    0.00000E+00         0.00000E+00        -0.49991E+08
 
   -0.49975E+08         0.64202E+05         0.00000E+00
    0.64202E+05        -0.49979E+08         0.00000E+00
    0.00000E+00         0.00000E+00        -0.49991E+08
 
   -0.49977E+08         0.64893E+05         0.00000E+00
    0.64893E+05        -0.49978E+08         0.00000E+00
    0.00000E+00         0.00000E+00        -0.49991E+08
 
   -0.49979E+08         0.65526E+05         0.00000E+00
    0.65526E+05        -0.49977E+08         0.00000E+00
    0.00000E+00         0.00000E+00        -0.49991E+08
 
   -0.49981E+08         0.66102E+05         0.00000E+00
    0.66102E+05        -0.49976E+08         0.00000E+00
    0.00000E+00         0.00000E+00        -0.49992E+08
 
   -0.49983E+08         0.66618E+05         0.00000E+00
    0.66618E+05        -0.49975E+08         0.00000E+00
    0.00000E+00         0.00000E+00        -0.49992E+08
 
   -0.49985E+08         0.67075E+05         0.00000E+00
    0.67075E+05        -0.49974E+08         0.00000E+00
    0.00000E+00         0.00000E+00        -0.49992E+08
 
   -0.49988E+08         0.67471E+05         0.00000E+00
    0.67471E+05        -0.49974E+08         0.00000E+00
    0.00000E+00         0.00000E+00        -0.49992E+08
 
   -0.49990E+08         0.67806E+05         0.00000E+00
    0.67806E+05        -0.49973E+08         0.00000E+00
    0.00000E+00         0.00000E+00        -0.49992E+08
 
   -0.49992E+08         0.68080E+05         0.00000E+00
    0.68080E+05        -0.49972E+08         0.00000E+00
    0.00000E+00         0.00000E+00        -0.49993E+08
 
   -0.49921E+08         0.10577E+04         0.00000E+00
    0.10577E+04        -0.50000E+08         0.00000E+00
    0.00000E+00         0.00000E+00        -0.49984E+08
 
   -0.49921E+08         0.31742E+04         0.00000E+00
    0.31742E+04        -0.50000E+08         0.00000E+00
    0.00000E+00         0.00000E+00        -0.49984E+08
 
   -0.49922E+08         0.52890E+04         0.00000E+00
    0.52890E+04        -0.50000E+08         0.00000E+00
    0.00000E+00         0.00000E+00        -0.49984E+08
 
   -0.49922E+08         0.74005E+04         0.00000E+00
    0.74005E+04        -0.50000E+08         0.00000E+00
    0.00000E+00         0.00000E+00        -0.49984E+08
 
   -0.49922E+08         0.95071E+04         0.00000E+00
    0.95071E+04        -0.50000E+08         0.00000E+00
    0.00000E+00         0.00000E+00        -0.49984E+08
 
   -0.49922E+08         0.11607E+05         0.00000E+00
    0.11607E+05        -0.50000E+08         0.00000E+00
    0.00000E+00         0.00000E+00        -0.49984E+08
 
   -0.49923E+08         0.13698E+05         0.00000E+00
    0.13698E+05        -0.49999E+08         0.00000E+00
    0.00000E+00         0.00000E+00        -0.49984E+08
 
   -0.49923E+08         0.15780E+05         0.00000E+00
    0.15780E+05        -0.49999E+08         0.00000E+00
    0.00000E+00         0.00000E+00        -0.49984E+08
 
   -0.49924E+08         0.17849E+05         0.00000E+00
    0.17849E+05        -0.49999E+08         0.00000E+00
    0.00000E+00         0.00000E+00        -0.49985E+08
 
   -0.49924E+08         0.19906E+05         0.00000E+00
    0.19906E+05        -0.49999E+08         0.00000E+00
    0.00000E+00         0.00000E+00        -0.49985E+08
 
   -0.49925E+08         0.21947E+05         0.00000E+00
    0.21947E+05        -0.49998E+08         0.00000E+00
    0.00000E+00         0.00000E+00        -0.49985E+08
 
   -0.49926E+08         0.23971E+05         0.00000E+00
    0.23971E+05        -0.49998E+08         0.00000E+00
    0.00000E+00         0.00000E+00        -0.49985E+08
 
   -0.49926E+08         0.25977E+05         0.00000E+00
    0.25977E+05        -0.49998E+08         0.00000E+00
    0.00000E+00         0.00000E+00        -0.49985E+08
 
   -0.49927E+08         0.27962E+05         0.00000E+00
    0.27962E+05        -0.49997E+08         0.00000E+00
    0.00000E+00         0.00000E+00        -0.49985E+08
 
   -0.49928E+08         0.29926E+05         0.00000E+00
    0.29926E+05        -0.49997E+08         0.00000E+00
    0.00000E+00         0.00000E+00        -0.49985E+08
 
   -0.49929E+08         0.31866E+05         0.00000E+00
    0.31866E+05        -0.49996E+08         0.00000E+00
    0.00000E+00         0.00000E+00        -0.49985E+08
 
   -0.49930E+08         0.33781E+05         0.00000E+00
    0.33781E+05        -0.49996E+08         0.00000E+00
    0.00000E+00         0.00000E+00        -0.49985E+08
 
   -0.49931E+08         0.35669E+05         0.00000E+00
    0.35669E+05        -0.49995E+08         0.00000E+00
    0.00000E+00         0.00000E+00        -0.49985E+08
 
   -0.49932E+08         0.37528E+05         0.00000E+00
    0.37528E+05        -0.49995E+08         0.00000E+00
    0.00000E+00         0.00000E+00        -0.49985E+08
 
   -0.49933E+08         0.39358E+05         0.00000E+00
    0.39358E+05        -0.49994E+08         0.00000E+00
    0.00000E+00         0.00000E+00        -0.49985E+08
 
   -0.49934E+08         0.41156E+05         0.00000E+00
    0.41156E+05        -0.49994E+08         0.00000E+00
    0.00000E+00         0.00000E+00        -0.49986E+08
 
   -0.49936E+08         0.42921E+05         0.00000E+00
    0.42921E+05        -0.49993E+08         0.00000E+00
    0.00000E+00         0.00000E+00        -0.49986E+08
 
   -0.49937E+08         0.44651E+05         0.00000E+00
    0.44651E+05        -0.49992E+08         0.00000E+00
    0.00000E+00         0.00000E+00        -0.49986E+08
 
   -0.49938E+08         0.46345E+05         0.00000E+00
    0.46345E+05        -0.49992E+08         0.00000E+00
    0.00000E+00         0.00000E+00        -0.49986E+08
 
   -0.49940E+08         0.48000E+05         0.00000E+00
    0.48000E+05        -0.49991E+08         0.00000E+00
    0.00000E+00         0.00000E+00        -0.49986E+08
 
   -0.49941E+08         0.49617E+05         0.00000E+00
    0.49617E+05        -0.49990E+08         0.00000E+00
    0.00000E+00         0.00000E+00        -0.49986E+08
 
   -0.49943E+08         0.51193E+05         0.00000E+00
    0.51193E+05        -0.49990E+08         0.00000E+00
    0.00000E+00         0.00000E+00        -0.49986E+08
 
   -0.49944E+08         0.52726E+05         0.00000E+00
    0.52726E+05        -0.49989E+08         0.00000E+00
    0.00000E+00         0.00000E+00        -0.49987E+08
 
   -0.49946E+08         0.54216E+05         0.00000E+00
    0.54216E+05        -0.49988E+08         0.00000E+00
    0.00000E+00         0.00000E+00        -0.49987E+08
 
   -0.49948E+08         0.55660E+05         0.00000E+00
    0.55660E+05        -0.49987E+08         0.00000E+00
    0.00000E+00         0.00000E+00        -0.49987E+08
 
   -0.49950E+08         0.57059E+05         0.00000E+00
    0.57059E+05        -0.49986E+08         0.00000E+00
    0.00000E+00         0.00000E+00        -0.49987E+08
 
   -0.49951E+08         0.58409E+05         0.00000E+00
    0.58409E+05        -0.49985E+08         0.00000E+00
    0.00000E+00         0.00000E+00        -0.49987E+08
 
   -0.49953E+08         0.59710E+05         0.00000E+00
    0.59710E+05        -0.49985E+08         0.00000E+00
    0.00000E+00         0.00000E+00        -0.49988E+08
 
   -0.49955E+08         0.60961E+05         0.00000E+00
    0.60961E+05        -0.49984E+08         0.00000E+00
    0.00000E+00         0.00000E+00        -0.49988E+08
 
   -0.49957E+08         0.62160E+05         0.00000E+00
    0.62160E+05        -0.49983E+08         0.00000E+00
    0.00000E+00         0.00000E+00        -0.49988E+08
 
   -0.49959E+08         0.63306E+05         0.00000E+00
    0.63306E+05        -0.49982E+08         0.00000E+00
    0.00000E+00         0.00000E+00        -0.49988E+08
 
   -0.49961E+08         0.64399E+05         0.00000E+00
    0.64399E+05        -0.49981E+08         0.00000E+00
    0.00000E+00         0.00000E+00        -0.49988E+08
 
   -0.49963E+08         0.65435E+05         0.00000E+00
    0.65435E+05        -0.49980E+08         0.00000E+00
    0.00000E+00         0.00000E+00        -0.49989E+08
 
   -0.49965E+08         0.66416E+05         0.00000E+00
    0.66416E+05        -0.49979E+08         0.00000E+00
    0.00000E+00         0.00000E+00        -0.49989E+08
 
   -0.49967E+08         0.67339E+05         0.00000E+00
    0.67339E+05        -0.49978E+08         0.00000E+00
    0.00000E+00         0.00000E+00        -0.49989E+08
 
   -0.49969E+08         0.68203E+05         0.00000E+00
    0.68203E+05        -0.49977E+08         0.00000E+00
    0.00000E+00         0.00000E+00        -0.49989E+08
 
   -0.49972E+08         0.69008E+05         0.00000E+00
    0.69008E+05        -0.49976E+08         0.00000E+00
    0.00000E+00         0.00000E+00        -0.49990E+08
 
   -0.49974E+08         0.69752E+05         0.00000E+00
    0.69752E+05        -0.49975E+08         0.00000E+00
    0.00000E+00         0.00000E+00        -0.49990E+08
 
   -0.49976E+08         0.70434E+05         0.00000E+00
    0.70434E+05        -0.49974E+08         0.00000E+00
    0.00000E+00         0.00000E+00        -0.49990E+08
 
   -0.49979E+08         0.71054E+05         0.00000E+00
    0.71054E+05        -0.49973E+08         0.00000E+00
    0.00000E+00         0.00000E+00        -0.49990E+08
 
   -0.49981E+08         0.71611E+05         0.00000E+00
    0.71611E+05        -0.49972E+08         0.00000E+00
    0.00000E+00         0.00000E+00        -0.49991E+08
 
   -0.49983E+08         0.72103E+05         0.00000E+00
    0.72103E+05        -0.49971E+08         0.00000E+00
    0.00000E+00         0.00000E+00        -0.49991E+08
 
   -0.49986E+08         0.72530E+05         0.00000E+00
    0.72530E+05        -0.49970E+08         0.00000E+00
    0.00000E+00         0.00000E+00        -0.49991E+08
 
   -0.49988E+08         0.72892E+05         0.00000E+00
    0.72892E+05        -0.49968E+08         0.00000E+00
    0.00000E+00         0.00000E+00        -0.49991E+08
 
   -0.49990E+08         0.73187E+05         0.00000E+00
    0.73187E+05        -0.49967E+08         0.00000E+00
    0.00000E+00         0.00000E+00        -0.49992E+08
 
   -0.49910E+08         0.11390E+04         0.00000E+00
    0.11390E+04        -0.50000E+08         0.00000E+00
    0.00000E+00         0.00000E+00        -0.49982E+08
 
   -0.49910E+08         0.34195E+04         0.00000E+00
    0.34195E+04        -0.50000E+08         0.00000E+00
    0.00000E+00         0.00000E+00        -0.49982E+08
 
   -0.49911E+08         0.56987E+04         0.00000E+00
    0.56987E+04        -0.50000E+08         0.00000E+00
    0.00000E+00         0.00000E+00        -0.49982E+08
 
   -0.49911E+08         0.79748E+04         0.00000E+00
    0.79748E+04        -0.50000E+08         0.00000E+00
    0.00000E+00         0.00000E+00        -0.49982E+08
 
   -0.49911E+08         0.10246E+05         0.00000E+00
    0.10246E+05        -0.50000E+08         0.00000E+00
    0.00000E+00         0.00000E+00        -0.49982E+08
 
   -0.49911E+08         0.12510E+05         0.00000E+00
    0.12510E+05        -0.49999E+08         0.00000E+00
    0.00000E+00         0.00000E+00        -0.49982E+08
 
   -0.49912E+08         0.14766E+05         0.00000E+00
    0.14766E+05        -0.49999E+08         0.00000E+00
    0.00000E+00         0.00000E+00        -0.49982E+08
 
   -0.49912E+08         0.17011E+05         0.00000E+00
    0.17011E+05        -0.49999E+08         0.00000E+00
    0.00000E+00         0.00000E+00        -0.49982E+08
 
   -0.49913E+08         0.19244E+05         0.00000E+00
    0.19244E+05        -0.49999E+08         0.00000E+00
    0.00000E+00         0.00000E+00        -0.49982E+08
 
   -0.49914E+08         0.21463E+05         0.00000E+00
    0.21463E+05        -0.49998E+08         0.00000E+00
    0.00000E+00         0.00000E+00        -0.49982E+08
 
   -0.49914E+08         0.23666E+05         0.00000E+00
    0.23666E+05        -0.49998E+08         0.00000E+00
    0.00000E+00         0.00000E+00        -0.49982E+08
 
   -0.49915E+08         0.25850E+05         0.00000E+00
    0.25850E+05        -0.49998E+08         0.00000E+00
    0.00000E+00         0.00000E+00        -0.49983E+08
 
   -0.49916E+08         0.28015E+05         0.00000E+00
    0.28015E+05        -0.49997E+08         0.00000E+00
    0.00000E+00         0.00000E+00        -0.49983E+08
 
   -0.49917E+08         0.30159E+05         0.00000E+00
    0.30159E+05        -0.49997E+08         0.00000E+00
    0.00000E+00         0.00000E+00        -0.49983E+08
 
   -0.49918E+08         0.32279E+05         0.00000E+00
    0.32279E+05        -0.49996E+08         0.00000E+00
    0.00000E+00         0.00000E+00        -0.49983E+08
 
   -0.49919E+08         0.34374E+05         0.00000E+00
    0.34374E+05        -0.49996E+08         0.00000E+00
    0.00000E+00         0.00000E+00        -0.49983E+08
 
   -0.49920E+08         0.36442E+05         0.00000E+00
    0.36442E+05        -0.49995E+08         0.00000E+00
    0.00000E+00         0.00000E+00        -0.49983E+08
 
   -0.49921E+08         0.38481E+05         0.00000E+00
    0.38481E+05        -0.49995E+08         0.00000E+00
    0.00000E+00         0.00000E+00        -0.49983E+08
 
   -0.49922E+08         0.40490E+05         0.00000E+00
    0.40490E+05        -0.49994E+08         0.00000E+00
    0.00000E+00         0.00000E+00        -0.49983E+08
 
   -0.49924E+08         0.42467E+05         0.00000E+00
    0.42467E+05        -0.49993E+08         0.00000E+00
    0.00000E+00         0.00000E+00        -0.49983E+08
 
   -0.49925E+08         0.44409E+05         0.00000E+00
    0.44409E+05        -0.49993E+08         0.00000E+00
    0.00000E+00         0.00000E+00        -0.49984E+08
 
   -0.49927E+08         0.46316E+05         0.00000E+00
    0.46316E+05        -0.49992E+08         0.00000E+00
    0.00000E+00         0.00000E+00        -0.49984E+08
 
   -0.49928E+08         0.48185E+05         0.00000E+00
    0.48185E+05        -0.49991E+08         0.00000E+00
    0.00000E+00         0.00000E+00        -0.49984E+08
 
   -0.49930E+08         0.50015E+05         0.00000E+00
    0.50015E+05        -0.49991E+08         0.00000E+00
    0.00000E+00         0.00000E+00        -0.49984E+08
 
   -0.49931E+08         0.51804E+05         0.00000E+00
    0.51804E+05        -0.49990E+08         0.00000E+00
    0.00000E+00         0.00000E+00        -0.49984E+08
 
   -0.49933E+08         0.53551E+05         0.00000E+00
    0.53551E+05        -0.49989E+08         0.00000E+00
    0.00000E+00         0.00000E+00        -0.49984E+08
 
   -0.49935E+08         0.55254E+05         0.00000E+00
    0.55254E+05        -0.49988E+08         0.00000E+00
    0.00000E+00         0.00000E+00        -0.49985E+08
 
   -0.49937E+08         0.56912E+05         0.00000E+00
    0.56912E+05        -0.49987E+08         0.00000E+00
    0.00000E+00         0.00000E+00        -0.49985E+08
 
   -0.49939E+08         0.58522E+05         0.00000E+00
    0.58522E+05        -0.49986E+08         0.00000E+00
    0.00000E+00         0.00000E+00        -0.49985E+08
 
   -0.49940E+08         0.60084E+05         0.00000E+00
    0.60084E+05        -0.49985E+08         0.00000E+00
    0.00000E+00         0.00000E+00        -0.49985E+08
 
   -0.49942E+08         0.61595E+05         0.00000E+00
    0.61595E+05        -0.49984E+08         0.00000E+00
    0.00000E+00         0.00000E+00        -0.49985E+08
 
   -0.49944E+08         0.63055E+05         0.00000E+00
    0.63055E+05        -0.49983E+08         0.00000E+00
    0.00000E+00         0.00000E+00        -0.49986E+08
 
   -0.49947E+08         0.64462E+05         0.00000E+00
    0.64462E+05        -0.49982E+08         0.00000E+00
    0.00000E+00         0.00000E+00        -0.49986E+08
 
   -0.49949E+08         0.65814E+05         0.00000E+00
    0.65814E+05        -0.49981E+08         0.00000E+00
    0.00000E+00         0.00000E+00        -0.49986E+08
 
   -0.49951E+08         0.67111E+05         0.00000E+00
    0.67111E+05        -0.49980E+08         0.00000E+00
    0.00000E+00         0.00000E+00        -0.49986E+08
 
   -0.49953E+08         0.68351E+05         0.00000E+00
    0.68351E+05        -0.49979E+08         0.00000E+00
    0.00000E+00         0.00000E+00        -0.49986E+08
 
   -0.49955E+08         0.69532E+05         0.00000E+00
    0.69532E+05        -0.49978E+08         0.00000E+00
    0.00000E+00         0.00000E+00        -0.49987E+08
 
   -0.49958E+08         0.70653E+05         0.00000E+00
    0.70653E+05        -0.49977E+08         0.00000E+00
    0.00000E+00         0.00000E+00        -0.49987E+08
 
   -0.49960E+08         0.71714E+05         0.00000E+00
    0.71714E+05        -0.49976E+08         0.00000E+00
    0.00000E+00         0.00000E+00        -0.49987E+08
 
   -0.49963E+08         0.72712E+05         0.00000E+00
    0.72712E+05        -0.49975E+08         0.00000E+00
    0.00000E+00         0.00000E+00        -0.49987E+08
 
   -0.49965E+08         0.73648E+05         0.00000E+00
    0.73648E+05        -0.49974E+08         0.00000E+00
    0.00000E+00         0.00000E+00        -0.49988E+08
 
   -0.49968E+08         0.74518E+05         0.00000E+00
    0.74518E+05        -0.49972E+08         0.00000E+00
    0.00000E+00         0.00000E+00        -0.49988E+08
 
   -0.49970E+08         0.75324E+05         0.00000E+00
    0.75324E+05        -0.49971E+08         0.00000E+00
    0.00000E+00         0.00000E+00        -0.49988E+08
 
   -0.49973E+08         0.76063E+05         0.00000E+00
    0.76063E+05        -0.49970E+08         0.00000E+00
    0.00000E+00         0.00000E+00        -0.49989E+08
 
   -0.49975E+08         0.76734E+05         0.00000E+00
    0.76734E+05        -0.49969E+08         0.00000E+00
    0.00000E+00         0.00000E+00        -0.49989E+08
 
   -0.49978E+08         0.77337E+05         0.00000E+00
    0.77337E+05        -0.49968E+08         0.00000E+00
    0.00000E+00         0.00000E+00        -0.49989E+08
 
   -0.49981E+08         0.77870E+05         0.00000E+00
    0.77870E+05        -0.49966E+08         0.00000E+00
    0.00000E+00         0.00000E+00        -0.49989E+08
 
   -0.49984E+08         0.78333E+05         0.00000E+00
    0.78333E+05        -0.49965E+08         0.00000E+00
    0.00000E+00         0.00000E+00        -0.49990E+08
 
   -0.49986E+08         0.78725E+05         0.00000E+00
    0.78725E+05        -0.49964E+08         0.00000E+00
    0.00000E+00         0.00000E+00        -0.49990E+08
 
   -0.49989E+08         0.79045E+05         0.00000E+00
    0.79045E+05        -0.49963E+08         0.00000E+00
    0.00000E+00         0.00000E+00        -0.49990E+08
 
   -0.49899E+08         0.12315E+04         0.00000E+00
    0.12315E+04        -0.50000E+08         0.00000E+00
    0.00000E+00         0.00000E+00        -0.49980E+08
 
   -0.49899E+08         0.36988E+04         0.00000E+00
    0.36988E+04        -0.50000E+08         0.00000E+00
    0.00000E+00         0.00000E+00        -0.49980E+08
 
   -0.49899E+08         0.61652E+04         0.00000E+00
    0.61652E+04        -0.50000E+08         0.00000E+00
    0.00000E+00         0.00000E+00        -0.49980E+08
 
   -0.49899E+08         0.86288E+04         0.00000E+00
    0.86288E+04        -0.50000E+08         0.00000E+00
    0.00000E+00         0.00000E+00        -0.49980E+08
 
   -0.49899E+08         0.11088E+05         0.00000E+00
    0.11088E+05        -0.50000E+08         0.00000E+00
    0.00000E+00         0.00000E+00        -0.49980E+08
 
   -0.49900E+08         0.13540E+05         0.00000E+00
    0.13540E+05        -0.49999E+08         0.00000E+00
    0.00000E+00         0.00000E+00        -0.49980E+08
 
   -0.49900E+08         0.15983E+05         0.00000E+00
    0.15983E+05        -0.49999E+08         0.00000E+00
    0.00000E+00         0.00000E+00        -0.49980E+08
 
   -0.49901E+08         0.18415E+05         0.00000E+00
    0.18415E+05        -0.49999E+08         0.00000E+00
    0.00000E+00         0.00000E+00        -0.49980E+08
 
   -0.49901E+08         0.20834E+05         0.00000E+00
    0.20834E+05        -0.49999E+08         0.00000E+00
    0.00000E+00         0.00000E+00        -0.49980E+08
 
   -0.49902E+08         0.23238E+05         0.00000E+00
    0.23238E+05        -0.49998E+08         0.00000E+00
    0.00000E+00         0.00000E+00        -0.49980E+08
 
   -0.49903E+08         0.25625E+05         0.00000E+00
    0.25625E+05        -0.49998E+08         0.00000E+00
    0.00000E+00         0.00000E+00        -0.49980E+08
 
   -0.49904E+08         0.27993E+05         0.00000E+00
    0.27993E+05        -0.49997E+08         0.00000E+00
    0.00000E+00         0.00000E+00        -0.49980E+08
 
   -0.49905E+08         0.30340E+05         0.00000E+00
    0.30340E+05        -0.49997E+08         0.00000E+00
    0.00000E+00         0.00000E+00        -0.49980E+08
 
   -0.49906E+08         0.32664E+05         0.00000E+00
    0.32664E+05        -0.49996E+08         0.00000E+00
    0.00000E+00         0.00000E+00        -0.49980E+08
 
   -0.49907E+08         0.34963E+05         0.00000E+00
    0.34963E+05        -0.49996E+08         0.00000E+00
    0.00000E+00         0.00000E+00        -0.49981E+08
 
   -0.49908E+08         0.37234E+05         0.00000E+00
    0.37234E+05        -0.49995E+08         0.00000E+00
    0.00000E+00         0.00000E+00        -0.49981E+08
 
   -0.49909E+08         0.39477E+05         0.00000E+00
    0.39477E+05        -0.49995E+08         0.00000E+00
    0.00000E+00         0.00000E+00        -0.49981E+08
 
   -0.49911E+08         0.41688E+05         0.00000E+00
    0.41688E+05        -0.49994E+08         0.00000E+00
    0.00000E+00         0.00000E+00        -0.49981E+08
 
   -0.49912E+08         0.43867E+05         0.00000E+00
    0.43867E+05        -0.49993E+08         0.00000E+00
    0.00000E+00         0.00000E+00        -0.49981E+08
 
   -0.49914E+08         0.46010E+05         0.00000E+00
    0.46010E+05        -0.49993E+08         0.00000E+00
    0.00000E+00         0.00000E+00        -0.49981E+08
 
   -0.49915E+08         0.48117E+05         0.00000E+00
    0.48117E+05        -0.49992E+08         0.00000E+00
    0.00000E+00         0.00000E+00        -0.49981E+08
 
   -0.49917E+08         0.50185E+05         0.00000E+00
    0.50185E+05        -0.49991E+08         0.00000E+00
    0.00000E+00         0.00000E+00        -0.49982E+08
 
   -0.49919E+08         0.52213E+05         0.00000E+00
    0.52213E+05        -0.49990E+08         0.00000E+00
    0.00000E+00         0.00000E+00        -0.49982E+08
 
   -0.49920E+08         0.54198E+05         0.00000E+00
    0.54198E+05        -0.49989E+08         0.00000E+00
    0.00000E+00         0.00000E+00        -0.49982E+08
 
   -0.49922E+08         0.56140E+05         0.00000E+00
    0.56140E+05        -0.49988E+08         0.00000E+00
    0.00000E+00         0.00000E+00        -0.49982E+08
 
   -0.49924E+08         0.58035E+05         0.00000E+00
    0.58035E+05        -0.49987E+08         0.00000E+00
    0.00000E+00         0.00000E+00        -0.49982E+08
 
   -0.49926E+08         0.59883E+05         0.00000E+00
    0.59883E+05        -0.49986E+08         0.00000E+00
    0.00000E+00         0.00000E+00        -0.49982E+08
 
   -0.49928E+08         0.61681E+05         0.00000E+00
    0.61681E+05        -0.49985E+08         0.00000E+00
    0.00000E+00         0.00000E+00        -0.49983E+08
 
   -0.49930E+08         0.63428E+05         0.00000E+00
    0.63428E+05        -0.49984E+08         0.00000E+00
    0.00000E+00         0.00000E+00        -0.49983E+08
 
   -0.49932E+08         0.65123E+05         0.00000E+00
    0.65123E+05        -0.49983E+08         0.00000E+00
    0.00000E+00         0.00000E+00        -0.49983E+08
 
   -0.49935E+08         0.66763E+05         0.00000E+00
    0.66763E+05        -0.49982E+08         0.00000E+00
    0.00000E+00         0.00000E+00        -0.49983E+08
 
   -0.49937E+08         0.68347E+05         0.00000E+00
    0.68347E+05        -0.49981E+08         0.00000E+00
    0.00000E+00         0.00000E+00        -0.49984E+08
 
   -0.49939E+08         0.69874E+05         0.00000E+00
    0.69874E+05        -0.49980E+08         0.00000E+00
    0.00000E+00         0.00000E+00        -0.49984E+08
 
   -0.49942E+08         0.71342E+05         0.00000E+00
    0.71342E+05        -0.49979E+08         0.00000E+00
    0.00000E+00         0.00000E+00        -0.49984E+08
 
   -0.49944E+08         0.72750E+05         0.00000E+00
    0.72750E+05        -0.49978E+08         0.00000E+00
    0.00000E+00         0.00000E+00        -0.49984E+08
 
   -0.49947E+08         0.74095E+05         0.00000E+00
    0.74095E+05        -0.49976E+08         0.00000E+00
    0.00000E+00         0.00000E+00        -0.49985E+08
 
   -0.49949E+08         0.75378E+05         0.00000E+00
    0.75378E+05        -0.49975E+08         0.00000E+00
    0.00000E+00         0.00000E+00        -0.49985E+08
 
   -0.49952E+08         0.76595E+05         0.00000E+00
    0.76595E+05        -0.49974E+08         0.00000E+00
    0.00000E+00         0.00000E+00        -0.49985E+08
 
   -0.49955E+08         0.77747E+05         0.00000E+00
    0.77747E+05        -0.49973E+08         0.00000E+00
    0.00000E+00         0.00000E+00        -0.49986E+08
 
   -0.49958E+08         0.78831E+05         0.00000E+00
    0.78831E+05        -0.49971E+08         0.00000E+00
    0.00000E+00         0.00000E+00        -0.49986E+08
 
   -0.49960E+08         0.79847E+05         0.00000E+00
    0.79847E+05        -0.49970E+08         0.00000E+00
    0.00000E+00         0.00000E+00        -0.49986E+08
 
   -0.49963E+08         0.80793E+05         0.00000E+00
    0.80793E+05        -0.49969E+08         0.00000E+00
    0.00000E+00         0.00000E+00        -0.49986E+08
 
   -0.49966E+08         0.81668E+05         0.00000E+00
    0.81668E+05        -0.49967E+08         0.00000E+00
    0.00000E+00         0.00000E+00        -0.49987E+08
 
   -0.49969E+08         0.82471E+05         0.00000E+00
    0.82471E+05        -0.49966E+08         0.00000E+00
    0.00000E+00         0.00000E+00        -0.49987E+08
 
   -0.49972E+08         0.83200E+05         0.00000E+00
    0.83200E+05        -0.49965E+08         0.00000E+00
    0.00000E+00         0.00000E+00        -0.49987E+08
 
   -0.49975E+08         0.83856E+05         0.00000E+00
    0.83856E+05        -0.49963E+08         0.00000E+00
    0.00000E+00         0.00000E+00        -0.49988E+08
 
   -0.49978E+08         0.84436E+05         0.00000E+00
    0.84436E+05        -0.49962E+08         0.00000E+00
    0.00000E+00         0.00000E+00        -0.49988E+08
 
   -0.49981E+08         0.84939E+05         0.00000E+00
    0.84939E+05        -0.49960E+08         0.00000E+00
    0.00000E+00         0.00000E+00        -0.49988E+08
 
   -0.49984E+08         0.85366E+05         0.00000E+00
    0.85366E+05        -0.49959E+08         0.00000E+00
    0.00000E+00         0.00000E+00        -0.49989E+08
 
   -0.49988E+08         0.85715E+05         0.00000E+00
    0.85715E+05        -0.49958E+08         0.00000E+00
    0.00000E+00         0.00000E+00        -0.49989E+08
 
   -0.49886E+08         0.13364E+04         0.00000E+00
    0.13364E+04        -0.50000E+08         0.00000E+00
    0.00000E+00         0.00000E+00        -0.49977E+08
 
   -0.49886E+08         0.40155E+04         0.00000E+00
    0.40155E+04        -0.50000E+08         0.00000E+00
    0.00000E+00         0.00000E+00        -0.49977E+08
 
   -0.49886E+08         0.66944E+04         0.00000E+00
    0.66944E+04        -0.50000E+08         0.00000E+00
    0.00000E+00         0.00000E+00        -0.49977E+08
 
   -0.49886E+08         0.93710E+04         0.00000E+00
    0.93710E+04        -0.50000E+08         0.00000E+00
    0.00000E+00         0.00000E+00        -0.49977E+08
 
   -0.49887E+08         0.12043E+05         0.00000E+00
    0.12043E+05        -0.50000E+08         0.00000E+00
    0.00000E+00         0.00000E+00        -0.49977E+08
 
   -0.49887E+08         0.14708E+05         0.00000E+00
    0.14708E+05        -0.49999E+08         0.00000E+00
    0.00000E+00         0.00000E+00        -0.49977E+08
 
   -0.49887E+08         0.17364E+05         0.00000E+00
    0.17364E+05        -0.49999E+08         0.00000E+00
    0.00000E+00         0.00000E+00        -0.49977E+08
 
   -0.49888E+08         0.20008E+05         0.00000E+00
    0.20008E+05        -0.49999E+08         0.00000E+00
    0.00000E+00         0.00000E+00        -0.49977E+08
 
   -0.49889E+08         0.22639E+05         0.00000E+00
    0.22639E+05        -0.49998E+08         0.00000E+00
    0.00000E+00         0.00000E+00        -0.49977E+08
 
   -0.49890E+08         0.25253E+05         0.00000E+00
    0.25253E+05        -0.49998E+08         0.00000E+00
    0.00000E+00         0.00000E+00        -0.49978E+08
 
   -0.49890E+08         0.27850E+05         0.00000E+00
    0.27850E+05        -0.49998E+08         0.00000E+00
    0.00000E+00         0.00000E+00        -0.49978E+08
 
   -0.49891E+08         0.30426E+05         0.00000E+00
    0.30426E+05        -0.49997E+08         0.00000E+00
    0.00000E+00         0.00000E+00        -0.49978E+08
 
   -0.49893E+08         0.32979E+05         0.00000E+00
    0.32979E+05        -0.49996E+08         0.00000E+00
    0.00000E+00         0.00000E+00        -0.49978E+08
 
   -0.49894E+08         0.35507E+05         0.00000E+00
    0.35507E+05        -0.49996E+08         0.00000E+00
    0.00000E+00         0.00000E+00        -0.49978E+08
 
   -0.49895E+08         0.38008E+05         0.00000E+00
    0.38008E+05        -0.49995E+08         0.00000E+00
    0.00000E+00         0.00000E+00        -0.49978E+08
 
   -0.49896E+08         0.40480E+05         0.00000E+00
    0.40480E+05        -0.49995E+08         0.00000E+00
    0.00000E+00         0.00000E+00        -0.49978E+08
 
   -0.49898E+08         0.42921E+05         0.00000E+00
    0.42921E+05        -0.49994E+08         0.00000E+00
    0.00000E+00         0.00000E+00        -0.49978E+08
 
   -0.49899E+08         0.45327E+05         0.00000E+00
    0.45327E+05        -0.49993E+08         0.00000E+00
    0.00000E+00         0.00000E+00        -0.49978E+08
 
   -0.49901E+08         0.47698E+05         0.00000E+00
    0.47698E+05        -0.49992E+08         0.00000E+00
    0.00000E+00         0.00000E+00        -0.49979E+08
 
   -0.49902E+08         0.50031E+05         0.00000E+00
    0.50031E+05        -0.49992E+08         0.00000E+00
    0.00000E+00         0.00000E+00        -0.49979E+08
 
   -0.49904E+08         0.52324E+05         0.00000E+00
    0.52324E+05        -0.49991E+08         0.00000E+00
    0.00000E+00         0.00000E+00        -0.49979E+08
 
   -0.49906E+08         0.54575E+05         0.00000E+00
    0.54575E+05        -0.49990E+08         0.00000E+00
    0.00000E+00         0.00000E+00        -0.49979E+08
 
   -0.49908E+08         0.56782E+05         0.00000E+00
    0.56782E+05        -0.49989E+08         0.00000E+00
    0.00000E+00         0.00000E+00        -0.49979E+08
 
   -0.49910E+08         0.58943E+05         0.00000E+00
    0.58943E+05        -0.49988E+08         0.00000E+00
    0.00000E+00         0.00000E+00        -0.49980E+08
 
   -0.49912E+08         0.61056E+05         0.00000E+00
    0.61056E+05        -0.49987E+08         0.00000E+00
    0.00000E+00         0.00000E+00        -0.49980E+08
 
   -0.49914E+08         0.63119E+05         0.00000E+00
    0.63119E+05        -0.49986E+08         0.00000E+00
    0.00000E+00         0.00000E+00        -0.49980E+08
 
   -0.49917E+08         0.65130E+05         0.00000E+00
    0.65130E+05        -0.49985E+08         0.00000E+00
    0.00000E+00         0.00000E+00        -0.49980E+08
 
   -0.49919E+08         0.67088E+05         0.00000E+00
    0.67088E+05        -0.49983E+08         0.00000E+00
    0.00000E+00         0.00000E+00        -0.49980E+08
 
   -0.49921E+08         0.68990E+05         0.00000E+00
    0.68990E+05        -0.49982E+08         0.00000E+00
    0.00000E+00         0.00000E+00        -0.49981E+08
 
   -0.49924E+08         0.70834E+05         0.00000E+00
    0.70834E+05        -0.49981E+08         0.00000E+00
    0.00000E+00         0.00000E+00        -0.49981E+08
 
   -0.49926E+08         0.72620E+05         0.00000E+00
    0.72620E+05        -0.49980E+08         0.00000E+00
    0.00000E+00         0.00000E+00        -0.49981E+08
 
   -0.49929E+08         0.74344E+05         0.00000E+00
    0.74344E+05        -0.49979E+08         0.00000E+00
    0.00000E+00         0.00000E+00        -0.49982E+08
 
   -0.49932E+08         0.76007E+05         0.00000E+00
    0.76007E+05        -0.49977E+08         0.00000E+00
    0.00000E+00         0.00000E+00        -0.49982E+08
 
   -0.49934E+08         0.77605E+05         0.00000E+00
    0.77605E+05        -0.49976E+08         0.00000E+00
    0.00000E+00         0.00000E+00        -0.49982E+08
 
   -0.49937E+08         0.79137E+05         0.00000E+00
    0.79137E+05        -0.49975E+08         0.00000E+00
    0.00000E+00         0.00000E+00        -0.49982E+08
 
   -0.49940E+08         0.80602E+05         0.00000E+00
    0.80602E+05        -0.49973E+08         0.00000E+00
    0.00000E+00         0.00000E+00        -0.49983E+08
 
   -0.49943E+08         0.81998E+05         0.00000E+00
    0.81998E+05        -0.49972E+08         0.00000E+00
    0.00000E+00         0.00000E+00        -0.49983E+08
 
   -0.49946E+08         0.83324E+05         0.00000E+00
    0.83324E+05        -0.49970E+08         0.00000E+00
    0.00000E+00         0.00000E+00        -0.49983E+08
 
   -0.49949E+08         0.84579E+05         0.00000E+00
    0.84579E+05        -0.49969E+08         0.00000E+00
    0.00000E+00         0.00000E+00        -0.49984E+08
 
   -0.49952E+08         0.85760E+05         0.00000E+00
    0.85760E+05        -0.49968E+08         0.00000E+00
    0.00000E+00         0.00000E+00        -0.49984E+08
 
   -0.49955E+08         0.86866E+05         0.00000E+00
    0.86866E+05        -0.49966E+08         0.00000E+00
    0.00000E+00         0.00000E+00        -0.49984E+08
 
   -0.49959E+08         0.87897E+05         0.00000E+00
    0.87897E+05        -0.49965E+08         0.00000E+00
    0.00000E+00         0.00000E+00        -0.49985E+08
 
   -0.49962E+08         0.88850E+05         0.00000E+00
    0.88850E+05        -0.49963E+08         0.00000E+00
    0.00000E+00         0.00000E+00        -0.49985E+08
 
   -0.49965E+08         0.89725E+05         0.00000E+00
    0.89725E+05        -0.49962E+08         0.00000E+00
    0.00000E+00         0.00000E+00        -0.49985E+08
 
   -0.49969E+08         0.90521E+05         0.00000E+00
    0.90521E+05        -0.49960E+08         0.00000E+00
    0.00000E+00         0.00000E+00        -0.49986E+08
 
   -0.49972E+08         0.91236E+05         0.00000E+00
    0.91236E+05        -0.49958E+08         0.00000E+00
    0.00000E+00         0.00000E+00        -0.49986E+08
 
   -0.49975E+08         0.91869E+05         0.00000E+00
    0.91869E+05        -0.49957E+08         0.00000E+00
    0.00000E+00         0.00000E+00        -0.49986E+08
 
   -0.49979E+08         0.92419E+05         0.00000E+00
    0.92419E+05        -0.49955E+08         0.00000E+00
    0.00000E+00         0.00000E+00        -0.49987E+08
 
   -0.49982E+08         0.92885E+05         0.00000E+00
    0.92885E+05        -0.49954E+08         0.00000E+00
    0.00000E+00         0.00000E+00        -0.49987E+08
 
   -0.49986E+08         0.93266E+05         0.00000E+00
    0.93266E+05        -0.49952E+08         0.00000E+00
    0.00000E+00         0.00000E+00        -0.49988E+08
 
   -0.49872E+08         0.14550E+04         0.00000E+00
    0.14550E+04        -0.50000E+08         0.00000E+00
    0.00000E+00         0.00000E+00        -0.49974E+08
 
   -0.49872E+08         0.43739E+04         0.00000E+00
    0.43739E+04        -0.50000E+08         0.00000E+00
    0.00000E+00         0.00000E+00        -0.49974E+08
 
   -0.49872E+08         0.72934E+04         0.00000E+00
    0.72934E+04        -0.50000E+08         0.00000E+00
    0.00000E+00         0.00000E+00        -0.49974E+08
 
   -0.49872E+08         0.10211E+05         0.00000E+00
    0.10211E+05        -0.50000E+08         0.00000E+00
    0.00000E+00         0.00000E+00        -0.49974E+08
 
   -0.49873E+08         0.13124E+05         0.00000E+00
    0.13124E+05        -0.50000E+08         0.00000E+00
    0.00000E+00         0.00000E+00        -0.49974E+08
 
   -0.49873E+08         0.16030E+05         0.00000E+00
    0.16030E+05        -0.49999E+08         0.00000E+00
    0.00000E+00         0.00000E+00        -0.49974E+08
 
   -0.49874E+08         0.18927E+05         0.00000E+00
    0.18927E+05        -0.49999E+08         0.00000E+00
    0.00000E+00         0.00000E+00        -0.49975E+08
 
   -0.49874E+08         0.21812E+05         0.00000E+00
    0.21812E+05        -0.49999E+08         0.00000E+00
    0.00000E+00         0.00000E+00        -0.49975E+08
 
   -0.49875E+08         0.24682E+05         0.00000E+00
    0.24682E+05        -0.49998E+08         0.00000E+00
    0.00000E+00         0.00000E+00        -0.49975E+08
 
   -0.49876E+08         0.27535E+05         0.00000E+00
    0.27535E+05        -0.49998E+08         0.00000E+00
    0.00000E+00         0.00000E+00        -0.49975E+08
 
   -0.49877E+08         0.30368E+05         0.00000E+00
    0.30368E+05        -0.49997E+08         0.00000E+00
    0.00000E+00         0.00000E+00        -0.49975E+08
 
   -0.49878E+08         0.33180E+05         0.00000E+00
    0.33180E+05        -0.49997E+08         0.00000E+00
    0.00000E+00         0.00000E+00        -0.49975E+08
 
   -0.49879E+08         0.35966E+05         0.00000E+00
    0.35966E+05        -0.49996E+08         0.00000E+00
    0.00000E+00         0.00000E+00        -0.49975E+08
 
   -0.49881E+08         0.38726E+05         0.00000E+00
    0.38726E+05        -0.49995E+08         0.00000E+00
    0.00000E+00         0.00000E+00        -0.49975E+08
 
   -0.49882E+08         0.41456E+05         0.00000E+00
    0.41456E+05        -0.49995E+08         0.00000E+00
    0.00000E+00         0.00000E+00        -0.49975E+08
 
   -0.49883E+08         0.44154E+05         0.00000E+00
    0.44154E+05        -0.49994E+08         0.00000E+00
    0.00000E+00         0.00000E+00        -0.49975E+08
 
   -0.49885E+08         0.46818E+05         0.00000E+00
    0.46818E+05        -0.49993E+08         0.00000E+00
    0.00000E+00         0.00000E+00        -0.49976E+08
 
   -0.49887E+08         0.49445E+05         0.00000E+00
    0.49445E+05        -0.49992E+08         0.00000E+00
    0.00000E+00         0.00000E+00        -0.49976E+08
 
   -0.49889E+08         0.52033E+05         0.00000E+00
    0.52033E+05        -0.49991E+08         0.00000E+00
    0.00000E+00         0.00000E+00        -0.49976E+08
 
   -0.49890E+08         0.54579E+05         0.00000E+00
    0.54579E+05        -0.49990E+08         0.00000E+00
    0.00000E+00         0.00000E+00        -0.49976E+08
 
   -0.49892E+08         0.57082E+05         0.00000E+00
    0.57082E+05        -0.49989E+08         0.00000E+00
    0.00000E+00         0.00000E+00        -0.49976E+08
 
   -0.49894E+08         0.59539E+05         0.00000E+00
    0.59539E+05        -0.49988E+08         0.00000E+00
    0.00000E+00         0.00000E+00        -0.49977E+08
 
   -0.49897E+08         0.61948E+05         0.00000E+00
    0.61948E+05        -0.49987E+08         0.00000E+00
    0.00000E+00         0.00000E+00        -0.49977E+08
 
   -0.49899E+08         0.64306E+05         0.00000E+00
    0.64306E+05        -0.49986E+08         0.00000E+00
    0.00000E+00         0.00000E+00        -0.49977E+08
 
   -0.49901E+08         0.66612E+05         0.00000E+00
    0.66612E+05        -0.49985E+08         0.00000E+00
    0.00000E+00         0.00000E+00        -0.49977E+08
 
   -0.49904E+08         0.68864E+05         0.00000E+00
    0.68864E+05        -0.49984E+08         0.00000E+00
    0.00000E+00         0.00000E+00        -0.49977E+08
 
   -0.49906E+08         0.71058E+05         0.00000E+00
    0.71058E+05        -0.49983E+08         0.00000E+00
    0.00000E+00         0.00000E+00        -0.49978E+08
 
   -0.49909E+08         0.73194E+05         0.00000E+00
    0.73194E+05        -0.49981E+08         0.00000E+00
    0.00000E+00         0.00000E+00        -0.49978E+08
 
   -0.49911E+08         0.75270E+05         0.00000E+00
    0.75270E+05        -0.49980E+08         0.00000E+00
    0.00000E+00         0.00000E+00        -0.49978E+08
 
   -0.49914E+08         0.77283E+05         0.00000E+00
    0.77283E+05        -0.49979E+08         0.00000E+00
    0.00000E+00         0.00000E+00        -0.49979E+08
 
   -0.49917E+08         0.79231E+05         0.00000E+00
    0.79231E+05        -0.49977E+08         0.00000E+00
    0.00000E+00         0.00000E+00        -0.49979E+08
 
   -0.49920E+08         0.81113E+05         0.00000E+00
    0.81113E+05        -0.49976E+08         0.00000E+00
    0.00000E+00         0.00000E+00        -0.49979E+08
 
   -0.49923E+08         0.82927E+05         0.00000E+00
    0.82927E+05        -0.49974E+08         0.00000E+00
    0.00000E+00         0.00000E+00        -0.49979E+08
 
   -0.49926E+08         0.84670E+05         0.00000E+00
    0.84670E+05        -0.49973E+08         0.00000E+00
    0.00000E+00         0.00000E+00        -0.49980E+08
 
   -0.49929E+08         0.86342E+05         0.00000E+00
    0.86342E+05        -0.49971E+08         0.00000E+00
    0.00000E+00         0.00000E+00        -0.49980E+08
 
   -0.49933E+08         0.87941E+05         0.00000E+00
    0.87941E+05        -0.49970E+08         0.00000E+00
    0.00000E+00         0.00000E+00        -0.49980E+08
 
   -0.49936E+08         0.89465E+05         0.00000E+00
    0.89465E+05        -0.49968E+08         0.00000E+00
    0.00000E+00         0.00000E+00        -0.49981E+08
 
   -0.49939E+08         0.90912E+05         0.00000E+00
    0.90912E+05        -0.49967E+08         0.00000E+00
    0.00000E+00         0.00000E+00        -0.49981E+08
 
   -0.49943E+08         0.92281E+05         0.00000E+00
    0.92281E+05        -0.49965E+08         0.00000E+00
    0.00000E+00         0.00000E+00        -0.49982E+08
 
   -0.49946E+08         0.93570E+05         0.00000E+00
    0.93570E+05        -0.49963E+08         0.00000E+00
    0.00000E+00         0.00000E+00        -0.49982E+08
 
   -0.49950E+08         0.94778E+05         0.00000E+00
    0.94778E+05        -0.49962E+08         0.00000E+00
    0.00000E+00         0.00000E+00        -0.49982E+08
 
   -0.49953E+08         0.95904E+05         0.00000E+00
    0.95904E+05        -0.49960E+08         0.00000E+00
    0.00000E+00         0.00000E+00        -0.49983E+08
 
   -0.49957E+08         0.96945E+05         0.00000E+00
    0.96945E+05        -0.49958E+08         0.00000E+00
    0.00000E+00         0.00000E+00        -0.49983E+08
 
   -0.49961E+08         0.97901E+05         0.00000E+00
    0.97901E+05        -0.49957E+08         0.00000E+00
    0.00000E+00         0.00000E+00        -0.49983E+08
 
   -0.49965E+08         0.98771E+05         0.00000E+00
    0.98771E+05        -0.49955E+08         0.00000E+00
    0.00000E+00         0.00000E+00        -0.49984E+08
 
   -0.49968E+08         0.99552E+05         0.00000E+00
    0.99552E+05        -0.49953E+08         0.00000E+00
    0.00000E+00         0.00000E+00        -0.49984E+08
 
   -0.49972E+08         0.10024E+06         0.00000E+00
    0.10024E+06        -0.49951E+08         0.00000E+00
    0.00000E+00         0.00000E+00        -0.49985E+08
 
   -0.49976E+08         0.10085E+06         0.00000E+00
    0.10085E+06        -0.49950E+08         0.00000E+00
    0.00000E+00         0.00000E+00        -0.49985E+08
 
   -0.49980E+08         0.10136E+06         0.00000E+00
    0.10136E+06        -0.49948E+08         0.00000E+00
    0.00000E+00         0.00000E+00        -0.49986E+08
 
   -0.49984E+08         0.10178E+06         0.00000E+00
    0.10178E+06        -0.49946E+08         0.00000E+00
    0.00000E+00         0.00000E+00        -0.49986E+08
 
   -0.49856E+08         0.15890E+04         0.00000E+00
    0.15890E+04        -0.50000E+08         0.00000E+00
    0.00000E+00         0.00000E+00        -0.49971E+08
 
   -0.49856E+08         0.47792E+04         0.00000E+00
    0.47792E+04        -0.50000E+08         0.00000E+00
    0.00000E+00         0.00000E+00        -0.49971E+08
 
   -0.49857E+08         0.79708E+04         0.00000E+00
    0.79708E+04        -0.50000E+08         0.00000E+00
    0.00000E+00         0.00000E+00        -0.49971E+08
 
   -0.49857E+08         0.11161E+05         0.00000E+00
    0.11161E+05        -0.50000E+08         0.00000E+00
    0.00000E+00         0.00000E+00        -0.49971E+08
 
   -0.49857E+08         0.14347E+05         0.00000E+00
    0.14347E+05        -0.49999E+08         0.00000E+00
    0.00000E+00         0.00000E+00        -0.49971E+08
 
   -0.49858E+08         0.17526E+05         0.00000E+00
    0.17526E+05        -0.49999E+08         0.00000E+00
    0.00000E+00         0.00000E+00        -0.49971E+08
 
   -0.49859E+08         0.20696E+05         0.00000E+00
    0.20696E+05        -0.49999E+08         0.00000E+00
    0.00000E+00         0.00000E+00        -0.49971E+08
 
   -0.49859E+08         0.23852E+05         0.00000E+00
    0.23852E+05        -0.49998E+08         0.00000E+00
    0.00000E+00         0.00000E+00        -0.49972E+08
 
   -0.49860E+08         0.26993E+05         0.00000E+00
    0.26993E+05        -0.49998E+08         0.00000E+00
    0.00000E+00         0.00000E+00        -0.49972E+08
 
   -0.49861E+08         0.30115E+05         0.00000E+00
    0.30115E+05        -0.49997E+08         0.00000E+00
    0.00000E+00         0.00000E+00        -0.49972E+08
 
   -0.49862E+08         0.33216E+05         0.00000E+00
    0.33216E+05        -0.49997E+08         0.00000E+00
    0.00000E+00         0.00000E+00        -0.49972E+08
 
   -0.49863E+08         0.36293E+05         0.00000E+00
    0.36293E+05        -0.49996E+08         0.00000E+00
    0.00000E+00         0.00000E+00        -0.49972E+08
 
   -0.49865E+08         0.39343E+05         0.00000E+00
    0.39343E+05        -0.49996E+08         0.00000E+00
    0.00000E+00         0.00000E+00        -0.49972E+08
 
   -0.49866E+08         0.42364E+05         0.00000E+00
    0.42364E+05        -0.49995E+08         0.00000E+00
    0.00000E+00         0.00000E+00        -0.49972E+08
 
   -0.49868E+08         0.45352E+05         0.00000E+00
    0.45352E+05        -0.49994E+08         0.00000E+00
    0.00000E+00         0.00000E+00        -0.49972E+08
 
   -0.49869E+08         0.48305E+05         0.00000E+00
    0.48305E+05        -0.49993E+08         0.00000E+00
    0.00000E+00         0.00000E+00        -0.49973E+08
 
   -0.49871E+08         0.51220E+05         0.00000E+00
    0.51220E+05        -0.49992E+08         0.00000E+00
    0.00000E+00         0.00000E+00        -0.49973E+08
 
   -0.49873E+08         0.54095E+05         0.00000E+00
    0.54095E+05        -0.49991E+08         0.00000E+00
    0.00000E+00         0.00000E+00        -0.49973E+08
 
   -0.49875E+08         0.56927E+05         0.00000E+00
    0.56927E+05        -0.49990E+08         0.00000E+00
    0.00000E+00         0.00000E+00        -0.49973E+08
 
   -0.49877E+08         0.59713E+05         0.00000E+00
    0.59713E+05        -0.49989E+08         0.00000E+00
    0.00000E+00         0.00000E+00        -0.49973E+08
 
   -0.49879E+08         0.62451E+05         0.00000E+00
    0.62451E+05        -0.49988E+08         0.00000E+00
    0.00000E+00         0.00000E+00        -0.49973E+08
 
   -0.49882E+08         0.65139E+05         0.00000E+00
    0.65139E+05        -0.49987E+08         0.00000E+00
    0.00000E+00         0.00000E+00        -0.49974E+08
 
   -0.49884E+08         0.67774E+05         0.00000E+00
    0.67774E+05        -0.49986E+08         0.00000E+00
    0.00000E+00         0.00000E+00        -0.49974E+08
 
   -0.49887E+08         0.70354E+05         0.00000E+00
    0.70354E+05        -0.49984E+08         0.00000E+00
    0.00000E+00         0.00000E+00        -0.49974E+08
 
   -0.49889E+08         0.72875E+05         0.00000E+00
    0.72875E+05        -0.49983E+08         0.00000E+00
    0.00000E+00         0.00000E+00        -0.49974E+08
 
   -0.49892E+08         0.75337E+05         0.00000E+00
    0.75337E+05        -0.49982E+08         0.00000E+00
    0.00000E+00         0.00000E+00        -0.49975E+08
 
   -0.49895E+08         0.77737E+05         0.00000E+00
    0.77737E+05        -0.49980E+08         0.00000E+00
    0.00000E+00         0.00000E+00        -0.49975E+08
 
   -0.49898E+08         0.80073E+05         0.00000E+00
    0.80073E+05        -0.49979E+08         0.00000E+00
    0.00000E+00         0.00000E+00        -0.49975E+08
 
   -0.49901E+08         0.82342E+05         0.00000E+00
    0.82342E+05        -0.49977E+08         0.00000E+00
    0.00000E+00         0.00000E+00        -0.49976E+08
 
   -0.49904E+08         0.84542E+05         0.00000E+00
    0.84542E+05        -0.49976E+08         0.00000E+00
    0.00000E+00         0.00000E+00        -0.49976E+08
 
   -0.49907E+08         0.86672E+05         0.00000E+00
    0.86672E+05        -0.49974E+08         0.00000E+00
    0.00000E+00         0.00000E+00        -0.49976E+08
 
   -0.49910E+08         0.88729E+05         0.00000E+00
    0.88729E+05        -0.49973E+08         0.00000E+00
    0.00000E+00         0.00000E+00        -0.49977E+08
 
   -0.49914E+08         0.90711E+05         0.00000E+00
    0.90711E+05        -0.49971E+08         0.00000E+00
    0.00000E+00         0.00000E+00        -0.49977E+08
 
   -0.49917E+08         0.92617E+05         0.00000E+00
    0.92617E+05        -0.49969E+08         0.00000E+00
    0.00000E+00         0.00000E+00        -0.49977E+08
 
   -0.49921E+08         0.94444E+05         0.00000E+00
    0.94444E+05        -0.49968E+08         0.00000E+00
    0.00000E+00         0.00000E+00        -0.49978E+08
 
   -0.49924E+08         0.96192E+05         0.00000E+00
    0.96192E+05        -0.49966E+08         0.00000E+00
    0.00000E+00         0.00000E+00        -0.49978E+08
 
   -0.49928E+08         0.97857E+05         0.00000E+00
    0.97857E+05        -0.49964E+08         0.00000E+00
    0.00000E+00         0.00000E+00        -0.49978E+08
 
   -0.49932E+08         0.99439E+05         0.00000E+00
    0.99439E+05        -0.49962E+08         0.00000E+00
    0.00000E+00         0.00000E+00        -0.49979E+08
 
   -0.49936E+08         0.10093E+06         0.00000E+00
    0.10093E+06        -0.49961E+08         0.00000E+00
    0.00000E+00         0.00000E+00        -0.49979E+08
 
   -0.49940E+08         0.10234E+06         0.00000E+00
    0.10234E+06        -0.49959E+08         0.00000E+00
    0.00000E+00         0.00000E+00        -0.49980E+08
 
   -0.49944E+08         0.10367E+06         0.00000E+00
    0.10367E+06        -0.49957E+08         0.00000E+00
    0.00000E+00         0.00000E+00        -0.49980E+08
 
   -0.49948E+08         0.10490E+06         0.00000E+00
    0.10490E+06        -0.49955E+08         0.00000E+00
    0.00000E+00         0.00000E+00        -0.49981E+08
 
   -0.49952E+08         0.10604E+06         0.00000E+00
    0.10604E+06        -0.49953E+08         0.00000E+00
    0.00000E+00         0.00000E+00        -0.49981E+08
 
   -0.49956E+08         0.10708E+06         0.00000E+00
    0.10708E+06        -0.49951E+08         0.00000E+00
    0.00000E+00         0.00000E+00        -0.49981E+08
 
   -0.49960E+08         0.10803E+06         0.00000E+00
    0.10803E+06        -0.49949E+08         0.00000E+00
    0.00000E+00         0.00000E+00        -0.49982E+08
 
   -0.49965E+08         0.10889E+06         0.00000E+00
    0.10889E+06        -0.49947E+08         0.00000E+00
    0.00000E+00         0.00000E+00        -0.49982E+08
 
   -0.49969E+08         0.10965E+06         0.00000E+00
    0.10965E+06        -0.49945E+08         0.00000E+00
    0.00000E+00         0.00000E+00        -0.49983E+08
 
   -0.49973E+08         0.11031E+06         0.00000E+00
    0.11031E+06        -0.49943E+08         0.00000E+00
    0.00000E+00         0.00000E+00        -0.49983E+08
 
   -0.49978E+08         0.11087E+06         0.00000E+00
    0.11087E+06        -0.49941E+08         0.00000E+00
    0.00000E+00         0.00000E+00        -0.49984E+08
 
   -0.49982E+08         0.11133E+06         0.00000E+00
    0.11133E+06        -0.49939E+08         0.00000E+00
    0.00000E+00         0.00000E+00        -0.49984E+08
 
   -0.49840E+08         0.17406E+04         0.00000E+00
    0.17406E+04        -0.50000E+08         0.00000E+00
    0.00000E+00         0.00000E+00        -0.49968E+08
 
   -0.49840E+08         0.52377E+04         0.00000E+00
    0.52377E+04        -0.50000E+08         0.00000E+00
    0.00000E+00         0.00000E+00        -0.49968E+08
 
   -0.49840E+08         0.87374E+04         0.00000E+00
    0.87374E+04        -0.50000E+08         0.00000E+00
    0.00000E+00         0.00000E+00        -0.49968E+08
 
   -0.49840E+08         0.12236E+05         0.00000E+00
    0.12236E+05        -0.50000E+08         0.00000E+00
    0.00000E+00         0.00000E+00        -0.49968E+08
 
   -0.49841E+08         0.15731E+05         0.00000E+00
    0.15731E+05        -0.49999E+08         0.00000E+00
    0.00000E+00         0.00000E+00        -0.49968E+08
 
   -0.49841E+08         0.19219E+05         0.00000E+00
    0.19219E+05        -0.49999E+08         0.00000E+00
    0.00000E+00         0.00000E+00        -0.49968E+08
 
   -0.49842E+08         0.22696E+05         0.00000E+00
    0.22696E+05        -0.49999E+08         0.00000E+00
    0.00000E+00         0.00000E+00        -0.49968E+08
 
   -0.49843E+08         0.26160E+05         0.00000E+00
    0.26160E+05        -0.49998E+08         0.00000E+00
    0.00000E+00         0.00000E+00        -0.49968E+08
 
   -0.49844E+08         0.29607E+05         0.00000E+00
    0.29607E+05        -0.49998E+08         0.00000E+00
    0.00000E+00         0.00000E+00        -0.49968E+08
 
   -0.49845E+08         0.33033E+05         0.00000E+00
    0.33033E+05        -0.49997E+08         0.00000E+00
    0.00000E+00         0.00000E+00        -0.49968E+08
 
   -0.49846E+08         0.36436E+05         0.00000E+00
    0.36436E+05        -0.49996E+08         0.00000E+00
    0.00000E+00         0.00000E+00        -0.49968E+08
 
   -0.49847E+08         0.39812E+05         0.00000E+00
    0.39812E+05        -0.49996E+08         0.00000E+00
    0.00000E+00         0.00000E+00        -0.49969E+08
 
   -0.49849E+08         0.43159E+05         0.00000E+00
    0.43159E+05        -0.49995E+08         0.00000E+00
    0.00000E+00         0.00000E+00        -0.49969E+08
 
   -0.49850E+08         0.46473E+05         0.00000E+00
    0.46473E+05        -0.49994E+08         0.00000E+00
    0.00000E+00         0.00000E+00        -0.49969E+08
 
   -0.49852E+08         0.49751E+05         0.00000E+00
    0.49751E+05        -0.49993E+08         0.00000E+00
    0.00000E+00         0.00000E+00        -0.49969E+08
 
   -0.49854E+08         0.52990E+05         0.00000E+00
    0.52990E+05        -0.49992E+08         0.00000E+00
    0.00000E+00         0.00000E+00        -0.49969E+08
 
   -0.49856E+08         0.56188E+05         0.00000E+00
    0.56188E+05        -0.49991E+08         0.00000E+00
    0.00000E+00         0.00000E+00        -0.49969E+08
 
   -0.49858E+08         0.59341E+05         0.00000E+00
    0.59341E+05        -0.49990E+08         0.00000E+00
    0.00000E+00         0.00000E+00        -0.49970E+08
 
   -0.49860E+08         0.62446E+05         0.00000E+00
    0.62446E+05        -0.49989E+08         0.00000E+00
    0.00000E+00         0.00000E+00        -0.49970E+08
 
   -0.49863E+08         0.65501E+05         0.00000E+00
    0.65501E+05        -0.49988E+08         0.00000E+00
    0.00000E+00         0.00000E+00        -0.49970E+08
 
   -0.49865E+08         0.68502E+05         0.00000E+00
    0.68502E+05        -0.49987E+08         0.00000E+00
    0.00000E+00         0.00000E+00        -0.49970E+08
 
   -0.49868E+08         0.71448E+05         0.00000E+00
    0.71448E+05        -0.49985E+08         0.00000E+00
    0.00000E+00         0.00000E+00        -0.49971E+08
 
   -0.49871E+08         0.74336E+05         0.00000E+00
    0.74336E+05        -0.49984E+08         0.00000E+00
    0.00000E+00         0.00000E+00        -0.49971E+08
 
   -0.49873E+08         0.77162E+05         0.00000E+00
    0.77162E+05        -0.49982E+08         0.00000E+00
    0.00000E+00         0.00000E+00        -0.49971E+08
 
   -0.49876E+08         0.79924E+05         0.00000E+00
    0.79924E+05        -0.49981E+08         0.00000E+00
    0.00000E+00         0.00000E+00        -0.49971E+08
 
   -0.49879E+08         0.82621E+05         0.00000E+00
    0.82621E+05        -0.49979E+08         0.00000E+00
    0.00000E+00         0.00000E+00        -0.49972E+08
 
   -0.49882E+08         0.85248E+05         0.00000E+00
    0.85248E+05        -0.49978E+08         0.00000E+00
    0.00000E+00         0.00000E+00        -0.49972E+08
 
   -0.49886E+08         0.87805E+05         0.00000E+00
    0.87805E+05        -0.49976E+08         0.00000E+00
    0.00000E+00         0.00000E+00        -0.49972E+08
 
   -0.49889E+08         0.90289E+05         0.00000E+00
    0.90289E+05        -0.49975E+08         0.00000E+00
    0.00000E+00         0.00000E+00        -0.49973E+08
 
   -0.49893E+08         0.92697E+05         0.00000E+00
    0.92697E+05        -0.49973E+08         0.00000E+00
    0.00000E+00         0.00000E+00        -0.49973E+08
 
   -0.49896E+08         0.95028E+05         0.00000E+00
    0.95028E+05        -0.49971E+08         0.00000E+00
    0.00000E+00         0.00000E+00        -0.49973E+08
 
   -0.49900E+08         0.97278E+05         0.00000E+00
    0.97278E+05        -0.49969E+08         0.00000E+00
    0.00000E+00         0.00000E+00        -0.49974E+08
 
   -0.49904E+08         0.99447E+05         0.00000E+00
    0.99447E+05        -0.49968E+08         0.00000E+00
    0.00000E+00         0.00000E+00        -0.49974E+08
 
   -0.49907E+08         0.10153E+06         0.00000E+00
    0.10153E+06        -0.49966E+08         0.00000E+00
    0.00000E+00         0.00000E+00        -0.49975E+08
 
   -0.49911E+08         0.10353E+06         0.00000E+00
    0.10353E+06        -0.49964E+08         0.00000E+00
    0.00000E+00         0.00000E+00        -0.49975E+08
 
   -0.49915E+08         0.10544E+06         0.00000E+00
    0.10544E+06        -0.49962E+08         0.00000E+00
    0.00000E+00         0.00000E+00        -0.49975E+08
 
   -0.49920E+08         0.10726E+06         0.00000E+00
    0.10726E+06        -0.49960E+08         0.00000E+00
    0.00000E+00         0.00000E+00        -0.49976E+08
 
   -0.49924E+08         0.10899E+06         0.00000E+00
    0.10899E+06        -0.49958E+08         0.00000E+00
    0.00000E+00         0.00000E+00        -0.49976E+08
 
   -0.49928E+08         0.11063E+06         0.00000E+00
    0.11063E+06        -0.49956E+08         0.00000E+00
    0.00000E+00         0.00000E+00        -0.49977E+08
 
   -0.49933E+08         0.11217E+06         0.00000E+00
    0.11217E+06        -0.49954E+08         0.00000E+00
    0.00000E+00         0.00000E+00        -0.49977E+08
 
   -0.49937E+08         0.11362E+06         0.00000E+00
    0.11362E+06        -0.49952E+08         0.00000E+00
    0.00000E+00         0.00000E+00        -0.49978E+08
 
   -0.49942E+08         0.11496E+06         0.00000E+00
    0.11496E+06        -0.49949E+08         0.00000E+00
    0.00000E+00         0.00000E+00        -0.49978E+08
 
   -0.49946E+08         0.11621E+06         0.00000E+00
    0.11621E+06        -0.49947E+08         0.00000E+00
    0.00000E+00         0.00000E+00        -0.49979E+08
 
   -0.49951E+08         0.11736E+06         0.00000E+00
    0.11736E+06        -0.49945E+08         0.00000E+00
    0.00000E+00         0.00000E+00        -0.49979E+08
 
   -0.49956E+08         0.11840E+06         0.00000E+00
    0.11840E+06        -0.49943E+08         0.00000E+00
    0.00000E+00         0.00000E+00        -0.49980E+08
 
   -0.49960E+08         0.11934E+06         0.00000E+00
    0.11934E+06        -0.49941E+08         0.00000E+00
    0.00000E+00         0.00000E+00        -0.49980E+08
 
   -0.49965E+08         0.12017E+06         0.00000E+00
    0.12017E+06        -0.49939E+08         0.00000E+00
    0.00000E+00         0.00000E+00        -0.49981E+08
 
   -0.49970E+08         0.12090E+06         0.00000E+00
    0.12090E+06        -0.49936E+08         0.00000E+00
    0.00000E+00         0.00000E+00        -0.49981E+08
 
   -0.49975E+08         0.12151E+06         0.00000E+00
    0.12151E+06        -0.49934E+08         0.00000E+00
    0.00000E+00         0.00000E+00        -0.49982E+08
 
   -0.49980E+08         0.12202E+06         0.00000E+00
    0.12202E+06        -0.49932E+08         0.00000E+00
    0.00000E+00         0.00000E+00        -0.49982E+08
 
   -0.49821E+08         0.19125E+04         0.00000E+00
    0.19125E+04        -0.50000E+08         0.00000E+00
    0.00000E+00         0.00000E+00        -0.49964E+08
 
   -0.49821E+08         0.57575E+04         0.00000E+00
    0.57575E+04        -0.50000E+08         0.00000E+00
    0.00000E+00         0.00000E+00        -0.49964E+08
 
   -0.49822E+08         0.96062E+04         0.00000E+00
    0.96062E+04        -0.50000E+08         0.00000E+00
    0.00000E+00         0.00000E+00        -0.49964E+08
 
   -0.49822E+08         0.13455E+05         0.00000E+00
    0.13455E+05        -0.50000E+08         0.00000E+00
    0.00000E+00         0.00000E+00        -0.49964E+08
 
   -0.49822E+08         0.17300E+05         0.00000E+00
    0.17300E+05        -0.49999E+08         0.00000E+00
    0.00000E+00         0.00000E+00        -0.49964E+08
 
   -0.49823E+08         0.21137E+05         0.00000E+00
    0.21137E+05        -0.49999E+08         0.00000E+00
    0.00000E+00         0.00000E+00        -0.49964E+08
 
   -0.49824E+08         0.24963E+05         0.00000E+00
    0.24963E+05        -0.49998E+08         0.00000E+00
    0.00000E+00         0.00000E+00        -0.49964E+08
 
   -0.49825E+08         0.28773E+05         0.00000E+00
    0.28773E+05        -0.49998E+08         0.00000E+00
    0.00000E+00         0.00000E+00        -0.49965E+08
 
   -0.49826E+08         0.32565E+05         0.00000E+00
    0.32565E+05        -0.49997E+08         0.00000E+00
    0.00000E+00         0.00000E+00        -0.49965E+08
 
   -0.49827E+08         0.36335E+05         0.00000E+00
    0.36335E+05        -0.49997E+08         0.00000E+00
    0.00000E+00         0.00000E+00        -0.49965E+08
 
   -0.49828E+08         0.40078E+05         0.00000E+00
    0.40078E+05        -0.49996E+08         0.00000E+00
    0.00000E+00         0.00000E+00        -0.49965E+08
 
   -0.49830E+08         0.43792E+05         0.00000E+00
    0.43792E+05        -0.49995E+08         0.00000E+00
    0.00000E+00         0.00000E+00        -0.49965E+08
 
   -0.49831E+08         0.47473E+05         0.00000E+00
    0.47473E+05        -0.49994E+08         0.00000E+00
    0.00000E+00         0.00000E+00        -0.49965E+08
 
   -0.49833E+08         0.51117E+05         0.00000E+00
    0.51117E+05        -0.49993E+08         0.00000E+00
    0.00000E+00         0.00000E+00        -0.49965E+08
 
   -0.49835E+08         0.54721E+05         0.00000E+00
    0.54721E+05        -0.49992E+08         0.00000E+00
    0.00000E+00         0.00000E+00        -0.49965E+08
 
   -0.49837E+08         0.58281E+05         0.00000E+00
    0.58281E+05        -0.49991E+08         0.00000E+00
    0.00000E+00         0.00000E+00        -0.49966E+08
 
   -0.49839E+08         0.61795E+05         0.00000E+00
    0.61795E+05        -0.49990E+08         0.00000E+00
    0.00000E+00         0.00000E+00        -0.49966E+08
 
   -0.49842E+08         0.65259E+05         0.00000E+00
    0.65259E+05        -0.49989E+08         0.00000E+00
    0.00000E+00         0.00000E+00        -0.49966E+08
 
   -0.49844E+08         0.68669E+05         0.00000E+00
    0.68669E+05        -0.49988E+08         0.00000E+00
    0.00000E+00         0.00000E+00        -0.49966E+08
 
   -0.49847E+08         0.72024E+05         0.00000E+00
    0.72024E+05        -0.49986E+08         0.00000E+00
    0.00000E+00         0.00000E+00        -0.49967E+08
 
   -0.49850E+08         0.75319E+05         0.00000E+00
    0.75319E+05        -0.49985E+08         0.00000E+00
    0.00000E+00         0.00000E+00        -0.49967E+08
 
   -0.49853E+08         0.78552E+05         0.00000E+00
    0.78552E+05        -0.49983E+08         0.00000E+00
    0.00000E+00         0.00000E+00        -0.49967E+08
 
   -0.49856E+08         0.81720E+05         0.00000E+00
    0.81720E+05        -0.49982E+08         0.00000E+00
    0.00000E+00         0.00000E+00        -0.49967E+08
 
   -0.49859E+08         0.84820E+05         0.00000E+00
    0.84820E+05        -0.49980E+08         0.00000E+00
    0.00000E+00         0.00000E+00        -0.49968E+08
 
   -0.49862E+08         0.87849E+05         0.00000E+00
    0.87849E+05        -0.49978E+08         0.00000E+00
    0.00000E+00         0.00000E+00        -0.49968E+08
 
   -0.49865E+08         0.90805E+05         0.00000E+00
    0.90805E+05        -0.49977E+08         0.00000E+00
    0.00000E+00         0.00000E+00        -0.49968E+08
 
   -0.49869E+08         0.93685E+05         0.00000E+00
    0.93685E+05        -0.49975E+08         0.00000E+00
    0.00000E+00         0.00000E+00        -0.49969E+08
 
   -0.49873E+08         0.96486E+05         0.00000E+00
    0.96486E+05        -0.49973E+08         0.00000E+00
    0.00000E+00         0.00000E+00        -0.49969E+08
 
   -0.49876E+08         0.99207E+05         0.00000E+00
    0.99207E+05        -0.49971E+08         0.00000E+00
    0.00000E+00         0.00000E+00        -0.49970E+08
 
   -0.49880E+08         0.10184E+06         0.00000E+00
    0.10184E+06        -0.49969E+08         0.00000E+00
    0.00000E+00         0.00000E+00        -0.49970E+08
 
   -0.49884E+08         0.10440E+06         0.00000E+00
    0.10440E+06        -0.49967E+08         0.00000E+00
    0.00000E+00         0.00000E+00        -0.49970E+08
 
   -0.49888E+08         0.10686E+06         0.00000E+00
    0.10686E+06        -0.49965E+08         0.00000E+00
    0.00000E+00         0.00000E+00        -0.49971E+08
 
   -0.49892E+08         0.10923E+06         0.00000E+00
    0.10923E+06        -0.49963E+08         0.00000E+00
    0.00000E+00         0.00000E+00        -0.49971E+08
 
   -0.49897E+08         0.11151E+06         0.00000E+00
    0.11151E+06        -0.49961E+08         0.00000E+00
    0.00000E+00         0.00000E+00        -0.49972E+08
 
   -0.49901E+08         0.11370E+06         0.00000E+00
    0.11370E+06        -0.49959E+08         0.00000E+00
    0.00000E+00         0.00000E+00        -0.49972E+08
 
   -0.49906E+08         0.11579E+06         0.00000E+00
    0.11579E+06        -0.49957E+08         0.00000E+00
    0.00000E+00         0.00000E+00        -0.49973E+08
 
   -0.49910E+08         0.11778E+06         0.00000E+00
    0.11778E+06        -0.49955E+08         0.00000E+00
    0.00000E+00         0.00000E+00        -0.49973E+08
 
   -0.49915E+08         0.11968E+06         0.00000E+00
    0.11968E+06        -0.49953E+08         0.00000E+00
    0.00000E+00         0.00000E+00        -0.49974E+08
 
   -0.49920E+08         0.12147E+06         0.00000E+00
    0.12147E+06        -0.49950E+08         0.00000E+00
    0.00000E+00         0.00000E+00        -0.49974E+08
 
   -0.49925E+08         0.12315E+06         0.00000E+00
    0.12315E+06        -0.49948E+08         0.00000E+00
    0.00000E+00         0.00000E+00        -0.49975E+08
 
   -0.49930E+08         0.12473E+06         0.00000E+00
    0.12473E+06        -0.49946E+08         0.00000E+00
    0.00000E+00         0.00000E+00        -0.49975E+08
 
   -0.49935E+08         0.12621E+06         0.00000E+00
    0.12621E+06        -0.49943E+08         0.00000E+00
    0.00000E+00         0.00000E+00        -0.49976E+08
 
   -0.49940E+08         0.12757E+06         0.00000E+00
    0.12757E+06        -0.49941E+08         0.00000E+00
    0.00000E+00         0.00000E+00        -0.49976E+08
 
   -0.49945E+08         0.12883E+06         0.00000E+00
    0.12883E+06        -0.49939E+08         0.00000E+00
    0.00000E+00         0.00000E+00        -0.49977E+08
 
   -0.49950E+08         0.12997E+06         0.00000E+00
    0.12997E+06        -0.49936E+08         0.00000E+00
    0.00000E+00         0.00000E+00        -0.49977E+08
 
   -0.49956E+08         0.13100E+06         0.00000E+00
    0.13100E+06        -0.49934E+08         0.00000E+00
    0.00000E+00         0.00000E+00        -0.49978E+08
 
   -0.49961E+08         0.13191E+06         0.00000E+00
    0.13191E+06        -0.49931E+08         0.00000E+00
    0.00000E+00         0.00000E+00        -0.49978E+08
 
   -0.49967E+08         0.13271E+06         0.00000E+00
    0.13271E+06        -0.49929E+08         0.00000E+00
    0.00000E+00         0.00000E+00        -0.49979E+08
 
   -0.49972E+08         0.13339E+06         0.00000E+00
    0.13339E+06        -0.49926E+08         0.00000E+00
    0.00000E+00         0.00000E+00        -0.49980E+08
 
   -0.49978E+08         0.13395E+06         0.00000E+00
    0.13395E+06        -0.49924E+08         0.00000E+00
    0.00000E+00         0.00000E+00        -0.49980E+08
 
   -0.49801E+08         0.21079E+04         0.00000E+00
    0.21079E+04        -0.50000E+08         0.00000E+00
    0.00000E+00         0.00000E+00        -0.49960E+08
 
   -0.49801E+08         0.63484E+04         0.00000E+00
    0.63484E+04        -0.50000E+08         0.00000E+00
    0.00000E+00         0.00000E+00        -0.49960E+08
 
   -0.49801E+08         0.10594E+05         0.00000E+00
    0.10594E+05        -0.50000E+08         0.00000E+00
    0.00000E+00         0.00000E+00        -0.49960E+08
 
   -0.49802E+08         0.14839E+05         0.00000E+00
    0.14839E+05        -0.50000E+08         0.00000E+00
    0.00000E+00         0.00000E+00        -0.49960E+08
 
   -0.49802E+08         0.19081E+05         0.00000E+00
    0.19081E+05        -0.49999E+08         0.00000E+00
    0.00000E+00         0.00000E+00        -0.49960E+08
 
   -0.49803E+08         0.23314E+05         0.00000E+00
    0.23314E+05        -0.49999E+08         0.00000E+00
    0.00000E+00         0.00000E+00        -0.49960E+08
 
   -0.49804E+08         0.27535E+05         0.00000E+00
    0.27535E+05        -0.49998E+08         0.00000E+00
    0.00000E+00         0.00000E+00        -0.49960E+08
 
   -0.49805E+08         0.31739E+05         0.00000E+00
    0.31739E+05        -0.49998E+08         0.00000E+00
    0.00000E+00         0.00000E+00        -0.49960E+08
 
   -0.49806E+08         0.35921E+05         0.00000E+00
    0.35921E+05        -0.49997E+08         0.00000E+00
    0.00000E+00         0.00000E+00        -0.49961E+08
 
   -0.49807E+08         0.40078E+05         0.00000E+00
    0.40078E+05        -0.49996E+08         0.00000E+00
    0.00000E+00         0.00000E+00        -0.49961E+08
 
   -0.49809E+08         0.44205E+05         0.00000E+00
    0.44205E+05        -0.49995E+08         0.00000E+00
    0.00000E+00         0.00000E+00        -0.49961E+08
 
   -0.49810E+08         0.48299E+05         0.00000E+00
    0.48299E+05        -0.49994E+08         0.00000E+00
    0.00000E+00         0.00000E+00        -0.49961E+08
 
   -0.49812E+08         0.52355E+05         0.00000E+00
    0.52355E+05        -0.49993E+08         0.00000E+00
    0.00000E+00         0.00000E+00        -0.49961E+08
 
   -0.49814E+08         0.56370E+05         0.00000E+00
    0.56370E+05        -0.49992E+08         0.00000E+00
    0.00000E+00         0.00000E+00        -0.49961E+08
 
   -0.49816E+08         0.60340E+05         0.00000E+00
    0.60340E+05        -0.49991E+08         0.00000E+00
    0.00000E+00         0.00000E+00        -0.49962E+08
 
   -0.49819E+08         0.64260E+05         0.00000E+00
    0.64260E+05        -0.49990E+08         0.00000E+00
    0.00000E+00         0.00000E+00        -0.49962E+08
 
   -0.49821E+08         0.68127E+05         0.00000E+00
    0.68127E+05        -0.49989E+08         0.00000E+00
    0.00000E+00         0.00000E+00        -0.49962E+08
 
   -0.49824E+08         0.71938E+05         0.00000E+00
    0.71938E+05        -0.49987E+08         0.00000E+00
    0.00000E+00         0.00000E+00        -0.49962E+08
 
   -0.49826E+08         0.75690E+05         0.00000E+00
    0.75690E+05        -0.49986E+08         0.00000E+00
    0.00000E+00         0.00000E+00        -0.49962E+08
 
   -0.49829E+08         0.79377E+05         0.00000E+00
    0.79377E+05        -0.49984E+08         0.00000E+00
    0.00000E+00         0.00000E+00        -0.49963E+08
 
   -0.49833E+08         0.82999E+05         0.00000E+00
    0.82999E+05        -0.49983E+08         0.00000E+00
    0.00000E+00         0.00000E+00        -0.49963E+08
 
   -0.49836E+08         0.86550E+05         0.00000E+00
    0.86550E+05        -0.49981E+08         0.00000E+00
    0.00000E+00         0.00000E+00        -0.49963E+08
 
   -0.49839E+08         0.90029E+05         0.00000E+00
    0.90029E+05        -0.49979E+08         0.00000E+00
    0.00000E+00         0.00000E+00        -0.49964E+08
 
   -0.49843E+08         0.93431E+05         0.00000E+00
    0.93431E+05        -0.49978E+08         0.00000E+00
    0.00000E+00         0.00000E+00        -0.49964E+08
 
   -0.49846E+08         0.96755E+05         0.00000E+00
    0.96755E+05        -0.49976E+08         0.00000E+00
    0.00000E+00         0.00000E+00        -0.49964E+08
 
   -0.49850E+08         0.99997E+05         0.00000E+00
    0.99997E+05        -0.49974E+08         0.00000E+00
    0.00000E+00         0.00000E+00        -0.49965E+08
 
   -0.49854E+08         0.10315E+06         0.00000E+00
    0.10315E+06        -0.49972E+08         0.00000E+00
    0.00000E+00         0.00000E+00        -0.49965E+08
 
   -0.49858E+08         0.10622E+06         0.00000E+00
    0.10622E+06        -0.49970E+08         0.00000E+00
    0.00000E+00         0.00000E+00        -0.49966E+08
 
   -0.49862E+08         0.10920E+06         0.00000E+00
    0.10920E+06        -0.49968E+08         0.00000E+00
    0.00000E+00         0.00000E+00        -0.49966E+08
 
   -0.49867E+08         0.11209E+06         0.00000E+00
    0.11209E+06        -0.49966E+08         0.00000E+00
    0.00000E+00         0.00000E+00        -0.49966E+08
 
   -0.49871E+08         0.11489E+06         0.00000E+00
    0.11489E+06        -0.49963E+08         0.00000E+00
    0.00000E+00         0.00000E+00        -0.49967E+08
 
   -0.49876E+08         0.11758E+06         0.00000E+00
    0.11758E+06        -0.49961E+08         0.00000E+00
    0.00000E+00         0.00000E+00        -0.49967E+08
 
   -0.49880E+08         0.12018E+06         0.00000E+00
    0.12018E+06        -0.49959E+08         0.00000E+00
    0.00000E+00         0.00000E+00        -0.49968E+08
 
   -0.49885E+08         0.12267E+06         0.00000E+00
    0.12267E+06        -0.49956E+08         0.00000E+00
    0.00000E+00         0.00000E+00        -0.49968E+08
 
   -0.49890E+08         0.12506E+06         0.00000E+00
    0.12506E+06        -0.49954E+08         0.00000E+00
    0.00000E+00         0.00000E+00        -0.49969E+08
 
   -0.49895E+08         0.12735E+06         0.00000E+00
    0.12735E+06        -0.49952E+08         0.00000E+00
    0.00000E+00         0.00000E+00        -0.49969E+08
 
   -0.49900E+08         0.12953E+06         0.00000E+00
    0.12953E+06        -0.49949E+08         0.00000E+00
    0.00000E+00         0.00000E+00        -0.49970E+08
 
   -0.49905E+08         0.13160E+06         0.00000E+00
    0.13160E+06        -0.49947E+08         0.00000E+00
    0.00000E+00         0.00000E+00        -0.49970E+08
 
   -0.49911E+08         0.13355E+06         0.00000E+00
    0.13355E+06        -0.49944E+08         0.00000E+00
    0.00000E+00         0.00000E+00        -0.49971E+08
 
   -0.49916E+08         0.13540E+06         0.00000E+00
    0.13540E+06        -0.49942E+08         0.00000E+00
    0.00000E+00         0.00000E+00        -0.49972E+08
 
   -0.49922E+08         0.13713E+06         0.00000E+00
    0.13713E+06        -0.49939E+08         0.00000E+00
    0.00000E+00         0.00000E+00        -0.49972E+08
 
   -0.49927E+08         0.13874E+06         0.00000E+00
    0.13874E+06        -0.49936E+08         0.00000E+00
    0.00000E+00         0.00000E+00        -0.49973E+08
 
   -0.49933E+08         0.14023E+06         0.00000E+00
    0.14023E+06        -0.49934E+08         0.00000E+00
    0.00000E+00         0.00000E+00        -0.49973E+08
 
   -0.49939E+08         0.14160E+06         0.00000E+00
    0.14160E+06        -0.49931E+08         0.00000E+00
    0.00000E+00         0.00000E+00        -0.49974E+08
 
   -0.49945E+08         0.14285E+06         0.00000E+00
    0.14285E+06        -0.49928E+08         0.00000E+00
    0.00000E+00         0.00000E+00        -0.49975E+08
 
   -0.49951E+08         0.14398E+06         0.00000E+00
    0.14398E+06        -0.49926E+08         0.00000E+00
    0.00000E+00         0.00000E+00        -0.49975E+08
 
   -0.49957E+08         0.14498E+06         0.00000E+00
    0.14498E+06        -0.49923E+08         0.00000E+00
    0.00000E+00         0.00000E+00        -0.49976E+08
 
   -0.49963E+08         0.14586E+06         0.00000E+00
    0.14586E+06        -0.49920E+08         0.00000E+00
    0.00000E+00         0.00000E+00        -0.49977E+08
 
   -0.49969E+08         0.14661E+06         0.00000E+00
    0.14661E+06        -0.49917E+08         0.00000E+00
    0.00000E+00         0.00000E+00        -0.49977E+08
 
   -0.49975E+08         0.14723E+06         0.00000E+00
    0.14723E+06        -0.49915E+08         0.00000E+00
    0.00000E+00         0.00000E+00        -0.49978E+08
 
   -0.49779E+08         0.23312E+04         0.00000E+00
    0.23312E+04        -0.50000E+08         0.00000E+00
    0.00000E+00         0.00000E+00        -0.49956E+08
 
   -0.49779E+08         0.70227E+04         0.00000E+00
    0.70227E+04        -0.50000E+08         0.00000E+00
    0.00000E+00         0.00000E+00        -0.49956E+08
 
   -0.49779E+08         0.11720E+05         0.00000E+00
    0.11720E+05        -0.50000E+08         0.00000E+00
    0.00000E+00         0.00000E+00        -0.49956E+08
 
   -0.49779E+08         0.16418E+05         0.00000E+00
    0.16418E+05        -0.49999E+08         0.00000E+00
    0.00000E+00         0.00000E+00        -0.49956E+08
 
   -0.49780E+08         0.21111E+05         0.00000E+00
    0.21111E+05        -0.49999E+08         0.00000E+00
    0.00000E+00         0.00000E+00        -0.49956E+08
 
   -0.49781E+08         0.25794E+05         0.00000E+00
    0.25794E+05        -0.49999E+08         0.00000E+00
    0.00000E+00         0.00000E+00        -0.49956E+08
 
   -0.49782E+08         0.30463E+05         0.00000E+00
    0.30463E+05        -0.49998E+08         0.00000E+00
    0.00000E+00         0.00000E+00        -0.49956E+08
 
   -0.49783E+08         0.35112E+05         0.00000E+00
    0.35112E+05        -0.49997E+08         0.00000E+00
    0.00000E+00         0.00000E+00        -0.49956E+08
 
   -0.49784E+08         0.39736E+05         0.00000E+00
    0.39736E+05        -0.49997E+08         0.00000E+00
    0.00000E+00         0.00000E+00        -0.49956E+08
 
   -0.49785E+08         0.44331E+05         0.00000E+00
    0.44331E+05        -0.49996E+08         0.00000E+00
    0.00000E+00         0.00000E+00        -0.49956E+08
 
   -0.49787E+08         0.48892E+05         0.00000E+00
    0.48892E+05        -0.49995E+08         0.00000E+00
    0.00000E+00         0.00000E+00        -0.49956E+08
 
   -0.49789E+08         0.53414E+05         0.00000E+00
    0.53414E+05        -0.49994E+08         0.00000E+00
    0.00000E+00         0.00000E+00        -0.49957E+08
 
   -0.49791E+08         0.57893E+05         0.00000E+00
    0.57893E+05        -0.49993E+08         0.00000E+00
    0.00000E+00         0.00000E+00        -0.49957E+08
 
   -0.49793E+08         0.62323E+05         0.00000E+00
    0.62323E+05        -0.49991E+08         0.00000E+00
    0.00000E+00         0.00000E+00        -0.49957E+08
 
   -0.49796E+08         0.66702E+05         0.00000E+00
    0.66702E+05        -0.49990E+08         0.00000E+00
    0.00000E+00         0.00000E+00        -0.49957E+08
 
   -0.49798E+08         0.71025E+05         0.00000E+00
    0.71025E+05        -0.49989E+08         0.00000E+00
    0.00000E+00         0.00000E+00        -0.49957E+08
 
   -0.49801E+08         0.75287E+05         0.00000E+00
    0.75287E+05        -0.49987E+08         0.00000E+00
    0.00000E+00         0.00000E+00        -0.49958E+08
 
   -0.49804E+08         0.79485E+05         0.00000E+00
    0.79485E+05        -0.49986E+08         0.00000E+00
    0.00000E+00         0.00000E+00        -0.49958E+08
 
   -0.49807E+08         0.83615E+05         0.00000E+00
    0.83615E+05        -0.49984E+08         0.00000E+00
    0.00000E+00         0.00000E+00        -0.49958E+08
 
   -0.49810E+08         0.87673E+05         0.00000E+00
    0.87673E+05        -0.49982E+08         0.00000E+00
    0.00000E+00         0.00000E+00        -0.49958E+08
 
   -0.49814E+08         0.91656E+05         0.00000E+00
    0.91656E+05        -0.49980E+08         0.00000E+00
    0.00000E+00         0.00000E+00        -0.49959E+08
 
   -0.49817E+08         0.95559E+05         0.00000E+00
    0.95559E+05        -0.49979E+08         0.00000E+00
    0.00000E+00         0.00000E+00        -0.49959E+08
 
   -0.49821E+08         0.99381E+05         0.00000E+00
    0.99381E+05        -0.49977E+08         0.00000E+00
    0.00000E+00         0.00000E+00        -0.49960E+08
 
   -0.49825E+08         0.10312E+06         0.00000E+00
    0.10312E+06        -0.49975E+08         0.00000E+00
    0.00000E+00         0.00000E+00        -0.49960E+08
 
   -0.49829E+08         0.10676E+06         0.00000E+00
    0.10676E+06        -0.49972E+08         0.00000E+00
    0.00000E+00         0.00000E+00        -0.49960E+08
 
   -0.49833E+08         0.11032E+06         0.00000E+00
    0.11032E+06        -0.49970E+08         0.00000E+00
    0.00000E+00         0.00000E+00        -0.49961E+08
 
   -0.49838E+08         0.11378E+06         0.00000E+00
    0.11378E+06        -0.49968E+08         0.00000E+00
    0.00000E+00         0.00000E+00        -0.49961E+08
 
   -0.49842E+08         0.11714E+06         0.00000E+00
    0.11714E+06        -0.49966E+08         0.00000E+00
    0.00000E+00         0.00000E+00        -0.49962E+08
 
   -0.49847E+08         0.12040E+06         0.00000E+00
    0.12040E+06        -0.49963E+08         0.00000E+00
    0.00000E+00         0.00000E+00        -0.49962E+08
 
   -0.49852E+08         0.12357E+06         0.00000E+00
    0.12357E+06        -0.49961E+08         0.00000E+00
    0.00000E+00         0.00000E+00        -0.49963E+08
 
   -0.49857E+08         0.12662E+06         0.00000E+00
    0.12662E+06        -0.49959E+08         0.00000E+00
    0.00000E+00         0.00000E+00        -0.49963E+08
 
   -0.49862E+08         0.12957E+06         0.00000E+00
    0.12957E+06        -0.49956E+08         0.00000E+00
    0.00000E+00         0.00000E+00        -0.49964E+08
 
   -0.49867E+08         0.13241E+06         0.00000E+00
    0.13241E+06        -0.49954E+08         0.00000E+00
    0.00000E+00         0.00000E+00        -0.49964E+08
 
   -0.49872E+08         0.13513E+06         0.00000E+00
    0.13513E+06        -0.49951E+08         0.00000E+00
    0.00000E+00         0.00000E+00        -0.49965E+08
 
   -0.49878E+08         0.13774E+06         0.00000E+00
    0.13774E+06        -0.49948E+08         0.00000E+00
    0.00000E+00         0.00000E+00        -0.49965E+08
 
   -0.49883E+08         0.14024E+06         0.00000E+00
    0.14024E+06        -0.49946E+08         0.00000E+00
    0.00000E+00         0.00000E+00        -0.49966E+08
 
   -0.49889E+08         0.14262E+06         0.00000E+00
    0.14262E+06        -0.49943E+08         0.00000E+00
    0.00000E+00         0.00000E+00        -0.49966E+08
 
   -0.49895E+08         0.14487E+06         0.00000E+00
    0.14487E+06        -0.49940E+08         0.00000E+00
    0.00000E+00         0.00000E+00        -0.49967E+08
 
   -0.49901E+08         0.14701E+06         0.00000E+00
    0.14701E+06        -0.49937E+08         0.00000E+00
    0.00000E+00         0.00000E+00        -0.49968E+08
 
   -0.49907E+08         0.14902E+06         0.00000E+00
    0.14902E+06        -0.49934E+08         0.00000E+00
    0.00000E+00         0.00000E+00        -0.49968E+08
 
   -0.49913E+08         0.15090E+06         0.00000E+00
    0.15090E+06        -0.49932E+08         0.00000E+00
    0.00000E+00         0.00000E+00        -0.49969E+08
 
   -0.49919E+08         0.15266E+06         0.00000E+00
    0.15266E+06        -0.49929E+08         0.00000E+00
    0.00000E+00         0.00000E+00        -0.49970E+08
 
   -0.49926E+08         0.15429E+06         0.00000E+00
    0.15429E+06        -0.49926E+08         0.00000E+00
    0.00000E+00         0.00000E+00        -0.49970E+08
 
   -0.49932E+08         0.15579E+06         0.00000E+00
    0.15579E+06        -0.49923E+08         0.00000E+00
    0.00000E+00         0.00000E+00        -0.49971E+08
 
   -0.49938E+08         0.15716E+06         0.00000E+00
    0.15716E+06        -0.49920E+08         0.00000E+00
    0.00000E+00         0.00000E+00        -0.49972E+08
 
   -0.49945E+08         0.15839E+06         0.00000E+00
    0.15839E+06        -0.49917E+08         0.00000E+00
    0.00000E+00         0.00000E+00        -0.49972E+08
 
   -0.49952E+08         0.15949E+06         0.00000E+00
    0.15949E+06        -0.49914E+08         0.00000E+00
    0.00000E+00         0.00000E+00        -0.49973E+08
 
   -0.49958E+08         0.16046E+06         0.00000E+00
    0.16046E+06        -0.49911E+08         0.00000E+00
    0.00000E+00         0.00000E+00        -0.49974E+08
 
   -0.49965E+08         0.16128E+06         0.00000E+00
    0.16128E+06        -0.49907E+08         0.00000E+00
    0.00000E+00         0.00000E+00        -0.49975E+08
 
   -0.49972E+08         0.16196E+06         0.00000E+00
    0.16196E+06        -0.49904E+08         0.00000E+00
    0.00000E+00         0.00000E+00        -0.49975E+08
 
   -0.49754E+08         0.25876E+04         0.00000E+00
    0.25876E+04        -0.50000E+08         0.00000E+00
    0.00000E+00         0.00000E+00        -0.49951E+08
 
   -0.49754E+08         0.77958E+04         0.00000E+00
    0.77958E+04        -0.50000E+08         0.00000E+00
    0.00000E+00         0.00000E+00        -0.49951E+08
 
   -0.49754E+08         0.13010E+05         0.00000E+00
    0.13010E+05        -0.50000E+08         0.00000E+00
    0.00000E+00         0.00000E+00        -0.49951E+08
 
   -0.49755E+08         0.18225E+05         0.00000E+00
    0.18225E+05        -0.49999E+08         0.00000E+00
    0.00000E+00         0.00000E+00        -0.49951E+08
 
   -0.49755E+08         0.23433E+05         0.00000E+00
    0.23433E+05        -0.49999E+08         0.00000E+00
    0.00000E+00         0.00000E+00        -0.49951E+08
 
   -0.49756E+08         0.28629E+05         0.00000E+00
    0.28629E+05        -0.49998E+08         0.00000E+00
    0.00000E+00         0.00000E+00        -0.49951E+08
 
   -0.49757E+08         0.33808E+05         0.00000E+00
    0.33808E+05        -0.49998E+08         0.00000E+00
    0.00000E+00         0.00000E+00        -0.49951E+08
 
   -0.49758E+08         0.38962E+05         0.00000E+00
    0.38962E+05        -0.49997E+08         0.00000E+00
    0.00000E+00         0.00000E+00        -0.49951E+08
 
   -0.49760E+08         0.44088E+05         0.00000E+00
    0.44088E+05        -0.49996E+08         0.00000E+00
    0.00000E+00         0.00000E+00        -0.49951E+08
 
   -0.49761E+08         0.49178E+05         0.00000E+00
    0.49178E+05        -0.49995E+08         0.00000E+00
    0.00000E+00         0.00000E+00        -0.49951E+08
 
   -0.49763E+08         0.54228E+05         0.00000E+00
    0.54228E+05        -0.49994E+08         0.00000E+00
    0.00000E+00         0.00000E+00        -0.49951E+08
 
   -0.49765E+08         0.59233E+05         0.00000E+00
    0.59233E+05        -0.49993E+08         0.00000E+00
    0.00000E+00         0.00000E+00        -0.49952E+08
 
   -0.49768E+08         0.64187E+05         0.00000E+00
    0.64187E+05        -0.49992E+08         0.00000E+00
    0.00000E+00         0.00000E+00        -0.49952E+08
 
   -0.49770E+08         0.69085E+05         0.00000E+00
    0.69085E+05        -0.49990E+08         0.00000E+00
    0.00000E+00         0.00000E+00        -0.49952E+08
 
   -0.49773E+08         0.73922E+05         0.00000E+00
    0.73922E+05        -0.49989E+08         0.00000E+00
    0.00000E+00         0.00000E+00        -0.49952E+08
 
   -0.49776E+08         0.78694E+05         0.00000E+00
    0.78694E+05        -0.49987E+08         0.00000E+00
    0.00000E+00         0.00000E+00        -0.49953E+08
 
   -0.49779E+08         0.83397E+05         0.00000E+00
    0.83397E+05        -0.49985E+08         0.00000E+00
    0.00000E+00         0.00000E+00        -0.49953E+08
 
   -0.49782E+08         0.88025E+05         0.00000E+00
    0.88025E+05        -0.49984E+08         0.00000E+00
    0.00000E+00         0.00000E+00        -0.49953E+08
 
   -0.49785E+08         0.92575E+05         0.00000E+00
    0.92575E+05        -0.49982E+08         0.00000E+00
    0.00000E+00         0.00000E+00        -0.49953E+08
 
   -0.49789E+08         0.97042E+05         0.00000E+00
    0.97042E+05        -0.49980E+08         0.00000E+00
    0.00000E+00         0.00000E+00        -0.49954E+08
 
   -0.49793E+08         0.10142E+06         0.00000E+00
    0.10142E+06        -0.49978E+08         0.00000E+00
    0.00000E+00         0.00000E+00        -0.49954E+08
 
   -0.49797E+08         0.10571E+06         0.00000E+00
    0.10571E+06        -0.49976E+08         0.00000E+00
    0.00000E+00         0.00000E+00        -0.49955E+08
 
   -0.49801E+08         0.10991E+06         0.00000E+00
    0.10991E+06        -0.49973E+08         0.00000E+00
    0.00000E+00         0.00000E+00        -0.49955E+08
 
   -0.49806E+08         0.11401E+06         0.00000E+00
    0.11401E+06        -0.49971E+08         0.00000E+00
    0.00000E+00         0.00000E+00        -0.49955E+08
 
   -0.49810E+08         0.11801E+06         0.00000E+00
    0.11801E+06        -0.49969E+08         0.00000E+00
    0.00000E+00         0.00000E+00        -0.49956E+08
 
   -0.49815E+08         0.12191E+06         0.00000E+00
    0.12191E+06        -0.49966E+08         0.00000E+00
    0.00000E+00         0.00000E+00        -0.49956E+08
 
   -0.49820E+08         0.12570E+06         0.00000E+00
    0.12570E+06        -0.49964E+08         0.00000E+00
    0.00000E+00         0.00000E+00        -0.49957E+08
 
   -0.49825E+08         0.12938E+06         0.00000E+00
    0.12938E+06        -0.49961E+08         0.00000E+00
    0.00000E+00         0.00000E+00        -0.49957E+08
 
   -0.49830E+08         0.13295E+06         0.00000E+00
    0.13295E+06        -0.49959E+08         0.00000E+00
    0.00000E+00         0.00000E+00        -0.49958E+08
 
   -0.49835E+08         0.13640E+06         0.00000E+00
    0.13640E+06        -0.49956E+08         0.00000E+00
    0.00000E+00         0.00000E+00        -0.49958E+08
 
   -0.49841E+08         0.13974E+06         0.00000E+00
    0.13974E+06        -0.49953E+08         0.00000E+00
    0.00000E+00         0.00000E+00        -0.49959E+08
 
   -0.49847E+08         0.14296E+06         0.00000E+00
    0.14296E+06        -0.49950E+08         0.00000E+00
    0.00000E+00         0.00000E+00        -0.49959E+08
 
   -0.49852E+08         0.14605E+06         0.00000E+00
    0.14605E+06        -0.49948E+08         0.00000E+00
    0.00000E+00         0.00000E+00        -0.49960E+08
 
   -0.49858E+08         0.14902E+06         0.00000E+00
    0.14902E+06        -0.49945E+08         0.00000E+00
    0.00000E+00         0.00000E+00        -0.49961E+08
 
   -0.49864E+08         0.15187E+06         0.00000E+00
    0.15187E+06        -0.49942E+08         0.00000E+00
    0.00000E+00         0.00000E+00        -0.49961E+08
 
   -0.49871E+08         0.15459E+06         0.00000E+00
    0.15459E+06        -0.49939E+08         0.00000E+00
    0.00000E+00         0.00000E+00        -0.49962E+08
 
   -0.49877E+08         0.15717E+06         0.00000E+00
    0.15717E+06        -0.49936E+08         0.00000E+00
    0.00000E+00         0.00000E+00        -0.49963E+08
 
   -0.49883E+08         0.15963E+06         0.00000E+00
    0.15963E+06        -0.49933E+08         0.00000E+00
    0.00000E+00         0.00000E+00        -0.49963E+08
 
   -0.49890E+08         0.16195E+06         0.00000E+00
    0.16195E+06        -0.49929E+08         0.00000E+00
    0.00000E+00         0.00000E+00        -0.49964E+08
 
   -0.49897E+08         0.16414E+06         0.00000E+00
    0.16414E+06        -0.49926E+08         0.00000E+00
    0.00000E+00         0.00000E+00        -0.49965E+08
 
   -0.49903E+08         0.16620E+06         0.00000E+00
    0.16620E+06        -0.49923E+08         0.00000E+00
    0.00000E+00         0.00000E+00        -0.49965E+08
 
   -0.49910E+08         0.16811E+06         0.00000E+00
    0.16811E+06        -0.49920E+08         0.00000E+00
    0.00000E+00         0.00000E+00        -0.49966E+08
 
   -0.49917E+08         0.16988E+06         0.00000E+00
    0.16988E+06        -0.49917E+08         0.00000E+00
    0.00000E+00         0.00000E+00        -0.49967E+08
 
   -0.49924E+08         0.17152E+06         0.00000E+00
    0.17152E+06        -0.49913E+08         0.00000E+00
    0.00000E+00         0.00000E+00        -0.49968E+08
 
   -0.49932E+08         0.17301E+06         0.00000E+00
    0.17301E+06        -0.49910E+08         0.00000E+00
    0.00000E+00         0.00000E+00        -0.49968E+08
 
   -0.49939E+08         0.17436E+06         0.00000E+00
    0.17436E+06        -0.49907E+08         0.00000E+00
    0.00000E+00         0.00000E+00        -0.49969E+08
 
   -0.49946E+08         0.17556E+06         0.00000E+00
    0.17556E+06        -0.49903E+08         0.00000E+00
    0.00000E+00         0.00000E+00        -0.49970E+08
 
   -0.49954E+08         0.17661E+06         0.00000E+00
    0.17661E+06        -0.49900E+08         0.00000E+00
    0.00000E+00         0.00000E+00        -0.49971E+08
 
   -0.49961E+08         0.17752E+06         0.00000E+00
    0.17752E+06        -0.49897E+08         0.00000E+00
    0.00000E+00         0.00000E+00        -0.49972E+08
 
   -0.49969E+08         0.17827E+06         0.00000E+00
    0.17827E+06        -0.49893E+08         0.00000E+00
    0.00000E+00         0.00000E+00        -0.49972E+08
 
   -0.49727E+08         0.28836E+04         0.00000E+00
    0.28836E+04        -0.50000E+08         0.00000E+00
    0.00000E+00         0.00000E+00        -0.49945E+08
 
   -0.49727E+08         0.86865E+04         0.00000E+00
    0.86865E+04        -0.50000E+08         0.00000E+00
    0.00000E+00         0.00000E+00        -0.49945E+08
 
   -0.49727E+08         0.14495E+05         0.00000E+00
    0.14495E+05        -0.50000E+08         0.00000E+00
    0.00000E+00         0.00000E+00        -0.49945E+08
 
   -0.49727E+08         0.20302E+05         0.00000E+00
    0.20302E+05        -0.49999E+08         0.00000E+00
    0.00000E+00         0.00000E+00        -0.49945E+08
 
   -0.49728E+08         0.26100E+05         0.00000E+00
    0.26100E+05        -0.49999E+08         0.00000E+00
    0.00000E+00         0.00000E+00        -0.49945E+08
 
   -0.49729E+08         0.31883E+05         0.00000E+00
    0.31883E+05        -0.49998E+08         0.00000E+00
    0.00000E+00         0.00000E+00        -0.49945E+08
 
   -0.49730E+08         0.37643E+05         0.00000E+00
    0.37643E+05        -0.49997E+08         0.00000E+00
    0.00000E+00         0.00000E+00        -0.49945E+08
 
   -0.49731E+08         0.43373E+05         0.00000E+00
    0.43373E+05        -0.49996E+08         0.00000E+00
    0.00000E+00         0.00000E+00        -0.49946E+08
 
   -0.49733E+08         0.49067E+05         0.00000E+00
    0.49067E+05        -0.49995E+08         0.00000E+00
    0.00000E+00         0.00000E+00        -0.49946E+08
 
   -0.49735E+08         0.54719E+05         0.00000E+00
    0.54719E+05        -0.49994E+08         0.00000E+00
    0.00000E+00         0.00000E+00        -0.49946E+08
 
   -0.49737E+08         0.60323E+05         0.00000E+00
    0.60323E+05        -0.49993E+08         0.00000E+00
    0.00000E+00         0.00000E+00        -0.49946E+08
 
   -0.49739E+08         0.65871E+05         0.00000E+00
    0.65871E+05        -0.49992E+08         0.00000E+00
    0.00000E+00         0.00000E+00        -0.49946E+08
 
   -0.49742E+08         0.71360E+05         0.00000E+00
    0.71360E+05        -0.49990E+08         0.00000E+00
    0.00000E+00         0.00000E+00        -0.49946E+08
 
   -0.49744E+08         0.76782E+05         0.00000E+00
    0.76782E+05        -0.49989E+08         0.00000E+00
    0.00000E+00         0.00000E+00        -0.49947E+08
 
   -0.49747E+08         0.82132E+05         0.00000E+00
    0.82132E+05        -0.49987E+08         0.00000E+00
    0.00000E+00         0.00000E+00        -0.49947E+08
 
   -0.49751E+08         0.87406E+05         0.00000E+00
    0.87406E+05        -0.49985E+08         0.00000E+00
    0.00000E+00         0.00000E+00        -0.49947E+08
 
   -0.49754E+08         0.92598E+05         0.00000E+00
    0.92598E+05        -0.49983E+08         0.00000E+00
    0.00000E+00         0.00000E+00        -0.49947E+08
 
   -0.49758E+08         0.97704E+05         0.00000E+00
    0.97704E+05        -0.49981E+08         0.00000E+00
    0.00000E+00         0.00000E+00        -0.49948E+08
 
   -0.49762E+08         0.10272E+06         0.00000E+00
    0.10272E+06        -0.49979E+08         0.00000E+00
    0.00000E+00         0.00000E+00        -0.49948E+08
 
   -0.49766E+08         0.10764E+06         0.00000E+00
    0.10764E+06        -0.49977E+08         0.00000E+00
    0.00000E+00         0.00000E+00        -0.49949E+08
 
   -0.49770E+08         0.11246E+06         0.00000E+00
    0.11246E+06        -0.49975E+08         0.00000E+00
    0.00000E+00         0.00000E+00        -0.49949E+08
 
   -0.49775E+08         0.11717E+06         0.00000E+00
    0.11717E+06        -0.49972E+08         0.00000E+00
    0.00000E+00         0.00000E+00        -0.49949E+08
 
   -0.49780E+08         0.12178E+06         0.00000E+00
    0.12178E+06        -0.49970E+08         0.00000E+00
    0.00000E+00         0.00000E+00        -0.49950E+08
 
   -0.49784E+08         0.12628E+06         0.00000E+00
    0.12628E+06        -0.49967E+08         0.00000E+00
    0.00000E+00         0.00000E+00        -0.49950E+08
 
   -0.49790E+08         0.13066E+06         0.00000E+00
    0.13066E+06        -0.49965E+08         0.00000E+00
    0.00000E+00         0.00000E+00        -0.49951E+08
 
   -0.49795E+08         0.13493E+06         0.00000E+00
    0.13493E+06        -0.49962E+08         0.00000E+00
    0.00000E+00         0.00000E+00        -0.49951E+08
 
   -0.49800E+08         0.13907E+06         0.00000E+00
    0.13907E+06        -0.49959E+08         0.00000E+00
    0.00000E+00         0.00000E+00        -0.49952E+08
 
   -0.49806E+08         0.14309E+06         0.00000E+00
    0.14309E+06        -0.49956E+08         0.00000E+00
    0.00000E+00         0.00000E+00        -0.49952E+08
 
   -0.49812E+08         0.14699E+06         0.00000E+00
    0.14699E+06        -0.49953E+08         0.00000E+00
    0.00000E+00         0.00000E+00        -0.49953E+08
 
   -0.49818E+08         0.15075E+06         0.00000E+00
    0.15075E+06        -0.49950E+08         0.00000E+00
    0.00000E+00         0.00000E+00        -0.49954E+08
 
   -0.49824E+08         0.15439E+06         0.00000E+00
    0.15439E+06        -0.49947E+08         0.00000E+00
    0.00000E+00         0.00000E+00        -0.49954E+08
 
   -0.49830E+08         0.15789E+06         0.00000E+00
    0.15789E+06        -0.49944E+08         0.00000E+00
    0.00000E+00         0.00000E+00        -0.49955E+08
 
   -0.49837E+08         0.16126E+06         0.00000E+00
    0.16126E+06        -0.49941E+08         0.00000E+00
    0.00000E+00         0.00000E+00        -0.49955E+08
 
   -0.49843E+08         0.16449E+06         0.00000E+00
    0.16449E+06        -0.49938E+08         0.00000E+00
    0.00000E+00         0.00000E+00        -0.49956E+08
 
   -0.49850E+08         0.16758E+06         0.00000E+00
    0.16758E+06        -0.49934E+08         0.00000E+00
    0.00000E+00         0.00000E+00        -0.49957E+08
 
   -0.49857E+08         0.17054E+06         0.00000E+00
    0.17054E+06        -0.49931E+08         0.00000E+00
    0.00000E+00         0.00000E+00        -0.49958E+08
 
   -0.49864E+08         0.17334E+06         0.00000E+00
    0.17334E+06        -0.49928E+08         0.00000E+00
    0.00000E+00         0.00000E+00        -0.49958E+08
 
   -0.49871E+08         0.17601E+06         0.00000E+00
    0.17601E+06        -0.49924E+08         0.00000E+00
    0.00000E+00         0.00000E+00        -0.49959E+08
 
   -0.49878E+08         0.17853E+06         0.00000E+00
    0.17853E+06        -0.49921E+08         0.00000E+00
    0.00000E+00         0.00000E+00        -0.49960E+08
 
   -0.49886E+08         0.18090E+06         0.00000E+00
    0.18090E+06        -0.49917E+08         0.00000E+00
    0.00000E+00         0.00000E+00        -0.49961E+08
 
   -0.49893E+08         0.18313E+06         0.00000E+00
    0.18313E+06        -0.49914E+08         0.00000E+00
    0.00000E+00         0.00000E+00        -0.49961E+08
 
   -0.49901E+08         0.18520E+06         0.00000E+00
    0.18520E+06        -0.49910E+08         0.00000E+00
    0.00000E+00         0.00000E+00        -0.49962E+08
 
   -0.49908E+08         0.18713E+06         0.00000E+00
    0.18713E+06        -0.49906E+08         0.00000E+00
    0.00000E+00         0.00000E+00        -0.49963E+08
 
   -0.49916E+08         0.18890E+06         0.00000E+00
    0.18890E+06        -0.49903E+08         0.00000E+00
    0.00000E+00         0.00000E+00        -0.49964E+08
 
   -0.49924E+08         0.19052E+06         0.00000E+00
    0.19052E+06        -0.49899E+08         0.00000E+00
    0.00000E+00         0.00000E+00        -0.49965E+08
 
   -0.49932E+08         0.19198E+06         0.00000E+00
    0.19198E+06        -0.49895E+08         0.00000E+00
    0.00000E+00         0.00000E+00        -0.49966E+08
 
   -0.49940E+08         0.19329E+06         0.00000E+00
    0.19329E+06        -0.49892E+08         0.00000E+00
    0.00000E+00         0.00000E+00        -0.49966E+08
 
   -0.49949E+08         0.19444E+06         0.00000E+00
    0.19444E+06        -0.49888E+08         0.00000E+00
    0.00000E+00         0.00000E+00        -0.49967E+08
 
   -0.49957E+08         0.19543E+06         0.00000E+00
    0.19543E+06        -0.49884E+08         0.00000E+00
    0.00000E+00         0.00000E+00        -0.49968E+08
 
   -0.49965E+08         0.19627E+06         0.00000E+00
    0.19627E+06        -0.49881E+08         0.00000E+00
    0.00000E+00         0.00000E+00        -0.49969E+08
 
   -0.49696E+08         0.32274E+04         0.00000E+00
    0.32274E+04        -0.50000E+08         0.00000E+00
    0.00000E+00         0.00000E+00        -0.49939E+08
 
   -0.49696E+08         0.97181E+04         0.00000E+00
    0.97181E+04        -0.50000E+08         0.00000E+00
    0.00000E+00         0.00000E+00        -0.49939E+08
 
   -0.49696E+08         0.16213E+05         0.00000E+00
    0.16213E+05        -0.50000E+08         0.00000E+00
    0.00000E+00         0.00000E+00        -0.49939E+08
 
   -0.49696E+08         0.22702E+05         0.00000E+00
    0.22702E+05        -0.49999E+08         0.00000E+00
    0.00000E+00         0.00000E+00        -0.49939E+08
 
   -0.49697E+08         0.29178E+05         0.00000E+00
    0.29178E+05        -0.49999E+08         0.00000E+00
    0.00000E+00         0.00000E+00        -0.49939E+08
 
   -0.49698E+08         0.35633E+05         0.00000E+00
    0.35633E+05        -0.49998E+08         0.00000E+00
    0.00000E+00         0.00000E+00        -0.49939E+08
 
   -0.49699E+08         0.42058E+05         0.00000E+00
    0.42058E+05        -0.49997E+08         0.00000E+00
    0.00000E+00         0.00000E+00        -0.49939E+08
 
   -0.49701E+08         0.48445E+05         0.00000E+00
    0.48445E+05        -0.49996E+08         0.00000E+00
    0.00000E+00         0.00000E+00        -0.49939E+08
 
   -0.49703E+08         0.54787E+05         0.00000E+00
    0.54787E+05        -0.49995E+08         0.00000E+00
    0.00000E+00         0.00000E+00        -0.49940E+08
 
   -0.49705E+08         0.61076E+05         0.00000E+00
    0.61076E+05        -0.49993E+08         0.00000E+00
    0.00000E+00         0.00000E+00        -0.49940E+08
 
   -0.49707E+08         0.67305E+05         0.00000E+00
    0.67305E+05        -0.49992E+08         0.00000E+00
    0.00000E+00         0.00000E+00        -0.49940E+08
 
   -0.49710E+08         0.73468E+05         0.00000E+00
    0.73468E+05        -0.49990E+08         0.00000E+00
    0.00000E+00         0.00000E+00        -0.49940E+08
 
   -0.49713E+08         0.79557E+05         0.00000E+00
    0.79557E+05        -0.49989E+08         0.00000E+00
    0.00000E+00         0.00000E+00        -0.49940E+08
 
   -0.49716E+08         0.85567E+05         0.00000E+00
    0.85567E+05        -0.49987E+08         0.00000E+00
    0.00000E+00         0.00000E+00        -0.49941E+08
 
   -0.49719E+08         0.91491E+05         0.00000E+00
    0.91491E+05        -0.49985E+08         0.00000E+00
    0.00000E+00         0.00000E+00        -0.49941E+08
 
   -0.49723E+08         0.97324E+05         0.00000E+00
    0.97324E+05        -0.49983E+08         0.00000E+00
    0.00000E+00         0.00000E+00        -0.49941E+08
 
   -0.49727E+08         0.10306E+06         0.00000E+00
    0.10306E+06        -0.49981E+08         0.00000E+00
    0.00000E+00         0.00000E+00        -0.49942E+08
 
   -0.49731E+08         0.10869E+06         0.00000E+00
    0.10869E+06        -0.49979E+08         0.00000E+00
    0.00000E+00         0.00000E+00        -0.49942E+08
 
   -0.49736E+08         0.11422E+06         0.00000E+00
    0.11422E+06        -0.49976E+08         0.00000E+00
    0.00000E+00         0.00000E+00        -0.49942E+08
 
   -0.49740E+08         0.11964E+06         0.00000E+00
    0.11964E+06        -0.49974E+08         0.00000E+00
    0.00000E+00         0.00000E+00        -0.49943E+08
 
   -0.49745E+08         0.12493E+06         0.00000E+00
    0.12493E+06        -0.49971E+08         0.00000E+00
    0.00000E+00         0.00000E+00        -0.49943E+08
 
   -0.49750E+08         0.13011E+06         0.00000E+00
    0.13011E+06        -0.49968E+08         0.00000E+00
    0.00000E+00         0.00000E+00        -0.49944E+08
 
   -0.49756E+08         0.13517E+06         0.00000E+00
    0.13517E+06        -0.49966E+08         0.00000E+00
    0.00000E+00         0.00000E+00        -0.49944E+08
 
   -0.49761E+08         0.14009E+06         0.00000E+00
    0.14009E+06        -0.49963E+08         0.00000E+00
    0.00000E+00         0.00000E+00        -0.49945E+08
 
   -0.49767E+08         0.14489E+06         0.00000E+00
    0.14489E+06        -0.49960E+08         0.00000E+00
    0.00000E+00         0.00000E+00        -0.49945E+08
 
   -0.49773E+08         0.14955E+06         0.00000E+00
    0.14955E+06        -0.49957E+08         0.00000E+00
    0.00000E+00         0.00000E+00        -0.49946E+08
 
   -0.49779E+08         0.15407E+06         0.00000E+00
    0.15407E+06        -0.49953E+08         0.00000E+00
    0.00000E+00         0.00000E+00        -0.49946E+08
 
   -0.49785E+08         0.15846E+06         0.00000E+00
    0.15846E+06        -0.49950E+08         0.00000E+00
    0.00000E+00         0.00000E+00        -0.49947E+08
 
   -0.49792E+08         0.16270E+06         0.00000E+00
    0.16270E+06        -0.49947E+08         0.00000E+00
    0.00000E+00         0.00000E+00        -0.49948E+08
 
   -0.49798E+08         0.16680E+06         0.00000E+00
    0.16680E+06        -0.49944E+08         0.00000E+00
    0.00000E+00         0.00000E+00        -0.49948E+08
 
   -0.49805E+08         0.17075E+06         0.00000E+00
    0.17075E+06        -0.49940E+08         0.00000E+00
    0.00000E+00         0.00000E+00        -0.49949E+08
 
   -0.49812E+08         0.17455E+06         0.00000E+00
    0.17455E+06        -0.49937E+08         0.00000E+00
    0.00000E+00         0.00000E+00        -0.49950E+08
 
   -0.49819E+08         0.17820E+06         0.00000E+00
    0.17820E+06        -0.49933E+08         0.00000E+00
    0.00000E+00         0.00000E+00        -0.49951E+08
 
   -0.49827E+08         0.18170E+06         0.00000E+00
    0.18170E+06        -0.49930E+08         0.00000E+00
    0.00000E+00         0.00000E+00        -0.49951E+08
 
   -0.49834E+08         0.18504E+06         0.00000E+00
    0.18504E+06        -0.49926E+08         0.00000E+00
    0.00000E+00         0.00000E+00        -0.49952E+08
 
   -0.49842E+08         0.18824E+06         0.00000E+00
    0.18824E+06        -0.49922E+08         0.00000E+00
    0.00000E+00         0.00000E+00        -0.49953E+08
 
   -0.49850E+08         0.19127E+06         0.00000E+00
    0.19127E+06        -0.49918E+08         0.00000E+00
    0.00000E+00         0.00000E+00        -0.49954E+08
 
   -0.49857E+08         0.19415E+06         0.00000E+00
    0.19415E+06        -0.49915E+08         0.00000E+00
    0.00000E+00         0.00000E+00        -0.49954E+08
 
   -0.49866E+08         0.19687E+06         0.00000E+00
    0.19687E+06        -0.49911E+08         0.00000E+00
    0.00000E+00         0.00000E+00        -0.49955E+08
 
   -0.49874E+08         0.19943E+06         0.00000E+00
    0.19943E+06        -0.49907E+08         0.00000E+00
    0.00000E+00         0.00000E+00        -0.49956E+08
 
   -0.49882E+08         0.20183E+06         0.00000E+00
    0.20183E+06        -0.49903E+08         0.00000E+00
    0.00000E+00         0.00000E+00        -0.49957E+08
 
   -0.49890E+08         0.20407E+06         0.00000E+00
    0.20407E+06        -0.49899E+08         0.00000E+00
    0.00000E+00         0.00000E+00        -0.49958E+08
 
   -0.49899E+08         0.20614E+06         0.00000E+00
    0.20614E+06        -0.49895E+08         0.00000E+00
    0.00000E+00         0.00000E+00        -0.49959E+08
 
   -0.49907E+08         0.20805E+06         0.00000E+00
    0.20805E+06        -0.49891E+08         0.00000E+00
    0.00000E+00         0.00000E+00        -0.49960E+08
 
   -0.49916E+08         0.20980E+06         0.00000E+00
    0.20980E+06        -0.49887E+08         0.00000E+00
    0.00000E+00         0.00000E+00        -0.49961E+08
 
   -0.49925E+08         0.21139E+06         0.00000E+00
    0.21139E+06        -0.49883E+08         0.00000E+00
    0.00000E+00         0.00000E+00        -0.49962E+08
 
   -0.49934E+08         0.21281E+06         0.00000E+00
    0.21281E+06        -0.49879E+08         0.00000E+00
    0.00000E+00         0.00000E+00        -0.49963E+08
 
   -0.49943E+08         0.21406E+06         0.00000E+00
    0.21406E+06        -0.49875E+08         0.00000E+00
    0.00000E+00         0.00000E+00        -0.49964E+08
 
   -0.49952E+08         0.21514E+06         0.00000E+00
    0.21514E+06        -0.49871E+08         0.00000E+00
    0.00000E+00         0.00000E+00        -0.49965E+08
 
   -0.49961E+08         0.21606E+06         0.00000E+00
    0.21606E+06        -0.49867E+08         0.00000E+00
    0.00000E+00         0.00000E+00        -0.49966E+08
 
   -0.49662E+08         0.36292E+04         0.00000E+00
    0.36292E+04        -0.50000E+08         0.00000E+00
    0.00000E+00         0.00000E+00        -0.49932E+08
 
   -0.49662E+08         0.10919E+05         0.00000E+00
    0.10919E+05        -0.50000E+08         0.00000E+00
    0.00000E+00         0.00000E+00        -0.49932E+08
 
   -0.49662E+08         0.18209E+05         0.00000E+00
    0.18209E+05        -0.50000E+08         0.00000E+00
    0.00000E+00         0.00000E+00        -0.49932E+08
 
   -0.49662E+08         0.25488E+05         0.00000E+00
    0.25488E+05        -0.49999E+08         0.00000E+00
    0.00000E+00         0.00000E+00        -0.49932E+08
 
   -0.49663E+08         0.32746E+05         0.00000E+00
    0.32746E+05        -0.49998E+08         0.00000E+00
    0.00000E+00         0.00000E+00        -0.49932E+08
 
   -0.49664E+08         0.39973E+05         0.00000E+00
    0.39973E+05        -0.49997E+08         0.00000E+00
    0.00000E+00         0.00000E+00        -0.49932E+08
 
   -0.49665E+08         0.47160E+05         0.00000E+00
    0.47160E+05        -0.49996E+08         0.00000E+00
    0.00000E+00         0.00000E+00        -0.49932E+08
 
   -0.49667E+08         0.54298E+05         0.00000E+00
    0.54298E+05        -0.49995E+08         0.00000E+00
    0.00000E+00         0.00000E+00        -0.49933E+08
 
   -0.49669E+08         0.61378E+05         0.00000E+00
    0.61378E+05        -0.49994E+08         0.00000E+00
    0.00000E+00         0.00000E+00        -0.49933E+08
 
   -0.49672E+08         0.68391E+05         0.00000E+00
    0.68391E+05        -0.49992E+08         0.00000E+00
    0.00000E+00         0.00000E+00        -0.49933E+08
 
   -0.49675E+08         0.75330E+05         0.00000E+00
    0.75330E+05        -0.49991E+08         0.00000E+00
    0.00000E+00         0.00000E+00        -0.49933E+08
 
   -0.49678E+08         0.82185E+05         0.00000E+00
    0.82185E+05        -0.49989E+08         0.00000E+00
    0.00000E+00         0.00000E+00        -0.49933E+08
 
   -0.49681E+08         0.88951E+05         0.00000E+00
    0.88951E+05        -0.49987E+08         0.00000E+00
    0.00000E+00         0.00000E+00        -0.49934E+08
 
   -0.49685E+08         0.95619E+05         0.00000E+00
    0.95619E+05        -0.49985E+08         0.00000E+00
    0.00000E+00         0.00000E+00        -0.49934E+08
 
   -0.49689E+08         0.10218E+06         0.00000E+00
    0.10218E+06        -0.49983E+08         0.00000E+00
    0.00000E+00         0.00000E+00        -0.49934E+08
 
   -0.49693E+08         0.10864E+06         0.00000E+00
    0.10864E+06        -0.49980E+08         0.00000E+00
    0.00000E+00         0.00000E+00        -0.49935E+08
 
   -0.49697E+08         0.11498E+06         0.00000E+00
    0.11498E+06        -0.49978E+08         0.00000E+00
    0.00000E+00         0.00000E+00        -0.49935E+08
 
   -0.49702E+08         0.12119E+06         0.00000E+00
    0.12119E+06        -0.49975E+08         0.00000E+00
    0.00000E+00         0.00000E+00        -0.49935E+08
 
   -0.49707E+08         0.12728E+06         0.00000E+00
    0.12728E+06        -0.49973E+08         0.00000E+00
    0.00000E+00         0.00000E+00        -0.49936E+08
 
   -0.49712E+08         0.13324E+06         0.00000E+00
    0.13324E+06        -0.49970E+08         0.00000E+00
    0.00000E+00         0.00000E+00        -0.49936E+08
 
   -0.49718E+08         0.13906E+06         0.00000E+00
    0.13906E+06        -0.49967E+08         0.00000E+00
    0.00000E+00         0.00000E+00        -0.49937E+08
 
   -0.49724E+08         0.14474E+06         0.00000E+00
    0.14474E+06        -0.49964E+08         0.00000E+00
    0.00000E+00         0.00000E+00        -0.49937E+08
 
   -0.49730E+08         0.15028E+06         0.00000E+00
    0.15028E+06        -0.49961E+08         0.00000E+00
    0.00000E+00         0.00000E+00        -0.49938E+08
 
   -0.49736E+08         0.15566E+06         0.00000E+00
    0.15566E+06        -0.49957E+08         0.00000E+00
    0.00000E+00         0.00000E+00        -0.49939E+08
 
   -0.49742E+08         0.16090E+06         0.00000E+00
    0.16090E+06        -0.49954E+08         0.00000E+00
    0.00000E+00         0.00000E+00        -0.49939E+08
 
   -0.49749E+08         0.16598E+06         0.00000E+00
    0.16598E+06        -0.49951E+08         0.00000E+00
    0.00000E+00         0.00000E+00        -0.49940E+08
 
   -0.49756E+08         0.17090E+06         0.00000E+00
    0.17090E+06        -0.49947E+08         0.00000E+00
    0.00000E+00         0.00000E+00        -0.49941E+08
 
   -0.49763E+08         0.17567E+06         0.00000E+00
    0.17567E+06        -0.49943E+08         0.00000E+00
    0.00000E+00         0.00000E+00        -0.49941E+08
 
   -0.49770E+08         0.18027E+06         0.00000E+00
    0.18027E+06        -0.49940E+08         0.00000E+00
    0.00000E+00         0.00000E+00        -0.49942E+08
 
   -0.49778E+08         0.18471E+06         0.00000E+00
    0.18471E+06        -0.49936E+08         0.00000E+00
    0.00000E+00         0.00000E+00        -0.49943E+08
 
   -0.49785E+08         0.18899E+06         0.00000E+00
    0.18899E+06        -0.49932E+08         0.00000E+00
    0.00000E+00         0.00000E+00        -0.49943E+08
 
   -0.49793E+08         0.19310E+06         0.00000E+00
    0.19310E+06        -0.49928E+08         0.00000E+00
    0.00000E+00         0.00000E+00        -0.49944E+08
 
   -0.49801E+08         0.19704E+06         0.00000E+00
    0.19704E+06        -0.49924E+08         0.00000E+00
    0.00000E+00         0.00000E+00        -0.49945E+08
 
   -0.49809E+08         0.20081E+06         0.00000E+00
    0.20081E+06        -0.49920E+08         0.00000E+00
    0.00000E+00         0.00000E+00        -0.49946E+08
 
   -0.49817E+08         0.20441E+06         0.00000E+00
    0.20441E+06        -0.49916E+08         0.00000E+00
    0.00000E+00         0.00000E+00        -0.49947E+08
 
   -0.49826E+08         0.20784E+06         0.00000E+00
    0.20784E+06        -0.49912E+08         0.00000E+00
    0.00000E+00         0.00000E+00        -0.49948E+08
 
   -0.49834E+08         0.21110E+06         0.00000E+00
    0.21110E+06        -0.49908E+08         0.00000E+00
    0.00000E+00         0.00000E+00        -0.49948E+08
 
   -0.49843E+08         0.21419E+06         0.00000E+00
    0.21419E+06        -0.49904E+08         0.00000E+00
    0.00000E+00         0.00000E+00        -0.49949E+08
 
   -0.49852E+08         0.21711E+06         0.00000E+00
    0.21711E+06        -0.49900E+08         0.00000E+00
    0.00000E+00         0.00000E+00        -0.49950E+08
 
   -0.49861E+08         0.21985E+06         0.00000E+00
    0.21985E+06        -0.49895E+08         0.00000E+00
    0.00000E+00         0.00000E+00        -0.49951E+08
 
   -0.49870E+08         0.22243E+06         0.00000E+00
    0.22243E+06        -0.49891E+08         0.00000E+00
    0.00000E+00         0.00000E+00        -0.49952E+08
 
   -0.49879E+08         0.22482E+06         0.00000E+00
    0.22482E+06        -0.49887E+08         0.00000E+00
    0.00000E+00         0.00000E+00        -0.49953E+08
 
   -0.49889E+08         0.22705E+06         0.00000E+00
    0.22705E+06        -0.49882E+08         0.00000E+00
    0.00000E+00         0.00000E+00        -0.49954E+08
 
   -0.49898E+08         0.22910E+06         0.00000E+00
    0.22910E+06        -0.49878E+08         0.00000E+00
    0.00000E+00         0.00000E+00        -0.49955E+08
 
   -0.49908E+08         0.23098E+06         0.00000E+00
    0.23098E+06        -0.49874E+08         0.00000E+00
    0.00000E+00         0.00000E+00        -0.49956E+08
 
   -0.49917E+08         0.23268E+06         0.00000E+00
    0.23268E+06        -0.49869E+08         0.00000E+00
    0.00000E+00         0.00000E+00        -0.49957E+08
 
   -0.49927E+08         0.23421E+06         0.00000E+00
    0.23421E+06        -0.49865E+08         0.00000E+00
    0.00000E+00         0.00000E+00        -0.49958E+08
 
   -0.49937E+08         0.23556E+06         0.00000E+00
    0.23556E+06        -0.49860E+08         0.00000E+00
    0.00000E+00         0.00000E+00        -0.49959E+08
 
   -0.49947E+08         0.23674E+06         0.00000E+00
    0.23674E+06        -0.49856E+08         0.00000E+00
    0.00000E+00         0.00000E+00        -0.49961E+08
 
   -0.49957E+08         0.23774E+06         0.00000E+00
    0.23774E+06        -0.49851E+08         0.00000E+00
    0.00000E+00         0.00000E+00        -0.49962E+08
 
   -0.49623E+08         0.41014E+04         0.00000E+00
    0.41014E+04        -0.50000E+08         0.00000E+00
    0.00000E+00         0.00000E+00        -0.49925E+08
 
   -0.49623E+08         0.12324E+05         0.00000E+00
    0.12324E+05        -0.50000E+08         0.00000E+00
    0.00000E+00         0.00000E+00        -0.49925E+08
 
   -0.49623E+08         0.20539E+05         0.00000E+00
    0.20539E+05        -0.49999E+08         0.00000E+00
    0.00000E+00         0.00000E+00        -0.49924E+08
 
   -0.49624E+08         0.28734E+05         0.00000E+00
    0.28734E+05        -0.49999E+08         0.00000E+00
    0.00000E+00         0.00000E+00        -0.49924E+08
 
   -0.49624E+08         0.36897E+05         0.00000E+00
    0.36897E+05        -0.49998E+08         0.00000E+00
    0.00000E+00         0.00000E+00        -0.49925E+08
 
   -0.49626E+08         0.45015E+05         0.00000E+00
    0.45015E+05        -0.49997E+08         0.00000E+00
    0.00000E+00         0.00000E+00        -0.49925E+08
 
   -0.49628E+08         0.53079E+05         0.00000E+00
    0.53079E+05        -0.49996E+08         0.00000E+00
    0.00000E+00         0.00000E+00        -0.49925E+08
 
   -0.49630E+08         0.61077E+05         0.00000E+00
    0.61077E+05        -0.49995E+08         0.00000E+00
    0.00000E+00         0.00000E+00        -0.49925E+08
 
   -0.49632E+08         0.68999E+05         0.00000E+00
    0.68999E+05        -0.49993E+08         0.00000E+00
    0.00000E+00         0.00000E+00        -0.49925E+08
 
   -0.49635E+08         0.76835E+05         0.00000E+00
    0.76835E+05        -0.49991E+08         0.00000E+00
    0.00000E+00         0.00000E+00        -0.49925E+08
 
   -0.49638E+08         0.84577E+05         0.00000E+00
    0.84577E+05        -0.49989E+08         0.00000E+00
    0.00000E+00         0.00000E+00        -0.49925E+08
 
   -0.49642E+08         0.92214E+05         0.00000E+00
    0.92214E+05        -0.49987E+08         0.00000E+00
    0.00000E+00         0.00000E+00        -0.49926E+08
 
   -0.49646E+08         0.99740E+05         0.00000E+00
    0.99740E+05        -0.49985E+08         0.00000E+00
    0.00000E+00         0.00000E+00        -0.49926E+08
 
   -0.49650E+08         0.10715E+06         0.00000E+00
    0.10715E+06        -0.49983E+08         0.00000E+00
    0.00000E+00         0.00000E+00        -0.49926E+08
 
   -0.49654E+08         0.11442E+06         0.00000E+00
    0.11442E+06        -0.49980E+08         0.00000E+00
    0.00000E+00         0.00000E+00        -0.49927E+08
 
   -0.49659E+08         0.12157E+06         0.00000E+00
    0.12157E+06        -0.49977E+08         0.00000E+00
    0.00000E+00         0.00000E+00        -0.49927E+08
 
   -0.49664E+08         0.12857E+06         0.00000E+00
    0.12857E+06        -0.49975E+08         0.00000E+00
    0.00000E+00         0.00000E+00        -0.49928E+08
 
   -0.49670E+08         0.13543E+06         0.00000E+00
    0.13543E+06        -0.49972E+08         0.00000E+00
    0.00000E+00         0.00000E+00        -0.49928E+08
 
   -0.49675E+08         0.14213E+06         0.00000E+00
    0.14213E+06        -0.49968E+08         0.00000E+00
    0.00000E+00         0.00000E+00        -0.49929E+08
 
   -0.49681E+08         0.14868E+06         0.00000E+00
    0.14868E+06        -0.49965E+08         0.00000E+00
    0.00000E+00         0.00000E+00        -0.49929E+08
 
   -0.49688E+08         0.15507E+06         0.00000E+00
    0.15507E+06        -0.49962E+08         0.00000E+00
    0.00000E+00         0.00000E+00        -0.49930E+08
 
   -0.49694E+08         0.16129E+06         0.00000E+00
    0.16129E+06        -0.49958E+08         0.00000E+00
    0.00000E+00         0.00000E+00        -0.49931E+08
 
   -0.49701E+08         0.16734E+06         0.00000E+00
    0.16734E+06        -0.49955E+08         0.00000E+00
    0.00000E+00         0.00000E+00        -0.49931E+08
 
   -0.49708E+08         0.17321E+06         0.00000E+00
    0.17321E+06        -0.49951E+08         0.00000E+00
    0.00000E+00         0.00000E+00        -0.49932E+08
 
   -0.49715E+08         0.17891E+06         0.00000E+00
    0.17891E+06        -0.49947E+08         0.00000E+00
    0.00000E+00         0.00000E+00        -0.49933E+08
 
   -0.49723E+08         0.18444E+06         0.00000E+00
    0.18444E+06        -0.49944E+08         0.00000E+00
    0.00000E+00         0.00000E+00        -0.49933E+08
 
   -0.49731E+08         0.18978E+06         0.00000E+00
    0.18978E+06        -0.49940E+08         0.00000E+00
    0.00000E+00         0.00000E+00        -0.49934E+08
 
   -0.49738E+08         0.19494E+06         0.00000E+00
    0.19494E+06        -0.49936E+08         0.00000E+00
    0.00000E+00         0.00000E+00        -0.49935E+08
 
   -0.49747E+08         0.19991E+06         0.00000E+00
    0.19991E+06        -0.49931E+08         0.00000E+00
    0.00000E+00         0.00000E+00        -0.49936E+08
 
   -0.49755E+08         0.20470E+06         0.00000E+00
    0.20470E+06        -0.49927E+08         0.00000E+00
    0.00000E+00         0.00000E+00        -0.49936E+08
 
   -0.49763E+08         0.20931E+06         0.00000E+00
    0.20931E+06        -0.49923E+08         0.00000E+00
    0.00000E+00         0.00000E+00        -0.49937E+08
 
   -0.49772E+08         0.21372E+06         0.00000E+00
    0.21372E+06        -0.49919E+08         0.00000E+00
    0.00000E+00         0.00000E+00        -0.49938E+08
 
   -0.49781E+08         0.21795E+06         0.00000E+00
    0.21795E+06        -0.49914E+08         0.00000E+00
    0.00000E+00         0.00000E+00        -0.49939E+08
 
   -0.49790E+08         0.22200E+06         0.00000E+00
    0.22200E+06        -0.49910E+08         0.00000E+00
    0.00000E+00         0.00000E+00        -0.49940E+08
 
   -0.49799E+08         0.22585E+06         0.00000E+00
    0.22585E+06        -0.49905E+08         0.00000E+00
    0.00000E+00         0.00000E+00        -0.49941E+08
 
   -0.49808E+08         0.22951E+06         0.00000E+00
    0.22951E+06        -0.49901E+08         0.00000E+00
    0.00000E+00         0.00000E+00        -0.49942E+08
 
   -0.49818E+08         0.23299E+06         0.00000E+00
    0.23299E+06        -0.49896E+08         0.00000E+00
    0.00000E+00         0.00000E+00        -0.49943E+08
 
   -0.49827E+08         0.23628E+06         0.00000E+00
    0.23628E+06        -0.49892E+08         0.00000E+00
    0.00000E+00         0.00000E+00        -0.49944E+08
 
   -0.49837E+08         0.23939E+06         0.00000E+00
    0.23939E+06        -0.49887E+08         0.00000E+00
    0.00000E+00         0.00000E+00        -0.49945E+08
 
   -0.49847E+08         0.24231E+06         0.00000E+00
    0.24231E+06        -0.49882E+08         0.00000E+00
    0.00000E+00         0.00000E+00        -0.49946E+08
 
   -0.49857E+08         0.24504E+06         0.00000E+00
    0.24504E+06        -0.49878E+08         0.00000E+00
    0.00000E+00         0.00000E+00        -0.49947E+08
 
   -0.49867E+08         0.24759E+06         0.00000E+00
    0.24759E+06        -0.49873E+08         0.00000E+00
    0.00000E+00         0.00000E+00        -0.49948E+08
 
   -0.49877E+08         0.24996E+06         0.00000E+00
    0.24996E+06        -0.49868E+08         0.00000E+00
    0.00000E+00         0.00000E+00        -0.49949E+08
 
   -0.49888E+08         0.25214E+06         0.00000E+00
    0.25214E+06        -0.49863E+08         0.00000E+00
    0.00000E+00         0.00000E+00        -0.49950E+08
 
   -0.49898E+08         0.25414E+06         0.00000E+00
    0.25414E+06        -0.49858E+08         0.00000E+00
    0.00000E+00         0.00000E+00        -0.49951E+08
 
   -0.49909E+08         0.25595E+06         0.00000E+00
    0.25595E+06        -0.49854E+08         0.00000E+00
    0.00000E+00         0.00000E+00        -0.49953E+08
 
   -0.49920E+08         0.25759E+06         0.00000E+00
    0.25759E+06        -0.49849E+08         0.00000E+00
    0.00000E+00         0.00000E+00        -0.49954E+08
 
   -0.49930E+08         0.25904E+06         0.00000E+00
    0.25904E+06        -0.49844E+08         0.00000E+00
    0.00000E+00         0.00000E+00        -0.49955E+08
 
   -0.49941E+08         0.26031E+06         0.00000E+00
    0.26031E+06        -0.49839E+08         0.00000E+00
    0.00000E+00         0.00000E+00        -0.49956E+08
 
   -0.49952E+08         0.26140E+06         0.00000E+00
    0.26140E+06        -0.49834E+08         0.00000E+00
    0.00000E+00         0.00000E+00        -0.49957E+08
 
   -0.49579E+08         0.46589E+04         0.00000E+00
    0.46589E+04        -0.50000E+08         0.00000E+00
    0.00000E+00         0.00000E+00        -0.49916E+08
 
   -0.49579E+08         0.13975E+05         0.00000E+00
    0.13975E+05        -0.50000E+08         0.00000E+00
    0.00000E+00         0.00000E+00        -0.49916E+08
 
   -0.49579E+08         0.23271E+05         0.00000E+00
    0.23271E+05        -0.49999E+08         0.00000E+00
    0.00000E+00         0.00000E+00        -0.49916E+08
 
   -0.49580E+08         0.32532E+05         0.00000E+00
    0.32532E+05        -0.49999E+08         0.00000E+00
    0.00000E+00         0.00000E+00        -0.49916E+08
 
   -0.49581E+08         0.41743E+05         0.00000E+00
    0.41743E+05        -0.49998E+08         0.00000E+00
    0.00000E+00         0.00000E+00        -0.49916E+08
 
   -0.49583E+08         0.50891E+05         0.00000E+00
    0.50891E+05        -0.49997E+08         0.00000E+00
    0.00000E+00         0.00000E+00        -0.49916E+08
 
   -0.49585E+08         0.59964E+05         0.00000E+00
    0.59964E+05        -0.49995E+08         0.00000E+00
    0.00000E+00         0.00000E+00        -0.49916E+08
 
   -0.49587E+08         0.68948E+05         0.00000E+00
    0.68948E+05        -0.49994E+08         0.00000E+00
    0.00000E+00         0.00000E+00        -0.49916E+08
 
   -0.49590E+08         0.77832E+05         0.00000E+00
    0.77832E+05        -0.49992E+08         0.00000E+00
    0.00000E+00         0.00000E+00        -0.49916E+08
 
   -0.49594E+08         0.86605E+05         0.00000E+00
    0.86605E+05        -0.49990E+08         0.00000E+00
    0.00000E+00         0.00000E+00        -0.49917E+08
 
   -0.49597E+08         0.95256E+05         0.00000E+00
    0.95256E+05        -0.49988E+08         0.00000E+00
    0.00000E+00         0.00000E+00        -0.49917E+08
 
   -0.49602E+08         0.10378E+06         0.00000E+00
    0.10378E+06        -0.49985E+08         0.00000E+00
    0.00000E+00         0.00000E+00        -0.49917E+08
 
   -0.49606E+08         0.11215E+06         0.00000E+00
    0.11215E+06        -0.49983E+08         0.00000E+00
    0.00000E+00         0.00000E+00        -0.49918E+08
 
   -0.49611E+08         0.12038E+06         0.00000E+00
    0.12038E+06        -0.49980E+08         0.00000E+00
    0.00000E+00         0.00000E+00        -0.49918E+08
 
   -0.49616E+08         0.12846E+06         0.00000E+00
    0.12846E+06        -0.49977E+08         0.00000E+00
    0.00000E+00         0.00000E+00        -0.49919E+08
 
   -0.49622E+08         0.13636E+06         0.00000E+00
    0.13636E+06        -0.49974E+08         0.00000E+00
    0.00000E+00         0.00000E+00        -0.49919E+08
 
   -0.49628E+08         0.14410E+06         0.00000E+00
    0.14410E+06        -0.49971E+08         0.00000E+00
    0.00000E+00         0.00000E+00        -0.49920E+08
 
   -0.49634E+08         0.15166E+06         0.00000E+00
    0.15166E+06        -0.49967E+08         0.00000E+00
    0.00000E+00         0.00000E+00        -0.49920E+08
 
   -0.49641E+08         0.15903E+06         0.00000E+00
    0.15903E+06        -0.49964E+08         0.00000E+00
    0.00000E+00         0.00000E+00        -0.49921E+08
 
   -0.49648E+08         0.16622E+06         0.00000E+00
    0.16622E+06        -0.49960E+08         0.00000E+00
    0.00000E+00         0.00000E+00        -0.49922E+08
 
   -0.49655E+08         0.17321E+06         0.00000E+00
    0.17321E+06        -0.49956E+08         0.00000E+00
    0.00000E+00         0.00000E+00        -0.49922E+08
 
   -0.49662E+08         0.18001E+06         0.00000E+00
    0.18001E+06        -0.49952E+08         0.00000E+00
    0.00000E+00         0.00000E+00        -0.49923E+08
 
   -0.49670E+08         0.18660E+06         0.00000E+00
    0.18660E+06        -0.49948E+08         0.00000E+00
    0.00000E+00         0.00000E+00        -0.49924E+08
 
   -0.49678E+08         0.19299E+06         0.00000E+00
    0.19299E+06        -0.49944E+08         0.00000E+00
    0.00000E+00         0.00000E+00        -0.49924E+08
 
   -0.49686E+08         0.19918E+06         0.00000E+00
    0.19918E+06        -0.49940E+08         0.00000E+00
    0.00000E+00         0.00000E+00        -0.49925E+08
 
   -0.49695E+08         0.20516E+06         0.00000E+00
    0.20516E+06        -0.49935E+08         0.00000E+00
    0.00000E+00         0.00000E+00        -0.49926E+08
 
   -0.49703E+08         0.21093E+06         0.00000E+00
    0.21093E+06        -0.49931E+08         0.00000E+00
    0.00000E+00         0.00000E+00        -0.49927E+08
 
   -0.49712E+08         0.21649E+06         0.00000E+00
    0.21649E+06        -0.49927E+08         0.00000E+00
    0.00000E+00         0.00000E+00        -0.49928E+08
 
   -0.49721E+08         0.22184E+06         0.00000E+00
    0.22184E+06        -0.49922E+08         0.00000E+00
    0.00000E+00         0.00000E+00        -0.49929E+08
 
   -0.49731E+08         0.22698E+06         0.00000E+00
    0.22698E+06        -0.49917E+08         0.00000E+00
    0.00000E+00         0.00000E+00        -0.49930E+08
 
   -0.49740E+08         0.23191E+06         0.00000E+00
    0.23191E+06        -0.49913E+08         0.00000E+00
    0.00000E+00         0.00000E+00        -0.49931E+08
 
   -0.49750E+08         0.23663E+06         0.00000E+00
    0.23663E+06        -0.49908E+08         0.00000E+00
    0.00000E+00         0.00000E+00        -0.49931E+08
 
   -0.49760E+08         0.24113E+06         0.00000E+00
    0.24113E+06        -0.49903E+08         0.00000E+00
    0.00000E+00         0.00000E+00        -0.49932E+08
 
   -0.49770E+08         0.24543E+06         0.00000E+00
    0.24543E+06        -0.49898E+08         0.00000E+00
    0.00000E+00         0.00000E+00        -0.49934E+08
 
   -0.49780E+08         0.24952E+06         0.00000E+00
    0.24952E+06        -0.49893E+08         0.00000E+00
    0.00000E+00         0.00000E+00        -0.49935E+08
 
   -0.49790E+08         0.25341E+06         0.00000E+00
    0.25341E+06        -0.49888E+08         0.00000E+00
    0.00000E+00         0.00000E+00        -0.49936E+08
 
   -0.49800E+08         0.25709E+06         0.00000E+00
    0.25709E+06        -0.49883E+08         0.00000E+00
    0.00000E+00         0.00000E+00        -0.49937E+08
 
   -0.49811E+08         0.26056E+06         0.00000E+00
    0.26056E+06        -0.49878E+08         0.00000E+00
    0.00000E+00         0.00000E+00        -0.49938E+08
 
   -0.49822E+08         0.26383E+06         0.00000E+00
    0.26383E+06        -0.49873E+08         0.00000E+00
    0.00000E+00         0.00000E+00        -0.49939E+08
 
   -0.49833E+08         0.26691E+06         0.00000E+00
    0.26691E+06        -0.49868E+08         0.00000E+00
    0.00000E+00         0.00000E+00        -0.49940E+08
 
   -0.49844E+08         0.26978E+06         0.00000E+00
    0.26978E+06        -0.49863E+08         0.00000E+00
    0.00000E+00         0.00000E+00        -0.49941E+08
 
   -0.49855E+08         0.27247E+06         0.00000E+00
    0.27247E+06        -0.49857E+08         0.00000E+00
    0.00000E+00         0.00000E+00        -0.49942E+08
 
   -0.49866E+08         0.27495E+06         0.00000E+00
    0.27495E+06        -0.49852E+08         0.00000E+00
    0.00000E+00         0.00000E+00        -0.49944E+08
 
   -0.49877E+08         0.27725E+06         0.00000E+00
    0.27725E+06        -0.49847E+08         0.00000E+00
    0.00000E+00         0.00000E+00        -0.49945E+08
 
   -0.49889E+08         0.27935E+06         0.00000E+00
    0.27935E+06        -0.49842E+08         0.00000E+00
    0.00000E+00         0.00000E+00        -0.49946E+08
 
   -0.49900E+08         0.28127E+06         0.00000E+00
    0.28127E+06        -0.49836E+08         0.00000E+00
    0.00000E+00         0.00000E+00        -0.49947E+08
 
   -0.49912E+08         0.28299E+06         0.00000E+00
    0.28299E+06        -0.49831E+08         0.00000E+00
    0.00000E+00         0.00000E+00        -0.49949E+08
 
   -0.49923E+08         0.28454E+06         0.00000E+00
    0.28454E+06        -0.49826E+08         0.00000E+00
    0.00000E+00         0.00000E+00        -0.49950E+08
 
   -0.49935E+08         0.28589E+06         0.00000E+00
    0.28589E+06        -0.49821E+08         0.00000E+00
    0.00000E+00         0.00000E+00        -0.49951E+08
 
   -0.49947E+08         0.28707E+06         0.00000E+00
    0.28707E+06        -0.49815E+08         0.00000E+00
    0.00000E+00         0.00000E+00        -0.49952E+08
 
   -0.49529E+08         0.53197E+04         0.00000E+00
    0.53197E+04        -0.50000E+08         0.00000E+00
    0.00000E+00         0.00000E+00        -0.49906E+08
 
   -0.49529E+08         0.15921E+05         0.00000E+00
    0.15921E+05        -0.50000E+08         0.00000E+00
    0.00000E+00         0.00000E+00        -0.49906E+08
 
   -0.49530E+08         0.26482E+05         0.00000E+00
    0.26482E+05        -0.49999E+08         0.00000E+00
    0.00000E+00         0.00000E+00        -0.49906E+08
 
   -0.49531E+08         0.36986E+05         0.00000E+00
    0.36986E+05        -0.49998E+08         0.00000E+00
    0.00000E+00         0.00000E+00        -0.49906E+08
 
   -0.49532E+08         0.47415E+05         0.00000E+00
    0.47415E+05        -0.49997E+08         0.00000E+00
    0.00000E+00         0.00000E+00        -0.49906E+08
 
   -0.49534E+08         0.57755E+05         0.00000E+00
    0.57755E+05        -0.49996E+08         0.00000E+00
    0.00000E+00         0.00000E+00        -0.49906E+08
 
   -0.49537E+08         0.67990E+05         0.00000E+00
    0.67990E+05        -0.49994E+08         0.00000E+00
    0.00000E+00         0.00000E+00        -0.49906E+08
 
   -0.49540E+08         0.78105E+05         0.00000E+00
    0.78105E+05        -0.49992E+08         0.00000E+00
    0.00000E+00         0.00000E+00        -0.49907E+08
 
   -0.49544E+08         0.88088E+05         0.00000E+00
    0.88088E+05        -0.49990E+08         0.00000E+00
    0.00000E+00         0.00000E+00        -0.49907E+08
 
   -0.49548E+08         0.97926E+05         0.00000E+00
    0.97926E+05        -0.49988E+08         0.00000E+00
    0.00000E+00         0.00000E+00        -0.49907E+08
 
   -0.49552E+08         0.10761E+06         0.00000E+00
    0.10761E+06        -0.49986E+08         0.00000E+00
    0.00000E+00         0.00000E+00        -0.49908E+08
 
   -0.49557E+08         0.11712E+06         0.00000E+00
    0.11712E+06        -0.49983E+08         0.00000E+00
    0.00000E+00         0.00000E+00        -0.49908E+08
 
   -0.49562E+08         0.12646E+06         0.00000E+00
    0.12646E+06        -0.49980E+08         0.00000E+00
    0.00000E+00         0.00000E+00        -0.49908E+08
 
   -0.49568E+08         0.13560E+06         0.00000E+00
    0.13560E+06        -0.49977E+08         0.00000E+00
    0.00000E+00         0.00000E+00        -0.49909E+08
 
   -0.49574E+08         0.14455E+06         0.00000E+00
    0.14455E+06        -0.49973E+08         0.00000E+00
    0.00000E+00         0.00000E+00        -0.49909E+08
 
   -0.49581E+08         0.15330E+06         0.00000E+00
    0.15330E+06        -0.49970E+08         0.00000E+00
    0.00000E+00         0.00000E+00        -0.49910E+08
 
   -0.49588E+08         0.16184E+06         0.00000E+00
    0.16184E+06        -0.49966E+08         0.00000E+00
    0.00000E+00         0.00000E+00        -0.49911E+08
 
   -0.49595E+08         0.17016E+06         0.00000E+00
    0.17016E+06        -0.49962E+08         0.00000E+00
    0.00000E+00         0.00000E+00        -0.49911E+08
 
   -0.49603E+08         0.17826E+06         0.00000E+00
    0.17826E+06        -0.49958E+08         0.00000E+00
    0.00000E+00         0.00000E+00        -0.49912E+08
 
   -0.49610E+08         0.18613E+06         0.00000E+00
    0.18613E+06        -0.49954E+08         0.00000E+00
    0.00000E+00         0.00000E+00        -0.49913E+08
 
   -0.49619E+08         0.19377E+06         0.00000E+00
    0.19377E+06        -0.49950E+08         0.00000E+00
    0.00000E+00         0.00000E+00        -0.49914E+08
 
   -0.49627E+08         0.20118E+06         0.00000E+00
    0.20118E+06        -0.49945E+08         0.00000E+00
    0.00000E+00         0.00000E+00        -0.49914E+08
 
   -0.49636E+08         0.20834E+06         0.00000E+00
    0.20834E+06        -0.49941E+08         0.00000E+00
    0.00000E+00         0.00000E+00        -0.49915E+08
 
   -0.49645E+08         0.21527E+06         0.00000E+00
    0.21527E+06        -0.49936E+08         0.00000E+00
    0.00000E+00         0.00000E+00        -0.49916E+08
 
   -0.49654E+08         0.22196E+06         0.00000E+00
    0.22196E+06        -0.49931E+08         0.00000E+00
    0.00000E+00         0.00000E+00        -0.49917E+08
 
   -0.49664E+08         0.22840E+06         0.00000E+00
    0.22840E+06        -0.49926E+08         0.00000E+00
    0.00000E+00         0.00000E+00        -0.49918E+08
 
   -0.49674E+08         0.23460E+06         0.00000E+00
    0.23460E+06        -0.49921E+08         0.00000E+00
    0.00000E+00         0.00000E+00        -0.49919E+08
 
   -0.49684E+08         0.24056E+06         0.00000E+00
    0.24056E+06        -0.49916E+08         0.00000E+00
    0.00000E+00         0.00000E+00        -0.49920E+08
 
   -0.49694E+08         0.24628E+06         0.00000E+00
    0.24628E+06        -0.49911E+08         0.00000E+00
    0.00000E+00         0.00000E+00        -0.49921E+08
 
   -0.49705E+08         0.25176E+06         0.00000E+00
    0.25176E+06        -0.49906E+08         0.00000E+00
    0.00000E+00         0.00000E+00        -0.49922E+08
 
   -0.49715E+08         0.25699E+06         0.00000E+00
    0.25699E+06        -0.49901E+08         0.00000E+00
    0.00000E+00         0.00000E+00        -0.49923E+08
 
   -0.49726E+08         0.26199E+06         0.00000E+00
    0.26199E+06        -0.49895E+08         0.00000E+00
    0.00000E+00         0.00000E+00        -0.49924E+08
 
   -0.49737E+08         0.26676E+06         0.00000E+00
    0.26676E+06        -0.49890E+08         0.00000E+00
    0.00000E+00         0.00000E+00        -0.49925E+08
 
   -0.49748E+08         0.27129E+06         0.00000E+00
    0.27129E+06        -0.49885E+08         0.00000E+00
    0.00000E+00         0.00000E+00        -0.49927E+08
 
   -0.49759E+08         0.27559E+06         0.00000E+00
    0.27559E+06        -0.49879E+08         0.00000E+00
    0.00000E+00         0.00000E+00        -0.49928E+08
 
   -0.49771E+08         0.27966E+06         0.00000E+00
    0.27966E+06        -0.49874E+08         0.00000E+00
    0.00000E+00         0.00000E+00        -0.49929E+08
 
   -0.49782E+08         0.28351E+06         0.00000E+00
    0.28351E+06        -0.49868E+08         0.00000E+00
    0.00000E+00         0.00000E+00        -0.49930E+08
 
   -0.49794E+08         0.28714E+06         0.00000E+00
    0.28714E+06        -0.49863E+08         0.00000E+00
    0.00000E+00         0.00000E+00        -0.49931E+08
 
   -0.49806E+08         0.29055E+06         0.00000E+00
    0.29055E+06        -0.49857E+08         0.00000E+00
    0.00000E+00         0.00000E+00        -0.49933E+08
 
   -0.49817E+08         0.29375E+06         0.00000E+00
    0.29375E+06        -0.49851E+08         0.00000E+00
    0.00000E+00         0.00000E+00        -0.49934E+08
 
   -0.49829E+08         0.29673E+06         0.00000E+00
    0.29673E+06        -0.49846E+08         0.00000E+00
    0.00000E+00         0.00000E+00        -0.49935E+08
 
   -0.49841E+08         0.29952E+06         0.00000E+00
    0.29952E+06        -0.49840E+08         0.00000E+00
    0.00000E+00         0.00000E+00        -0.49936E+08
 
   -0.49854E+08         0.30210E+06         0.00000E+00
    0.30210E+06        -0.49835E+08         0.00000E+00
    0.00000E+00         0.00000E+00        -0.49938E+08
 
   -0.49866E+08         0.30448E+06         0.00000E+00
    0.30448E+06        -0.49829E+08         0.00000E+00
    0.00000E+00         0.00000E+00        -0.49939E+08
 
   -0.49878E+08         0.30666E+06         0.00000E+00
    0.30666E+06        -0.49823E+08         0.00000E+00
    0.00000E+00         0.00000E+00        -0.49940E+08
 
   -0.49891E+08         0.30865E+06         0.00000E+00
    0.30865E+06        -0.49818E+08         0.00000E+00
    0.00000E+00         0.00000E+00        -0.49942E+08
 
   -0.49903E+08         0.31046E+06         0.00000E+00
    0.31046E+06        -0.49812E+08         0.00000E+00
    0.00000E+00         0.00000E+00        -0.49943E+08
 
   -0.49916E+08         0.31207E+06         0.00000E+00
    0.31207E+06        -0.49806E+08         0.00000E+00
    0.00000E+00         0.00000E+00        -0.49944E+08
 
   -0.49929E+08         0.31351E+06         0.00000E+00
    0.31351E+06        -0.49801E+08         0.00000E+00
    0.00000E+00         0.00000E+00        -0.49946E+08
 
   -0.49942E+08         0.31476E+06         0.00000E+00
    0.31476E+06        -0.49795E+08         0.00000E+00
    0.00000E+00         0.00000E+00        -0.49947E+08
 
   -0.49473E+08         0.61051E+04         0.00000E+00
    0.61051E+04        -0.50000E+08         0.00000E+00
    0.00000E+00         0.00000E+00        -0.49895E+08
 
   -0.49473E+08         0.18219E+05         0.00000E+00
    0.18219E+05        -0.50000E+08         0.00000E+00
    0.00000E+00         0.00000E+00        -0.49895E+08
 
   -0.49474E+08         0.30263E+05         0.00000E+00
    0.30263E+05        -0.49999E+08         0.00000E+00
    0.00000E+00         0.00000E+00        -0.49895E+08
 
   -0.49475E+08         0.42217E+05         0.00000E+00
    0.42217E+05        -0.49998E+08         0.00000E+00
    0.00000E+00         0.00000E+00        -0.49895E+08
 
   -0.49477E+08         0.54062E+05         0.00000E+00
    0.54062E+05        -0.49997E+08         0.00000E+00
    0.00000E+00         0.00000E+00        -0.49895E+08
 
   -0.49480E+08         0.65780E+05         0.00000E+00
    0.65780E+05        -0.49995E+08         0.00000E+00
    0.00000E+00         0.00000E+00        -0.49895E+08
 
   -0.49483E+08         0.77354E+05         0.00000E+00
    0.77354E+05        -0.49993E+08         0.00000E+00
    0.00000E+00         0.00000E+00        -0.49895E+08
 
   -0.49487E+08         0.88767E+05         0.00000E+00
    0.88767E+05        -0.49991E+08         0.00000E+00
    0.00000E+00         0.00000E+00        -0.49896E+08
 
   -0.49491E+08         0.10000E+06         0.00000E+00
    0.10000E+06        -0.49989E+08         0.00000E+00
    0.00000E+00         0.00000E+00        -0.49896E+08
 
   -0.49496E+08         0.11105E+06         0.00000E+00
    0.11105E+06        -0.49986E+08         0.00000E+00
    0.00000E+00         0.00000E+00        -0.49896E+08
 
   -0.49501E+08         0.12190E+06         0.00000E+00
    0.12190E+06        -0.49983E+08         0.00000E+00
    0.00000E+00         0.00000E+00        -0.49897E+08
 
   -0.49507E+08         0.13252E+06         0.00000E+00
    0.13252E+06        -0.49980E+08         0.00000E+00
    0.00000E+00         0.00000E+00        -0.49897E+08
 
   -0.49514E+08         0.14293E+06         0.00000E+00
    0.14293E+06        -0.49976E+08         0.00000E+00
    0.00000E+00         0.00000E+00        -0.49898E+08
 
   -0.49520E+08         0.15310E+06         0.00000E+00
    0.15310E+06        -0.49973E+08         0.00000E+00
    0.00000E+00         0.00000E+00        -0.49899E+08
 
   -0.49528E+08         0.16302E+06         0.00000E+00
    0.16302E+06        -0.49969E+08         0.00000E+00
    0.00000E+00         0.00000E+00        -0.49899E+08
 
   -0.49535E+08         0.17269E+06         0.00000E+00
    0.17269E+06        -0.49965E+08         0.00000E+00
    0.00000E+00         0.00000E+00        -0.49900E+08
 
   -0.49543E+08         0.18210E+06         0.00000E+00
    0.18210E+06        -0.49961E+08         0.00000E+00
    0.00000E+00         0.00000E+00        -0.49901E+08
 
   -0.49552E+08         0.19125E+06         0.00000E+00
    0.19125E+06        -0.49956E+08         0.00000E+00
    0.00000E+00         0.00000E+00        -0.49902E+08
 
   -0.49561E+08         0.20012E+06         0.00000E+00
    0.20012E+06        -0.49952E+08         0.00000E+00
    0.00000E+00         0.00000E+00        -0.49902E+08
 
   -0.49570E+08         0.20872E+06         0.00000E+00
    0.20872E+06        -0.49947E+08         0.00000E+00
    0.00000E+00         0.00000E+00        -0.49903E+08
 
   -0.49579E+08         0.21705E+06         0.00000E+00
    0.21705E+06        -0.49942E+08         0.00000E+00
    0.00000E+00         0.00000E+00        -0.49904E+08
 
   -0.49589E+08         0.22509E+06         0.00000E+00
    0.22509E+06        -0.49937E+08         0.00000E+00
    0.00000E+00         0.00000E+00        -0.49905E+08
 
   -0.49599E+08         0.23284E+06         0.00000E+00
    0.23284E+06        -0.49932E+08         0.00000E+00
    0.00000E+00         0.00000E+00        -0.49906E+08
 
   -0.49610E+08         0.24032E+06         0.00000E+00
    0.24032E+06        -0.49927E+08         0.00000E+00
    0.00000E+00         0.00000E+00        -0.49907E+08
 
   -0.49620E+08         0.24751E+06         0.00000E+00
    0.24751E+06        -0.49921E+08         0.00000E+00
    0.00000E+00         0.00000E+00        -0.49908E+08
 
   -0.49631E+08         0.25442E+06         0.00000E+00
    0.25442E+06        -0.49916E+08         0.00000E+00
    0.00000E+00         0.00000E+00        -0.49909E+08
 
   -0.49642E+08         0.26104E+06         0.00000E+00
    0.26104E+06        -0.49910E+08         0.00000E+00
    0.00000E+00         0.00000E+00        -0.49911E+08
 
   -0.49654E+08         0.26739E+06         0.00000E+00
    0.26739E+06        -0.49905E+08         0.00000E+00
    0.00000E+00         0.00000E+00        -0.49912E+08
 
   -0.49665E+08         0.27345E+06         0.00000E+00
    0.27345E+06        -0.49899E+08         0.00000E+00
    0.00000E+00         0.00000E+00        -0.49913E+08
 
   -0.49677E+08         0.27924E+06         0.00000E+00
    0.27924E+06        -0.49893E+08         0.00000E+00
    0.00000E+00         0.00000E+00        -0.49914E+08
 
   -0.49689E+08         0.28476E+06         0.00000E+00
    0.28476E+06        -0.49887E+08         0.00000E+00
    0.00000E+00         0.00000E+00        -0.49915E+08
 
   -0.49701E+08         0.29001E+06         0.00000E+00
    0.29001E+06        -0.49882E+08         0.00000E+00
    0.00000E+00         0.00000E+00        -0.49916E+08
 
   -0.49713E+08         0.29499E+06         0.00000E+00
    0.29499E+06        -0.49876E+08         0.00000E+00
    0.00000E+00         0.00000E+00        -0.49918E+08
 
   -0.49725E+08         0.29971E+06         0.00000E+00
    0.29971E+06        -0.49870E+08         0.00000E+00
    0.00000E+00         0.00000E+00        -0.49919E+08
 
   -0.49738E+08         0.30418E+06         0.00000E+00
    0.30418E+06        -0.49864E+08         0.00000E+00
    0.00000E+00         0.00000E+00        -0.49920E+08
 
   -0.49750E+08         0.30840E+06         0.00000E+00
    0.30840E+06        -0.49858E+08         0.00000E+00
    0.00000E+00         0.00000E+00        -0.49922E+08
 
   -0.49763E+08         0.31237E+06         0.00000E+00
    0.31237E+06        -0.49852E+08         0.00000E+00
    0.00000E+00         0.00000E+00        -0.49923E+08
 
   -0.49776E+08         0.31611E+06         0.00000E+00
    0.31611E+06        -0.49846E+08         0.00000E+00
    0.00000E+00         0.00000E+00        -0.49924E+08
 
   -0.49789E+08         0.31961E+06         0.00000E+00
    0.31961E+06        -0.49840E+08         0.00000E+00
    0.00000E+00         0.00000E+00        -0.49926E+08
 
   -0.49802E+08         0.32289E+06         0.00000E+00
    0.32289E+06        -0.49834E+08         0.00000E+00
    0.00000E+00         0.00000E+00        -0.49927E+08
 
   -0.49815E+08         0.32594E+06         0.00000E+00
    0.32594E+06        -0.49828E+08         0.00000E+00
    0.00000E+00         0.00000E+00        -0.49928E+08
 
   -0.49828E+08         0.32878E+06         0.00000E+00
    0.32878E+06        -0.49821E+08         0.00000E+00
    0.00000E+00         0.00000E+00        -0.49930E+08
 
   -0.49841E+08         0.33141E+06         0.00000E+00
    0.33141E+06        -0.49815E+08         0.00000E+00
    0.00000E+00         0.00000E+00        -0.49931E+08
 
   -0.49854E+08         0.33383E+06         0.00000E+00
    0.33383E+06        -0.49809E+08         0.00000E+00
    0.00000E+00         0.00000E+00        -0.49933E+08
 
   -0.49868E+08         0.33606E+06         0.00000E+00
    0.33606E+06        -0.49803E+08         0.00000E+00
    0.00000E+00         0.00000E+00        -0.49934E+08
 
   -0.49881E+08         0.33810E+06         0.00000E+00
    0.33810E+06        -0.49797E+08         0.00000E+00
    0.00000E+00         0.00000E+00        -0.49936E+08
 
   -0.49895E+08         0.33995E+06         0.00000E+00
    0.33995E+06        -0.49791E+08         0.00000E+00
    0.00000E+00         0.00000E+00        -0.49937E+08
 
   -0.49908E+08         0.34161E+06         0.00000E+00
    0.34161E+06        -0.49785E+08         0.00000E+00
    0.00000E+00         0.00000E+00        -0.49939E+08
 
   -0.49922E+08         0.34310E+06         0.00000E+00
    0.34310E+06        -0.49779E+08         0.00000E+00
    0.00000E+00         0.00000E+00        -0.49940E+08
 
   -0.49936E+08         0.34442E+06         0.00000E+00
    0.34442E+06        -0.49773E+08         0.00000E+00
    0.00000E+00         0.00000E+00        -0.49942E+08
 
   -0.49408E+08         0.70393E+04         0.00000E+00
    0.70393E+04        -0.50000E+08         0.00000E+00
    0.00000E+00         0.00000E+00        -0.49882E+08
 
   -0.49408E+08         0.20933E+05         0.00000E+00
    0.20933E+05        -0.50000E+08         0.00000E+00
    0.00000E+00         0.00000E+00        -0.49882E+08
 
   -0.49409E+08         0.34715E+05         0.00000E+00
    0.34715E+05        -0.49999E+08         0.00000E+00
    0.00000E+00         0.00000E+00        -0.49882E+08
 
   -0.49411E+08         0.48362E+05         0.00000E+00
    0.48362E+05        -0.49998E+08         0.00000E+00
    0.00000E+00         0.00000E+00        -0.49882E+08
 
   -0.49414E+08         0.61852E+05         0.00000E+00
    0.61852E+05        -0.49996E+08         0.00000E+00
    0.00000E+00         0.00000E+00        -0.49882E+08
 
   -0.49418E+08         0.75162E+05         0.00000E+00
    0.75162E+05        -0.49994E+08         0.00000E+00
    0.00000E+00         0.00000E+00        -0.49882E+08
 
   -0.49422E+08         0.88276E+05         0.00000E+00
    0.88276E+05        -0.49992E+08         0.00000E+00
    0.00000E+00         0.00000E+00        -0.49883E+08
 
   -0.49426E+08         0.10117E+06         0.00000E+00
    0.10117E+06        -0.49990E+08         0.00000E+00
    0.00000E+00         0.00000E+00        -0.49883E+08
 
   -0.49432E+08         0.11384E+06         0.00000E+00
    0.11384E+06        -0.49987E+08         0.00000E+00
    0.00000E+00         0.00000E+00        -0.49884E+08
 
   -0.49438E+08         0.12625E+06         0.00000E+00
    0.12625E+06        -0.49984E+08         0.00000E+00
    0.00000E+00         0.00000E+00        -0.49884E+08
 
   -0.49444E+08         0.13841E+06         0.00000E+00
    0.13841E+06        -0.49980E+08         0.00000E+00
    0.00000E+00         0.00000E+00        -0.49885E+08
 
   -0.49452E+08         0.15029E+06         0.00000E+00
    0.15029E+06        -0.49977E+08         0.00000E+00
    0.00000E+00         0.00000E+00        -0.49886E+08
 
   -0.49459E+08         0.16188E+06         0.00000E+00
    0.16188E+06        -0.49973E+08         0.00000E+00
    0.00000E+00         0.00000E+00        -0.49886E+08
 
   -0.49467E+08         0.17318E+06         0.00000E+00
    0.17318E+06        -0.49968E+08         0.00000E+00
    0.00000E+00         0.00000E+00        -0.49887E+08
 
   -0.49476E+08         0.18417E+06         0.00000E+00
    0.18417E+06        -0.49964E+08         0.00000E+00
    0.00000E+00         0.00000E+00        -0.49888E+08
 
   -0.49485E+08         0.19484E+06         0.00000E+00
    0.19484E+06        -0.49959E+08         0.00000E+00
    0.00000E+00         0.00000E+00        -0.49889E+08
 
   -0.49495E+08         0.20520E+06         0.00000E+00
    0.20520E+06        -0.49955E+08         0.00000E+00
    0.00000E+00         0.00000E+00        -0.49890E+08
 
   -0.49505E+08         0.21523E+06         0.00000E+00
    0.21523E+06        -0.49950E+08         0.00000E+00
    0.00000E+00         0.00000E+00        -0.49891E+08
 
   -0.49515E+08         0.22493E+06         0.00000E+00
    0.22493E+06        -0.49944E+08         0.00000E+00
    0.00000E+00         0.00000E+00        -0.49892E+08
 
   -0.49526E+08         0.23430E+06         0.00000E+00
    0.23430E+06        -0.49939E+08         0.00000E+00
    0.00000E+00         0.00000E+00        -0.49893E+08
 
   -0.49537E+08         0.24333E+06         0.00000E+00
    0.24333E+06        -0.49934E+08         0.00000E+00
    0.00000E+00         0.00000E+00        -0.49894E+08
 
   -0.49548E+08         0.25203E+06         0.00000E+00
    0.25203E+06        -0.49928E+08         0.00000E+00
    0.00000E+00         0.00000E+00        -0.49895E+08
 
   -0.49560E+08         0.26039E+06         0.00000E+00
    0.26039E+06        -0.49922E+08         0.00000E+00
    0.00000E+00         0.00000E+00        -0.49896E+08
 
   -0.49572E+08         0.26841E+06         0.00000E+00
    0.26841E+06        -0.49916E+08         0.00000E+00
    0.00000E+00         0.00000E+00        -0.49898E+08
 
   -0.49584E+08         0.27610E+06         0.00000E+00
    0.27610E+06        -0.49910E+08         0.00000E+00
    0.00000E+00         0.00000E+00        -0.49899E+08
 
   -0.49596E+08         0.28346E+06         0.00000E+00
    0.28346E+06        -0.49904E+08         0.00000E+00
    0.00000E+00         0.00000E+00        -0.49900E+08
 
   -0.49609E+08         0.29048E+06         0.00000E+00
    0.29048E+06        -0.49898E+08         0.00000E+00
    0.00000E+00         0.00000E+00        -0.49901E+08
 
   -0.49622E+08         0.29718E+06         0.00000E+00
    0.29718E+06        -0.49892E+08         0.00000E+00
    0.00000E+00         0.00000E+00        -0.49903E+08
 
   -0.49635E+08         0.30356E+06         0.00000E+00
    0.30356E+06        -0.49885E+08         0.00000E+00
    0.00000E+00         0.00000E+00        -0.49904E+08
 
   -0.49648E+08         0.30962E+06         0.00000E+00
    0.30962E+06        -0.49879E+08         0.00000E+00
    0.00000E+00         0.00000E+00        -0.49905E+08
 
   -0.49661E+08         0.31537E+06         0.00000E+00
    0.31537E+06        -0.49873E+08         0.00000E+00
    0.00000E+00         0.00000E+00        -0.49907E+08
 
   -0.49675E+08         0.32082E+06         0.00000E+00
    0.32082E+06        -0.49866E+08         0.00000E+00
    0.00000E+00         0.00000E+00        -0.49908E+08
 
   -0.49688E+08         0.32597E+06         0.00000E+00
    0.32597E+06        -0.49860E+08         0.00000E+00
    0.00000E+00         0.00000E+00        -0.49910E+08
 
   -0.49702E+08         0.33083E+06         0.00000E+00
    0.33083E+06        -0.49853E+08         0.00000E+00
    0.00000E+00         0.00000E+00        -0.49911E+08
 
   -0.49716E+08         0.33541E+06         0.00000E+00
    0.33541E+06        -0.49847E+08         0.00000E+00
    0.00000E+00         0.00000E+00        -0.49913E+08
 
   -0.49730E+08         0.33971E+06         0.00000E+00
    0.33971E+06        -0.49840E+08         0.00000E+00
    0.00000E+00         0.00000E+00        -0.49914E+08
 
   -0.49744E+08         0.34375E+06         0.00000E+00
    0.34375E+06        -0.49834E+08         0.00000E+00
    0.00000E+00         0.00000E+00        -0.49915E+08
 
   -0.49758E+08         0.34752E+06         0.00000E+00
    0.34752E+06        -0.49827E+08         0.00000E+00
    0.00000E+00         0.00000E+00        -0.49917E+08
 
   -0.49772E+08         0.35105E+06         0.00000E+00
    0.35105E+06        -0.49821E+08         0.00000E+00
    0.00000E+00         0.00000E+00        -0.49918E+08
 
   -0.49786E+08         0.35434E+06         0.00000E+00
    0.35434E+06        -0.49814E+08         0.00000E+00
    0.00000E+00         0.00000E+00        -0.49920E+08
 
   -0.49800E+08         0.35740E+06         0.00000E+00
    0.35740E+06        -0.49808E+08         0.00000E+00
    0.00000E+00         0.00000E+00        -0.49922E+08
 
   -0.49814E+08         0.36023E+06         0.00000E+00
    0.36023E+06        -0.49801E+08         0.00000E+00
    0.00000E+00         0.00000E+00        -0.49923E+08
 
   -0.49828E+08         0.36285E+06         0.00000E+00
    0.36285E+06        -0.49795E+08         0.00000E+00
    0.00000E+00         0.00000E+00        -0.49925E+08
 
   -0.49843E+08         0.36527E+06         0.00000E+00
    0.36527E+06        -0.49788E+08         0.00000E+00
    0.00000E+00         0.00000E+00        -0.49926E+08
 
   -0.49857E+08         0.36749E+06         0.00000E+00
    0.36749E+06        -0.49782E+08         0.00000E+00
    0.00000E+00         0.00000E+00        -0.49928E+08
 
   -0.49871E+08         0.36952E+06         0.00000E+00
    0.36952E+06        -0.49775E+08         0.00000E+00
    0.00000E+00         0.00000E+00        -0.49929E+08
 
   -0.49886E+08         0.37137E+06         0.00000E+00
    0.37137E+06        -0.49769E+08         0.00000E+00
    0.00000E+00         0.00000E+00        -0.49931E+08
 
   -0.49900E+08         0.37305E+06         0.00000E+00
    0.37305E+06        -0.49762E+08         0.00000E+00
    0.00000E+00         0.00000E+00        -0.49932E+08
 
   -0.49915E+08         0.37457E+06         0.00000E+00
    0.37457E+06        -0.49756E+08         0.00000E+00
    0.00000E+00         0.00000E+00        -0.49934E+08
 
   -0.49929E+08         0.37593E+06         0.00000E+00
    0.37593E+06        -0.49749E+08         0.00000E+00
    0.00000E+00         0.00000E+00        -0.49936E+08
 
   -0.49333E+08         0.81497E+04         0.00000E+00
    0.81497E+04        -0.50000E+08         0.00000E+00
    0.00000E+00         0.00000E+00        -0.49867E+08
 
   -0.49334E+08         0.24136E+05         0.00000E+00
    0.24136E+05        -0.50000E+08         0.00000E+00
    0.00000E+00         0.00000E+00        -0.49867E+08
 
   -0.49336E+08         0.39952E+05         0.00000E+00
    0.39952E+05        -0.49999E+08         0.00000E+00
    0.00000E+00         0.00000E+00        -0.49867E+08
 
   -0.49339E+08         0.55569E+05         0.00000E+00
    0.55569E+05        -0.49997E+08         0.00000E+00
    0.00000E+00         0.00000E+00        -0.49867E+08
 
   -0.49343E+08         0.70962E+05         0.00000E+00
    0.70962E+05        -0.49996E+08         0.00000E+00
    0.00000E+00         0.00000E+00        -0.49868E+08
 
   -0.49347E+08         0.86108E+05         0.00000E+00
    0.86108E+05        -0.49993E+08         0.00000E+00
    0.00000E+00         0.00000E+00        -0.49868E+08
 
   -0.49352E+08         0.10099E+06         0.00000E+00
    0.10099E+06        -0.49991E+08         0.00000E+00
    0.00000E+00         0.00000E+00        -0.49869E+08
 
   -0.49358E+08         0.11558E+06         0.00000E+00
    0.11558E+06        -0.49988E+08         0.00000E+00
    0.00000E+00         0.00000E+00        -0.49869E+08
 
   -0.49365E+08         0.12986E+06         0.00000E+00
    0.12986E+06        -0.49985E+08         0.00000E+00
    0.00000E+00         0.00000E+00        -0.49870E+08
 
   -0.49373E+08         0.14382E+06         0.00000E+00
    0.14382E+06        -0.49981E+08         0.00000E+00
    0.00000E+00         0.00000E+00        -0.49871E+08
 
   -0.49381E+08         0.15744E+06         0.00000E+00
    0.15744E+06        -0.49977E+08         0.00000E+00
    0.00000E+00         0.00000E+00        -0.49872E+08
 
   -0.49390E+08         0.17071E+06         0.00000E+00
    0.17071E+06        -0.49973E+08         0.00000E+00
    0.00000E+00         0.00000E+00        -0.49872E+08
 
   -0.49399E+08         0.18362E+06         0.00000E+00
    0.18362E+06        -0.49968E+08         0.00000E+00
    0.00000E+00         0.00000E+00        -0.49873E+08
 
   -0.49409E+08         0.19616E+06         0.00000E+00
    0.19616E+06        -0.49964E+08         0.00000E+00
    0.00000E+00         0.00000E+00        -0.49874E+08
 
   -0.49419E+08         0.20831E+06         0.00000E+00
    0.20831E+06        -0.49959E+08         0.00000E+00
    0.00000E+00         0.00000E+00        -0.49876E+08
 
   -0.49430E+08         0.22008E+06         0.00000E+00
    0.22008E+06        -0.49953E+08         0.00000E+00
    0.00000E+00         0.00000E+00        -0.49877E+08
 
   -0.49441E+08         0.23145E+06         0.00000E+00
    0.23145E+06        -0.49948E+08         0.00000E+00
    0.00000E+00         0.00000E+00        -0.49878E+08
 
   -0.49453E+08         0.24242E+06         0.00000E+00
    0.24242E+06        -0.49942E+08         0.00000E+00
    0.00000E+00         0.00000E+00        -0.49879E+08
 
   -0.49465E+08         0.25299E+06         0.00000E+00
    0.25299E+06        -0.49936E+08         0.00000E+00
    0.00000E+00         0.00000E+00        -0.49880E+08
 
   -0.49478E+08         0.26316E+06         0.00000E+00
    0.26316E+06        -0.49930E+08         0.00000E+00
    0.00000E+00         0.00000E+00        -0.49882E+08
 
   -0.49491E+08         0.27292E+06         0.00000E+00
    0.27292E+06        -0.49924E+08         0.00000E+00
    0.00000E+00         0.00000E+00        -0.49883E+08
 
   -0.49504E+08         0.28228E+06         0.00000E+00
    0.28228E+06        -0.49918E+08         0.00000E+00
    0.00000E+00         0.00000E+00        -0.49884E+08
 
   -0.49517E+08         0.29124E+06         0.00000E+00
    0.29124E+06        -0.49911E+08         0.00000E+00
    0.00000E+00         0.00000E+00        -0.49886E+08
 
   -0.49531E+08         0.29980E+06         0.00000E+00
    0.29980E+06        -0.49905E+08         0.00000E+00
    0.00000E+00         0.00000E+00        -0.49887E+08
 
   -0.49545E+08         0.30796E+06         0.00000E+00
    0.30796E+06        -0.49898E+08         0.00000E+00
    0.00000E+00         0.00000E+00        -0.49889E+08
 
   -0.49559E+08         0.31573E+06         0.00000E+00
    0.31573E+06        -0.49891E+08         0.00000E+00
    0.00000E+00         0.00000E+00        -0.49890E+08
 
   -0.49574E+08         0.32312E+06         0.00000E+00
    0.32312E+06        -0.49884E+08         0.00000E+00
    0.00000E+00         0.00000E+00        -0.49892E+08
 
   -0.49588E+08         0.33013E+06         0.00000E+00
    0.33013E+06        -0.49877E+08         0.00000E+00
    0.00000E+00         0.00000E+00        -0.49893E+08
 
   -0.49603E+08         0.33677E+06         0.00000E+00
    0.33677E+06        -0.49871E+08         0.00000E+00
    0.00000E+00         0.00000E+00        -0.49895E+08
 
   -0.49618E+08         0.34305E+06         0.00000E+00
    0.34305E+06        -0.49864E+08         0.00000E+00
    0.00000E+00         0.00000E+00        -0.49896E+08
 
   -0.49633E+08         0.34897E+06         0.00000E+00
    0.34897E+06        -0.49857E+08         0.00000E+00
    0.00000E+00         0.00000E+00        -0.49898E+08
 
   -0.49648E+08         0.35455E+06         0.00000E+00
    0.35455E+06        -0.49849E+08         0.00000E+00
    0.00000E+00         0.00000E+00        -0.49900E+08
 
   -0.49663E+08         0.35979E+06         0.00000E+00
    0.35979E+06        -0.49842E+08         0.00000E+00
    0.00000E+00         0.00000E+00        -0.49901E+08
 
   -0.49678E+08         0.36471E+06         0.00000E+00
    0.36471E+06        -0.49835E+08         0.00000E+00
    0.00000E+00         0.00000E+00        -0.49903E+08
 
   -0.49694E+08         0.36932E+06         0.00000E+00
    0.36932E+06        -0.49828E+08         0.00000E+00
    0.00000E+00         0.00000E+00        -0.49904E+08
 
   -0.49709E+08         0.37362E+06         0.00000E+00
    0.37362E+06        -0.49821E+08         0.00000E+00
    0.00000E+00         0.00000E+00        -0.49906E+08
 
   -0.49724E+08         0.37764E+06         0.00000E+00
    0.37764E+06        -0.49814E+08         0.00000E+00
    0.00000E+00         0.00000E+00        -0.49908E+08
 
   -0.49740E+08         0.38137E+06         0.00000E+00
    0.38137E+06        -0.49807E+08         0.00000E+00
    0.00000E+00         0.00000E+00        -0.49909E+08
 
   -0.49755E+08         0.38485E+06         0.00000E+00
    0.38485E+06        -0.49800E+08         0.00000E+00
    0.00000E+00         0.00000E+00        -0.49911E+08
 
   -0.49770E+08         0.38806E+06         0.00000E+00
    0.38806E+06        -0.49793E+08         0.00000E+00
    0.00000E+00         0.00000E+00        -0.49913E+08
 
   -0.49785E+08         0.39104E+06         0.00000E+00
    0.39104E+06        -0.49786E+08         0.00000E+00
    0.00000E+00         0.00000E+00        -0.49914E+08
 
   -0.49801E+08         0.39379E+06         0.00000E+00
    0.39379E+06        -0.49779E+08         0.00000E+00
    0.00000E+00         0.00000E+00        -0.49916E+08
 
   -0.49816E+08         0.39633E+06         0.00000E+00
    0.39633E+06        -0.49772E+08         0.00000E+00
    0.00000E+00         0.00000E+00        -0.49918E+08
 
   -0.49831E+08         0.39866E+06         0.00000E+00
    0.39866E+06        -0.49766E+08         0.00000E+00
    0.00000E+00         0.00000E+00        -0.49919E+08
 
   -0.49847E+08         0.40080E+06         0.00000E+00
    0.40080E+06        -0.49759E+08         0.00000E+00
    0.00000E+00         0.00000E+00        -0.49921E+08
 
   -0.49862E+08         0.40276E+06         0.00000E+00
    0.40276E+06        -0.49752E+08         0.00000E+00
    0.00000E+00         0.00000E+00        -0.49923E+08
 
   -0.49877E+08         0.40456E+06         0.00000E+00
    0.40456E+06        -0.49745E+08         0.00000E+00
    0.00000E+00         0.00000E+00        -0.49924E+08
 
   -0.49892E+08         0.40621E+06         0.00000E+00
    0.40621E+06        -0.49738E+08         0.00000E+00
    0.00000E+00         0.00000E+00        -0.49926E+08
 
   -0.49907E+08         0.40771E+06         0.00000E+00
    0.40771E+06        -0.49732E+08         0.00000E+00
    0.00000E+00         0.00000E+00        -0.49928E+08
 
   -0.49923E+08         0.40907E+06         0.00000E+00
    0.40907E+06        -0.49725E+08         0.00000E+00
    0.00000E+00         0.00000E+00        -0.49929E+08
 
   -0.49246E+08         0.94662E+04         0.00000E+00
    0.94662E+04        -0.50000E+08         0.00000E+00
    0.00000E+00         0.00000E+00        -0.49849E+08
 
   -0.49248E+08         0.27905E+05         0.00000E+00
    0.27905E+05        -0.50000E+08         0.00000E+00
    0.00000E+00         0.00000E+00        -0.49850E+08
 
   -0.49252E+08         0.46089E+05         0.00000E+00
    0.46089E+05        -0.49999E+08         0.00000E+00
    0.00000E+00         0.00000E+00        -0.49850E+08
 
   -0.49256E+08         0.63990E+05         0.00000E+00
    0.63990E+05        -0.49997E+08         0.00000E+00
    0.00000E+00         0.00000E+00        -0.49851E+08
 
   -0.49261E+08         0.81579E+05         0.00000E+00
    0.81579E+05        -0.49995E+08         0.00000E+00
    0.00000E+00         0.00000E+00        -0.49851E+08
 
   -0.49267E+08         0.98830E+05         0.00000E+00
    0.98830E+05        -0.49992E+08         0.00000E+00
    0.00000E+00         0.00000E+00        -0.49852E+08
 
   -0.49274E+08         0.11572E+06         0.00000E+00
    0.11572E+06        -0.49989E+08         0.00000E+00
    0.00000E+00         0.00000E+00        -0.49853E+08
 
   -0.49282E+08         0.13223E+06         0.00000E+00
    0.13223E+06        -0.49986E+08         0.00000E+00
    0.00000E+00         0.00000E+00        -0.49854E+08
 
   -0.49290E+08         0.14834E+06         0.00000E+00
    0.14834E+06        -0.49982E+08         0.00000E+00
    0.00000E+00         0.00000E+00        -0.49854E+08
 
   -0.49300E+08         0.16403E+06         0.00000E+00
    0.16403E+06        -0.49978E+08         0.00000E+00
    0.00000E+00         0.00000E+00        -0.49856E+08
 
   -0.49310E+08         0.17928E+06         0.00000E+00
    0.17928E+06        -0.49974E+08         0.00000E+00
    0.00000E+00         0.00000E+00        -0.49857E+08
 
   -0.49320E+08         0.19409E+06         0.00000E+00
    0.19409E+06        -0.49969E+08         0.00000E+00
    0.00000E+00         0.00000E+00        -0.49858E+08
 
   -0.49332E+08         0.20845E+06         0.00000E+00
    0.20845E+06        -0.49964E+08         0.00000E+00
    0.00000E+00         0.00000E+00        -0.49859E+08
 
   -0.49344E+08         0.22233E+06         0.00000E+00
    0.22233E+06        -0.49958E+08         0.00000E+00
    0.00000E+00         0.00000E+00        -0.49860E+08
 
   -0.49356E+08         0.23574E+06         0.00000E+00
    0.23574E+06        -0.49952E+08         0.00000E+00
    0.00000E+00         0.00000E+00        -0.49862E+08
 
   -0.49369E+08         0.24867E+06         0.00000E+00
    0.24867E+06        -0.49946E+08         0.00000E+00
    0.00000E+00         0.00000E+00        -0.49863E+08
 
   -0.49383E+08         0.26112E+06         0.00000E+00
    0.26112E+06        -0.49940E+08         0.00000E+00
    0.00000E+00         0.00000E+00        -0.49865E+08
 
   -0.49397E+08         0.27308E+06         0.00000E+00
    0.27308E+06        -0.49934E+08         0.00000E+00
    0.00000E+00         0.00000E+00        -0.49866E+08
 
   -0.49411E+08         0.28455E+06         0.00000E+00
    0.28455E+06        -0.49927E+08         0.00000E+00
    0.00000E+00         0.00000E+00        -0.49868E+08
 
   -0.49426E+08         0.29554E+06         0.00000E+00
    0.29554E+06        -0.49920E+08         0.00000E+00
    0.00000E+00         0.00000E+00        -0.49869E+08
 
   -0.49441E+08         0.30604E+06         0.00000E+00
    0.30604E+06        -0.49914E+08         0.00000E+00
    0.00000E+00         0.00000E+00        -0.49871E+08
 
   -0.49457E+08         0.31606E+06         0.00000E+00
    0.31606E+06        -0.49907E+08         0.00000E+00
    0.00000E+00         0.00000E+00        -0.49873E+08
 
   -0.49472E+08         0.32559E+06         0.00000E+00
    0.32559E+06        -0.49899E+08         0.00000E+00
    0.00000E+00         0.00000E+00        -0.49874E+08
 
   -0.49488E+08         0.33466E+06         0.00000E+00
    0.33466E+06        -0.49892E+08         0.00000E+00
    0.00000E+00         0.00000E+00        -0.49876E+08
 
   -0.49504E+08         0.34326E+06         0.00000E+00
    0.34326E+06        -0.49885E+08         0.00000E+00
    0.00000E+00         0.00000E+00        -0.49878E+08
 
   -0.49521E+08         0.35141E+06         0.00000E+00
    0.35141E+06        -0.49877E+08         0.00000E+00
    0.00000E+00         0.00000E+00        -0.49880E+08
 
   -0.49537E+08         0.35910E+06         0.00000E+00
    0.35910E+06        -0.49870E+08         0.00000E+00
    0.00000E+00         0.00000E+00        -0.49881E+08
 
   -0.49554E+08         0.36636E+06         0.00000E+00
    0.36636E+06        -0.49862E+08         0.00000E+00
    0.00000E+00         0.00000E+00        -0.49883E+08
 
   -0.49570E+08         0.37319E+06         0.00000E+00
    0.37319E+06        -0.49855E+08         0.00000E+00
    0.00000E+00         0.00000E+00        -0.49885E+08
 
   -0.49587E+08         0.37960E+06         0.00000E+00
    0.37960E+06        -0.49847E+08         0.00000E+00
    0.00000E+00         0.00000E+00        -0.49887E+08
 
   -0.49604E+08         0.38561E+06         0.00000E+00
    0.38561E+06        -0.49839E+08         0.00000E+00
    0.00000E+00         0.00000E+00        -0.49889E+08
 
   -0.49621E+08         0.39123E+06         0.00000E+00
    0.39123E+06        -0.49832E+08         0.00000E+00
    0.00000E+00         0.00000E+00        -0.49891E+08
 
   -0.49638E+08         0.39647E+06         0.00000E+00
    0.39647E+06        -0.49824E+08         0.00000E+00
    0.00000E+00         0.00000E+00        -0.49892E+08
 
   -0.49655E+08         0.40136E+06         0.00000E+00
    0.40136E+06        -0.49816E+08         0.00000E+00
    0.00000E+00         0.00000E+00        -0.49894E+08
 
   -0.49672E+08         0.40589E+06         0.00000E+00
    0.40589E+06        -0.49809E+08         0.00000E+00
    0.00000E+00         0.00000E+00        -0.49896E+08
 
   -0.49688E+08         0.41010E+06         0.00000E+00
    0.41010E+06        -0.49801E+08         0.00000E+00
    0.00000E+00         0.00000E+00        -0.49898E+08
 
   -0.49705E+08         0.41398E+06         0.00000E+00
    0.41398E+06        -0.49794E+08         0.00000E+00
    0.00000E+00         0.00000E+00        -0.49900E+08
 
   -0.49722E+08         0.41757E+06         0.00000E+00
    0.41757E+06        -0.49786E+08         0.00000E+00
    0.00000E+00         0.00000E+00        -0.49902E+08
 
   -0.49739E+08         0.42088E+06         0.00000E+00
    0.42088E+06        -0.49779E+08         0.00000E+00
    0.00000E+00         0.00000E+00        -0.49903E+08
 
   -0.49755E+08         0.42393E+06         0.00000E+00
    0.42393E+06        -0.49771E+08         0.00000E+00
    0.00000E+00         0.00000E+00        -0.49905E+08
 
   -0.49772E+08         0.42672E+06         0.00000E+00
    0.42672E+06        -0.49764E+08         0.00000E+00
    0.00000E+00         0.00000E+00        -0.49907E+08
 
   -0.49788E+08         0.42928E+06         0.00000E+00
    0.42928E+06        -0.49757E+08         0.00000E+00
    0.00000E+00         0.00000E+00        -0.49909E+08
 
   -0.49804E+08         0.43164E+06         0.00000E+00
    0.43164E+06        -0.49749E+08         0.00000E+00
    0.00000E+00         0.00000E+00        -0.49911E+08
 
   -0.49821E+08         0.43379E+06         0.00000E+00
    0.43379E+06        -0.49742E+08         0.00000E+00
    0.00000E+00         0.00000E+00        -0.49913E+08
 
   -0.49837E+08         0.43576E+06         0.00000E+00
    0.43576E+06        -0.49735E+08         0.00000E+00
    0.00000E+00         0.00000E+00        -0.49914E+08
 
   -0.49853E+08         0.43758E+06         0.00000E+00
    0.43758E+06        -0.49728E+08         0.00000E+00
    0.00000E+00         0.00000E+00        -0.49916E+08
 
   -0.49869E+08         0.43924E+06         0.00000E+00
    0.43924E+06        -0.49721E+08         0.00000E+00
    0.00000E+00         0.00000E+00        -0.49918E+08
 
   -0.49885E+08         0.44078E+06         0.00000E+00
    0.44078E+06        -0.49714E+08         0.00000E+00
    0.00000E+00         0.00000E+00        -0.49920E+08
 
   -0.49900E+08         0.44220E+06         0.00000E+00
    0.44220E+06        -0.49707E+08         0.00000E+00
    0.00000E+00         0.00000E+00        -0.49921E+08
 
   -0.49916E+08         0.44352E+06         0.00000E+00
    0.44352E+06        -0.49700E+08         0.00000E+00
    0.00000E+00         0.00000E+00        -0.49923E+08
 
   -0.49146E+08         0.11019E+05         0.00000E+00
    0.11019E+05        -0.50000E+08         0.00000E+00
    0.00000E+00         0.00000E+00        -0.49829E+08
 
   -0.49150E+08         0.32313E+05         0.00000E+00
    0.32313E+05        -0.50000E+08         0.00000E+00
    0.00000E+00         0.00000E+00        -0.49830E+08
 
   -0.49155E+08         0.53243E+05         0.00000E+00
    0.53243E+05        -0.49998E+08         0.00000E+00
    0.00000E+00         0.00000E+00        -0.49831E+08
 
   -0.49161E+08         0.73774E+05         0.00000E+00
    0.73774E+05        -0.49996E+08         0.00000E+00
    0.00000E+00         0.00000E+00        -0.49831E+08
 
   -0.49168E+08         0.93877E+05         0.00000E+00
    0.93877E+05        -0.49994E+08         0.00000E+00
    0.00000E+00         0.00000E+00        -0.49832E+08
 
   -0.49176E+08         0.11353E+06         0.00000E+00
    0.11353E+06        -0.49991E+08         0.00000E+00
    0.00000E+00         0.00000E+00        -0.49833E+08
 
   -0.49185E+08         0.13269E+06         0.00000E+00
    0.13269E+06        -0.49988E+08         0.00000E+00
    0.00000E+00         0.00000E+00        -0.49835E+08
 
   -0.49195E+08         0.15136E+06         0.00000E+00
    0.15136E+06        -0.49984E+08         0.00000E+00
    0.00000E+00         0.00000E+00        -0.49836E+08
 
   -0.49206E+08         0.16951E+06         0.00000E+00
    0.16951E+06        -0.49980E+08         0.00000E+00
    0.00000E+00         0.00000E+00        -0.49837E+08
 
   -0.49218E+08         0.18712E+06         0.00000E+00
    0.18712E+06        -0.49975E+08         0.00000E+00
    0.00000E+00         0.00000E+00        -0.49838E+08
 
   -0.49230E+08         0.20418E+06         0.00000E+00
    0.20418E+06        -0.49970E+08         0.00000E+00
    0.00000E+00         0.00000E+00        -0.49840E+08
 
   -0.49243E+08         0.22067E+06         0.00000E+00
    0.22067E+06        -0.49964E+08         0.00000E+00
    0.00000E+00         0.00000E+00        -0.49842E+08
 
   -0.49257E+08         0.23659E+06         0.00000E+00
    0.23659E+06        -0.49958E+08         0.00000E+00
    0.00000E+00         0.00000E+00        -0.49843E+08
 
   -0.49272E+08         0.25193E+06         0.00000E+00
    0.25193E+06        -0.49952E+08         0.00000E+00
    0.00000E+00         0.00000E+00        -0.49845E+08
 
   -0.49287E+08         0.26669E+06         0.00000E+00
    0.26669E+06        -0.49946E+08         0.00000E+00
    0.00000E+00         0.00000E+00        -0.49847E+08
 
   -0.49303E+08         0.28085E+06         0.00000E+00
    0.28085E+06        -0.49939E+08         0.00000E+00
    0.00000E+00         0.00000E+00        -0.49848E+08
 
   -0.49319E+08         0.29443E+06         0.00000E+00
    0.29443E+06        -0.49932E+08         0.00000E+00
    0.00000E+00         0.00000E+00        -0.49850E+08
 
   -0.49336E+08         0.30741E+06         0.00000E+00
    0.30741E+06        -0.49925E+08         0.00000E+00
    0.00000E+00         0.00000E+00        -0.49852E+08
 
   -0.49353E+08         0.31980E+06         0.00000E+00
    0.31980E+06        -0.49918E+08         0.00000E+00
    0.00000E+00         0.00000E+00        -0.49854E+08
 
   -0.49370E+08         0.33160E+06         0.00000E+00
    0.33160E+06        -0.49910E+08         0.00000E+00
    0.00000E+00         0.00000E+00        -0.49856E+08
 
   -0.49388E+08         0.34283E+06         0.00000E+00
    0.34283E+06        -0.49903E+08         0.00000E+00
    0.00000E+00         0.00000E+00        -0.49858E+08
 
   -0.49406E+08         0.35348E+06         0.00000E+00
    0.35348E+06        -0.49895E+08         0.00000E+00
    0.00000E+00         0.00000E+00        -0.49860E+08
 
   -0.49425E+08         0.36357E+06         0.00000E+00
    0.36357E+06        -0.49887E+08         0.00000E+00
    0.00000E+00         0.00000E+00        -0.49862E+08
 
   -0.49443E+08         0.37309E+06         0.00000E+00
    0.37309E+06        -0.49879E+08         0.00000E+00
    0.00000E+00         0.00000E+00        -0.49864E+08
 
   -0.49462E+08         0.38208E+06         0.00000E+00
    0.38208E+06        -0.49871E+08         0.00000E+00
    0.00000E+00         0.00000E+00        -0.49866E+08
 
   -0.49480E+08         0.39052E+06         0.00000E+00
    0.39052E+06        -0.49863E+08         0.00000E+00
    0.00000E+00         0.00000E+00        -0.49869E+08
 
   -0.49499E+08         0.39845E+06         0.00000E+00
    0.39845E+06        -0.49854E+08         0.00000E+00
    0.00000E+00         0.00000E+00        -0.49871E+08
 
   -0.49518E+08         0.40587E+06         0.00000E+00
    0.40587E+06        -0.49846E+08         0.00000E+00
    0.00000E+00         0.00000E+00        -0.49873E+08
 
   -0.49537E+08         0.41280E+06         0.00000E+00
    0.41280E+06        -0.49838E+08         0.00000E+00
    0.00000E+00         0.00000E+00        -0.49875E+08
 
   -0.49556E+08         0.41925E+06         0.00000E+00
    0.41925E+06        -0.49830E+08         0.00000E+00
    0.00000E+00         0.00000E+00        -0.49877E+08
 
   -0.49575E+08         0.42524E+06         0.00000E+00
    0.42524E+06        -0.49821E+08         0.00000E+00
    0.00000E+00         0.00000E+00        -0.49879E+08
 
   -0.49594E+08         0.43080E+06         0.00000E+00
    0.43080E+06        -0.49813E+08         0.00000E+00
    0.00000E+00         0.00000E+00        -0.49881E+08
 
   -0.49613E+08         0.43593E+06         0.00000E+00
    0.43593E+06        -0.49805E+08         0.00000E+00
    0.00000E+00         0.00000E+00        -0.49884E+08
 
   -0.49632E+08         0.44065E+06         0.00000E+00
    0.44065E+06        -0.49797E+08         0.00000E+00
    0.00000E+00         0.00000E+00        -0.49886E+08
 
   -0.49650E+08         0.44500E+06         0.00000E+00
    0.44500E+06        -0.49789E+08         0.00000E+00
    0.00000E+00         0.00000E+00        -0.49888E+08
 
   -0.49669E+08         0.44898E+06         0.00000E+00
    0.44898E+06        -0.49781E+08         0.00000E+00
    0.00000E+00         0.00000E+00        -0.49890E+08
 
   -0.49687E+08         0.45262E+06         0.00000E+00
    0.45262E+06        -0.49773E+08         0.00000E+00
    0.00000E+00         0.00000E+00        -0.49892E+08
 
   -0.49705E+08         0.45593E+06         0.00000E+00
    0.45593E+06        -0.49765E+08         0.00000E+00
    0.00000E+00         0.00000E+00        -0.49894E+08
 
   -0.49723E+08         0.45895E+06         0.00000E+00
    0.45895E+06        -0.49757E+08         0.00000E+00
    0.00000E+00         0.00000E+00        -0.49896E+08
 
   -0.49741E+08         0.46169E+06         0.00000E+00
    0.46169E+06        -0.49749E+08         0.00000E+00
    0.00000E+00         0.00000E+00        -0.49898E+08
 
   -0.49759E+08         0.46418E+06         0.00000E+00
    0.46418E+06        -0.49742E+08         0.00000E+00
    0.00000E+00         0.00000E+00        -0.49900E+08
 
   -0.49776E+08         0.46644E+06         0.00000E+00
    0.46644E+06        -0.49734E+08         0.00000E+00
    0.00000E+00         0.00000E+00        -0.49902E+08
 
   -0.49794E+08         0.46848E+06         0.00000E+00
    0.46848E+06        -0.49727E+08         0.00000E+00
    0.00000E+00         0.00000E+00        -0.49904E+08
 
   -0.49811E+08         0.47034E+06         0.00000E+00
    0.47034E+06        -0.49719E+08         0.00000E+00
    0.00000E+00         0.00000E+00        -0.49906E+08
 
   -0.49828E+08         0.47204E+06         0.00000E+00
    0.47204E+06        -0.49712E+08         0.00000E+00
    0.00000E+00         0.00000E+00        -0.49908E+08
 
   -0.49845E+08         0.47359E+06         0.00000E+00
    0.47359E+06        -0.49704E+08         0.00000E+00
    0.00000E+00         0.00000E+00        -0.49910E+08
 
   -0.49861E+08         0.47503E+06         0.00000E+00
    0.47503E+06        -0.49697E+08         0.00000E+00
    0.00000E+00         0.00000E+00        -0.49912E+08
 
   -0.49878E+08         0.47637E+06         0.00000E+00
    0.47637E+06        -0.49690E+08         0.00000E+00
    0.00000E+00         0.00000E+00        -0.49913E+08
 
   -0.49894E+08         0.47763E+06         0.00000E+00
    0.47763E+06        -0.49683E+08         0.00000E+00
    0.00000E+00         0.00000E+00        -0.49915E+08
 
   -0.49910E+08         0.47884E+06         0.00000E+00
    0.47884E+06        -0.49676E+08         0.00000E+00
    0.00000E+00         0.00000E+00        -0.49917E+08
 
   -0.49031E+08         0.12838E+05         0.00000E+00
    0.12838E+05        -0.50000E+08         0.00000E+00
    0.00000E+00         0.00000E+00        -0.49806E+08
 
   -0.49037E+08         0.37432E+05         0.00000E+00
    0.37432E+05        -0.49999E+08         0.00000E+00
    0.00000E+00         0.00000E+00        -0.49807E+08
 
   -0.49044E+08         0.61513E+05         0.00000E+00
    0.61513E+05        -0.49998E+08         0.00000E+00
    0.00000E+00         0.00000E+00        -0.49808E+08
 
   -0.49052E+08         0.85047E+05         0.00000E+00
    0.85047E+05        -0.49996E+08         0.00000E+00
    0.00000E+00         0.00000E+00        -0.49810E+08
 
   -0.49062E+08         0.10800E+06         0.00000E+00
    0.10800E+06        -0.49993E+08         0.00000E+00
    0.00000E+00         0.00000E+00        -0.49811E+08
 
   -0.49072E+08         0.13035E+06         0.00000E+00
    0.13035E+06        -0.49990E+08         0.00000E+00
    0.00000E+00         0.00000E+00        -0.49812E+08
 
   -0.49084E+08         0.15207E+06         0.00000E+00
    0.15207E+06        -0.49986E+08         0.00000E+00
    0.00000E+00         0.00000E+00        -0.49814E+08
 
   -0.49097E+08         0.17314E+06         0.00000E+00
    0.17314E+06        -0.49982E+08         0.00000E+00
    0.00000E+00         0.00000E+00        -0.49816E+08
 
   -0.49111E+08         0.19354E+06         0.00000E+00
    0.19354E+06        -0.49977E+08         0.00000E+00
    0.00000E+00         0.00000E+00        -0.49818E+08
 
   -0.49126E+08         0.21326E+06         0.00000E+00
    0.21326E+06        -0.49971E+08         0.00000E+00
    0.00000E+00         0.00000E+00        -0.49819E+08
 
   -0.49142E+08         0.23228E+06         0.00000E+00
    0.23228E+06        -0.49966E+08         0.00000E+00
    0.00000E+00         0.00000E+00        -0.49821E+08
 
   -0.49158E+08         0.25059E+06         0.00000E+00
    0.25059E+06        -0.49959E+08         0.00000E+00
    0.00000E+00         0.00000E+00        -0.49824E+08
 
   -0.49175E+08         0.26820E+06         0.00000E+00
    0.26820E+06        -0.49953E+08         0.00000E+00
    0.00000E+00         0.00000E+00        -0.49826E+08
 
   -0.49193E+08         0.28508E+06         0.00000E+00
    0.28508E+06        -0.49946E+08         0.00000E+00
    0.00000E+00         0.00000E+00        -0.49828E+08
 
   -0.49212E+08         0.30125E+06         0.00000E+00
    0.30125E+06        -0.49939E+08         0.00000E+00
    0.00000E+00         0.00000E+00        -0.49830E+08
 
   -0.49231E+08         0.31669E+06         0.00000E+00
    0.31669E+06        -0.49932E+08         0.00000E+00
    0.00000E+00         0.00000E+00        -0.49832E+08
 
   -0.49250E+08         0.33142E+06         0.00000E+00
    0.33142E+06        -0.49924E+08         0.00000E+00
    0.00000E+00         0.00000E+00        -0.49835E+08
 
   -0.49270E+08         0.34544E+06         0.00000E+00
    0.34544E+06        -0.49916E+08         0.00000E+00
    0.00000E+00         0.00000E+00        -0.49837E+08
 
   -0.49290E+08         0.35875E+06         0.00000E+00
    0.35875E+06        -0.49908E+08         0.00000E+00
    0.00000E+00         0.00000E+00        -0.49840E+08
 
   -0.49311E+08         0.37136E+06         0.00000E+00
    0.37136E+06        -0.49900E+08         0.00000E+00
    0.00000E+00         0.00000E+00        -0.49842E+08
 
   -0.49332E+08         0.38327E+06         0.00000E+00
    0.38327E+06        -0.49891E+08         0.00000E+00
    0.00000E+00         0.00000E+00        -0.49845E+08
 
   -0.49353E+08         0.39452E+06         0.00000E+00
    0.39452E+06        -0.49883E+08         0.00000E+00
    0.00000E+00         0.00000E+00        -0.49847E+08
 
   -0.49374E+08         0.40509E+06         0.00000E+00
    0.40509E+06        -0.49874E+08         0.00000E+00
    0.00000E+00         0.00000E+00        -0.49850E+08
 
   -0.49396E+08         0.41501E+06         0.00000E+00
    0.41501E+06        -0.49865E+08         0.00000E+00
    0.00000E+00         0.00000E+00        -0.49852E+08
 
   -0.49417E+08         0.42430E+06         0.00000E+00
    0.42430E+06        -0.49857E+08         0.00000E+00
    0.00000E+00         0.00000E+00        -0.49855E+08
 
   -0.49439E+08         0.43297E+06         0.00000E+00
    0.43297E+06        -0.49848E+08         0.00000E+00
    0.00000E+00         0.00000E+00        -0.49857E+08
 
   -0.49461E+08         0.44103E+06         0.00000E+00
    0.44103E+06        -0.49839E+08         0.00000E+00
    0.00000E+00         0.00000E+00        -0.49860E+08
 
   -0.49482E+08         0.44851E+06         0.00000E+00
    0.44851E+06        -0.49830E+08         0.00000E+00
    0.00000E+00         0.00000E+00        -0.49862E+08
 
   -0.49504E+08         0.45543E+06         0.00000E+00
    0.45543E+06        -0.49821E+08         0.00000E+00
    0.00000E+00         0.00000E+00        -0.49865E+08
 
   -0.49525E+08         0.46181E+06         0.00000E+00
    0.46181E+06        -0.49813E+08         0.00000E+00
    0.00000E+00         0.00000E+00        -0.49868E+08
 
   -0.49547E+08         0.46766E+06         0.00000E+00
    0.46766E+06        -0.49804E+08         0.00000E+00
    0.00000E+00         0.00000E+00        -0.49870E+08
 
   -0.49568E+08         0.47302E+06         0.00000E+00
    0.47302E+06        -0.49795E+08         0.00000E+00
    0.00000E+00         0.00000E+00        -0.49873E+08
 
   -0.49589E+08         0.47791E+06         0.00000E+00
    0.47791E+06        -0.49787E+08         0.00000E+00
    0.00000E+00         0.00000E+00        -0.49875E+08
 
   -0.49610E+08         0.48235E+06         0.00000E+00
    0.48235E+06        -0.49778E+08         0.00000E+00
    0.00000E+00         0.00000E+00        -0.49877E+08
 
   -0.49630E+08         0.48636E+06         0.00000E+00
    0.48636E+06        -0.49769E+08         0.00000E+00
    0.00000E+00         0.00000E+00        -0.49880E+08
 
   -0.49650E+08         0.48998E+06         0.00000E+00
    0.48998E+06        -0.49761E+08         0.00000E+00
    0.00000E+00         0.00000E+00        -0.49882E+08
 
   -0.49671E+08         0.49322E+06         0.00000E+00
    0.49322E+06        -0.49753E+08         0.00000E+00
    0.00000E+00         0.00000E+00        -0.49885E+08
 
   -0.49690E+08         0.49613E+06         0.00000E+00
    0.49613E+06        -0.49744E+08         0.00000E+00
    0.00000E+00         0.00000E+00        -0.49887E+08
 
   -0.49710E+08         0.49871E+06         0.00000E+00
    0.49871E+06        -0.49736E+08         0.00000E+00
    0.00000E+00         0.00000E+00        -0.49889E+08
 
   -0.49729E+08         0.50101E+06         0.00000E+00
    0.50101E+06        -0.49728E+08         0.00000E+00
    0.00000E+00         0.00000E+00        -0.49891E+08
 
   -0.49748E+08         0.50304E+06         0.00000E+00
    0.50304E+06        -0.49720E+08         0.00000E+00
    0.00000E+00         0.00000E+00        -0.49894E+08
 
   -0.49767E+08         0.50485E+06         0.00000E+00
    0.50485E+06        -0.49712E+08         0.00000E+00
    0.00000E+00         0.00000E+00        -0.49896E+08
 
   -0.49785E+08         0.50645E+06         0.00000E+00
    0.50645E+06        -0.49705E+08         0.00000E+00
    0.00000E+00         0.00000E+00        -0.49898E+08
 
   -0.49803E+08         0.50788E+06         0.00000E+00
    0.50788E+06        -0.49697E+08         0.00000E+00
    0.00000E+00         0.00000E+00        -0.49900E+08
 
   -0.49821E+08         0.50916E+06         0.00000E+00
    0.50916E+06        -0.49690E+08         0.00000E+00
    0.00000E+00         0.00000E+00        -0.49902E+08
 
   -0.49838E+08         0.51033E+06         0.00000E+00
    0.51033E+06        -0.49682E+08         0.00000E+00
    0.00000E+00         0.00000E+00        -0.49904E+08
 
   -0.49855E+08         0.51141E+06         0.00000E+00
    0.51141E+06        -0.49675E+08         0.00000E+00
    0.00000E+00         0.00000E+00        -0.49906E+08
 
   -0.49872E+08         0.51244E+06         0.00000E+00
    0.51244E+06        -0.49668E+08         0.00000E+00
    0.00000E+00         0.00000E+00        -0.49908E+08
 
   -0.49888E+08         0.51344E+06         0.00000E+00
    0.51344E+06        -0.49660E+08         0.00000E+00
    0.00000E+00         0.00000E+00        -0.49910E+08
 
   -0.49904E+08         0.51443E+06         0.00000E+00
    0.51443E+06        -0.49653E+08         0.00000E+00
    0.00000E+00         0.00000E+00        -0.49912E+08
 
   -0.48897E+08         0.14948E+05         0.00000E+00
    0.14948E+05        -0.50000E+08         0.00000E+00
    0.00000E+00         0.00000E+00        -0.49779E+08
 
   -0.48906E+08         0.43312E+05         0.00000E+00
    0.43312E+05        -0.49999E+08         0.00000E+00
    0.00000E+00         0.00000E+00        -0.49781E+08
 
   -0.48916E+08         0.70971E+05         0.00000E+00
    0.70971E+05        -0.49998E+08         0.00000E+00
    0.00000E+00         0.00000E+00        -0.49783E+08
 
   -0.48928E+08         0.97890E+05         0.00000E+00
    0.97890E+05        -0.49995E+08         0.00000E+00
    0.00000E+00         0.00000E+00        -0.49785E+08
 
   -0.48941E+08         0.12404E+06         0.00000E+00
    0.12404E+06        -0.49992E+08         0.00000E+00
    0.00000E+00         0.00000E+00        -0.49787E+08
 
   -0.48955E+08         0.14939E+06         0.00000E+00
    0.14939E+06        -0.49988E+08         0.00000E+00
    0.00000E+00         0.00000E+00        -0.49789E+08
 
   -0.48971E+08         0.17393E+06         0.00000E+00
    0.17393E+06        -0.49984E+08         0.00000E+00
    0.00000E+00         0.00000E+00        -0.49791E+08
 
   -0.48987E+08         0.19763E+06         0.00000E+00
    0.19763E+06        -0.49979E+08         0.00000E+00
    0.00000E+00         0.00000E+00        -0.49793E+08
 
   -0.49005E+08         0.22048E+06         0.00000E+00
    0.22048E+06        -0.49974E+08         0.00000E+00
    0.00000E+00         0.00000E+00        -0.49796E+08
 
   -0.49024E+08         0.24247E+06         0.00000E+00
    0.24247E+06        -0.49968E+08         0.00000E+00
    0.00000E+00         0.00000E+00        -0.49798E+08
 
   -0.49043E+08         0.26359E+06         0.00000E+00
    0.26359E+06        -0.49961E+08         0.00000E+00
    0.00000E+00         0.00000E+00        -0.49801E+08
 
   -0.49064E+08         0.28384E+06         0.00000E+00
    0.28384E+06        -0.49955E+08         0.00000E+00
    0.00000E+00         0.00000E+00        -0.49804E+08
 
   -0.49085E+08         0.30321E+06         0.00000E+00
    0.30321E+06        -0.49948E+08         0.00000E+00
    0.00000E+00         0.00000E+00        -0.49806E+08
 
   -0.49107E+08         0.32170E+06         0.00000E+00
    0.32170E+06        -0.49940E+08         0.00000E+00
    0.00000E+00         0.00000E+00        -0.49809E+08
 
   -0.49129E+08         0.33932E+06         0.00000E+00
    0.33932E+06        -0.49932E+08         0.00000E+00
    0.00000E+00         0.00000E+00        -0.49812E+08
 
   -0.49152E+08         0.35606E+06         0.00000E+00
    0.35606E+06        -0.49924E+08         0.00000E+00
    0.00000E+00         0.00000E+00        -0.49815E+08
 
   -0.49175E+08         0.37195E+06         0.00000E+00
    0.37195E+06        -0.49916E+08         0.00000E+00
    0.00000E+00         0.00000E+00        -0.49818E+08
 
   -0.49199E+08         0.38698E+06         0.00000E+00
    0.38698E+06        -0.49907E+08         0.00000E+00
    0.00000E+00         0.00000E+00        -0.49821E+08
 
   -0.49223E+08         0.40118E+06         0.00000E+00
    0.40118E+06        -0.49898E+08         0.00000E+00
    0.00000E+00         0.00000E+00        -0.49824E+08
 
   -0.49248E+08         0.41455E+06         0.00000E+00
    0.41455E+06        -0.49890E+08         0.00000E+00
    0.00000E+00         0.00000E+00        -0.49827E+08
 
   -0.49272E+08         0.42711E+06         0.00000E+00
    0.42711E+06        -0.49881E+08         0.00000E+00
    0.00000E+00         0.00000E+00        -0.49831E+08
 
   -0.49297E+08         0.43887E+06         0.00000E+00
    0.43887E+06        -0.49871E+08         0.00000E+00
    0.00000E+00         0.00000E+00        -0.49834E+08
 
   -0.49322E+08         0.44986E+06         0.00000E+00
    0.44986E+06        -0.49862E+08         0.00000E+00
    0.00000E+00         0.00000E+00        -0.49837E+08
 
   -0.49347E+08         0.46009E+06         0.00000E+00
    0.46009E+06        -0.49853E+08         0.00000E+00
    0.00000E+00         0.00000E+00        -0.49840E+08
 
   -0.49372E+08         0.46958E+06         0.00000E+00
    0.46958E+06        -0.49844E+08         0.00000E+00
    0.00000E+00         0.00000E+00        -0.49843E+08
 
   -0.49397E+08         0.47836E+06         0.00000E+00
    0.47836E+06        -0.49834E+08         0.00000E+00
    0.00000E+00         0.00000E+00        -0.49846E+08
 
   -0.49422E+08         0.48646E+06         0.00000E+00
    0.48646E+06        -0.49825E+08         0.00000E+00
    0.00000E+00         0.00000E+00        -0.49849E+08
 
   -0.49446E+08         0.49388E+06         0.00000E+00
    0.49388E+06        -0.49816E+08         0.00000E+00
    0.00000E+00         0.00000E+00        -0.49852E+08
 
   -0.49471E+08         0.50067E+06         0.00000E+00
    0.50067E+06        -0.49806E+08         0.00000E+00
    0.00000E+00         0.00000E+00        -0.49855E+08
 
   -0.49495E+08         0.50685E+06         0.00000E+00
    0.50685E+06        -0.49797E+08         0.00000E+00
    0.00000E+00         0.00000E+00        -0.49858E+08
 
   -0.49519E+08         0.51244E+06         0.00000E+00
    0.51244E+06        -0.49788E+08         0.00000E+00
    0.00000E+00         0.00000E+00        -0.49861E+08
 
   -0.49543E+08         0.51747E+06         0.00000E+00
    0.51747E+06        -0.49779E+08         0.00000E+00
    0.00000E+00         0.00000E+00        -0.49864E+08
 
   -0.49566E+08         0.52197E+06         0.00000E+00
    0.52197E+06        -0.49770E+08         0.00000E+00
    0.00000E+00         0.00000E+00        -0.49867E+08
 
   -0.49589E+08         0.52598E+06         0.00000E+00
    0.52598E+06        -0.49761E+08         0.00000E+00
    0.00000E+00         0.00000E+00        -0.49870E+08
 
   -0.49612E+08         0.52952E+06         0.00000E+00
    0.52952E+06        -0.49752E+08         0.00000E+00
    0.00000E+00         0.00000E+00        -0.49873E+08
 
   -0.49635E+08         0.53263E+06         0.00000E+00
    0.53263E+06        -0.49743E+08         0.00000E+00
    0.00000E+00         0.00000E+00        -0.49876E+08
 
   -0.49656E+08         0.53533E+06         0.00000E+00
    0.53533E+06        -0.49735E+08         0.00000E+00
    0.00000E+00         0.00000E+00        -0.49878E+08
 
   -0.49678E+08         0.53767E+06         0.00000E+00
    0.53767E+06        -0.49726E+08         0.00000E+00
    0.00000E+00         0.00000E+00        -0.49881E+08
 
   -0.49699E+08         0.53967E+06         0.00000E+00
    0.53967E+06        -0.49718E+08         0.00000E+00
    0.00000E+00         0.00000E+00        -0.49883E+08
 
   -0.49720E+08         0.54136E+06         0.00000E+00
    0.54136E+06        -0.49710E+08         0.00000E+00
    0.00000E+00         0.00000E+00        -0.49886E+08
 
   -0.49740E+08         0.54279E+06         0.00000E+00
    0.54279E+06        -0.49702E+08         0.00000E+00
    0.00000E+00         0.00000E+00        -0.49888E+08
 
   -0.49760E+08         0.54399E+06         0.00000E+00
    0.54399E+06        -0.49694E+08         0.00000E+00
    0.00000E+00         0.00000E+00        -0.49891E+08
 
   -0.49779E+08         0.54499E+06         0.00000E+00
    0.54499E+06        -0.49686E+08         0.00000E+00
    0.00000E+00         0.00000E+00        -0.49893E+08
 
   -0.49797E+08         0.54583E+06         0.00000E+00
    0.54583E+06        -0.49678E+08         0.00000E+00
    0.00000E+00         0.00000E+00        -0.49895E+08
 
   -0.49816E+08         0.54655E+06         0.00000E+00
    0.54655E+06        -0.49671E+08         0.00000E+00
    0.00000E+00         0.00000E+00        -0.49897E+08
 
   -0.49833E+08         0.54719E+06         0.00000E+00
    0.54719E+06        -0.49663E+08         0.00000E+00
    0.00000E+00         0.00000E+00        -0.49899E+08
 
   -0.49851E+08         0.54777E+06         0.00000E+00
    0.54777E+06        -0.49656E+08         0.00000E+00
    0.00000E+00         0.00000E+00        -0.49901E+08
 
   -0.49868E+08         0.54835E+06         0.00000E+00
    0.54835E+06        -0.49649E+08         0.00000E+00
    0.00000E+00         0.00000E+00        -0.49903E+08
 
   -0.49884E+08         0.54895E+06         0.00000E+00
    0.54895E+06        -0.49642E+08         0.00000E+00
    0.00000E+00         0.00000E+00        -0.49905E+08
 
   -0.49900E+08         0.54961E+06         0.00000E+00
    0.54961E+06        -0.49635E+08         0.00000E+00
    0.00000E+00         0.00000E+00        -0.49907E+08
 
   -0.48743E+08         0.17362E+05         0.00000E+00
    0.17362E+05        -0.50000E+08         0.00000E+00
    0.00000E+00         0.00000E+00        -0.49749E+08
 
   -0.48756E+08         0.49970E+05         0.00000E+00
    0.49970E+05        -0.49999E+08         0.00000E+00
    0.00000E+00         0.00000E+00        -0.49751E+08
 
   -0.48770E+08         0.81627E+05         0.00000E+00
    0.81627E+05        -0.49997E+08         0.00000E+00
    0.00000E+00         0.00000E+00        -0.49753E+08
 
   -0.48786E+08         0.11230E+06         0.00000E+00
    0.11230E+06        -0.49995E+08         0.00000E+00
    0.00000E+00         0.00000E+00        -0.49756E+08
 
   -0.48803E+08         0.14197E+06         0.00000E+00
    0.14197E+06        -0.49991E+08         0.00000E+00
    0.00000E+00         0.00000E+00        -0.49759E+08
 
   -0.48822E+08         0.17060E+06         0.00000E+00
    0.17060E+06        -0.49987E+08         0.00000E+00
    0.00000E+00         0.00000E+00        -0.49762E+08
 
   -0.48843E+08         0.19819E+06         0.00000E+00
    0.19819E+06        -0.49982E+08         0.00000E+00
    0.00000E+00         0.00000E+00        -0.49765E+08
 
   -0.48864E+08         0.22472E+06         0.00000E+00
    0.22472E+06        -0.49977E+08         0.00000E+00
    0.00000E+00         0.00000E+00        -0.49768E+08
 
   -0.48887E+08         0.25018E+06         0.00000E+00
    0.25018E+06        -0.49971E+08         0.00000E+00
    0.00000E+00         0.00000E+00        -0.49772E+08
 
   -0.48910E+08         0.27457E+06         0.00000E+00
    0.27457E+06        -0.49965E+08         0.00000E+00
    0.00000E+00         0.00000E+00        -0.49775E+08
 
   -0.48935E+08         0.29788E+06         0.00000E+00
    0.29788E+06        -0.49958E+08         0.00000E+00
    0.00000E+00         0.00000E+00        -0.49778E+08
 
   -0.48960E+08         0.32012E+06         0.00000E+00
    0.32012E+06        -0.49950E+08         0.00000E+00
    0.00000E+00         0.00000E+00        -0.49782E+08
 
   -0.48986E+08         0.34129E+06         0.00000E+00
    0.34129E+06        -0.49943E+08         0.00000E+00
    0.00000E+00         0.00000E+00        -0.49786E+08
 
   -0.49013E+08         0.36140E+06         0.00000E+00
    0.36140E+06        -0.49935E+08         0.00000E+00
    0.00000E+00         0.00000E+00        -0.49789E+08
 
   -0.49040E+08         0.38047E+06         0.00000E+00
    0.38047E+06        -0.49926E+08         0.00000E+00
    0.00000E+00         0.00000E+00        -0.49793E+08
 
   -0.49067E+08         0.39849E+06         0.00000E+00
    0.39849E+06        -0.49918E+08         0.00000E+00
    0.00000E+00         0.00000E+00        -0.49797E+08
 
   -0.49096E+08         0.41550E+06         0.00000E+00
    0.41550E+06        -0.49909E+08         0.00000E+00
    0.00000E+00         0.00000E+00        -0.49801E+08
 
   -0.49124E+08         0.43150E+06         0.00000E+00
    0.43150E+06        -0.49900E+08         0.00000E+00
    0.00000E+00         0.00000E+00        -0.49805E+08
 
   -0.49153E+08         0.44652E+06         0.00000E+00
    0.44652E+06        -0.49890E+08         0.00000E+00
    0.00000E+00         0.00000E+00        -0.49809E+08
 
   -0.49181E+08         0.46057E+06         0.00000E+00
    0.46057E+06        -0.49881E+08         0.00000E+00
    0.00000E+00         0.00000E+00        -0.49812E+08
 
   -0.49210E+08         0.47368E+06         0.00000E+00
    0.47368E+06        -0.49872E+08         0.00000E+00
    0.00000E+00         0.00000E+00        -0.49816E+08
 
   -0.49239E+08         0.48587E+06         0.00000E+00
    0.48587E+06        -0.49862E+08         0.00000E+00
    0.00000E+00         0.00000E+00        -0.49820E+08
 
   -0.49268E+08         0.49717E+06         0.00000E+00
    0.49717E+06        -0.49852E+08         0.00000E+00
    0.00000E+00         0.00000E+00        -0.49824E+08
 
   -0.49297E+08         0.50760E+06         0.00000E+00
    0.50760E+06        -0.49843E+08         0.00000E+00
    0.00000E+00         0.00000E+00        -0.49828E+08
 
   -0.49326E+08         0.51720E+06         0.00000E+00
    0.51720E+06        -0.49833E+08         0.00000E+00
    0.00000E+00         0.00000E+00        -0.49832E+08
 
   -0.49355E+08         0.52598E+06         0.00000E+00
    0.52598E+06        -0.49823E+08         0.00000E+00
    0.00000E+00         0.00000E+00        -0.49836E+08
 
   -0.49383E+08         0.53398E+06         0.00000E+00
    0.53398E+06        -0.49814E+08         0.00000E+00
    0.00000E+00         0.00000E+00        -0.49839E+08
 
   -0.49411E+08         0.54124E+06         0.00000E+00
    0.54124E+06        -0.49804E+08         0.00000E+00
    0.00000E+00         0.00000E+00        -0.49843E+08
 
   -0.49439E+08         0.54777E+06         0.00000E+00
    0.54777E+06        -0.49794E+08         0.00000E+00
    0.00000E+00         0.00000E+00        -0.49847E+08
 
   -0.49466E+08         0.55362E+06         0.00000E+00
    0.55362E+06        -0.49785E+08         0.00000E+00
    0.00000E+00         0.00000E+00        -0.49850E+08
 
   -0.49494E+08         0.55882E+06         0.00000E+00
    0.55882E+06        -0.49775E+08         0.00000E+00
    0.00000E+00         0.00000E+00        -0.49854E+08
 
   -0.49520E+08         0.56340E+06         0.00000E+00
    0.56340E+06        -0.49766E+08         0.00000E+00
    0.00000E+00         0.00000E+00        -0.49857E+08
 
   -0.49546E+08         0.56739E+06         0.00000E+00
    0.56739E+06        -0.49757E+08         0.00000E+00
    0.00000E+00         0.00000E+00        -0.49861E+08
 
   -0.49572E+08         0.57084E+06         0.00000E+00
    0.57084E+06        -0.49748E+08         0.00000E+00
    0.00000E+00         0.00000E+00        -0.49864E+08
 
   -0.49597E+08         0.57377E+06         0.00000E+00
    0.57377E+06        -0.49739E+08         0.00000E+00
    0.00000E+00         0.00000E+00        -0.49867E+08
 
   -0.49622E+08         0.57623E+06         0.00000E+00
    0.57623E+06        -0.49730E+08         0.00000E+00
    0.00000E+00         0.00000E+00        -0.49870E+08
 
   -0.49645E+08         0.57825E+06         0.00000E+00
    0.57825E+06        -0.49721E+08         0.00000E+00
    0.00000E+00         0.00000E+00        -0.49873E+08
 
   -0.49669E+08         0.57987E+06         0.00000E+00
    0.57987E+06        -0.49713E+08         0.00000E+00
    0.00000E+00         0.00000E+00        -0.49876E+08
 
   -0.49692E+08         0.58114E+06         0.00000E+00
    0.58114E+06        -0.49704E+08         0.00000E+00
    0.00000E+00         0.00000E+00        -0.49879E+08
 
   -0.49714E+08         0.58209E+06         0.00000E+00
    0.58209E+06        -0.49696E+08         0.00000E+00
    0.00000E+00         0.00000E+00        -0.49882E+08
 
   -0.49735E+08         0.58276E+06         0.00000E+00
    0.58276E+06        -0.49688E+08         0.00000E+00
    0.00000E+00         0.00000E+00        -0.49885E+08
 
   -0.49756E+08         0.58319E+06         0.00000E+00
    0.58319E+06        -0.49680E+08         0.00000E+00
    0.00000E+00         0.00000E+00        -0.49887E+08
 
   -0.49776E+08         0.58343E+06         0.00000E+00
    0.58343E+06        -0.49673E+08         0.00000E+00
    0.00000E+00         0.00000E+00        -0.49890E+08
 
   -0.49795E+08         0.58353E+06         0.00000E+00
    0.58353E+06        -0.49665E+08         0.00000E+00
    0.00000E+00         0.00000E+00        -0.49892E+08
 
   -0.49814E+08         0.58352E+06         0.00000E+00
    0.58352E+06        -0.49658E+08         0.00000E+00
    0.00000E+00         0.00000E+00        -0.49894E+08
 
   -0.49832E+08         0.58346E+06         0.00000E+00
    0.58346E+06        -0.49651E+08         0.00000E+00
    0.00000E+00         0.00000E+00        -0.49896E+08
 
   -0.49849E+08         0.58338E+06         0.00000E+00
    0.58338E+06        -0.49643E+08         0.00000E+00
    0.00000E+00         0.00000E+00        -0.49899E+08
 
   -0.49866E+08         0.58333E+06         0.00000E+00
    0.58333E+06        -0.49637E+08         0.00000E+00
    0.00000E+00         0.00000E+00        -0.49901E+08
 
   -0.49882E+08         0.58337E+06         0.00000E+00
    0.58337E+06        -0.49630E+08         0.00000E+00
    0.00000E+00         0.00000E+00        -0.49902E+08
 
   -0.49897E+08         0.58354E+06         0.00000E+00
    0.58354E+06        -0.49623E+08         0.00000E+00
    0.00000E+00         0.00000E+00        -0.49904E+08
 
   -0.48566E+08         0.20077E+05         0.00000E+00
    0.20077E+05        -0.50000E+08         0.00000E+00
    0.00000E+00         0.00000E+00        -0.49713E+08
 
   -0.48584E+08         0.57372E+05         0.00000E+00
    0.57372E+05        -0.49999E+08         0.00000E+00
    0.00000E+00         0.00000E+00        -0.49717E+08
 
   -0.48604E+08         0.93405E+05         0.00000E+00
    0.93405E+05        -0.49997E+08         0.00000E+00
    0.00000E+00         0.00000E+00        -0.49720E+08
 
   -0.48625E+08         0.12815E+06         0.00000E+00
    0.12815E+06        -0.49994E+08         0.00000E+00
    0.00000E+00         0.00000E+00        -0.49724E+08
 
   -0.48649E+08         0.16160E+06         0.00000E+00
    0.16160E+06        -0.49991E+08         0.00000E+00
    0.00000E+00         0.00000E+00        -0.49728E+08
 
   -0.48673E+08         0.19372E+06         0.00000E+00
    0.19372E+06        -0.49986E+08         0.00000E+00
    0.00000E+00         0.00000E+00        -0.49732E+08
 
   -0.48700E+08         0.22453E+06         0.00000E+00
    0.22453E+06        -0.49981E+08         0.00000E+00
    0.00000E+00         0.00000E+00        -0.49736E+08
 
   -0.48727E+08         0.25401E+06         0.00000E+00
    0.25401E+06        -0.49975E+08         0.00000E+00
    0.00000E+00         0.00000E+00        -0.49740E+08
 
   -0.48756E+08         0.28216E+06         0.00000E+00
    0.28216E+06        -0.49969E+08         0.00000E+00
    0.00000E+00         0.00000E+00        -0.49745E+08
 
   -0.48785E+08         0.30899E+06         0.00000E+00
    0.30899E+06        -0.49962E+08         0.00000E+00
    0.00000E+00         0.00000E+00        -0.49749E+08
 
   -0.48815E+08         0.33452E+06         0.00000E+00
    0.33452E+06        -0.49955E+08         0.00000E+00
    0.00000E+00         0.00000E+00        -0.49754E+08
 
   -0.48847E+08         0.35874E+06         0.00000E+00
    0.35874E+06        -0.49947E+08         0.00000E+00
    0.00000E+00         0.00000E+00        -0.49759E+08
 
   -0.48878E+08         0.38169E+06         0.00000E+00
    0.38169E+06        -0.49939E+08         0.00000E+00
    0.00000E+00         0.00000E+00        -0.49763E+08
 
   -0.48911E+08         0.40337E+06         0.00000E+00
    0.40337E+06        -0.49930E+08         0.00000E+00
    0.00000E+00         0.00000E+00        -0.49768E+08
 
   -0.48944E+08         0.42381E+06         0.00000E+00
    0.42381E+06        -0.49922E+08         0.00000E+00
    0.00000E+00         0.00000E+00        -0.49773E+08
 
   -0.48977E+08         0.44303E+06         0.00000E+00
    0.44303E+06        -0.49913E+08         0.00000E+00
    0.00000E+00         0.00000E+00        -0.49778E+08
 
   -0.49011E+08         0.46106E+06         0.00000E+00
    0.46106E+06        -0.49904E+08         0.00000E+00
    0.00000E+00         0.00000E+00        -0.49783E+08
 
   -0.49044E+08         0.47792E+06         0.00000E+00
    0.47792E+06        -0.49894E+08         0.00000E+00
    0.00000E+00         0.00000E+00        -0.49788E+08
 
   -0.49078E+08         0.49365E+06         0.00000E+00
    0.49365E+06        -0.49885E+08         0.00000E+00
    0.00000E+00         0.00000E+00        -0.49793E+08
 
   -0.49112E+08         0.50827E+06         0.00000E+00
    0.50827E+06        -0.49875E+08         0.00000E+00
    0.00000E+00         0.00000E+00        -0.49798E+08
 
   -0.49146E+08         0.52181E+06         0.00000E+00
    0.52181E+06        -0.49866E+08         0.00000E+00
    0.00000E+00         0.00000E+00        -0.49802E+08
 
   -0.49180E+08         0.53431E+06         0.00000E+00
    0.53431E+06        -0.49856E+08         0.00000E+00
    0.00000E+00         0.00000E+00        -0.49807E+08
 
   -0.49214E+08         0.54580E+06         0.00000E+00
    0.54580E+06        -0.49846E+08         0.00000E+00
    0.00000E+00         0.00000E+00        -0.49812E+08
 
   -0.49247E+08         0.55632E+06         0.00000E+00
    0.55632E+06        -0.49837E+08         0.00000E+00
    0.00000E+00         0.00000E+00        -0.49817E+08
 
   -0.49280E+08         0.56590E+06         0.00000E+00
    0.56590E+06        -0.49827E+08         0.00000E+00
    0.00000E+00         0.00000E+00        -0.49821E+08
 
   -0.49313E+08         0.57457E+06         0.00000E+00
    0.57457E+06        -0.49817E+08         0.00000E+00
    0.00000E+00         0.00000E+00        -0.49826E+08
 
   -0.49345E+08         0.58237E+06         0.00000E+00
    0.58237E+06        -0.49807E+08         0.00000E+00
    0.00000E+00         0.00000E+00        -0.49831E+08
 
   -0.49377E+08         0.58935E+06         0.00000E+00
    0.58935E+06        -0.49798E+08         0.00000E+00
    0.00000E+00         0.00000E+00        -0.49835E+08
 
   -0.49409E+08         0.59552E+06         0.00000E+00
    0.59552E+06        -0.49788E+08         0.00000E+00
    0.00000E+00         0.00000E+00        -0.49839E+08
 
   -0.49440E+08         0.60095E+06         0.00000E+00
    0.60095E+06        -0.49779E+08         0.00000E+00
    0.00000E+00         0.00000E+00        -0.49844E+08
 
   -0.49470E+08         0.60565E+06         0.00000E+00
    0.60565E+06        -0.49769E+08         0.00000E+00
    0.00000E+00         0.00000E+00        -0.49848E+08
 
   -0.49500E+08         0.60968E+06         0.00000E+00
    0.60968E+06        -0.49760E+08         0.00000E+00
    0.00000E+00         0.00000E+00        -0.49852E+08
 
   -0.49529E+08         0.61306E+06         0.00000E+00
    0.61306E+06        -0.49751E+08         0.00000E+00
    0.00000E+00         0.00000E+00        -0.49856E+08
 
   -0.49558E+08         0.61585E+06         0.00000E+00
    0.61585E+06        -0.49742E+08         0.00000E+00
    0.00000E+00         0.00000E+00        -0.49860E+08
 
   -0.49585E+08         0.61808E+06         0.00000E+00
    0.61808E+06        -0.49733E+08         0.00000E+00
    0.00000E+00         0.00000E+00        -0.49864E+08
 
   -0.49612E+08         0.61979E+06         0.00000E+00
    0.61979E+06        -0.49724E+08         0.00000E+00
    0.00000E+00         0.00000E+00        -0.49867E+08
 
   -0.49638E+08         0.62103E+06         0.00000E+00
    0.62103E+06        -0.49716E+08         0.00000E+00
    0.00000E+00         0.00000E+00        -0.49871E+08
 
   -0.49664E+08         0.62183E+06         0.00000E+00
    0.62183E+06        -0.49708E+08         0.00000E+00
    0.00000E+00         0.00000E+00        -0.49874E+08
 
   -0.49688E+08         0.62225E+06         0.00000E+00
    0.62225E+06        -0.49699E+08         0.00000E+00
    0.00000E+00         0.00000E+00        -0.49877E+08
 
   -0.49712E+08         0.62233E+06         0.00000E+00
    0.62233E+06        -0.49691E+08         0.00000E+00
    0.00000E+00         0.00000E+00        -0.49881E+08
 
   -0.49734E+08         0.62211E+06         0.00000E+00
    0.62211E+06        -0.49683E+08         0.00000E+00
    0.00000E+00         0.00000E+00        -0.49884E+08
 
   -0.49756E+08         0.62165E+06         0.00000E+00
    0.62165E+06        -0.49676E+08         0.00000E+00
    0.00000E+00         0.00000E+00        -0.49886E+08
 
   -0.49777E+08         0.62100E+06         0.00000E+00
    0.62100E+06        -0.49668E+08         0.00000E+00
    0.00000E+00         0.00000E+00        -0.49889E+08
 
   -0.49797E+08         0.62019E+06         0.00000E+00
    0.62019E+06        -0.49661E+08         0.00000E+00
    0.00000E+00         0.00000E+00        -0.49892E+08
 
   -0.49816E+08         0.61930E+06         0.00000E+00
    0.61930E+06        -0.49654E+08         0.00000E+00
    0.00000E+00         0.00000E+00        -0.49894E+08
 
   -0.49834E+08         0.61836E+06         0.00000E+00
    0.61836E+06        -0.49647E+08         0.00000E+00
    0.00000E+00         0.00000E+00        -0.49896E+08
 
   -0.49851E+08         0.61744E+06         0.00000E+00
    0.61744E+06        -0.49640E+08         0.00000E+00
    0.00000E+00         0.00000E+00        -0.49898E+08
 
   -0.49868E+08         0.61659E+06         0.00000E+00
    0.61659E+06        -0.49634E+08         0.00000E+00
    0.00000E+00         0.00000E+00        -0.49900E+08
 
   -0.49883E+08         0.61588E+06         0.00000E+00
    0.61588E+06        -0.49628E+08         0.00000E+00
    0.00000E+00         0.00000E+00        -0.49902E+08
 
   -0.49898E+08         0.61535E+06         0.00000E+00
    0.61535E+06        -0.49621E+08         0.00000E+00
    0.00000E+00         0.00000E+00        -0.49904E+08
 
   -0.48363E+08         0.23066E+05         0.00000E+00
    0.23066E+05        -0.50000E+08         0.00000E+00
    0.00000E+00         0.00000E+00        -0.49673E+08
 
   -0.48388E+08         0.65403E+05         0.00000E+00
    0.65403E+05        -0.49999E+08         0.00000E+00
    0.00000E+00         0.00000E+00        -0.49677E+08
 
   -0.48416E+08         0.10609E+06         0.00000E+00
    0.10609E+06        -0.49997E+08         0.00000E+00
    0.00000E+00         0.00000E+00        -0.49683E+08
 
   -0.48445E+08         0.14513E+06         0.00000E+00
    0.14513E+06        -0.49994E+08         0.00000E+00
    0.00000E+00         0.00000E+00        -0.49688E+08
 
   -0.48475E+08         0.18250E+06         0.00000E+00
    0.18250E+06        -0.49990E+08         0.00000E+00
    0.00000E+00         0.00000E+00        -0.49693E+08
 
   -0.48508E+08         0.21822E+06         0.00000E+00
    0.21822E+06        -0.49985E+08         0.00000E+00
    0.00000E+00         0.00000E+00        -0.49699E+08
 
   -0.48541E+08         0.25229E+06         0.00000E+00
    0.25229E+06        -0.49980E+08         0.00000E+00
    0.00000E+00         0.00000E+00        -0.49704E+08
 
   -0.48576E+08         0.28472E+06         0.00000E+00
    0.28472E+06        -0.49974E+08         0.00000E+00
    0.00000E+00         0.00000E+00        -0.49710E+08
 
   -0.48612E+08         0.31553E+06         0.00000E+00
    0.31553E+06        -0.49967E+08         0.00000E+00
    0.00000E+00         0.00000E+00        -0.49716E+08
 
   -0.48648E+08         0.34474E+06         0.00000E+00
    0.34474E+06        -0.49961E+08         0.00000E+00
    0.00000E+00         0.00000E+00        -0.49722E+08
 
   -0.48686E+08         0.37237E+06         0.00000E+00
    0.37237E+06        -0.49953E+08         0.00000E+00
    0.00000E+00         0.00000E+00        -0.49728E+08
 
   -0.48724E+08         0.39846E+06         0.00000E+00
    0.39846E+06        -0.49945E+08         0.00000E+00
    0.00000E+00         0.00000E+00        -0.49734E+08
 
   -0.48763E+08         0.42303E+06         0.00000E+00
    0.42303E+06        -0.49937E+08         0.00000E+00
    0.00000E+00         0.00000E+00        -0.49740E+08
 
   -0.48802E+08         0.44613E+06         0.00000E+00
    0.44613E+06        -0.49929E+08         0.00000E+00
    0.00000E+00         0.00000E+00        -0.49746E+08
 
   -0.48842E+08         0.46778E+06         0.00000E+00
    0.46778E+06        -0.49920E+08         0.00000E+00
    0.00000E+00         0.00000E+00        -0.49752E+08
 
   -0.48881E+08         0.48802E+06         0.00000E+00
    0.48802E+06        -0.49911E+08         0.00000E+00
    0.00000E+00         0.00000E+00        -0.49759E+08
 
   -0.48921E+08         0.50689E+06         0.00000E+00
    0.50689E+06        -0.49902E+08         0.00000E+00
    0.00000E+00         0.00000E+00        -0.49765E+08
 
   -0.48961E+08         0.52444E+06         0.00000E+00
    0.52444E+06        -0.49893E+08         0.00000E+00
    0.00000E+00         0.00000E+00        -0.49771E+08
 
   -0.49001E+08         0.54070E+06         0.00000E+00
    0.54070E+06        -0.49884E+08         0.00000E+00
    0.00000E+00         0.00000E+00        -0.49777E+08
 
   -0.49041E+08         0.55572E+06         0.00000E+00
    0.55572E+06        -0.49875E+08         0.00000E+00
    0.00000E+00         0.00000E+00        -0.49783E+08
 
   -0.49080E+08         0.56954E+06         0.00000E+00
    0.56954E+06        -0.49866E+08         0.00000E+00
    0.00000E+00         0.00000E+00        -0.49789E+08
 
   -0.49120E+08         0.58221E+06         0.00000E+00
    0.58221E+06        -0.49856E+08         0.00000E+00
    0.00000E+00         0.00000E+00        -0.49795E+08
 
   -0.49158E+08         0.59376E+06         0.00000E+00
    0.59376E+06        -0.49847E+08         0.00000E+00
    0.00000E+00         0.00000E+00        -0.49801E+08
 
   -0.49197E+08         0.60424E+06         0.00000E+00
    0.60424E+06        -0.49837E+08         0.00000E+00
    0.00000E+00         0.00000E+00        -0.49807E+08
 
   -0.49235E+08         0.61369E+06         0.00000E+00
    0.61369E+06        -0.49828E+08         0.00000E+00
    0.00000E+00         0.00000E+00        -0.49813E+08
 
   -0.49272E+08         0.62215E+06         0.00000E+00
    0.62215E+06        -0.49819E+08         0.00000E+00
    0.00000E+00         0.00000E+00        -0.49818E+08
 
   -0.49309E+08         0.62968E+06         0.00000E+00
    0.62968E+06        -0.49810E+08         0.00000E+00
    0.00000E+00         0.00000E+00        -0.49824E+08
 
   -0.49345E+08         0.63630E+06         0.00000E+00
    0.63630E+06        -0.49801E+08         0.00000E+00
    0.00000E+00         0.00000E+00        -0.49829E+08
 
   -0.49381E+08         0.64207E+06         0.00000E+00
    0.64207E+06        -0.49791E+08         0.00000E+00
    0.00000E+00         0.00000E+00        -0.49834E+08
 
   -0.49416E+08         0.64702E+06         0.00000E+00
    0.64702E+06        -0.49783E+08         0.00000E+00
    0.00000E+00         0.00000E+00        -0.49840E+08
 
   -0.49450E+08         0.65120E+06         0.00000E+00
    0.65120E+06        -0.49774E+08         0.00000E+00
    0.00000E+00         0.00000E+00        -0.49845E+08
 
   -0.49483E+08         0.65464E+06         0.00000E+00
    0.65464E+06        -0.49765E+08         0.00000E+00
    0.00000E+00         0.00000E+00        -0.49850E+08
 
   -0.49515E+08         0.65740E+06         0.00000E+00
    0.65740E+06        -0.49756E+08         0.00000E+00
    0.00000E+00         0.00000E+00        -0.49854E+08
 
   -0.49547E+08         0.65951E+06         0.00000E+00
    0.65951E+06        -0.49748E+08         0.00000E+00
    0.00000E+00         0.00000E+00        -0.49859E+08
 
   -0.49577E+08         0.66102E+06         0.00000E+00
    0.66102E+06        -0.49739E+08         0.00000E+00
    0.00000E+00         0.00000E+00        -0.49863E+08
 
   -0.49607E+08         0.66197E+06         0.00000E+00
    0.66197E+06        -0.49731E+08         0.00000E+00
    0.00000E+00         0.00000E+00        -0.49868E+08
 
   -0.49635E+08         0.66240E+06         0.00000E+00
    0.66240E+06        -0.49723E+08         0.00000E+00
    0.00000E+00         0.00000E+00        -0.49872E+08
 
   -0.49662E+08         0.66237E+06         0.00000E+00
    0.66237E+06        -0.49715E+08         0.00000E+00
    0.00000E+00         0.00000E+00        -0.49875E+08
 
   -0.49689E+08         0.66191E+06         0.00000E+00
    0.66191E+06        -0.49707E+08         0.00000E+00
    0.00000E+00         0.00000E+00        -0.49879E+08
 
   -0.49714E+08         0.66107E+06         0.00000E+00
    0.66107E+06        -0.49700E+08         0.00000E+00
    0.00000E+00         0.00000E+00        -0.49883E+08
 
   -0.49738E+08         0.65991E+06         0.00000E+00
    0.65991E+06        -0.49692E+08         0.00000E+00
    0.00000E+00         0.00000E+00        -0.49886E+08
 
   -0.49761E+08         0.65848E+06         0.00000E+00
    0.65848E+06        -0.49685E+08         0.00000E+00
    0.00000E+00         0.00000E+00        -0.49889E+08
 
   -0.49783E+08         0.65683E+06         0.00000E+00
    0.65683E+06        -0.49678E+08         0.00000E+00
    0.00000E+00         0.00000E+00        -0.49892E+08
 
   -0.49804E+08         0.65502E+06         0.00000E+00
    0.65502E+06        -0.49671E+08         0.00000E+00
    0.00000E+00         0.00000E+00        -0.49895E+08
 
   -0.49823E+08         0.65311E+06         0.00000E+00
    0.65311E+06        -0.49664E+08         0.00000E+00
    0.00000E+00         0.00000E+00        -0.49897E+08
 
   -0.49841E+08         0.65115E+06         0.00000E+00
    0.65115E+06        -0.49658E+08         0.00000E+00
    0.00000E+00         0.00000E+00        -0.49900E+08
 
   -0.49858E+08         0.64921E+06         0.00000E+00
    0.64921E+06        -0.49652E+08         0.00000E+00
    0.00000E+00         0.00000E+00        -0.49902E+08
 
   -0.49874E+08         0.64736E+06         0.00000E+00
    0.64736E+06        -0.49646E+08         0.00000E+00
    0.00000E+00         0.00000E+00        -0.49904E+08
 
   -0.49888E+08         0.64567E+06         0.00000E+00
    0.64567E+06        -0.49640E+08         0.00000E+00
    0.00000E+00         0.00000E+00        -0.49906E+08
 
   -0.49902E+08         0.64421E+06         0.00000E+00
    0.64421E+06        -0.49634E+08         0.00000E+00
    0.00000E+00         0.00000E+00        -0.49907E+08
 
   -0.48134E+08         0.26261E+05         0.00000E+00
    0.26261E+05        -0.50000E+08         0.00000E+00
    0.00000E+00         0.00000E+00        -0.49627E+08
 
   -0.48168E+08         0.73834E+05         0.00000E+00
    0.73834E+05        -0.49999E+08         0.00000E+00
    0.00000E+00         0.00000E+00        -0.49633E+08
 
   -0.48205E+08         0.11929E+06         0.00000E+00
    0.11929E+06        -0.49997E+08         0.00000E+00
    0.00000E+00         0.00000E+00        -0.49640E+08
 
   -0.48243E+08         0.16266E+06         0.00000E+00
    0.16266E+06        -0.49994E+08         0.00000E+00
    0.00000E+00         0.00000E+00        -0.49647E+08
 
   -0.48283E+08         0.20393E+06         0.00000E+00
    0.20393E+06        -0.49990E+08         0.00000E+00
    0.00000E+00         0.00000E+00        -0.49655E+08
 
   -0.48325E+08         0.24315E+06         0.00000E+00
    0.24315E+06        -0.49985E+08         0.00000E+00
    0.00000E+00         0.00000E+00        -0.49662E+08
 
   -0.48367E+08         0.28034E+06         0.00000E+00
    0.28034E+06        -0.49980E+08         0.00000E+00
    0.00000E+00         0.00000E+00        -0.49669E+08
 
   -0.48411E+08         0.31553E+06         0.00000E+00
    0.31553E+06        -0.49974E+08         0.00000E+00
    0.00000E+00         0.00000E+00        -0.49677E+08
 
   -0.48456E+08         0.34877E+06         0.00000E+00
    0.34877E+06        -0.49968E+08         0.00000E+00
    0.00000E+00         0.00000E+00        -0.49685E+08
 
   -0.48501E+08         0.38010E+06         0.00000E+00
    0.38010E+06        -0.49961E+08         0.00000E+00
    0.00000E+00         0.00000E+00        -0.49692E+08
 
   -0.48547E+08         0.40957E+06         0.00000E+00
    0.40957E+06        -0.49954E+08         0.00000E+00
    0.00000E+00         0.00000E+00        -0.49700E+08
 
   -0.48594E+08         0.43723E+06         0.00000E+00
    0.43723E+06        -0.49947E+08         0.00000E+00
    0.00000E+00         0.00000E+00        -0.49708E+08
 
   -0.48641E+08         0.46313E+06         0.00000E+00
    0.46313E+06        -0.49939E+08         0.00000E+00
    0.00000E+00         0.00000E+00        -0.49716E+08
 
   -0.48688E+08         0.48733E+06         0.00000E+00
    0.48733E+06        -0.49931E+08         0.00000E+00
    0.00000E+00         0.00000E+00        -0.49724E+08
 
   -0.48735E+08         0.50988E+06         0.00000E+00
    0.50988E+06        -0.49923E+08         0.00000E+00
    0.00000E+00         0.00000E+00        -0.49732E+08
 
   -0.48782E+08         0.53084E+06         0.00000E+00
    0.53084E+06        -0.49915E+08         0.00000E+00
    0.00000E+00         0.00000E+00        -0.49739E+08
 
   -0.48829E+08         0.55028E+06         0.00000E+00
    0.55028E+06        -0.49907E+08         0.00000E+00
    0.00000E+00         0.00000E+00        -0.49747E+08
 
   -0.48876E+08         0.56824E+06         0.00000E+00
    0.56824E+06        -0.49899E+08         0.00000E+00
    0.00000E+00         0.00000E+00        -0.49755E+08
 
   -0.48922E+08         0.58479E+06         0.00000E+00
    0.58479E+06        -0.49890E+08         0.00000E+00
    0.00000E+00         0.00000E+00        -0.49763E+08
 
   -0.48968E+08         0.59998E+06         0.00000E+00
    0.59998E+06        -0.49882E+08         0.00000E+00
    0.00000E+00         0.00000E+00        -0.49770E+08
 
   -0.49014E+08         0.61388E+06         0.00000E+00
    0.61388E+06        -0.49874E+08         0.00000E+00
    0.00000E+00         0.00000E+00        -0.49778E+08
 
   -0.49059E+08         0.62653E+06         0.00000E+00
    0.62653E+06        -0.49866E+08         0.00000E+00
    0.00000E+00         0.00000E+00        -0.49785E+08
 
   -0.49103E+08         0.63799E+06         0.00000E+00
    0.63799E+06        -0.49857E+08         0.00000E+00
    0.00000E+00         0.00000E+00        -0.49792E+08
 
   -0.49147E+08         0.64832E+06         0.00000E+00
    0.64832E+06        -0.49849E+08         0.00000E+00
    0.00000E+00         0.00000E+00        -0.49799E+08
 
   -0.49190E+08         0.65757E+06         0.00000E+00
    0.65757E+06        -0.49841E+08         0.00000E+00
    0.00000E+00         0.00000E+00        -0.49806E+08
 
   -0.49233E+08         0.66578E+06         0.00000E+00
    0.66578E+06        -0.49833E+08         0.00000E+00
    0.00000E+00         0.00000E+00        -0.49813E+08
 
   -0.49274E+08         0.67301E+06         0.00000E+00
    0.67301E+06        -0.49825E+08         0.00000E+00
    0.00000E+00         0.00000E+00        -0.49820E+08
 
   -0.49315E+08         0.67929E+06         0.00000E+00
    0.67929E+06        -0.49817E+08         0.00000E+00
    0.00000E+00         0.00000E+00        -0.49826E+08
 
   -0.49355E+08         0.68469E+06         0.00000E+00
    0.68469E+06        -0.49809E+08         0.00000E+00
    0.00000E+00         0.00000E+00        -0.49833E+08
 
   -0.49394E+08         0.68923E+06         0.00000E+00
    0.68923E+06        -0.49801E+08         0.00000E+00
    0.00000E+00         0.00000E+00        -0.49839E+08
 
   -0.49432E+08         0.69297E+06         0.00000E+00
    0.69297E+06        -0.49793E+08         0.00000E+00
    0.00000E+00         0.00000E+00        -0.49845E+08
 
   -0.49468E+08         0.69594E+06         0.00000E+00
    0.69594E+06        -0.49786E+08         0.00000E+00
    0.00000E+00         0.00000E+00        -0.49851E+08
 
   -0.49504E+08         0.69819E+06         0.00000E+00
    0.69819E+06        -0.49778E+08         0.00000E+00
    0.00000E+00         0.00000E+00        -0.49856E+08
 
   -0.49539E+08         0.69976E+06         0.00000E+00
    0.69976E+06        -0.49771E+08         0.00000E+00
    0.00000E+00         0.00000E+00        -0.49862E+08
 
   -0.49572E+08         0.70069E+06         0.00000E+00
    0.70069E+06        -0.49763E+08         0.00000E+00
    0.00000E+00         0.00000E+00        -0.49867E+08
 
   -0.49605E+08         0.70101E+06         0.00000E+00
    0.70101E+06        -0.49756E+08         0.00000E+00
    0.00000E+00         0.00000E+00        -0.49872E+08
 
   -0.49636E+08         0.70077E+06         0.00000E+00
    0.70077E+06        -0.49748E+08         0.00000E+00
    0.00000E+00         0.00000E+00        -0.49877E+08
 
   -0.49665E+08         0.70002E+06         0.00000E+00
    0.70002E+06        -0.49741E+08         0.00000E+00
    0.00000E+00         0.00000E+00        -0.49881E+08
 
   -0.49694E+08         0.69880E+06         0.00000E+00
    0.69880E+06        -0.49734E+08         0.00000E+00
    0.00000E+00         0.00000E+00        -0.49886E+08
 
   -0.49721E+08         0.69715E+06         0.00000E+00
    0.69715E+06        -0.49727E+08         0.00000E+00
    0.00000E+00         0.00000E+00        -0.49890E+08
 
   -0.49747E+08         0.69512E+06         0.00000E+00
    0.69512E+06        -0.49720E+08         0.00000E+00
    0.00000E+00         0.00000E+00        -0.49893E+08
 
   -0.49771E+08         0.69277E+06         0.00000E+00
    0.69277E+06        -0.49714E+08         0.00000E+00
    0.00000E+00         0.00000E+00        -0.49897E+08
 
   -0.49794E+08         0.69014E+06         0.00000E+00
    0.69014E+06        -0.49707E+08         0.00000E+00
    0.00000E+00         0.00000E+00        -0.49900E+08
 
   -0.49815E+08         0.68731E+06         0.00000E+00
    0.68731E+06        -0.49701E+08         0.00000E+00
    0.00000E+00         0.00000E+00        -0.49903E+08
 
   -0.49835E+08         0.68431E+06         0.00000E+00
    0.68431E+06        -0.49695E+08         0.00000E+00
    0.00000E+00         0.00000E+00        -0.49906E+08
 
   -0.49854E+08         0.68124E+06         0.00000E+00
    0.68124E+06        -0.49689E+08         0.00000E+00
    0.00000E+00         0.00000E+00        -0.49909E+08
 
   -0.49870E+08         0.67814E+06         0.00000E+00
    0.67814E+06        -0.49683E+08         0.00000E+00
    0.00000E+00         0.00000E+00        -0.49911E+08
 
   -0.49885E+08         0.67511E+06         0.00000E+00
    0.67511E+06        -0.49678E+08         0.00000E+00
    0.00000E+00         0.00000E+00        -0.49913E+08
 
   -0.49899E+08         0.67221E+06         0.00000E+00
    0.67221E+06        -0.49673E+08         0.00000E+00
    0.00000E+00         0.00000E+00        -0.49914E+08
 
   -0.49911E+08         0.66953E+06         0.00000E+00
    0.66953E+06        -0.49668E+08         0.00000E+00
    0.00000E+00         0.00000E+00        -0.49916E+08
 
   -0.47877E+08         0.29546E+05         0.00000E+00
    0.29546E+05        -0.50000E+08         0.00000E+00
    0.00000E+00         0.00000E+00        -0.49575E+08
 
   -0.47923E+08         0.82292E+05         0.00000E+00
    0.82292E+05        -0.49999E+08         0.00000E+00
    0.00000E+00         0.00000E+00        -0.49584E+08
 
   -0.47972E+08         0.13237E+06         0.00000E+00
    0.13237E+06        -0.49997E+08         0.00000E+00
    0.00000E+00         0.00000E+00        -0.49594E+08
 
   -0.48022E+08         0.17982E+06         0.00000E+00
    0.17982E+06        -0.49994E+08         0.00000E+00
    0.00000E+00         0.00000E+00        -0.49603E+08
 
   -0.48074E+08         0.22469E+06         0.00000E+00
    0.22469E+06        -0.49990E+08         0.00000E+00
    0.00000E+00         0.00000E+00        -0.49613E+08
 
   -0.48126E+08         0.26704E+06         0.00000E+00
    0.26704E+06        -0.49986E+08         0.00000E+00
    0.00000E+00         0.00000E+00        -0.49622E+08
 
   -0.48180E+08         0.30692E+06         0.00000E+00
    0.30692E+06        -0.49981E+08         0.00000E+00
    0.00000E+00         0.00000E+00        -0.49632E+08
 
   -0.48235E+08         0.34441E+06         0.00000E+00
    0.34441E+06        -0.49976E+08         0.00000E+00
    0.00000E+00         0.00000E+00        -0.49642E+08
 
   -0.48290E+08         0.37959E+06         0.00000E+00
    0.37959E+06        -0.49970E+08         0.00000E+00
    0.00000E+00         0.00000E+00        -0.49652E+08
 
   -0.48345E+08         0.41252E+06         0.00000E+00
    0.41252E+06        -0.49964E+08         0.00000E+00
    0.00000E+00         0.00000E+00        -0.49662E+08
 
   -0.48401E+08         0.44328E+06         0.00000E+00
    0.44328E+06        -0.49958E+08         0.00000E+00
    0.00000E+00         0.00000E+00        -0.49672E+08
 
   -0.48457E+08         0.47197E+06         0.00000E+00
    0.47197E+06        -0.49952E+08         0.00000E+00
    0.00000E+00         0.00000E+00        -0.49682E+08
 
   -0.48513E+08         0.49865E+06         0.00000E+00
    0.49865E+06        -0.49946E+08         0.00000E+00
    0.00000E+00         0.00000E+00        -0.49692E+08
 
   -0.48569E+08         0.52343E+06         0.00000E+00
    0.52343E+06        -0.49939E+08         0.00000E+00
    0.00000E+00         0.00000E+00        -0.49702E+08
 
   -0.48625E+08         0.54638E+06         0.00000E+00
    0.54638E+06        -0.49933E+08         0.00000E+00
    0.00000E+00         0.00000E+00        -0.49712E+08
 
   -0.48680E+08         0.56758E+06         0.00000E+00
    0.56758E+06        -0.49926E+08         0.00000E+00
    0.00000E+00         0.00000E+00        -0.49721E+08
 
   -0.48735E+08         0.58713E+06         0.00000E+00
    0.58713E+06        -0.49920E+08         0.00000E+00
    0.00000E+00         0.00000E+00        -0.49731E+08
 
   -0.48789E+08         0.60510E+06         0.00000E+00
    0.60510E+06        -0.49914E+08         0.00000E+00
    0.00000E+00         0.00000E+00        -0.49741E+08
 
   -0.48843E+08         0.62158E+06         0.00000E+00
    0.62158E+06        -0.49908E+08         0.00000E+00
    0.00000E+00         0.00000E+00        -0.49750E+08
 
   -0.48896E+08         0.63664E+06         0.00000E+00
    0.63664E+06        -0.49901E+08         0.00000E+00
    0.00000E+00         0.00000E+00        -0.49759E+08
 
   -0.48948E+08         0.65035E+06         0.00000E+00
    0.65035E+06        -0.49895E+08         0.00000E+00
    0.00000E+00         0.00000E+00        -0.49769E+08
 
   -0.48999E+08         0.66280E+06         0.00000E+00
    0.66280E+06        -0.49889E+08         0.00000E+00
    0.00000E+00         0.00000E+00        -0.49778E+08
 
   -0.49049E+08         0.67404E+06         0.00000E+00
    0.67404E+06        -0.49883E+08         0.00000E+00
    0.00000E+00         0.00000E+00        -0.49786E+08
 
   -0.49099E+08         0.68414E+06         0.00000E+00
    0.68414E+06        -0.49877E+08         0.00000E+00
    0.00000E+00         0.00000E+00        -0.49795E+08
 
   -0.49147E+08         0.69316E+06         0.00000E+00
    0.69316E+06        -0.49871E+08         0.00000E+00
    0.00000E+00         0.00000E+00        -0.49804E+08
 
   -0.49195E+08         0.70116E+06         0.00000E+00
    0.70116E+06        -0.49865E+08         0.00000E+00
    0.00000E+00         0.00000E+00        -0.49812E+08
 
   -0.49241E+08         0.70819E+06         0.00000E+00
    0.70819E+06        -0.49859E+08         0.00000E+00
    0.00000E+00         0.00000E+00        -0.49820E+08
 
   -0.49286E+08         0.71429E+06         0.00000E+00
    0.71429E+06        -0.49854E+08         0.00000E+00
    0.00000E+00         0.00000E+00        -0.49828E+08
 
   -0.49330E+08         0.71952E+06         0.00000E+00
    0.71952E+06        -0.49848E+08         0.00000E+00
    0.00000E+00         0.00000E+00        -0.49836E+08
 
   -0.49373E+08         0.72390E+06         0.00000E+00
    0.72390E+06        -0.49842E+08         0.00000E+00
    0.00000E+00         0.00000E+00        -0.49843E+08
 
   -0.49415E+08         0.72749E+06         0.00000E+00
    0.72749E+06        -0.49836E+08         0.00000E+00
    0.00000E+00         0.00000E+00        -0.49850E+08
 
   -0.49456E+08         0.73032E+06         0.00000E+00
    0.73032E+06        -0.49830E+08         0.00000E+00
    0.00000E+00         0.00000E+00        -0.49857E+08
 
   -0.49495E+08         0.73242E+06         0.00000E+00
    0.73242E+06        -0.49824E+08         0.00000E+00
    0.00000E+00         0.00000E+00        -0.49864E+08
 
   -0.49533E+08         0.73382E+06         0.00000E+00
    0.73382E+06        -0.49818E+08         0.00000E+00
    0.00000E+00         0.00000E+00        -0.49870E+08
 
   -0.49570E+08         0.73455E+06         0.00000E+00
    0.73455E+06        -0.49812E+08         0.00000E+00
    0.00000E+00         0.00000E+00        -0.49876E+08
 
   -0.49605E+08         0.73465E+06         0.00000E+00
    0.73465E+06        -0.49806E+08         0.00000E+00
    0.00000E+00         0.00000E+00        -0.49882E+08
 
   -0.49639E+08         0.73414E+06         0.00000E+00
    0.73414E+06        -0.49800E+08         0.00000E+00
    0.00000E+00         0.00000E+00        -0.49888E+08
 
   -0.49671E+08         0.73306E+06         0.00000E+00
    0.73306E+06        -0.49794E+08         0.00000E+00
    0.00000E+00         0.00000E+00        -0.49893E+08
 
   -0.49702E+08         0.73144E+06         0.00000E+00
    0.73144E+06        -0.49788E+08         0.00000E+00
    0.00000E+00         0.00000E+00        -0.49898E+08
 
   -0.49731E+08         0.72932E+06         0.00000E+00
    0.72932E+06        -0.49782E+08         0.00000E+00
    0.00000E+00         0.00000E+00        -0.49903E+08
 
   -0.49759E+08         0.72673E+06         0.00000E+00
    0.72673E+06        -0.49776E+08         0.00000E+00
    0.00000E+00         0.00000E+00        -0.49907E+08
 
   -0.49785E+08         0.72372E+06         0.00000E+00
    0.72372E+06        -0.49770E+08         0.00000E+00
    0.00000E+00         0.00000E+00        -0.49911E+08
 
   -0.49810E+08         0.72033E+06         0.00000E+00
    0.72033E+06        -0.49765E+08         0.00000E+00
    0.00000E+00         0.00000E+00        -0.49915E+08
 
   -0.49832E+08         0.71662E+06         0.00000E+00
    0.71662E+06        -0.49759E+08         0.00000E+00
    0.00000E+00         0.00000E+00        -0.49918E+08
 
   -0.49853E+08         0.71264E+06         0.00000E+00
    0.71264E+06        -0.49754E+08         0.00000E+00
    0.00000E+00         0.00000E+00        -0.49921E+08
 
   -0.49872E+08         0.70846E+06         0.00000E+00
    0.70846E+06        -0.49748E+08         0.00000E+00
    0.00000E+00         0.00000E+00        -0.49924E+08
 
   -0.49889E+08         0.70414E+06         0.00000E+00
    0.70414E+06        -0.49743E+08         0.00000E+00
    0.00000E+00         0.00000E+00        -0.49926E+08
 
   -0.49903E+08         0.69978E+06         0.00000E+00
    0.69978E+06        -0.49738E+08         0.00000E+00
    0.00000E+00         0.00000E+00        -0.49928E+08
 
   -0.49916E+08         0.69545E+06         0.00000E+00
    0.69545E+06        -0.49734E+08         0.00000E+00
    0.00000E+00         0.00000E+00        -0.49930E+08
 
   -0.49927E+08         0.69125E+06         0.00000E+00
    0.69125E+06        -0.49730E+08         0.00000E+00
    0.00000E+00         0.00000E+00        -0.49931E+08
 
   -0.47593E+08         0.32748E+05         0.00000E+00
    0.32748E+05        -0.50000E+08         0.00000E+00
    0.00000E+00         0.00000E+00        -0.49519E+08
 
   -0.47655E+08         0.90229E+05         0.00000E+00
    0.90229E+05        -0.49999E+08         0.00000E+00
    0.00000E+00         0.00000E+00        -0.49531E+08
 
   -0.47718E+08         0.14438E+06         0.00000E+00
    0.14438E+06        -0.49997E+08         0.00000E+00
    0.00000E+00         0.00000E+00        -0.49543E+08
 
   -0.47783E+08         0.19528E+06         0.00000E+00
    0.19528E+06        -0.49995E+08         0.00000E+00
    0.00000E+00         0.00000E+00        -0.49556E+08
 
   -0.47849E+08         0.24304E+06         0.00000E+00
    0.24304E+06        -0.49991E+08         0.00000E+00
    0.00000E+00         0.00000E+00        -0.49568E+08
 
   -0.47915E+08         0.28773E+06         0.00000E+00
    0.28773E+06        -0.49988E+08         0.00000E+00
    0.00000E+00         0.00000E+00        -0.49581E+08
 
   -0.47982E+08         0.32949E+06         0.00000E+00
    0.32949E+06        -0.49984E+08         0.00000E+00
    0.00000E+00         0.00000E+00        -0.49593E+08
 
   -0.48049E+08         0.36841E+06         0.00000E+00
    0.36841E+06        -0.49980E+08         0.00000E+00
    0.00000E+00         0.00000E+00        -0.49606E+08
 
   -0.48117E+08         0.40461E+06         0.00000E+00
    0.40461E+06        -0.49976E+08         0.00000E+00
    0.00000E+00         0.00000E+00        -0.49619E+08
 
   -0.48184E+08         0.43823E+06         0.00000E+00
    0.43823E+06        -0.49972E+08         0.00000E+00
    0.00000E+00         0.00000E+00        -0.49631E+08
 
   -0.48252E+08         0.46938E+06         0.00000E+00
    0.46938E+06        -0.49968E+08         0.00000E+00
    0.00000E+00         0.00000E+00        -0.49644E+08
 
   -0.48318E+08         0.49819E+06         0.00000E+00
    0.49819E+06        -0.49964E+08         0.00000E+00
    0.00000E+00         0.00000E+00        -0.49656E+08
 
   -0.48385E+08         0.52478E+06         0.00000E+00
    0.52478E+06        -0.49960E+08         0.00000E+00
    0.00000E+00         0.00000E+00        -0.49669E+08
 
   -0.48450E+08         0.54930E+06         0.00000E+00
    0.54930E+06        -0.49956E+08         0.00000E+00
    0.00000E+00         0.00000E+00        -0.49681E+08
 
   -0.48515E+08         0.57185E+06         0.00000E+00
    0.57185E+06        -0.49952E+08         0.00000E+00
    0.00000E+00         0.00000E+00        -0.49693E+08
 
   -0.48579E+08         0.59257E+06         0.00000E+00
    0.59257E+06        -0.49949E+08         0.00000E+00
    0.00000E+00         0.00000E+00        -0.49706E+08
 
   -0.48642E+08         0.61156E+06         0.00000E+00
    0.61156E+06        -0.49946E+08         0.00000E+00
    0.00000E+00         0.00000E+00        -0.49718E+08
 
   -0.48704E+08         0.62896E+06         0.00000E+00
    0.62896E+06        -0.49943E+08         0.00000E+00
    0.00000E+00         0.00000E+00        -0.49729E+08
 
   -0.48765E+08         0.64486E+06         0.00000E+00
    0.64486E+06        -0.49940E+08         0.00000E+00
    0.00000E+00         0.00000E+00        -0.49741E+08
 
   -0.48825E+08         0.65938E+06         0.00000E+00
    0.65938E+06        -0.49937E+08         0.00000E+00
    0.00000E+00         0.00000E+00        -0.49752E+08
 
   -0.48883E+08         0.67260E+06         0.00000E+00
    0.67260E+06        -0.49935E+08         0.00000E+00
    0.00000E+00         0.00000E+00        -0.49764E+08
 
   -0.48940E+08         0.68462E+06         0.00000E+00
    0.68462E+06        -0.49932E+08         0.00000E+00
    0.00000E+00         0.00000E+00        -0.49775E+08
 
   -0.48996E+08         0.69552E+06         0.00000E+00
    0.69552E+06        -0.49930E+08         0.00000E+00
    0.00000E+00         0.00000E+00        -0.49785E+08
 
   -0.49051E+08         0.70538E+06         0.00000E+00
    0.70538E+06        -0.49928E+08         0.00000E+00
    0.00000E+00         0.00000E+00        -0.49796E+08
 
   -0.49105E+08         0.71427E+06         0.00000E+00
    0.71427E+06        -0.49925E+08         0.00000E+00
    0.00000E+00         0.00000E+00        -0.49806E+08
 
   -0.49157E+08         0.72224E+06         0.00000E+00
    0.72224E+06        -0.49923E+08         0.00000E+00
    0.00000E+00         0.00000E+00        -0.49816E+08
 
   -0.49208E+08         0.72936E+06         0.00000E+00
    0.72936E+06        -0.49921E+08         0.00000E+00
    0.00000E+00         0.00000E+00        -0.49826E+08
 
   -0.49257E+08         0.73565E+06         0.00000E+00
    0.73565E+06        -0.49919E+08         0.00000E+00
    0.00000E+00         0.00000E+00        -0.49835E+08
 
   -0.49305E+08         0.74117E+06         0.00000E+00
    0.74117E+06        -0.49916E+08         0.00000E+00
    0.00000E+00         0.00000E+00        -0.49844E+08
 
   -0.49352E+08         0.74595E+06         0.00000E+00
    0.74595E+06        -0.49913E+08         0.00000E+00
    0.00000E+00         0.00000E+00        -0.49853E+08
 
   -0.49398E+08         0.75000E+06         0.00000E+00
    0.75000E+06        -0.49911E+08         0.00000E+00
    0.00000E+00         0.00000E+00        -0.49862E+08
 
   -0.49442E+08         0.75336E+06         0.00000E+00
    0.75336E+06        -0.49908E+08         0.00000E+00
    0.00000E+00         0.00000E+00        -0.49870E+08
 
   -0.49485E+08         0.75603E+06         0.00000E+00
    0.75603E+06        -0.49904E+08         0.00000E+00
    0.00000E+00         0.00000E+00        -0.49878E+08
 
   -0.49526E+08         0.75803E+06         0.00000E+00
    0.75803E+06        -0.49901E+08         0.00000E+00
    0.00000E+00         0.00000E+00        -0.49885E+08
 
   -0.49566E+08         0.75937E+06         0.00000E+00
    0.75937E+06        -0.49897E+08         0.00000E+00
    0.00000E+00         0.00000E+00        -0.49893E+08
 
   -0.49604E+08         0.76006E+06         0.00000E+00
    0.76006E+06        -0.49893E+08         0.00000E+00
    0.00000E+00         0.00000E+00        -0.49900E+08
 
   -0.49641E+08         0.76010E+06         0.00000E+00
    0.76010E+06        -0.49889E+08         0.00000E+00
    0.00000E+00         0.00000E+00        -0.49906E+08
 
   -0.49677E+08         0.75949E+06         0.00000E+00
    0.75949E+06        -0.49885E+08         0.00000E+00
    0.00000E+00         0.00000E+00        -0.49912E+08
 
   -0.49711E+08         0.75826E+06         0.00000E+00
    0.75826E+06        -0.49880E+08         0.00000E+00
    0.00000E+00         0.00000E+00        -0.49918E+08
 
   -0.49743E+08         0.75640E+06         0.00000E+00
    0.75640E+06        -0.49875E+08         0.00000E+00
    0.00000E+00         0.00000E+00        -0.49924E+08
 
   -0.49773E+08         0.75393E+06         0.00000E+00
    0.75393E+06        -0.49871E+08         0.00000E+00
    0.00000E+00         0.00000E+00        -0.49929E+08
 
   -0.49801E+08         0.75088E+06         0.00000E+00
    0.75088E+06        -0.49866E+08         0.00000E+00
    0.00000E+00         0.00000E+00        -0.49933E+08
 
   -0.49828E+08         0.74727E+06         0.00000E+00
    0.74727E+06        -0.49860E+08         0.00000E+00
    0.00000E+00         0.00000E+00        -0.49938E+08
 
   -0.49853E+08         0.74313E+06         0.00000E+00
    0.74313E+06        -0.49855E+08         0.00000E+00
    0.00000E+00         0.00000E+00        -0.49942E+08
 
   -0.49875E+08         0.73850E+06         0.00000E+00
    0.73850E+06        -0.49850E+08         0.00000E+00
    0.00000E+00         0.00000E+00        -0.49945E+08
 
   -0.49895E+08         0.73344E+06         0.00000E+00
    0.73344E+06        -0.49845E+08         0.00000E+00
    0.00000E+00         0.00000E+00        -0.49948E+08
 
   -0.49913E+08         0.72801E+06         0.00000E+00
    0.72801E+06        -0.49840E+08         0.00000E+00
    0.00000E+00         0.00000E+00        -0.49951E+08
 
   -0.49929E+08         0.72229E+06         0.00000E+00
    0.72229E+06        -0.49836E+08         0.00000E+00
    0.00000E+00         0.00000E+00        -0.49953E+08
 
   -0.49942E+08         0.71636E+06         0.00000E+00
    0.71636E+06        -0.49832E+08         0.00000E+00
    0.00000E+00         0.00000E+00        -0.49955E+08
 
   -0.49952E+08         0.71032E+06         0.00000E+00
    0.71032E+06        -0.49828E+08         0.00000E+00
    0.00000E+00         0.00000E+00        -0.49956E+08
 
   -0.47287E+08         0.35632E+05         0.00000E+00
    0.35632E+05        -0.50000E+08         0.00000E+00
    0.00000E+00         0.00000E+00        -0.49457E+08
 
   -0.47367E+08         0.96893E+05         0.00000E+00
    0.96893E+05        -0.49999E+08         0.00000E+00
    0.00000E+00         0.00000E+00        -0.49473E+08
 
   -0.47449E+08         0.15404E+06         0.00000E+00
    0.15404E+06        -0.49998E+08         0.00000E+00
    0.00000E+00         0.00000E+00        -0.49489E+08
 
   -0.47531E+08         0.20722E+06         0.00000E+00
    0.20722E+06        -0.49996E+08         0.00000E+00
    0.00000E+00         0.00000E+00        -0.49505E+08
 
   -0.47614E+08         0.25658E+06         0.00000E+00
    0.25658E+06        -0.49994E+08         0.00000E+00
    0.00000E+00         0.00000E+00        -0.49522E+08
 
   -0.47697E+08         0.30228E+06         0.00000E+00
    0.30228E+06        -0.49992E+08         0.00000E+00
    0.00000E+00         0.00000E+00        -0.49538E+08
 
   -0.47779E+08         0.34449E+06         0.00000E+00
    0.34449E+06        -0.49990E+08         0.00000E+00
    0.00000E+00         0.00000E+00        -0.49554E+08
 
   -0.47862E+08         0.38339E+06         0.00000E+00
    0.38339E+06        -0.49988E+08         0.00000E+00
    0.00000E+00         0.00000E+00        -0.49570E+08
 
   -0.47943E+08         0.41916E+06         0.00000E+00
    0.41916E+06        -0.49986E+08         0.00000E+00
    0.00000E+00         0.00000E+00        -0.49586E+08
 
   -0.48024E+08         0.45200E+06         0.00000E+00
    0.45200E+06        -0.49985E+08         0.00000E+00
    0.00000E+00         0.00000E+00        -0.49602E+08
 
   -0.48104E+08         0.48208E+06         0.00000E+00
    0.48208E+06        -0.49984E+08         0.00000E+00
    0.00000E+00         0.00000E+00        -0.49618E+08
 
   -0.48183E+08         0.50960E+06         0.00000E+00
    0.50960E+06        -0.49983E+08         0.00000E+00
    0.00000E+00         0.00000E+00        -0.49633E+08
 
   -0.48260E+08         0.53475E+06         0.00000E+00
    0.53475E+06        -0.49983E+08         0.00000E+00
    0.00000E+00         0.00000E+00        -0.49649E+08
 
   -0.48336E+08         0.55772E+06         0.00000E+00
    0.55772E+06        -0.49984E+08         0.00000E+00
    0.00000E+00         0.00000E+00        -0.49664E+08
 
   -0.48410E+08         0.57869E+06         0.00000E+00
    0.57869E+06        -0.49985E+08         0.00000E+00
    0.00000E+00         0.00000E+00        -0.49679E+08
 
   -0.48483E+08         0.59782E+06         0.00000E+00
    0.59782E+06        -0.49986E+08         0.00000E+00
    0.00000E+00         0.00000E+00        -0.49694E+08
 
   -0.48554E+08         0.61531E+06         0.00000E+00
    0.61531E+06        -0.49988E+08         0.00000E+00
    0.00000E+00         0.00000E+00        -0.49708E+08
 
   -0.48624E+08         0.63129E+06         0.00000E+00
    0.63129E+06        -0.49990E+08         0.00000E+00
    0.00000E+00         0.00000E+00        -0.49723E+08
 
   -0.48691E+08         0.64592E+06         0.00000E+00
    0.64592E+06        -0.49993E+08         0.00000E+00
    0.00000E+00         0.00000E+00        -0.49737E+08
 
   -0.48757E+08         0.65934E+06         0.00000E+00
    0.65934E+06        -0.49996E+08         0.00000E+00
    0.00000E+00         0.00000E+00        -0.49751E+08
 
   -0.48822E+08         0.67168E+06         0.00000E+00
    0.67168E+06        -0.49999E+08         0.00000E+00
    0.00000E+00         0.00000E+00        -0.49764E+08
 
   -0.48884E+08         0.68305E+06         0.00000E+00
    0.68305E+06        -0.50002E+08         0.00000E+00
    0.00000E+00         0.00000E+00        -0.49777E+08
 
   -0.48945E+08         0.69356E+06         0.00000E+00
    0.69356E+06        -0.50006E+08         0.00000E+00
    0.00000E+00         0.00000E+00        -0.49790E+08
 
   -0.49004E+08         0.70328E+06         0.00000E+00
    0.70328E+06        -0.50009E+08         0.00000E+00
    0.00000E+00         0.00000E+00        -0.49803E+08
 
   -0.49062E+08         0.71230E+06         0.00000E+00
    0.71230E+06        -0.50013E+08         0.00000E+00
    0.00000E+00         0.00000E+00        -0.49815E+08
 
   -0.49118E+08         0.72067E+06         0.00000E+00
    0.72067E+06        -0.50016E+08         0.00000E+00
    0.00000E+00         0.00000E+00        -0.49827E+08
 
   -0.49172E+08         0.72845E+06         0.00000E+00
    0.72845E+06        -0.50020E+08         0.00000E+00
    0.00000E+00         0.00000E+00        -0.49838E+08
 
   -0.49225E+08         0.73567E+06         0.00000E+00
    0.73567E+06        -0.50023E+08         0.00000E+00
    0.00000E+00         0.00000E+00        -0.49850E+08
 
   -0.49276E+08         0.74235E+06         0.00000E+00
    0.74235E+06        -0.50025E+08         0.00000E+00
    0.00000E+00         0.00000E+00        -0.49860E+08
 
   -0.49327E+08         0.74850E+06         0.00000E+00
    0.74850E+06        -0.50027E+08         0.00000E+00
    0.00000E+00         0.00000E+00        -0.49871E+08
 
   -0.49375E+08         0.75413E+06         0.00000E+00
    0.75413E+06        -0.50029E+08         0.00000E+00
    0.00000E+00         0.00000E+00        -0.49881E+08
 
   -0.49422E+08         0.75922E+06         0.00000E+00
    0.75922E+06        -0.50031E+08         0.00000E+00
    0.00000E+00         0.00000E+00        -0.49891E+08
 
   -0.49468E+08         0.76377E+06         0.00000E+00
    0.76377E+06        -0.50031E+08         0.00000E+00
    0.00000E+00         0.00000E+00        -0.49900E+08
 
   -0.49513E+08         0.76773E+06         0.00000E+00
    0.76773E+06        -0.50032E+08         0.00000E+00
    0.00000E+00         0.00000E+00        -0.49909E+08
 
   -0.49556E+08         0.77109E+06         0.00000E+00
    0.77109E+06        -0.50031E+08         0.00000E+00
    0.00000E+00         0.00000E+00        -0.49917E+08
 
   -0.49598E+08         0.77381E+06         0.00000E+00
    0.77381E+06        -0.50030E+08         0.00000E+00
    0.00000E+00         0.00000E+00        -0.49926E+08
 
   -0.49638E+08         0.77584E+06         0.00000E+00
    0.77584E+06        -0.50029E+08         0.00000E+00
    0.00000E+00         0.00000E+00        -0.49933E+08
 
   -0.49677E+08         0.77716E+06         0.00000E+00
    0.77716E+06        -0.50026E+08         0.00000E+00
    0.00000E+00         0.00000E+00        -0.49941E+08
 
   -0.49714E+08         0.77771E+06         0.00000E+00
    0.77771E+06        -0.50024E+08         0.00000E+00
    0.00000E+00         0.00000E+00        -0.49948E+08
 
   -0.49750E+08         0.77748E+06         0.00000E+00
    0.77748E+06        -0.50020E+08         0.00000E+00
    0.00000E+00         0.00000E+00        -0.49954E+08
 
   -0.49784E+08         0.77642E+06         0.00000E+00
    0.77642E+06        -0.50016E+08         0.00000E+00
    0.00000E+00         0.00000E+00        -0.49960E+08
 
   -0.49816E+08         0.77451E+06         0.00000E+00
    0.77451E+06        -0.50012E+08         0.00000E+00
    0.00000E+00         0.00000E+00        -0.49966E+08
 
   -0.49846E+08         0.77173E+06         0.00000E+00
    0.77173E+06        -0.50007E+08         0.00000E+00
    0.00000E+00         0.00000E+00        -0.49971E+08
 
   -0.49874E+08         0.76809E+06         0.00000E+00
    0.76809E+06        -0.50002E+08         0.00000E+00
    0.00000E+00         0.00000E+00        -0.49975E+08
 
   -0.49899E+08         0.76358E+06         0.00000E+00
    0.76358E+06        -0.49997E+08         0.00000E+00
    0.00000E+00         0.00000E+00        -0.49979E+08
 
   -0.49923E+08         0.75822E+06         0.00000E+00
    0.75822E+06        -0.49992E+08         0.00000E+00
    0.00000E+00         0.00000E+00        -0.49983E+08
 
   -0.49943E+08         0.75207E+06         0.00000E+00
    0.75207E+06        -0.49987E+08         0.00000E+00
    0.00000E+00         0.00000E+00        -0.49986E+08
 
   -0.49961E+08         0.74516E+06         0.00000E+00
    0.74516E+06        -0.49982E+08         0.00000E+00
    0.00000E+00         0.00000E+00        -0.49989E+08
 
   -0.49976E+08         0.73758E+06         0.00000E+00
    0.73758E+06        -0.49977E+08         0.00000E+00
    0.00000E+00         0.00000E+00        -0.49991E+08
 
   -0.49988E+08         0.72942E+06         0.00000E+00
    0.72942E+06        -0.49973E+08         0.00000E+00
    0.00000E+00         0.00000E+00        -0.49992E+08
 
   -0.46962E+08         0.37914E+05         0.00000E+00
    0.37914E+05        -0.50000E+08         0.00000E+00
    0.00000E+00         0.00000E+00        -0.49392E+08
 
   -0.47066E+08         0.10133E+06         0.00000E+00
    0.10133E+06        -0.49999E+08         0.00000E+00
    0.00000E+00         0.00000E+00        -0.49413E+08
 
   -0.47170E+08         0.15970E+06         0.00000E+00
    0.15970E+06        -0.49999E+08         0.00000E+00
    0.00000E+00         0.00000E+00        -0.49434E+08
 
   -0.47274E+08         0.21323E+06         0.00000E+00
    0.21323E+06        -0.49998E+08         0.00000E+00
    0.00000E+00         0.00000E+00        -0.49454E+08
 
   -0.47377E+08         0.26214E+06         0.00000E+00
    0.26214E+06        -0.49998E+08         0.00000E+00
    0.00000E+00         0.00000E+00        -0.49475E+08
 
   -0.47480E+08         0.30670E+06         0.00000E+00
    0.30670E+06        -0.49998E+08         0.00000E+00
    0.00000E+00         0.00000E+00        -0.49495E+08
 
   -0.47581E+08         0.34715E+06         0.00000E+00
    0.34715E+06        -0.49999E+08         0.00000E+00
    0.00000E+00         0.00000E+00        -0.49516E+08
 
   -0.47680E+08         0.38377E+06         0.00000E+00
    0.38377E+06        -0.50000E+08         0.00000E+00
    0.00000E+00         0.00000E+00        -0.49536E+08
 
   -0.47778E+08         0.41683E+06         0.00000E+00
    0.41683E+06        -0.50002E+08         0.00000E+00
    0.00000E+00         0.00000E+00        -0.49556E+08
 
   -0.47874E+08         0.44662E+06         0.00000E+00
    0.44662E+06        -0.50005E+08         0.00000E+00
    0.00000E+00         0.00000E+00        -0.49576E+08
 
   -0.47968E+08         0.47342E+06         0.00000E+00
    0.47342E+06        -0.50009E+08         0.00000E+00
    0.00000E+00         0.00000E+00        -0.49595E+08
 
   -0.48059E+08         0.49752E+06         0.00000E+00
    0.49752E+06        -0.50014E+08         0.00000E+00
    0.00000E+00         0.00000E+00        -0.49615E+08
 
   -0.48148E+08         0.51920E+06         0.00000E+00
    0.51920E+06        -0.50020E+08         0.00000E+00
    0.00000E+00         0.00000E+00        -0.49634E+08
 
   -0.48234E+08         0.53872E+06         0.00000E+00
    0.53872E+06        -0.50027E+08         0.00000E+00
    0.00000E+00         0.00000E+00        -0.49652E+08
 
   -0.48318E+08         0.55636E+06         0.00000E+00
    0.55636E+06        -0.50035E+08         0.00000E+00
    0.00000E+00         0.00000E+00        -0.49670E+08
 
   -0.48398E+08         0.57235E+06         0.00000E+00
    0.57235E+06        -0.50044E+08         0.00000E+00
    0.00000E+00         0.00000E+00        -0.49688E+08
 
   -0.48477E+08         0.58694E+06         0.00000E+00
    0.58694E+06        -0.50054E+08         0.00000E+00
    0.00000E+00         0.00000E+00        -0.49706E+08
 
   -0.48553E+08         0.60035E+06         0.00000E+00
    0.60035E+06        -0.50064E+08         0.00000E+00
    0.00000E+00         0.00000E+00        -0.49723E+08
 
   -0.48626E+08         0.61278E+06         0.00000E+00
    0.61278E+06        -0.50075E+08         0.00000E+00
    0.00000E+00         0.00000E+00        -0.49740E+08
 
   -0.48696E+08         0.62442E+06         0.00000E+00
    0.62442E+06        -0.50086E+08         0.00000E+00
    0.00000E+00         0.00000E+00        -0.49756E+08
 
   -0.48765E+08         0.63542E+06         0.00000E+00
    0.63542E+06        -0.50098E+08         0.00000E+00
    0.00000E+00         0.00000E+00        -0.49772E+08
 
   -0.48831E+08         0.64594E+06         0.00000E+00
    0.64594E+06        -0.50110E+08         0.00000E+00
    0.00000E+00         0.00000E+00        -0.49788E+08
 
   -0.48894E+08         0.65609E+06         0.00000E+00
    0.65609E+06        -0.50122E+08         0.00000E+00
    0.00000E+00         0.00000E+00        -0.49803E+08
 
   -0.48956E+08         0.66597E+06         0.00000E+00
    0.66597E+06        -0.50134E+08         0.00000E+00
    0.00000E+00         0.00000E+00        -0.49818E+08
 
   -0.49016E+08         0.67567E+06         0.00000E+00
    0.67567E+06        -0.50146E+08         0.00000E+00
    0.00000E+00         0.00000E+00        -0.49832E+08
 
   -0.49074E+08         0.68523E+06         0.00000E+00
    0.68523E+06        -0.50158E+08         0.00000E+00
    0.00000E+00         0.00000E+00        -0.49846E+08
 
   -0.49130E+08         0.69469E+06         0.00000E+00
    0.69469E+06        -0.50169E+08         0.00000E+00
    0.00000E+00         0.00000E+00        -0.49860E+08
 
   -0.49184E+08         0.70407E+06         0.00000E+00
    0.70407E+06        -0.50179E+08         0.00000E+00
    0.00000E+00         0.00000E+00        -0.49873E+08
 
   -0.49237E+08         0.71336E+06         0.00000E+00
    0.71336E+06        -0.50189E+08         0.00000E+00
    0.00000E+00         0.00000E+00        -0.49885E+08
 
   -0.49289E+08         0.72254E+06         0.00000E+00
    0.72254E+06        -0.50199E+08         0.00000E+00
    0.00000E+00         0.00000E+00        -0.49898E+08
 
   -0.49340E+08         0.73156E+06         0.00000E+00
    0.73156E+06        -0.50207E+08         0.00000E+00
    0.00000E+00         0.00000E+00        -0.49909E+08
 
   -0.49389E+08         0.74037E+06         0.00000E+00
    0.74037E+06        -0.50214E+08         0.00000E+00
    0.00000E+00         0.00000E+00        -0.49921E+08
 
   -0.49437E+08         0.74889E+06         0.00000E+00
    0.74889E+06        -0.50221E+08         0.00000E+00
    0.00000E+00         0.00000E+00        -0.49932E+08
 
   -0.49484E+08         0.75704E+06         0.00000E+00
    0.75704E+06        -0.50226E+08         0.00000E+00
    0.00000E+00         0.00000E+00        -0.49942E+08
 
   -0.49530E+08         0.76473E+06         0.00000E+00
    0.76473E+06        -0.50230E+08         0.00000E+00
    0.00000E+00         0.00000E+00        -0.49952E+08
 
   -0.49575E+08         0.77183E+06         0.00000E+00
    0.77183E+06        -0.50233E+08         0.00000E+00
    0.00000E+00         0.00000E+00        -0.49962E+08
 
   -0.49619E+08         0.77826E+06         0.00000E+00
    0.77826E+06        -0.50235E+08         0.00000E+00
    0.00000E+00         0.00000E+00        -0.49971E+08
 
   -0.49662E+08         0.78388E+06         0.00000E+00
    0.78388E+06        -0.50235E+08         0.00000E+00
    0.00000E+00         0.00000E+00        -0.49979E+08
 
   -0.49704E+08         0.78858E+06         0.00000E+00
    0.78858E+06        -0.50234E+08         0.00000E+00
    0.00000E+00         0.00000E+00        -0.49988E+08
 
   -0.49744E+08         0.79225E+06         0.00000E+00
    0.79225E+06        -0.50233E+08         0.00000E+00
    0.00000E+00         0.00000E+00        -0.49995E+08
 
   -0.49783E+08         0.79478E+06         0.00000E+00
    0.79478E+06        -0.50230E+08         0.00000E+00
    0.00000E+00         0.00000E+00        -0.50002E+08
 
   -0.49820E+08         0.79606E+06         0.00000E+00
    0.79606E+06        -0.50226E+08         0.00000E+00
    0.00000E+00         0.00000E+00        -0.50009E+08
 
   -0.49856E+08         0.79601E+06         0.00000E+00
    0.79601E+06        -0.50221E+08         0.00000E+00
    0.00000E+00         0.00000E+00        -0.50015E+08
 
   -0.49890E+08         0.79453E+06         0.00000E+00
    0.79453E+06        -0.50216E+08         0.00000E+00
    0.00000E+00         0.00000E+00        -0.50021E+08
 
   -0.49921E+08         0.79158E+06         0.00000E+00
    0.79158E+06        -0.50209E+08         0.00000E+00
    0.00000E+00         0.00000E+00        -0.50026E+08
 
   -0.49950E+08         0.78711E+06         0.00000E+00
    0.78711E+06        -0.50203E+08         0.00000E+00
    0.00000E+00         0.00000E+00        -0.50030E+08
 
   -0.49976E+08         0.78110E+06         0.00000E+00
    0.78110E+06        -0.50196E+08         0.00000E+00
    0.00000E+00         0.00000E+00        -0.50034E+08
 
   -0.50000E+08         0.77356E+06         0.00000E+00
    0.77356E+06        -0.50189E+08         0.00000E+00
    0.00000E+00         0.00000E+00        -0.50038E+08
 
   -0.50020E+08         0.76452E+06         0.00000E+00
    0.76452E+06        -0.50182E+08         0.00000E+00
    0.00000E+00         0.00000E+00        -0.50040E+08
 
   -0.50036E+08         0.75407E+06         0.00000E+00
    0.75407E+06        -0.50176E+08         0.00000E+00
    0.00000E+00         0.00000E+00        -0.50042E+08
 
   -0.46630E+08         0.39294E+05         0.00000E+00
    0.39294E+05        -0.50000E+08         0.00000E+00
    0.00000E+00         0.00000E+00        -0.49326E+08
 
   -0.46763E+08         0.10241E+06         0.00000E+00
    0.10241E+06        -0.50000E+08         0.00000E+00
    0.00000E+00         0.00000E+00        -0.49352E+08
 
   -0.46894E+08         0.15928E+06         0.00000E+00
    0.15928E+06        -0.50000E+08         0.00000E+00
    0.00000E+00         0.00000E+00        -0.49379E+08
 
   -0.47024E+08         0.21021E+06         0.00000E+00
    0.21021E+06        -0.50001E+08         0.00000E+00
    0.00000E+00         0.00000E+00        -0.49405E+08
 
   -0.47152E+08         0.25555E+06         0.00000E+00
    0.25555E+06        -0.50003E+08         0.00000E+00
    0.00000E+00         0.00000E+00        -0.49431E+08
 
   -0.47278E+08         0.29567E+06         0.00000E+00
    0.29567E+06        -0.50007E+08         0.00000E+00
    0.00000E+00         0.00000E+00        -0.49457E+08
 
   -0.47400E+08         0.33098E+06         0.00000E+00
    0.33098E+06        -0.50012E+08         0.00000E+00
    0.00000E+00         0.00000E+00        -0.49482E+08
 
   -0.47520E+08         0.36189E+06         0.00000E+00
    0.36189E+06        -0.50018E+08         0.00000E+00
    0.00000E+00         0.00000E+00        -0.49507E+08
 
   -0.47635E+08         0.38882E+06         0.00000E+00
    0.38882E+06        -0.50026E+08         0.00000E+00
    0.00000E+00         0.00000E+00        -0.49532E+08
 
   -0.47747E+08         0.41220E+06         0.00000E+00
    0.41220E+06        -0.50036E+08         0.00000E+00
    0.00000E+00         0.00000E+00        -0.49556E+08
 
   -0.47855E+08         0.43246E+06         0.00000E+00
    0.43246E+06        -0.50048E+08         0.00000E+00
    0.00000E+00         0.00000E+00        -0.49580E+08
 
   -0.47959E+08         0.45001E+06         0.00000E+00
    0.45001E+06        -0.50061E+08         0.00000E+00
    0.00000E+00         0.00000E+00        -0.49604E+08
 
   -0.48059E+08         0.46528E+06         0.00000E+00
    0.46528E+06        -0.50076E+08         0.00000E+00
    0.00000E+00         0.00000E+00        -0.49627E+08
 
   -0.48155E+08         0.47865E+06         0.00000E+00
    0.47865E+06        -0.50092E+08         0.00000E+00
    0.00000E+00         0.00000E+00        -0.49649E+08
 
   -0.48246E+08         0.49050E+06         0.00000E+00
    0.49050E+06        -0.50110E+08         0.00000E+00
    0.00000E+00         0.00000E+00        -0.49671E+08
 
   -0.48334E+08         0.50119E+06         0.00000E+00
    0.50119E+06        -0.50130E+08         0.00000E+00
    0.00000E+00         0.00000E+00        -0.49692E+08
 
   -0.48417E+08         0.51105E+06         0.00000E+00
    0.51105E+06        -0.50151E+08         0.00000E+00
    0.00000E+00         0.00000E+00        -0.49713E+08
 
   -0.48496E+08         0.52037E+06         0.00000E+00
    0.52037E+06        -0.50172E+08         0.00000E+00
    0.00000E+00         0.00000E+00        -0.49733E+08
 
   -0.48572E+08         0.52943E+06         0.00000E+00
    0.52943E+06        -0.50195E+08         0.00000E+00
    0.00000E+00         0.00000E+00        -0.49753E+08
 
   -0.48645E+08         0.53847E+06         0.00000E+00
    0.53847E+06        -0.50219E+08         0.00000E+00
    0.00000E+00         0.00000E+00        -0.49772E+08
 
   -0.48714E+08         0.54769E+06         0.00000E+00
    0.54769E+06        -0.50242E+08         0.00000E+00
    0.00000E+00         0.00000E+00        -0.49791E+08
 
   -0.48780E+08         0.55727E+06         0.00000E+00
    0.55727E+06        -0.50267E+08         0.00000E+00
    0.00000E+00         0.00000E+00        -0.49809E+08
 
   -0.48843E+08         0.56735E+06         0.00000E+00
    0.56735E+06        -0.50291E+08         0.00000E+00
    0.00000E+00         0.00000E+00        -0.49827E+08
 
   -0.48904E+08         0.57803E+06         0.00000E+00
    0.57803E+06        -0.50315E+08         0.00000E+00
    0.00000E+00         0.00000E+00        -0.49843E+08
 
   -0.48962E+08         0.58939E+06         0.00000E+00
    0.58939E+06        -0.50339E+08         0.00000E+00
    0.00000E+00         0.00000E+00        -0.49860E+08
 
   -0.49019E+08         0.60147E+06         0.00000E+00
    0.60147E+06        -0.50362E+08         0.00000E+00
    0.00000E+00         0.00000E+00        -0.49876E+08
 
   -0.49073E+08         0.61427E+06         0.00000E+00
    0.61427E+06        -0.50385E+08         0.00000E+00
    0.00000E+00         0.00000E+00        -0.49891E+08
 
   -0.49127E+08         0.62778E+06         0.00000E+00
    0.62778E+06        -0.50406E+08         0.00000E+00
    0.00000E+00         0.00000E+00        -0.49906E+08
 
   -0.49179E+08         0.64195E+06         0.00000E+00
    0.64195E+06        -0.50426E+08         0.00000E+00
    0.00000E+00         0.00000E+00        -0.49921E+08
 
   -0.49229E+08         0.65669E+06         0.00000E+00
    0.65669E+06        -0.50445E+08         0.00000E+00
    0.00000E+00         0.00000E+00        -0.49935E+08
 
   -0.49279E+08         0.67190E+06         0.00000E+00
    0.67190E+06        -0.50462E+08         0.00000E+00
    0.00000E+00         0.00000E+00        -0.49948E+08
 
   -0.49329E+08         0.68744E+06         0.00000E+00
    0.68744E+06        -0.50478E+08         0.00000E+00
    0.00000E+00         0.00000E+00        -0.49961E+08
 
   -0.49378E+08         0.70316E+06         0.00000E+00
    0.70316E+06        -0.50492E+08         0.00000E+00
    0.00000E+00         0.00000E+00        -0.49974E+08
 
   -0.49426E+08         0.71889E+06         0.00000E+00
    0.71889E+06        -0.50504E+08         0.00000E+00
    0.00000E+00         0.00000E+00        -0.49986E+08
 
   -0.49474E+08         0.73442E+06         0.00000E+00
    0.73442E+06        -0.50514E+08         0.00000E+00
    0.00000E+00         0.00000E+00        -0.49997E+08
 
   -0.49522E+08         0.74955E+06         0.00000E+00
    0.74955E+06        -0.50522E+08         0.00000E+00
    0.00000E+00         0.00000E+00        -0.50008E+08
 
   -0.49570E+08         0.76406E+06         0.00000E+00
    0.76406E+06        -0.50527E+08         0.00000E+00
    0.00000E+00         0.00000E+00        -0.50019E+08
 
   -0.49617E+08         0.77770E+06         0.00000E+00
    0.77770E+06        -0.50531E+08         0.00000E+00
    0.00000E+00         0.00000E+00        -0.50029E+08
 
   -0.49664E+08         0.79025E+06         0.00000E+00
    0.79025E+06        -0.50533E+08         0.00000E+00
    0.00000E+00         0.00000E+00        -0.50039E+08
 
   -0.49711E+08         0.80146E+06         0.00000E+00
    0.80146E+06        -0.50532E+08         0.00000E+00
    0.00000E+00         0.00000E+00        -0.50048E+08
 
   -0.49757E+08         0.81108E+06         0.00000E+00
    0.81108E+06        -0.50530E+08         0.00000E+00
    0.00000E+00         0.00000E+00        -0.50057E+08
 
   -0.49802E+08         0.81890E+06         0.00000E+00
    0.81890E+06        -0.50526E+08         0.00000E+00
    0.00000E+00         0.00000E+00        -0.50065E+08
 
   -0.49847E+08         0.82468E+06         0.00000E+00
    0.82468E+06        -0.50520E+08         0.00000E+00
    0.00000E+00         0.00000E+00        -0.50073E+08
 
   -0.49890E+08         0.82822E+06         0.00000E+00
    0.82822E+06        -0.50512E+08         0.00000E+00
    0.00000E+00         0.00000E+00        -0.50080E+08
 
   -0.49931E+08         0.82934E+06         0.00000E+00
    0.82934E+06        -0.50503E+08         0.00000E+00
    0.00000E+00         0.00000E+00        -0.50087E+08
 
   -0.49970E+08         0.82788E+06         0.00000E+00
    0.82788E+06        -0.50494E+08         0.00000E+00
    0.00000E+00         0.00000E+00        -0.50092E+08
 
   -0.50007E+08         0.82371E+06         0.00000E+00
    0.82371E+06        -0.50483E+08         0.00000E+00
    0.00000E+00         0.00000E+00        -0.50098E+08
 
   -0.50041E+08         0.81675E+06         0.00000E+00
    0.81675E+06        -0.50472E+08         0.00000E+00
    0.00000E+00         0.00000E+00        -0.50102E+08
 
   -0.50072E+08         0.80694E+06         0.00000E+00
    0.80694E+06        -0.50461E+08         0.00000E+00
    0.00000E+00         0.00000E+00        -0.50106E+08
 
   -0.50098E+08         0.79431E+06         0.00000E+00
    0.79431E+06        -0.50450E+08         0.00000E+00
    0.00000E+00         0.00000E+00        -0.50109E+08
 
   -0.46305E+08         0.39500E+05         0.00000E+00
    0.39500E+05        -0.49999E+08         0.00000E+00
    0.00000E+00         0.00000E+00        -0.49259E+08
 
   -0.46473E+08         0.98745E+05         0.00000E+00
    0.98745E+05        -0.50000E+08         0.00000E+00
    0.00000E+00         0.00000E+00        -0.49293E+08
 
   -0.46639E+08         0.15007E+06         0.00000E+00
    0.15007E+06        -0.50002E+08         0.00000E+00
    0.00000E+00         0.00000E+00        -0.49327E+08
 
   -0.46801E+08         0.19397E+06         0.00000E+00
    0.19397E+06        -0.50006E+08         0.00000E+00
    0.00000E+00         0.00000E+00        -0.49360E+08
 
   -0.46959E+08         0.23100E+06         0.00000E+00
    0.23100E+06        -0.50012E+08         0.00000E+00
    0.00000E+00         0.00000E+00        -0.49393E+08
 
   -0.47112E+08         0.26175E+06         0.00000E+00
    0.26175E+06        -0.50020E+08         0.00000E+00
    0.00000E+00         0.00000E+00        -0.49425E+08
 
   -0.47259E+08         0.28685E+06         0.00000E+00
    0.28685E+06        -0.50031E+08         0.00000E+00
    0.00000E+00         0.00000E+00        -0.49457E+08
 
   -0.47400E+08         0.30695E+06         0.00000E+00
    0.30695E+06        -0.50045E+08         0.00000E+00
    0.00000E+00         0.00000E+00        -0.49488E+08
 
   -0.47536E+08         0.32270E+06         0.00000E+00
    0.32270E+06        -0.50061E+08         0.00000E+00
    0.00000E+00         0.00000E+00        -0.49518E+08
 
   -0.47664E+08         0.33478E+06         0.00000E+00
    0.33478E+06        -0.50081E+08         0.00000E+00
    0.00000E+00         0.00000E+00        -0.49548E+08
 
   -0.47787E+08         0.34382E+06         0.00000E+00
    0.34382E+06        -0.50104E+08         0.00000E+00
    0.00000E+00         0.00000E+00        -0.49577E+08
 
   -0.47902E+08         0.35045E+06         0.00000E+00
    0.35045E+06        -0.50129E+08         0.00000E+00
    0.00000E+00         0.00000E+00        -0.49605E+08
 
   -0.48011E+08         0.35528E+06         0.00000E+00
    0.35528E+06        -0.50157E+08         0.00000E+00
    0.00000E+00         0.00000E+00        -0.49632E+08
 
   -0.48113E+08         0.35887E+06         0.00000E+00
    0.35887E+06        -0.50187E+08         0.00000E+00
    0.00000E+00         0.00000E+00        -0.49659E+08
 
   -0.48210E+08         0.36176E+06         0.00000E+00
    0.36176E+06        -0.50220E+08         0.00000E+00
    0.00000E+00         0.00000E+00        -0.49685E+08
 
   -0.48300E+08         0.36442E+06         0.00000E+00
    0.36442E+06        -0.50255E+08         0.00000E+00
    0.00000E+00         0.00000E+00        -0.49710E+08
 
   -0.48384E+08         0.36731E+06         0.00000E+00
    0.36731E+06        -0.50291E+08         0.00000E+00
    0.00000E+00         0.00000E+00        -0.49734E+08
 
   -0.48463E+08         0.37081E+06         0.00000E+00
    0.37081E+06        -0.50329E+08         0.00000E+00
    0.00000E+00         0.00000E+00        -0.49757E+08
 
   -0.48536E+08         0.37528E+06         0.00000E+00
    0.37528E+06        -0.50369E+08         0.00000E+00
    0.00000E+00         0.00000E+00        -0.49780E+08
 
   -0.48605E+08         0.38100E+06         0.00000E+00
    0.38100E+06        -0.50409E+08         0.00000E+00
    0.00000E+00         0.00000E+00        -0.49801E+08
 
   -0.48670E+08         0.38822E+06         0.00000E+00
    0.38822E+06        -0.50449E+08         0.00000E+00
    0.00000E+00         0.00000E+00        -0.49822E+08
 
   -0.48730E+08         0.39713E+06         0.00000E+00
    0.39713E+06        -0.50490E+08         0.00000E+00
    0.00000E+00         0.00000E+00        -0.49843E+08
 
   -0.48788E+08         0.40789E+06         0.00000E+00
    0.40789E+06        -0.50531E+08         0.00000E+00
    0.00000E+00         0.00000E+00        -0.49862E+08
 
   -0.48842E+08         0.42059E+06         0.00000E+00
    0.42059E+06        -0.50571E+08         0.00000E+00
    0.00000E+00         0.00000E+00        -0.49881E+08
 
   -0.48894E+08         0.43529E+06         0.00000E+00
    0.43529E+06        -0.50611E+08         0.00000E+00
    0.00000E+00         0.00000E+00        -0.49900E+08
 
   -0.48944E+08         0.45200E+06         0.00000E+00
    0.45200E+06        -0.50649E+08         0.00000E+00
    0.00000E+00         0.00000E+00        -0.49917E+08
 
   -0.48992E+08         0.47067E+06         0.00000E+00
    0.47067E+06        -0.50686E+08         0.00000E+00
    0.00000E+00         0.00000E+00        -0.49934E+08
 
   -0.49039E+08         0.49124E+06         0.00000E+00
    0.49124E+06        -0.50722E+08         0.00000E+00
    0.00000E+00         0.00000E+00        -0.49951E+08
 
   -0.49085E+08         0.51358E+06         0.00000E+00
    0.51358E+06        -0.50755E+08         0.00000E+00
    0.00000E+00         0.00000E+00        -0.49967E+08
 
   -0.49131E+08         0.53754E+06         0.00000E+00
    0.53754E+06        -0.50787E+08         0.00000E+00
    0.00000E+00         0.00000E+00        -0.49982E+08
 
   -0.49177E+08         0.56292E+06         0.00000E+00
    0.56292E+06        -0.50816E+08         0.00000E+00
    0.00000E+00         0.00000E+00        -0.49997E+08
 
   -0.49223E+08         0.58950E+06         0.00000E+00
    0.58950E+06        -0.50842E+08         0.00000E+00
    0.00000E+00         0.00000E+00        -0.50012E+08
 
   -0.49270E+08         0.61701E+06         0.00000E+00
    0.61701E+06        -0.50866E+08         0.00000E+00
    0.00000E+00         0.00000E+00        -0.50026E+08
 
   -0.49317E+08         0.64514E+06         0.00000E+00
    0.64514E+06        -0.50886E+08         0.00000E+00
    0.00000E+00         0.00000E+00        -0.50039E+08
 
   -0.49366E+08         0.67358E+06         0.00000E+00
    0.67358E+06        -0.50904E+08         0.00000E+00
    0.00000E+00         0.00000E+00        -0.50053E+08
 
   -0.49416E+08         0.70198E+06         0.00000E+00
    0.70198E+06        -0.50918E+08         0.00000E+00
    0.00000E+00         0.00000E+00        -0.50065E+08
 
   -0.49467E+08         0.72994E+06         0.00000E+00
    0.72994E+06        -0.50928E+08         0.00000E+00
    0.00000E+00         0.00000E+00        -0.50078E+08
 
   -0.49520E+08         0.75708E+06         0.00000E+00
    0.75708E+06        -0.50936E+08         0.00000E+00
    0.00000E+00         0.00000E+00        -0.50090E+08
 
   -0.49573E+08         0.78297E+06         0.00000E+00
    0.78297E+06        -0.50940E+08         0.00000E+00
    0.00000E+00         0.00000E+00        -0.50101E+08
 
   -0.49628E+08         0.80719E+06         0.00000E+00
    0.80719E+06        -0.50940E+08         0.00000E+00
    0.00000E+00         0.00000E+00        -0.50112E+08
 
   -0.49685E+08         0.82931E+06         0.00000E+00
    0.82931E+06        -0.50938E+08         0.00000E+00
    0.00000E+00         0.00000E+00        -0.50123E+08
 
   -0.49742E+08         0.84888E+06         0.00000E+00
    0.84888E+06        -0.50932E+08         0.00000E+00
    0.00000E+00         0.00000E+00        -0.50133E+08
 
   -0.49799E+08         0.86547E+06         0.00000E+00
    0.86547E+06        -0.50923E+08         0.00000E+00
    0.00000E+00         0.00000E+00        -0.50143E+08
 
   -0.49857E+08         0.87867E+06         0.00000E+00
    0.87867E+06        -0.50911E+08         0.00000E+00
    0.00000E+00         0.00000E+00        -0.50152E+08
 
   -0.49914E+08         0.88809E+06         0.00000E+00
    0.88809E+06        -0.50897E+08         0.00000E+00
    0.00000E+00         0.00000E+00        -0.50161E+08
 
   -0.49971E+08         0.89335E+06         0.00000E+00
    0.89335E+06        -0.50881E+08         0.00000E+00
    0.00000E+00         0.00000E+00        -0.50169E+08
 
   -0.50026E+08         0.89414E+06         0.00000E+00
    0.89414E+06        -0.50864E+08         0.00000E+00
    0.00000E+00         0.00000E+00        -0.50177E+08
 
   -0.50079E+08         0.89017E+06         0.00000E+00
    0.89017E+06        -0.50845E+08         0.00000E+00
    0.00000E+00         0.00000E+00        -0.50183E+08
 
   -0.50129E+08         0.88124E+06         0.00000E+00
    0.88124E+06        -0.50825E+08         0.00000E+00
    0.00000E+00         0.00000E+00        -0.50189E+08
 
   -0.50175E+08         0.86719E+06         0.00000E+00
    0.86719E+06        -0.50805E+08         0.00000E+00
    0.00000E+00         0.00000E+00        -0.50195E+08
 
   -0.46005E+08         0.38248E+05         0.00000E+00
    0.38248E+05        -0.49999E+08         0.00000E+00
    0.00000E+00         0.00000E+00        -0.49195E+08
 
   -0.46221E+08         0.88276E+05         0.00000E+00
    0.88276E+05        -0.50000E+08         0.00000E+00
    0.00000E+00         0.00000E+00        -0.49239E+08
 
   -0.46430E+08         0.12788E+06         0.00000E+00
    0.12788E+06        -0.50004E+08         0.00000E+00
    0.00000E+00         0.00000E+00        -0.49281E+08
 
   -0.46633E+08         0.15794E+06         0.00000E+00
    0.15794E+06        -0.50012E+08         0.00000E+00
    0.00000E+00         0.00000E+00        -0.49323E+08
 
   -0.46827E+08         0.17939E+06         0.00000E+00
    0.17939E+06        -0.50024E+08         0.00000E+00
    0.00000E+00         0.00000E+00        -0.49365E+08
 
   -0.47012E+08         0.19325E+06         0.00000E+00
    0.19325E+06        -0.50040E+08         0.00000E+00
    0.00000E+00         0.00000E+00        -0.49405E+08
 
   -0.47188E+08         0.20057E+06         0.00000E+00
    0.20057E+06        -0.50060E+08         0.00000E+00
    0.00000E+00         0.00000E+00        -0.49444E+08
 
   -0.47353E+08         0.20241E+06         0.00000E+00
    0.20241E+06        -0.50086E+08         0.00000E+00
    0.00000E+00         0.00000E+00        -0.49482E+08
 
   -0.47508E+08         0.19982E+06         0.00000E+00
    0.19982E+06        -0.50115E+08         0.00000E+00
    0.00000E+00         0.00000E+00        -0.49519E+08
 
   -0.47653E+08         0.19382E+06         0.00000E+00
    0.19382E+06        -0.50150E+08         0.00000E+00
    0.00000E+00         0.00000E+00        -0.49555E+08
 
   -0.47787E+08         0.18539E+06         0.00000E+00
    0.18539E+06        -0.50188E+08         0.00000E+00
    0.00000E+00         0.00000E+00        -0.49589E+08
 
   -0.47911E+08         0.17544E+06         0.00000E+00
    0.17544E+06        -0.50231E+08         0.00000E+00
    0.00000E+00         0.00000E+00        -0.49623E+08
 
   -0.48024E+08         0.16483E+06         0.00000E+00
    0.16483E+06        -0.50278E+08         0.00000E+00
    0.00000E+00         0.00000E+00        -0.49655E+08
 
   -0.48128E+08         0.15435E+06         0.00000E+00
    0.15435E+06        -0.50328E+08         0.00000E+00
    0.00000E+00         0.00000E+00        -0.49686E+08
 
   -0.48223E+08         0.14469E+06         0.00000E+00
    0.14469E+06        -0.50381E+08         0.00000E+00
    0.00000E+00         0.00000E+00        -0.49715E+08
 
   -0.48309E+08         0.13649E+06         0.00000E+00
    0.13649E+06        -0.50437E+08         0.00000E+00
    0.00000E+00         0.00000E+00        -0.49744E+08
 
   -0.48387E+08         0.13029E+06         0.00000E+00
    0.13029E+06        -0.50495E+08         0.00000E+00
    0.00000E+00         0.00000E+00        -0.49771E+08
 
   -0.48457E+08         0.12657E+06         0.00000E+00
    0.12657E+06        -0.50554E+08         0.00000E+00
    0.00000E+00         0.00000E+00        -0.49797E+08
 
   -0.48521E+08         0.12571E+06         0.00000E+00
    0.12571E+06        -0.50615E+08         0.00000E+00
    0.00000E+00         0.00000E+00        -0.49822E+08
 
   -0.48578E+08         0.12804E+06         0.00000E+00
    0.12804E+06        -0.50677E+08         0.00000E+00
    0.00000E+00         0.00000E+00        -0.49845E+08
 
   -0.48630E+08         0.13381E+06         0.00000E+00
    0.13381E+06        -0.50739E+08         0.00000E+00
    0.00000E+00         0.00000E+00        -0.49868E+08
 
   -0.48677E+08         0.14320E+06         0.00000E+00
    0.14320E+06        -0.50801E+08         0.00000E+00
    0.00000E+00         0.00000E+00        -0.49890E+08
 
   -0.48721E+08         0.15633E+06         0.00000E+00
    0.15633E+06        -0.50863E+08         0.00000E+00
    0.00000E+00         0.00000E+00        -0.49911E+08
 
   -0.48761E+08         0.17327E+06         0.00000E+00
    0.17327E+06        -0.50923E+08         0.00000E+00
    0.00000E+00         0.00000E+00        -0.49931E+08
 
   -0.48798E+08         0.19401E+06         0.00000E+00
    0.19401E+06        -0.50983E+08         0.00000E+00
    0.00000E+00         0.00000E+00        -0.49951E+08
 
   -0.48834E+08         0.21850E+06         0.00000E+00
    0.21850E+06        -0.51040E+08         0.00000E+00
    0.00000E+00         0.00000E+00        -0.49969E+08
 
   -0.48869E+08         0.24665E+06         0.00000E+00
    0.24665E+06        -0.51095E+08         0.00000E+00
    0.00000E+00         0.00000E+00        -0.49987E+08
 
   -0.48903E+08         0.27830E+06         0.00000E+00
    0.27830E+06        -0.51148E+08         0.00000E+00
    0.00000E+00         0.00000E+00        -0.50005E+08
 
   -0.48937E+08         0.31325E+06         0.00000E+00
    0.31325E+06        -0.51198E+08         0.00000E+00
    0.00000E+00         0.00000E+00        -0.50021E+08
 
   -0.48972E+08         0.35126E+06         0.00000E+00
    0.35126E+06        -0.51244E+08         0.00000E+00
    0.00000E+00         0.00000E+00        -0.50038E+08
 
   -0.49008E+08         0.39204E+06         0.00000E+00
    0.39204E+06        -0.51288E+08         0.00000E+00
    0.00000E+00         0.00000E+00        -0.50054E+08
 
   -0.49046E+08         0.43524E+06         0.00000E+00
    0.43524E+06        -0.51327E+08         0.00000E+00
    0.00000E+00         0.00000E+00        -0.50069E+08
 
   -0.49087E+08         0.48048E+06         0.00000E+00
    0.48048E+06        -0.51362E+08         0.00000E+00
    0.00000E+00         0.00000E+00        -0.50084E+08
 
   -0.49130E+08         0.52734E+06         0.00000E+00
    0.52734E+06        -0.51393E+08         0.00000E+00
    0.00000E+00         0.00000E+00        -0.50099E+08
 
   -0.49176E+08         0.57534E+06         0.00000E+00
    0.57534E+06        -0.51419E+08         0.00000E+00
    0.00000E+00         0.00000E+00        -0.50113E+08
 
   -0.49226E+08         0.62395E+06         0.00000E+00
    0.62395E+06        -0.51441E+08         0.00000E+00
    0.00000E+00         0.00000E+00        -0.50128E+08
 
   -0.49279E+08         0.67263E+06         0.00000E+00
    0.67263E+06        -0.51457E+08         0.00000E+00
    0.00000E+00         0.00000E+00        -0.50142E+08
 
   -0.49337E+08         0.72075E+06         0.00000E+00
    0.72075E+06        -0.51469E+08         0.00000E+00
    0.00000E+00         0.00000E+00        -0.50155E+08
 
   -0.49398E+08         0.76769E+06         0.00000E+00
    0.76769E+06        -0.51475E+08         0.00000E+00
    0.00000E+00         0.00000E+00        -0.50169E+08
 
   -0.49463E+08         0.81275E+06         0.00000E+00
    0.81275E+06        -0.51476E+08         0.00000E+00
    0.00000E+00         0.00000E+00        -0.50182E+08
 
   -0.49533E+08         0.85523E+06         0.00000E+00
    0.85523E+06        -0.51472E+08         0.00000E+00
    0.00000E+00         0.00000E+00        -0.50195E+08
 
   -0.49606E+08         0.89440E+06         0.00000E+00
    0.89440E+06        -0.51464E+08         0.00000E+00
    0.00000E+00         0.00000E+00        -0.50208E+08
 
   -0.49682E+08         0.92951E+06         0.00000E+00
    0.92951E+06        -0.51450E+08         0.00000E+00
    0.00000E+00         0.00000E+00        -0.50221E+08
 
   -0.49762E+08         0.95979E+06         0.00000E+00
    0.95979E+06        -0.51431E+08         0.00000E+00
    0.00000E+00         0.00000E+00        -0.50233E+08
 
   -0.49844E+08         0.98450E+06         0.00000E+00
    0.98450E+06        -0.51409E+08         0.00000E+00
    0.00000E+00         0.00000E+00        -0.50245E+08
 
   -0.49928E+08         0.10029E+07         0.00000E+00
    0.10029E+07        -0.51382E+08         0.00000E+00
    0.00000E+00         0.00000E+00        -0.50256E+08
 
   -0.50013E+08         0.10143E+07         0.00000E+00
    0.10143E+07        -0.51352E+08         0.00000E+00
    0.00000E+00         0.00000E+00        -0.50267E+08
 
   -0.50097E+08         0.10181E+07         0.00000E+00
    0.10181E+07        -0.51320E+08         0.00000E+00
    0.00000E+00         0.00000E+00        -0.50278E+08
 
   -0.50180E+08         0.10137E+07         0.00000E+00
    0.10137E+07        -0.51285E+08         0.00000E+00
    0.00000E+00         0.00000E+00        -0.50288E+08
 
   -0.50261E+08         0.10006E+07         0.00000E+00
    0.10006E+07        -0.51250E+08         0.00000E+00
    0.00000E+00         0.00000E+00        -0.50297E+08
 
   -0.45763E+08         0.34779E+05         0.00000E+00
    0.34779E+05        -0.49997E+08         0.00000E+00
    0.00000E+00         0.00000E+00        -0.49130E+08
 
   -0.46042E+08         0.66672E+05         0.00000E+00
    0.66672E+05        -0.50000E+08         0.00000E+00
    0.00000E+00         0.00000E+00        -0.49187E+08
 
   -0.46310E+08         0.84360E+05         0.00000E+00
    0.84360E+05        -0.50009E+08         0.00000E+00
    0.00000E+00         0.00000E+00        -0.49242E+08
 
   -0.46563E+08         0.89528E+05         0.00000E+00
    0.89528E+05        -0.50024E+08         0.00000E+00
    0.00000E+00         0.00000E+00        -0.49296E+08
 
   -0.46802E+08         0.83996E+05         0.00000E+00
    0.83996E+05        -0.50045E+08         0.00000E+00
    0.00000E+00         0.00000E+00        -0.49348E+08
 
   -0.47025E+08         0.69594E+05         0.00000E+00
    0.69594E+05        -0.50074E+08         0.00000E+00
    0.00000E+00         0.00000E+00        -0.49398E+08
 
   -0.47231E+08         0.48128E+05         0.00000E+00
    0.48128E+05        -0.50110E+08         0.00000E+00
    0.00000E+00         0.00000E+00        -0.49447E+08
 
   -0.47421E+08         0.21345E+05         0.00000E+00
    0.21345E+05        -0.50153E+08         0.00000E+00
    0.00000E+00         0.00000E+00        -0.49493E+08
 
   -0.47593E+08        -0.90932E+04         0.00000E+00
   -0.90932E+04        -0.50203E+08         0.00000E+00
    0.00000E+00         0.00000E+00        -0.49538E+08
 
   -0.47749E+08        -0.41645E+05         0.00000E+00
   -0.41645E+05        -0.50260E+08         0.00000E+00
    0.00000E+00         0.00000E+00        -0.49580E+08
 
   -0.47889E+08        -0.74900E+05         0.00000E+00
   -0.74900E+05        -0.50322E+08         0.00000E+00
    0.00000E+00         0.00000E+00        -0.49621E+08
 
   -0.48013E+08        -0.10759E+06         0.00000E+00
   -0.10759E+06        -0.50390E+08         0.00000E+00
    0.00000E+00         0.00000E+00        -0.49659E+08
 
   -0.48122E+08        -0.13860E+06         0.00000E+00
   -0.13860E+06        -0.50463E+08         0.00000E+00
    0.00000E+00         0.00000E+00        -0.49695E+08
 
   -0.48218E+08        -0.16694E+06         0.00000E+00
   -0.16694E+06        -0.50540E+08         0.00000E+00
    0.00000E+00         0.00000E+00        -0.49730E+08
 
   -0.48300E+08        -0.19180E+06         0.00000E+00
   -0.19180E+06        -0.50620E+08         0.00000E+00
    0.00000E+00         0.00000E+00        -0.49762E+08
 
   -0.48371E+08        -0.21247E+06         0.00000E+00
   -0.21247E+06        -0.50703E+08         0.00000E+00
    0.00000E+00         0.00000E+00        -0.49793E+08
 
   -0.48431E+08        -0.22838E+06         0.00000E+00
   -0.22838E+06        -0.50788E+08         0.00000E+00
    0.00000E+00         0.00000E+00        -0.49822E+08
 
   -0.48482E+08        -0.23907E+06         0.00000E+00
   -0.23907E+06        -0.50875E+08         0.00000E+00
    0.00000E+00         0.00000E+00        -0.49850E+08
 
   -0.48524E+08        -0.24420E+06         0.00000E+00
   -0.24420E+06        -0.50963E+08         0.00000E+00
    0.00000E+00         0.00000E+00        -0.49876E+08
 
   -0.48558E+08        -0.24352E+06         0.00000E+00
   -0.24352E+06        -0.51050E+08         0.00000E+00
    0.00000E+00         0.00000E+00        -0.49900E+08
 
   -0.48587E+08        -0.23685E+06         0.00000E+00
   -0.23685E+06        -0.51138E+08         0.00000E+00
    0.00000E+00         0.00000E+00        -0.49923E+08
 
   -0.48610E+08        -0.22412E+06         0.00000E+00
   -0.22412E+06        -0.51224E+08         0.00000E+00
    0.00000E+00         0.00000E+00        -0.49945E+08
 
   -0.48629E+08        -0.20529E+06         0.00000E+00
   -0.20529E+06        -0.51309E+08         0.00000E+00
    0.00000E+00         0.00000E+00        -0.49966E+08
 
   -0.48644E+08        -0.18041E+06         0.00000E+00
   -0.18041E+06        -0.51392E+08         0.00000E+00
    0.00000E+00         0.00000E+00        -0.49986E+08
 
   -0.48658E+08        -0.14956E+06         0.00000E+00
   -0.14956E+06        -0.51473E+08         0.00000E+00
    0.00000E+00         0.00000E+00        -0.50005E+08
 
   -0.48670E+08        -0.11289E+06         0.00000E+00
   -0.11289E+06        -0.51551E+08         0.00000E+00
    0.00000E+00         0.00000E+00        -0.50023E+08
 
   -0.48682E+08        -0.70588E+05         0.00000E+00
   -0.70588E+05        -0.51626E+08         0.00000E+00
    0.00000E+00         0.00000E+00        -0.50040E+08
 
   -0.48695E+08        -0.22880E+05         0.00000E+00
   -0.22880E+05        -0.51698E+08         0.00000E+00
    0.00000E+00         0.00000E+00        -0.50057E+08
 
   -0.48709E+08         0.29956E+05         0.00000E+00
    0.29956E+05        -0.51765E+08         0.00000E+00
    0.00000E+00         0.00000E+00        -0.50073E+08
 
   -0.48725E+08         0.87601E+05         0.00000E+00
    0.87601E+05        -0.51828E+08         0.00000E+00
    0.00000E+00         0.00000E+00        -0.50089E+08
 
   -0.48745E+08         0.14969E+06         0.00000E+00
    0.14969E+06        -0.51887E+08         0.00000E+00
    0.00000E+00         0.00000E+00        -0.50105E+08
 
   -0.48768E+08         0.21581E+06         0.00000E+00
    0.21581E+06        -0.51940E+08         0.00000E+00
    0.00000E+00         0.00000E+00        -0.50120E+08
 
   -0.48796E+08         0.28550E+06         0.00000E+00
    0.28550E+06        -0.51988E+08         0.00000E+00
    0.00000E+00         0.00000E+00        -0.50135E+08
 
   -0.48829E+08         0.35823E+06         0.00000E+00
    0.35823E+06        -0.52031E+08         0.00000E+00
    0.00000E+00         0.00000E+00        -0.50150E+08
 
   -0.48868E+08         0.43343E+06         0.00000E+00
    0.43343E+06        -0.52067E+08         0.00000E+00
    0.00000E+00         0.00000E+00        -0.50165E+08
 
   -0.48913E+08         0.51043E+06         0.00000E+00
    0.51043E+06        -0.52097E+08         0.00000E+00
    0.00000E+00         0.00000E+00        -0.50180E+08
 
   -0.48966E+08         0.58852E+06         0.00000E+00
    0.58852E+06        -0.52120E+08         0.00000E+00
    0.00000E+00         0.00000E+00        -0.50195E+08
 
   -0.49026E+08         0.66690E+06         0.00000E+00
    0.66690E+06        -0.52137E+08         0.00000E+00
    0.00000E+00         0.00000E+00        -0.50211E+08
 
   -0.49094E+08         0.74469E+06         0.00000E+00
    0.74469E+06        -0.52146E+08         0.00000E+00
    0.00000E+00         0.00000E+00        -0.50226E+08
 
   -0.49170E+08         0.82095E+06         0.00000E+00
    0.82095E+06        -0.52148E+08         0.00000E+00
    0.00000E+00         0.00000E+00        -0.50242E+08
 
   -0.49255E+08         0.89462E+06         0.00000E+00
    0.89462E+06        -0.52142E+08         0.00000E+00
    0.00000E+00         0.00000E+00        -0.50258E+08
 
   -0.49348E+08         0.96459E+06         0.00000E+00
    0.96459E+06        -0.52129E+08         0.00000E+00
    0.00000E+00         0.00000E+00        -0.50274E+08
 
   -0.49450E+08         0.10297E+07         0.00000E+00
    0.10297E+07        -0.52108E+08         0.00000E+00
    0.00000E+00         0.00000E+00        -0.50290E+08
 
   -0.49559E+08         0.10886E+07         0.00000E+00
    0.10886E+07        -0.52080E+08         0.00000E+00
    0.00000E+00         0.00000E+00        -0.50306E+08
 
   -0.49677E+08         0.11401E+07         0.00000E+00
    0.11401E+07        -0.52044E+08         0.00000E+00
    0.00000E+00         0.00000E+00        -0.50323E+08
 
   -0.49801E+08         0.11828E+07         0.00000E+00
    0.11828E+07        -0.52002E+08         0.00000E+00
    0.00000E+00         0.00000E+00        -0.50339E+08
 
   -0.49930E+08         0.12153E+07         0.00000E+00
    0.12153E+07        -0.51954E+08         0.00000E+00
    0.00000E+00         0.00000E+00        -0.50355E+08
 
   -0.50065E+08         0.12363E+07         0.00000E+00
    0.12363E+07        -0.51900E+08         0.00000E+00
    0.00000E+00         0.00000E+00        -0.50371E+08
 
   -0.50202E+08         0.12446E+07         0.00000E+00
    0.12446E+07        -0.51842E+08         0.00000E+00
    0.00000E+00         0.00000E+00        -0.50387E+08
 
   -0.50341E+08         0.12389E+07         0.00000E+00
    0.12389E+07        -0.51780E+08         0.00000E+00
    0.00000E+00         0.00000E+00        -0.50402E+08
 
   -0.45634E+08         0.26029E+05         0.00000E+00
    0.26029E+05        -0.49994E+08         0.00000E+00
    0.00000E+00         0.00000E+00        -0.49048E+08
 
   -0.46003E+08         0.22815E+05         0.00000E+00
    0.22815E+05        -0.50001E+08         0.00000E+00
    0.00000E+00         0.00000E+00        -0.49123E+08
 
   -0.46347E+08         0.35862E+03         0.00000E+00
    0.35862E+03        -0.50018E+08         0.00000E+00
    0.00000E+00         0.00000E+00        -0.49195E+08
 
   -0.46665E+08        -0.37685E+05         0.00000E+00
   -0.37685E+05        -0.50047E+08         0.00000E+00
    0.00000E+00         0.00000E+00        -0.49264E+08
 
   -0.46955E+08        -0.87923E+05         0.00000E+00
   -0.87923E+05        -0.50087E+08         0.00000E+00
    0.00000E+00         0.00000E+00        -0.49330E+08
 
   -0.47217E+08        -0.14708E+06         0.00000E+00
   -0.14708E+06        -0.50138E+08         0.00000E+00
    0.00000E+00         0.00000E+00        -0.49393E+08
 
   -0.47450E+08        -0.21212E+06         0.00000E+00
   -0.21212E+06        -0.50200E+08         0.00000E+00
    0.00000E+00         0.00000E+00        -0.49452E+08
 
   -0.47657E+08        -0.28026E+06         0.00000E+00
   -0.28026E+06        -0.50272E+08         0.00000E+00
    0.00000E+00         0.00000E+00        -0.49508E+08
 
   -0.47836E+08        -0.34908E+06         0.00000E+00
   -0.34908E+06        -0.50354E+08         0.00000E+00
    0.00000E+00         0.00000E+00        -0.49560E+08
 
   -0.47990E+08        -0.41646E+06         0.00000E+00
   -0.41646E+06        -0.50443E+08         0.00000E+00
    0.00000E+00         0.00000E+00        -0.49609E+08
 
   -0.48121E+08        -0.48059E+06         0.00000E+00
   -0.48059E+06        -0.50540E+08         0.00000E+00
    0.00000E+00         0.00000E+00        -0.49654E+08
 
   -0.48230E+08        -0.53999E+06         0.00000E+00
   -0.53999E+06        -0.50642E+08         0.00000E+00
    0.00000E+00         0.00000E+00        -0.49697E+08
 
   -0.48318E+08        -0.59342E+06         0.00000E+00
   -0.59342E+06        -0.50749E+08         0.00000E+00
    0.00000E+00         0.00000E+00        -0.49736E+08
 
   -0.48389E+08        -0.63993E+06         0.00000E+00
   -0.63993E+06        -0.50860E+08         0.00000E+00
    0.00000E+00         0.00000E+00        -0.49772E+08
 
   -0.48442E+08        -0.67878E+06         0.00000E+00
   -0.67878E+06        -0.50973E+08         0.00000E+00
    0.00000E+00         0.00000E+00        -0.49805E+08
 
   -0.48482E+08        -0.70945E+06         0.00000E+00
   -0.70945E+06        -0.51088E+08         0.00000E+00
    0.00000E+00         0.00000E+00        -0.49836E+08
 
   -0.48508E+08        -0.73156E+06         0.00000E+00
   -0.73156E+06        -0.51204E+08         0.00000E+00
    0.00000E+00         0.00000E+00        -0.49865E+08
 
   -0.48523E+08        -0.74491E+06         0.00000E+00
   -0.74491E+06        -0.51320E+08         0.00000E+00
    0.00000E+00         0.00000E+00        -0.49891E+08
 
   -0.48529E+08        -0.74941E+06         0.00000E+00
   -0.74941E+06        -0.51435E+08         0.00000E+00
    0.00000E+00         0.00000E+00        -0.49915E+08
 
   -0.48528E+08        -0.74505E+06         0.00000E+00
   -0.74505E+06        -0.51549E+08         0.00000E+00
    0.00000E+00         0.00000E+00        -0.49937E+08
 
   -0.48519E+08        -0.73192E+06         0.00000E+00
   -0.73192E+06        -0.51661E+08         0.00000E+00
    0.00000E+00         0.00000E+00        -0.49958E+08
 
   -0.48506E+08        -0.71015E+06         0.00000E+00
   -0.71015E+06        -0.51770E+08         0.00000E+00
    0.00000E+00         0.00000E+00        -0.49977E+08
 
   -0.48489E+08        -0.67994E+06         0.00000E+00
   -0.67994E+06        -0.51877E+08         0.00000E+00
    0.00000E+00         0.00000E+00        -0.49995E+08
 
   -0.48470E+08        -0.64148E+06         0.00000E+00
   -0.64148E+06        -0.51980E+08         0.00000E+00
    0.00000E+00         0.00000E+00        -0.50012E+08
 
   -0.48449E+08        -0.59503E+06         0.00000E+00
   -0.59503E+06        -0.52080E+08         0.00000E+00
    0.00000E+00         0.00000E+00        -0.50028E+08
 
   -0.48428E+08        -0.54084E+06         0.00000E+00
   -0.54084E+06        -0.52176E+08         0.00000E+00
    0.00000E+00         0.00000E+00        -0.50043E+08
 
   -0.48408E+08        -0.47918E+06         0.00000E+00
   -0.47918E+06        -0.52268E+08         0.00000E+00
    0.00000E+00         0.00000E+00        -0.50057E+08
 
   -0.48390E+08        -0.41033E+06         0.00000E+00
   -0.41033E+06        -0.52355E+08         0.00000E+00
    0.00000E+00         0.00000E+00        -0.50071E+08
 
   -0.48375E+08        -0.33460E+06         0.00000E+00
   -0.33460E+06        -0.52437E+08         0.00000E+00
    0.00000E+00         0.00000E+00        -0.50085E+08
 
   -0.48364E+08        -0.25231E+06         0.00000E+00
   -0.25231E+06        -0.52515E+08         0.00000E+00
    0.00000E+00         0.00000E+00        -0.50098E+08
 
   -0.48357E+08        -0.16379E+06         0.00000E+00
   -0.16379E+06        -0.52587E+08         0.00000E+00
    0.00000E+00         0.00000E+00        -0.50111E+08
 
   -0.48357E+08        -0.69437E+05         0.00000E+00
   -0.69437E+05        -0.52653E+08         0.00000E+00
    0.00000E+00         0.00000E+00        -0.50124E+08
 
   -0.48364E+08         0.30342E+05         0.00000E+00
    0.30342E+05        -0.52713E+08         0.00000E+00
    0.00000E+00         0.00000E+00        -0.50138E+08
 
   -0.48379E+08         0.13507E+06         0.00000E+00
    0.13507E+06        -0.52766E+08         0.00000E+00
    0.00000E+00         0.00000E+00        -0.50151E+08
 
   -0.48402E+08         0.24419E+06         0.00000E+00
    0.24419E+06        -0.52812E+08         0.00000E+00
    0.00000E+00         0.00000E+00        -0.50165E+08
 
   -0.48436E+08         0.35708E+06         0.00000E+00
    0.35708E+06        -0.52851E+08         0.00000E+00
    0.00000E+00         0.00000E+00        -0.50180E+08
 
   -0.48481E+08         0.47302E+06         0.00000E+00
    0.47302E+06        -0.52882E+08         0.00000E+00
    0.00000E+00         0.00000E+00        -0.50195E+08
 
   -0.48537E+08         0.59114E+06         0.00000E+00
    0.59114E+06        -0.52905E+08         0.00000E+00
    0.00000E+00         0.00000E+00        -0.50211E+08
 
   -0.48607E+08         0.71046E+06         0.00000E+00
    0.71046E+06        -0.52919E+08         0.00000E+00
    0.00000E+00         0.00000E+00        -0.50227E+08
 
   -0.48691E+08         0.82986E+06         0.00000E+00
    0.82986E+06        -0.52923E+08         0.00000E+00
    0.00000E+00         0.00000E+00        -0.50245E+08
 
   -0.48789E+08         0.94801E+06         0.00000E+00
    0.94801E+06        -0.52916E+08         0.00000E+00
    0.00000E+00         0.00000E+00        -0.50263E+08
 
   -0.48902E+08         0.10635E+07         0.00000E+00
    0.10635E+07        -0.52900E+08         0.00000E+00
    0.00000E+00         0.00000E+00        -0.50283E+08
 
   -0.49031E+08         0.11745E+07         0.00000E+00
    0.11745E+07        -0.52872E+08         0.00000E+00
    0.00000E+00         0.00000E+00        -0.50303E+08
 
   -0.49177E+08         0.12793E+07         0.00000E+00
    0.12793E+07        -0.52833E+08         0.00000E+00
    0.00000E+00         0.00000E+00        -0.50324E+08
 
   -0.49338E+08         0.13757E+07         0.00000E+00
    0.13757E+07        -0.52783E+08         0.00000E+00
    0.00000E+00         0.00000E+00        -0.50346E+08
 
   -0.49516E+08         0.14616E+07         0.00000E+00
    0.14616E+07        -0.52721E+08         0.00000E+00
    0.00000E+00         0.00000E+00        -0.50370E+08
 
   -0.49708E+08         0.15344E+07         0.00000E+00
    0.15344E+07        -0.52648E+08         0.00000E+00
    0.00000E+00         0.00000E+00        -0.50393E+08
 
   -0.49915E+08         0.15917E+07         0.00000E+00
    0.15917E+07        -0.52564E+08         0.00000E+00
    0.00000E+00         0.00000E+00        -0.50418E+08
 
   -0.50135E+08         0.16308E+07         0.00000E+00
    0.16308E+07        -0.52471E+08         0.00000E+00
    0.00000E+00         0.00000E+00        -0.50443E+08
 
   -0.50364E+08         0.16489E+07         0.00000E+00
    0.16489E+07        -0.52369E+08         0.00000E+00
    0.00000E+00         0.00000E+00        -0.50469E+08
 
   -0.45736E+08         0.17815E+04         0.00000E+00
    0.17815E+04        -0.49986E+08         0.00000E+00
    0.00000E+00         0.00000E+00        -0.48889E+08
 
   -0.46224E+08        -0.70552E+05         0.00000E+00
   -0.70552E+05        -0.50004E+08         0.00000E+00
    0.00000E+00         0.00000E+00        -0.48990E+08
 
   -0.46661E+08        -0.16520E+06         0.00000E+00
   -0.16520E+06        -0.50040E+08         0.00000E+00
    0.00000E+00         0.00000E+00        -0.49085E+08
 
   -0.47047E+08        -0.27578E+06         0.00000E+00
   -0.27578E+06        -0.50095E+08         0.00000E+00
    0.00000E+00         0.00000E+00        -0.49173E+08
 
   -0.47383E+08        -0.39602E+06         0.00000E+00
   -0.39602E+06        -0.50169E+08         0.00000E+00
    0.00000E+00         0.00000E+00        -0.49255E+08
 
   -0.47670E+08        -0.52054E+06         0.00000E+00
   -0.52054E+06        -0.50258E+08         0.00000E+00
    0.00000E+00         0.00000E+00        -0.49331E+08
 
   -0.47913E+08        -0.64491E+06         0.00000E+00
   -0.64491E+06        -0.50362E+08         0.00000E+00
    0.00000E+00         0.00000E+00        -0.49400E+08
 
   -0.48112E+08        -0.76547E+06         0.00000E+00
   -0.76547E+06        -0.50478E+08         0.00000E+00
    0.00000E+00         0.00000E+00        -0.49463E+08
 
   -0.48273E+08        -0.87928E+06         0.00000E+00
   -0.87928E+06        -0.50603E+08         0.00000E+00
    0.00000E+00         0.00000E+00        -0.49520E+08
 
   -0.48398E+08        -0.98405E+06         0.00000E+00
   -0.98405E+06        -0.50737E+08         0.00000E+00
    0.00000E+00         0.00000E+00        -0.49572E+08
 
   -0.48492E+08        -0.10781E+07         0.00000E+00
   -0.10781E+07        -0.50876E+08         0.00000E+00
    0.00000E+00         0.00000E+00        -0.49619E+08
 
   -0.48558E+08        -0.11601E+07         0.00000E+00
   -0.11601E+07        -0.51020E+08         0.00000E+00
    0.00000E+00         0.00000E+00        -0.49660E+08
 
   -0.48599E+08        -0.12295E+07         0.00000E+00
   -0.12295E+07        -0.51165E+08         0.00000E+00
    0.00000E+00         0.00000E+00        -0.49698E+08
 
   -0.48619E+08        -0.12857E+07         0.00000E+00
   -0.12857E+07        -0.51312E+08         0.00000E+00
    0.00000E+00         0.00000E+00        -0.49731E+08
 
   -0.48621E+08        -0.13287E+07         0.00000E+00
   -0.13287E+07        -0.51458E+08         0.00000E+00
    0.00000E+00         0.00000E+00        -0.49761E+08
 
   -0.48607E+08        -0.13587E+07         0.00000E+00
   -0.13587E+07        -0.51602E+08         0.00000E+00
    0.00000E+00         0.00000E+00        -0.49787E+08
 
   -0.48581E+08        -0.13758E+07         0.00000E+00
   -0.13758E+07        -0.51744E+08         0.00000E+00
    0.00000E+00         0.00000E+00        -0.49810E+08
 
   -0.48544E+08        -0.13806E+07         0.00000E+00
   -0.13806E+07        -0.51882E+08         0.00000E+00
    0.00000E+00         0.00000E+00        -0.49830E+08
 
   -0.48499E+08        -0.13734E+07         0.00000E+00
   -0.13734E+07        -0.52017E+08         0.00000E+00
    0.00000E+00         0.00000E+00        -0.49848E+08
 
   -0.48447E+08        -0.13548E+07         0.00000E+00
   -0.13548E+07        -0.52147E+08         0.00000E+00
    0.00000E+00         0.00000E+00        -0.49864E+08
 
   -0.48391E+08        -0.13254E+07         0.00000E+00
   -0.13254E+07        -0.52274E+08         0.00000E+00
    0.00000E+00         0.00000E+00        -0.49878E+08
 
   -0.48331E+08        -0.12856E+07         0.00000E+00
   -0.12856E+07        -0.52395E+08         0.00000E+00
    0.00000E+00         0.00000E+00        -0.49890E+08
 
   -0.48269E+08        -0.12360E+07         0.00000E+00
   -0.12360E+07        -0.52512E+08         0.00000E+00
    0.00000E+00         0.00000E+00        -0.49901E+08
 
   -0.48206E+08        -0.11769E+07         0.00000E+00
   -0.11769E+07        -0.52624E+08         0.00000E+00
    0.00000E+00         0.00000E+00        -0.49911E+08
 
   -0.48143E+08        -0.11088E+07         0.00000E+00
   -0.11088E+07        -0.52731E+08         0.00000E+00
    0.00000E+00         0.00000E+00        -0.49920E+08
 
   -0.48082E+08        -0.10321E+07         0.00000E+00
   -0.10321E+07        -0.52833E+08         0.00000E+00
    0.00000E+00         0.00000E+00        -0.49928E+08
 
   -0.48023E+08        -0.94697E+06         0.00000E+00
   -0.94697E+06        -0.52931E+08         0.00000E+00
    0.00000E+00         0.00000E+00        -0.49936E+08
 
   -0.47967E+08        -0.85375E+06         0.00000E+00
   -0.85375E+06        -0.53023E+08         0.00000E+00
    0.00000E+00         0.00000E+00        -0.49943E+08
 
   -0.47916E+08        -0.75264E+06         0.00000E+00
   -0.75264E+06        -0.53111E+08         0.00000E+00
    0.00000E+00         0.00000E+00        -0.49950E+08
 
   -0.47869E+08        -0.64382E+06         0.00000E+00
   -0.64382E+06        -0.53194E+08         0.00000E+00
    0.00000E+00         0.00000E+00        -0.49958E+08
 
   -0.47829E+08        -0.52743E+06         0.00000E+00
   -0.52743E+06        -0.53271E+08         0.00000E+00
    0.00000E+00         0.00000E+00        -0.49965E+08
 
   -0.47797E+08        -0.40361E+06         0.00000E+00
   -0.40361E+06        -0.53343E+08         0.00000E+00
    0.00000E+00         0.00000E+00        -0.49973E+08
 
   -0.47773E+08        -0.27251E+06         0.00000E+00
   -0.27251E+06        -0.53410E+08         0.00000E+00
    0.00000E+00         0.00000E+00        -0.49981E+08
 
   -0.47759E+08        -0.13428E+06         0.00000E+00
   -0.13428E+06        -0.53470E+08         0.00000E+00
    0.00000E+00         0.00000E+00        -0.49991E+08
 
   -0.47755E+08         0.10866E+05         0.00000E+00
    0.10866E+05        -0.53524E+08         0.00000E+00
    0.00000E+00         0.00000E+00        -0.50001E+08
 
   -0.47765E+08         0.16264E+06         0.00000E+00
    0.16264E+06        -0.53571E+08         0.00000E+00
    0.00000E+00         0.00000E+00        -0.50012E+08
 
   -0.47789E+08         0.32066E+06         0.00000E+00
    0.32066E+06        -0.53610E+08         0.00000E+00
    0.00000E+00         0.00000E+00        -0.50025E+08
 
   -0.47828E+08         0.48438E+06         0.00000E+00
    0.48438E+06        -0.53640E+08         0.00000E+00
    0.00000E+00         0.00000E+00        -0.50039E+08
 
   -0.47886E+08         0.65311E+06         0.00000E+00
    0.65311E+06        -0.53661E+08         0.00000E+00
    0.00000E+00         0.00000E+00        -0.50054E+08
 
   -0.47963E+08         0.82589E+06         0.00000E+00
    0.82589E+06        -0.53671E+08         0.00000E+00
    0.00000E+00         0.00000E+00        -0.50072E+08
 
   -0.48062E+08         0.10015E+07         0.00000E+00
    0.10015E+07        -0.53670E+08         0.00000E+00
    0.00000E+00         0.00000E+00        -0.50091E+08
 
   -0.48185E+08         0.11785E+07         0.00000E+00
    0.11785E+07        -0.53655E+08         0.00000E+00
    0.00000E+00         0.00000E+00        -0.50113E+08
 
   -0.48333E+08         0.13548E+07         0.00000E+00
    0.13548E+07        -0.53626E+08         0.00000E+00
    0.00000E+00         0.00000E+00        -0.50137E+08
 
   -0.48508E+08         0.15283E+07         0.00000E+00
    0.15283E+07        -0.53581E+08         0.00000E+00
    0.00000E+00         0.00000E+00        -0.50163E+08
 
   -0.48713E+08         0.16961E+07         0.00000E+00
    0.16961E+07        -0.53520E+08         0.00000E+00
    0.00000E+00         0.00000E+00        -0.50191E+08
 
   -0.48948E+08         0.18551E+07         0.00000E+00
    0.18551E+07        -0.53440E+08         0.00000E+00
    0.00000E+00         0.00000E+00        -0.50223E+08
 
   -0.49215E+08         0.20015E+07         0.00000E+00
    0.20015E+07        -0.53341E+08         0.00000E+00
    0.00000E+00         0.00000E+00        -0.50256E+08
 
   -0.49514E+08         0.21309E+07         0.00000E+00
    0.21309E+07        -0.53223E+08         0.00000E+00
    0.00000E+00         0.00000E+00        -0.50292E+08
 
   -0.49844E+08         0.22383E+07         0.00000E+00
    0.22383E+07        -0.53084E+08         0.00000E+00
    0.00000E+00         0.00000E+00        -0.50331E+08
 
   -0.50204E+08         0.23190E+07         0.00000E+00
    0.23190E+07        -0.52927E+08         0.00000E+00
    0.00000E+00         0.00000E+00        -0.50371E+08
 
   -0.46313E+08        -0.63213E+05         0.00000E+00
   -0.63213E+05        -0.49973E+08         0.00000E+00
    0.00000E+00         0.00000E+00        -0.48505E+08
 
   -0.46925E+08        -0.26636E+06         0.00000E+00
   -0.26636E+06        -0.50011E+08         0.00000E+00
    0.00000E+00         0.00000E+00        -0.48635E+08
 
   -0.47439E+08        -0.48524E+06         0.00000E+00
   -0.48524E+06        -0.50084E+08         0.00000E+00
    0.00000E+00         0.00000E+00        -0.48753E+08
 
   -0.47861E+08        -0.70739E+06         0.00000E+00
   -0.70739E+06        -0.50185E+08         0.00000E+00
    0.00000E+00         0.00000E+00        -0.48857E+08
 
   -0.48200E+08        -0.92481E+06         0.00000E+00
   -0.92481E+06        -0.50310E+08         0.00000E+00
    0.00000E+00         0.00000E+00        -0.48950E+08
 
   -0.48465E+08        -0.11314E+07         0.00000E+00
   -0.11314E+07        -0.50455E+08         0.00000E+00
    0.00000E+00         0.00000E+00        -0.49032E+08
 
   -0.48662E+08        -0.13225E+07         0.00000E+00
   -0.13225E+07        -0.50614E+08         0.00000E+00
    0.00000E+00         0.00000E+00        -0.49103E+08
 
   -0.48802E+08        -0.14945E+07         0.00000E+00
   -0.14945E+07        -0.50783E+08         0.00000E+00
    0.00000E+00         0.00000E+00        -0.49165E+08
 
   -0.48892E+08        -0.16455E+07         0.00000E+00
   -0.16455E+07        -0.50959E+08         0.00000E+00
    0.00000E+00         0.00000E+00        -0.49218E+08
 
   -0.48939E+08        -0.17741E+07         0.00000E+00
   -0.17741E+07        -0.51138E+08         0.00000E+00
    0.00000E+00         0.00000E+00        -0.49263E+08
 
   -0.48950E+08        -0.18802E+07         0.00000E+00
   -0.18802E+07        -0.51317E+08         0.00000E+00
    0.00000E+00         0.00000E+00        -0.49302E+08
 
   -0.48933E+08        -0.19643E+07         0.00000E+00
   -0.19643E+07        -0.51494E+08         0.00000E+00
    0.00000E+00         0.00000E+00        -0.49333E+08
 
   -0.48891E+08        -0.20271E+07         0.00000E+00
   -0.20271E+07        -0.51666E+08         0.00000E+00
    0.00000E+00         0.00000E+00        -0.49359E+08
 
   -0.48831E+08        -0.20700E+07         0.00000E+00
   -0.20700E+07        -0.51832E+08         0.00000E+00
    0.00000E+00         0.00000E+00        -0.49381E+08
 
   -0.48755E+08        -0.20942E+07         0.00000E+00
   -0.20942E+07        -0.51992E+08         0.00000E+00
    0.00000E+00         0.00000E+00        -0.49397E+08
 
   -0.48668E+08        -0.21013E+07         0.00000E+00
   -0.21013E+07        -0.52144E+08         0.00000E+00
    0.00000E+00         0.00000E+00        -0.49410E+08
 
   -0.48573E+08        -0.20928E+07         0.00000E+00
   -0.20928E+07        -0.52288E+08         0.00000E+00
    0.00000E+00         0.00000E+00        -0.49420E+08
 
   -0.48472E+08        -0.20700E+07         0.00000E+00
   -0.20700E+07        -0.52425E+08         0.00000E+00
    0.00000E+00         0.00000E+00        -0.49427E+08
 
   -0.48366E+08        -0.20343E+07         0.00000E+00
   -0.20343E+07        -0.52554E+08         0.00000E+00
    0.00000E+00         0.00000E+00        -0.49432E+08
 
   -0.48258E+08        -0.19867E+07         0.00000E+00
   -0.19867E+07        -0.52675E+08         0.00000E+00
    0.00000E+00         0.00000E+00        -0.49435E+08
 
   -0.48149E+08        -0.19285E+07         0.00000E+00
   -0.19285E+07        -0.52790E+08         0.00000E+00
    0.00000E+00         0.00000E+00        -0.49436E+08
 
   -0.48040E+08        -0.18604E+07         0.00000E+00
   -0.18604E+07        -0.52897E+08         0.00000E+00
    0.00000E+00         0.00000E+00        -0.49435E+08
 
   -0.47931E+08        -0.17833E+07         0.00000E+00
   -0.17833E+07        -0.52999E+08         0.00000E+00
    0.00000E+00         0.00000E+00        -0.49434E+08
 
   -0.47825E+08        -0.16978E+07         0.00000E+00
   -0.16978E+07        -0.53094E+08         0.00000E+00
    0.00000E+00         0.00000E+00        -0.49432E+08
 
   -0.47720E+08        -0.16043E+07         0.00000E+00
   -0.16043E+07        -0.53185E+08         0.00000E+00
    0.00000E+00         0.00000E+00        -0.49429E+08
 
   -0.47618E+08        -0.15032E+07         0.00000E+00
   -0.15032E+07        -0.53270E+08         0.00000E+00
    0.00000E+00         0.00000E+00        -0.49426E+08
 
   -0.47520E+08        -0.13947E+07         0.00000E+00
   -0.13947E+07        -0.53351E+08         0.00000E+00
    0.00000E+00         0.00000E+00        -0.49422E+08
 
   -0.47425E+08        -0.12789E+07         0.00000E+00
   -0.12789E+07        -0.53428E+08         0.00000E+00
    0.00000E+00         0.00000E+00        -0.49419E+08
 
   -0.47336E+08        -0.11557E+07         0.00000E+00
   -0.11557E+07        -0.53502E+08         0.00000E+00
    0.00000E+00         0.00000E+00        -0.49416E+08
 
   -0.47251E+08        -0.10250E+07         0.00000E+00
   -0.10250E+07        -0.53572E+08         0.00000E+00
    0.00000E+00         0.00000E+00        -0.49413E+08
 
   -0.47172E+08        -0.88661E+06         0.00000E+00
   -0.88661E+06        -0.53639E+08         0.00000E+00
    0.00000E+00         0.00000E+00        -0.49410E+08
 
   -0.47100E+08        -0.74013E+06         0.00000E+00
   -0.74013E+06        -0.53703E+08         0.00000E+00
    0.00000E+00         0.00000E+00        -0.49409E+08
 
   -0.47036E+08        -0.58516E+06         0.00000E+00
   -0.58516E+06        -0.53764E+08         0.00000E+00
    0.00000E+00         0.00000E+00        -0.49408E+08
 
   -0.46982E+08        -0.42123E+06         0.00000E+00
   -0.42123E+06        -0.53821E+08         0.00000E+00
    0.00000E+00         0.00000E+00        -0.49409E+08
 
   -0.46937E+08        -0.24782E+06         0.00000E+00
   -0.24782E+06        -0.53875E+08         0.00000E+00
    0.00000E+00         0.00000E+00        -0.49411E+08
 
   -0.46906E+08        -0.64420E+05         0.00000E+00
   -0.64420E+05        -0.53925E+08         0.00000E+00
    0.00000E+00         0.00000E+00        -0.49414E+08
 
   -0.46888E+08         0.12949E+06         0.00000E+00
    0.12949E+06        -0.53970E+08         0.00000E+00
    0.00000E+00         0.00000E+00        -0.49420E+08
 
   -0.46887E+08         0.33433E+06         0.00000E+00
    0.33433E+06        -0.54009E+08         0.00000E+00
    0.00000E+00         0.00000E+00        -0.49427E+08
 
   -0.46906E+08         0.55041E+06         0.00000E+00
    0.55041E+06        -0.54041E+08         0.00000E+00
    0.00000E+00         0.00000E+00        -0.49438E+08
 
   -0.46948E+08         0.77781E+06         0.00000E+00
    0.77781E+06        -0.54064E+08         0.00000E+00
    0.00000E+00         0.00000E+00        -0.49450E+08
 
   -0.47017E+08         0.10163E+07         0.00000E+00
    0.10163E+07        -0.54076E+08         0.00000E+00
    0.00000E+00         0.00000E+00        -0.49467E+08
 
   -0.47116E+08         0.12653E+07         0.00000E+00
    0.12653E+07        -0.54076E+08         0.00000E+00
    0.00000E+00         0.00000E+00        -0.49486E+08
 
   -0.47249E+08         0.15236E+07         0.00000E+00
    0.15236E+07        -0.54059E+08         0.00000E+00
    0.00000E+00         0.00000E+00        -0.49510E+08
 
   -0.47423E+08         0.17893E+07         0.00000E+00
    0.17893E+07        -0.54025E+08         0.00000E+00
    0.00000E+00         0.00000E+00        -0.49538E+08
 
   -0.47641E+08         0.20599E+07         0.00000E+00
    0.20599E+07        -0.53968E+08         0.00000E+00
    0.00000E+00         0.00000E+00        -0.49570E+08
 
   -0.47908E+08         0.23318E+07         0.00000E+00
    0.23318E+07        -0.53886E+08         0.00000E+00
    0.00000E+00         0.00000E+00        -0.49607E+08
 
   -0.48230E+08         0.26008E+07         0.00000E+00
    0.26008E+07        -0.53776E+08         0.00000E+00
    0.00000E+00         0.00000E+00        -0.49649E+08
 
   -0.48611E+08         0.28614E+07         0.00000E+00
    0.28614E+07        -0.53634E+08         0.00000E+00
    0.00000E+00         0.00000E+00        -0.49697E+08
 
   -0.49056E+08         0.31070E+07         0.00000E+00
    0.31070E+07        -0.53457E+08         0.00000E+00
    0.00000E+00         0.00000E+00        -0.49751E+08
 
   -0.49567E+08         0.33271E+07         0.00000E+00
    0.33271E+07        -0.53239E+08         0.00000E+00
    0.00000E+00         0.00000E+00        -0.49809E+08
 
   -0.47799E+08        -0.21251E+06         0.00000E+00
   -0.21251E+06        -0.49952E+08         0.00000E+00
    0.00000E+00         0.00000E+00        -0.47589E+08
 
   -0.48439E+08        -0.63934E+06         0.00000E+00
   -0.63934E+06        -0.50032E+08         0.00000E+00
    0.00000E+00         0.00000E+00        -0.47733E+08
 
   -0.48916E+08        -0.10381E+07         0.00000E+00
   -0.10381E+07        -0.50151E+08         0.00000E+00
    0.00000E+00         0.00000E+00        -0.47852E+08
 
   -0.49257E+08        -0.14052E+07         0.00000E+00
   -0.14052E+07        -0.50307E+08         0.00000E+00
    0.00000E+00         0.00000E+00        -0.47951E+08
 
   -0.49481E+08        -0.17334E+07         0.00000E+00
   -0.17334E+07        -0.50490E+08         0.00000E+00
    0.00000E+00         0.00000E+00        -0.48033E+08
 
   -0.49607E+08        -0.20175E+07         0.00000E+00
   -0.20175E+07        -0.50689E+08         0.00000E+00
    0.00000E+00         0.00000E+00        -0.48098E+08
 
   -0.49653E+08        -0.22554E+07         0.00000E+00
   -0.22554E+07        -0.50896E+08         0.00000E+00
    0.00000E+00         0.00000E+00        -0.48148E+08
 
   -0.49637E+08        -0.24476E+07         0.00000E+00
   -0.24476E+07        -0.51102E+08         0.00000E+00
    0.00000E+00         0.00000E+00        -0.48186E+08
 
   -0.49572E+08        -0.25966E+07         0.00000E+00
   -0.25966E+07        -0.51302E+08         0.00000E+00
    0.00000E+00         0.00000E+00        -0.48213E+08
 
   -0.49471E+08        -0.27060E+07         0.00000E+00
   -0.27060E+07        -0.51492E+08         0.00000E+00
    0.00000E+00         0.00000E+00        -0.48231E+08
 
   -0.49344E+08        -0.27798E+07         0.00000E+00
   -0.27798E+07        -0.51670E+08         0.00000E+00
    0.00000E+00         0.00000E+00        -0.48241E+08
 
   -0.49199E+08        -0.28225E+07         0.00000E+00
   -0.28225E+07        -0.51834E+08         0.00000E+00
    0.00000E+00         0.00000E+00        -0.48245E+08
 
   -0.49043E+08        -0.28380E+07         0.00000E+00
   -0.28380E+07        -0.51983E+08         0.00000E+00
    0.00000E+00         0.00000E+00        -0.48244E+08
 
   -0.48880E+08        -0.28303E+07         0.00000E+00
   -0.28303E+07        -0.52118E+08         0.00000E+00
    0.00000E+00         0.00000E+00        -0.48238E+08
 
   -0.48713E+08        -0.28028E+07         0.00000E+00
   -0.28028E+07        -0.52240E+08         0.00000E+00
    0.00000E+00         0.00000E+00        -0.48229E+08
 
   -0.48546E+08        -0.27586E+07         0.00000E+00
   -0.27586E+07        -0.52348E+08         0.00000E+00
    0.00000E+00         0.00000E+00        -0.48217E+08
 
   -0.48380E+08        -0.27005E+07         0.00000E+00
   -0.27005E+07        -0.52444E+08         0.00000E+00
    0.00000E+00         0.00000E+00        -0.48203E+08
 
   -0.48217E+08        -0.26305E+07         0.00000E+00
   -0.26305E+07        -0.52529E+08         0.00000E+00
    0.00000E+00         0.00000E+00        -0.48188E+08
 
   -0.48057E+08        -0.25508E+07         0.00000E+00
   -0.25508E+07        -0.52604E+08         0.00000E+00
    0.00000E+00         0.00000E+00        -0.48171E+08
 
   -0.47901E+08        -0.24628E+07         0.00000E+00
   -0.24628E+07        -0.52670E+08         0.00000E+00
    0.00000E+00         0.00000E+00        -0.48153E+08
 
   -0.47749E+08        -0.23678E+07         0.00000E+00
   -0.23678E+07        -0.52728E+08         0.00000E+00
    0.00000E+00         0.00000E+00        -0.48134E+08
 
   -0.47602E+08        -0.22668E+07         0.00000E+00
   -0.22668E+07        -0.52780E+08         0.00000E+00
    0.00000E+00         0.00000E+00        -0.48115E+08
 
   -0.47458E+08        -0.21607E+07         0.00000E+00
   -0.21607E+07        -0.52826E+08         0.00000E+00
    0.00000E+00         0.00000E+00        -0.48096E+08
 
   -0.47319E+08        -0.20498E+07         0.00000E+00
   -0.20498E+07        -0.52868E+08         0.00000E+00
    0.00000E+00         0.00000E+00        -0.48076E+08
 
   -0.47183E+08        -0.19345E+07         0.00000E+00
   -0.19345E+07        -0.52906E+08         0.00000E+00
    0.00000E+00         0.00000E+00        -0.48057E+08
 
   -0.47051E+08        -0.18150E+07         0.00000E+00
   -0.18150E+07        -0.52942E+08         0.00000E+00
    0.00000E+00         0.00000E+00        -0.48037E+08
 
   -0.46923E+08        -0.16912E+07         0.00000E+00
   -0.16912E+07        -0.52975E+08         0.00000E+00
    0.00000E+00         0.00000E+00        -0.48018E+08
 
   -0.46798E+08        -0.15629E+07         0.00000E+00
   -0.15629E+07        -0.53008E+08         0.00000E+00
    0.00000E+00         0.00000E+00        -0.48000E+08
 
   -0.46676E+08        -0.14296E+07         0.00000E+00
   -0.14296E+07        -0.53040E+08         0.00000E+00
    0.00000E+00         0.00000E+00        -0.47982E+08
 
   -0.46557E+08        -0.12909E+07         0.00000E+00
   -0.12909E+07        -0.53072E+08         0.00000E+00
    0.00000E+00         0.00000E+00        -0.47965E+08
 
   -0.46442E+08        -0.11461E+07         0.00000E+00
   -0.11461E+07        -0.53105E+08         0.00000E+00
    0.00000E+00         0.00000E+00        -0.47948E+08
 
   -0.46330E+08        -0.99410E+06         0.00000E+00
   -0.99410E+06        -0.53139E+08         0.00000E+00
    0.00000E+00         0.00000E+00        -0.47932E+08
 
   -0.46222E+08        -0.83400E+06         0.00000E+00
   -0.83400E+06        -0.53175E+08         0.00000E+00
    0.00000E+00         0.00000E+00        -0.47918E+08
 
   -0.46118E+08        -0.66450E+06         0.00000E+00
   -0.66450E+06        -0.53212E+08         0.00000E+00
    0.00000E+00         0.00000E+00        -0.47905E+08
 
   -0.46020E+08        -0.48416E+06         0.00000E+00
   -0.48416E+06        -0.53251E+08         0.00000E+00
    0.00000E+00         0.00000E+00        -0.47893E+08
 
   -0.45929E+08        -0.29136E+06         0.00000E+00
   -0.29136E+06        -0.53292E+08         0.00000E+00
    0.00000E+00         0.00000E+00        -0.47883E+08
 
   -0.45846E+08        -0.84271E+05         0.00000E+00
   -0.84271E+05        -0.53334E+08         0.00000E+00
    0.00000E+00         0.00000E+00        -0.47875E+08
 
   -0.45774E+08         0.13912E+06         0.00000E+00
    0.13912E+06        -0.53376E+08         0.00000E+00
    0.00000E+00         0.00000E+00        -0.47869E+08
 
   -0.45717E+08         0.38096E+06         0.00000E+00
    0.38096E+06        -0.53418E+08         0.00000E+00
    0.00000E+00         0.00000E+00        -0.47866E+08
 
   -0.45677E+08         0.64353E+06         0.00000E+00
    0.64353E+06        -0.53459E+08         0.00000E+00
    0.00000E+00         0.00000E+00        -0.47866E+08
 
   -0.45659E+08         0.92910E+06         0.00000E+00
    0.92910E+06        -0.53495E+08         0.00000E+00
    0.00000E+00         0.00000E+00        -0.47870E+08
 
   -0.45670E+08         0.12399E+07         0.00000E+00
    0.12399E+07        -0.53525E+08         0.00000E+00
    0.00000E+00         0.00000E+00        -0.47878E+08
 
   -0.45717E+08         0.15776E+07         0.00000E+00
    0.15776E+07        -0.53545E+08         0.00000E+00
    0.00000E+00         0.00000E+00        -0.47891E+08
 
   -0.45808E+08         0.19437E+07         0.00000E+00
    0.19437E+07        -0.53550E+08         0.00000E+00
    0.00000E+00         0.00000E+00        -0.47910E+08
 
   -0.45953E+08         0.23383E+07         0.00000E+00
    0.23383E+07        -0.53534E+08         0.00000E+00
    0.00000E+00         0.00000E+00        -0.47936E+08
 
   -0.46164E+08         0.27601E+07         0.00000E+00
    0.27601E+07        -0.53490E+08         0.00000E+00
    0.00000E+00         0.00000E+00        -0.47970E+08
 
   -0.46452E+08         0.32059E+07         0.00000E+00
    0.32059E+07        -0.53411E+08         0.00000E+00
    0.00000E+00         0.00000E+00        -0.48011E+08
 
   -0.46828E+08         0.36706E+07         0.00000E+00
    0.36706E+07        -0.53287E+08         0.00000E+00
    0.00000E+00         0.00000E+00        -0.48062E+08
 
   -0.47306E+08         0.41482E+07         0.00000E+00
    0.41482E+07        -0.53111E+08         0.00000E+00
    0.00000E+00         0.00000E+00        -0.48122E+08
 
   -0.47904E+08         0.46369E+07         0.00000E+00
    0.46369E+07        -0.52882E+08         0.00000E+00
    0.00000E+00         0.00000E+00        -0.48196E+08
 
   -0.50768E+08        -0.48185E+06         0.00000E+00
   -0.48185E+06        -0.49943E+08         0.00000E+00
    0.00000E+00         0.00000E+00        -0.45685E+08
 
   -0.51118E+08        -0.11986E+07         0.00000E+00
   -0.11986E+07        -0.50031E+08         0.00000E+00
    0.00000E+00         0.00000E+00        -0.45773E+08
 
   -0.51273E+08        -0.18250E+07         0.00000E+00
   -0.18250E+07        -0.50201E+08         0.00000E+00
    0.00000E+00         0.00000E+00        -0.45838E+08
 
   -0.51259E+08        -0.23358E+07         0.00000E+00
   -0.23358E+07        -0.50404E+08         0.00000E+00
    0.00000E+00         0.00000E+00        -0.45875E+08
 
   -0.51120E+08        -0.27307E+07         0.00000E+00
   -0.27307E+07        -0.50610E+08         0.00000E+00
    0.00000E+00         0.00000E+00        -0.45889E+08
 
   -0.50900E+08        -0.30208E+07         0.00000E+00
   -0.30208E+07        -0.50803E+08         0.00000E+00
    0.00000E+00         0.00000E+00        -0.45883E+08
 
   -0.50630E+08        -0.32213E+07         0.00000E+00
   -0.32213E+07        -0.50974E+08         0.00000E+00
    0.00000E+00         0.00000E+00        -0.45864E+08
 
   -0.50334E+08        -0.33474E+07         0.00000E+00
   -0.33474E+07        -0.51118E+08         0.00000E+00
    0.00000E+00         0.00000E+00        -0.45833E+08
 
   -0.50028E+08        -0.34134E+07         0.00000E+00
   -0.34134E+07        -0.51236E+08         0.00000E+00
    0.00000E+00         0.00000E+00        -0.45796E+08
 
   -0.49724E+08        -0.34316E+07         0.00000E+00
   -0.34316E+07        -0.51327E+08         0.00000E+00
    0.00000E+00         0.00000E+00        -0.45753E+08
 
   -0.49427E+08        -0.34122E+07         0.00000E+00
   -0.34122E+07        -0.51393E+08         0.00000E+00
    0.00000E+00         0.00000E+00        -0.45707E+08
 
   -0.49142E+08        -0.33639E+07         0.00000E+00
   -0.33639E+07        -0.51438E+08         0.00000E+00
    0.00000E+00         0.00000E+00        -0.45659E+08
 
   -0.48871E+08        -0.32936E+07         0.00000E+00
   -0.32936E+07        -0.51463E+08         0.00000E+00
    0.00000E+00         0.00000E+00        -0.45610E+08
 
   -0.48616E+08        -0.32066E+07         0.00000E+00
   -0.32066E+07        -0.51471E+08         0.00000E+00
    0.00000E+00         0.00000E+00        -0.45560E+08
 
   -0.48375E+08        -0.31076E+07         0.00000E+00
   -0.31076E+07        -0.51466E+08         0.00000E+00
    0.00000E+00         0.00000E+00        -0.45511E+08
 
   -0.48149E+08        -0.29999E+07         0.00000E+00
   -0.29999E+07        -0.51448E+08         0.00000E+00
    0.00000E+00         0.00000E+00        -0.45462E+08
 
   -0.47937E+08        -0.28862E+07         0.00000E+00
   -0.28862E+07        -0.51421E+08         0.00000E+00
    0.00000E+00         0.00000E+00        -0.45414E+08
 
   -0.47737E+08        -0.27686E+07         0.00000E+00
   -0.27686E+07        -0.51386E+08         0.00000E+00
    0.00000E+00         0.00000E+00        -0.45368E+08
 
   -0.47549E+08        -0.26485E+07         0.00000E+00
   -0.26485E+07        -0.51345E+08         0.00000E+00
    0.00000E+00         0.00000E+00        -0.45322E+08
 
   -0.47371E+08        -0.25273E+07         0.00000E+00
   -0.25273E+07        -0.51300E+08         0.00000E+00
    0.00000E+00         0.00000E+00        -0.45277E+08
 
   -0.47201E+08        -0.24057E+07         0.00000E+00
   -0.24057E+07        -0.51252E+08         0.00000E+00
    0.00000E+00         0.00000E+00        -0.45233E+08
 
   -0.47040E+08        -0.22841E+07         0.00000E+00
   -0.22841E+07        -0.51202E+08         0.00000E+00
    0.00000E+00         0.00000E+00        -0.45191E+08
 
   -0.46884E+08        -0.21629E+07         0.00000E+00
   -0.21629E+07        -0.51152E+08         0.00000E+00
    0.00000E+00         0.00000E+00        -0.45150E+08
 
   -0.46734E+08        -0.20423E+07         0.00000E+00
   -0.20423E+07        -0.51102E+08         0.00000E+00
    0.00000E+00         0.00000E+00        -0.45110E+08
 
   -0.46588E+08        -0.19220E+07         0.00000E+00
   -0.19220E+07        -0.51053E+08         0.00000E+00
    0.00000E+00         0.00000E+00        -0.45071E+08
 
   -0.46445E+08        -0.18019E+07         0.00000E+00
   -0.18019E+07        -0.51006E+08         0.00000E+00
    0.00000E+00         0.00000E+00        -0.45033E+08
 
   -0.46304E+08        -0.16815E+07         0.00000E+00
   -0.16815E+07        -0.50963E+08         0.00000E+00
    0.00000E+00         0.00000E+00        -0.44996E+08
 
   -0.46163E+08        -0.15604E+07         0.00000E+00
   -0.15604E+07        -0.50923E+08         0.00000E+00
    0.00000E+00         0.00000E+00        -0.44960E+08
 
   -0.46023E+08        -0.14379E+07         0.00000E+00
   -0.14379E+07        -0.50887E+08         0.00000E+00
    0.00000E+00         0.00000E+00        -0.44925E+08
 
   -0.45882E+08        -0.13131E+07         0.00000E+00
   -0.13131E+07        -0.50856E+08         0.00000E+00
    0.00000E+00         0.00000E+00        -0.44891E+08
 
   -0.45740E+08        -0.11850E+07         0.00000E+00
   -0.11850E+07        -0.50831E+08         0.00000E+00
    0.00000E+00         0.00000E+00        -0.44857E+08
 
   -0.45595E+08        -0.10524E+07         0.00000E+00
   -0.10524E+07        -0.50812E+08         0.00000E+00
    0.00000E+00         0.00000E+00        -0.44824E+08
 
   -0.45447E+08        -0.91392E+06         0.00000E+00
   -0.91392E+06        -0.50800E+08         0.00000E+00
    0.00000E+00         0.00000E+00        -0.44792E+08
 
   -0.45296E+08        -0.76781E+06         0.00000E+00
   -0.76781E+06        -0.50795E+08         0.00000E+00
    0.00000E+00         0.00000E+00        -0.44761E+08
 
   -0.45140E+08        -0.61208E+06         0.00000E+00
   -0.61208E+06        -0.50798E+08         0.00000E+00
    0.00000E+00         0.00000E+00        -0.44731E+08
 
   -0.44981E+08        -0.44437E+06         0.00000E+00
   -0.44437E+06        -0.50809E+08         0.00000E+00
    0.00000E+00         0.00000E+00        -0.44701E+08
 
   -0.44817E+08        -0.26186E+06         0.00000E+00
   -0.26186E+06        -0.50830E+08         0.00000E+00
    0.00000E+00         0.00000E+00        -0.44672E+08
 
   -0.44650E+08        -0.61217E+05         0.00000E+00
   -0.61217E+05        -0.50859E+08         0.00000E+00
    0.00000E+00         0.00000E+00        -0.44645E+08
 
   -0.44481E+08         0.16149E+06         0.00000E+00
    0.16149E+06        -0.50898E+08         0.00000E+00
    0.00000E+00         0.00000E+00        -0.44619E+08
 
   -0.44311E+08         0.41094E+06         0.00000E+00
    0.41094E+06        -0.50947E+08         0.00000E+00
    0.00000E+00         0.00000E+00        -0.44594E+08
 
   -0.44143E+08         0.69262E+06         0.00000E+00
    0.69262E+06        -0.51004E+08         0.00000E+00
    0.00000E+00         0.00000E+00        -0.44572E+08
 
   -0.43982E+08         0.10130E+07         0.00000E+00
    0.10130E+07        -0.51069E+08         0.00000E+00
    0.00000E+00         0.00000E+00        -0.44553E+08
 
   -0.43834E+08         0.13794E+07         0.00000E+00
    0.13794E+07        -0.51141E+08         0.00000E+00
    0.00000E+00         0.00000E+00        -0.44538E+08
 
   -0.43708E+08         0.18004E+07         0.00000E+00
    0.18004E+07        -0.51215E+08         0.00000E+00
    0.00000E+00         0.00000E+00        -0.44528E+08
 
   -0.43617E+08         0.22850E+07         0.00000E+00
    0.22850E+07        -0.51288E+08         0.00000E+00
    0.00000E+00         0.00000E+00        -0.44524E+08
 
   -0.43580E+08         0.28428E+07         0.00000E+00
    0.28428E+07        -0.51352E+08         0.00000E+00
    0.00000E+00         0.00000E+00        -0.44529E+08
 
   -0.43618E+08         0.34818E+07         0.00000E+00
    0.34818E+07        -0.51395E+08         0.00000E+00
    0.00000E+00         0.00000E+00        -0.44546E+08
 
   -0.43762E+08         0.42065E+07         0.00000E+00
    0.42065E+07        -0.51401E+08         0.00000E+00
    0.00000E+00         0.00000E+00        -0.44575E+08
 
   -0.44037E+08         0.50120E+07         0.00000E+00
    0.50120E+07        -0.51343E+08         0.00000E+00
    0.00000E+00         0.00000E+00        -0.44619E+08
 
   -0.44454E+08         0.58744E+07         0.00000E+00
    0.58744E+07        -0.51182E+08         0.00000E+00
    0.00000E+00         0.00000E+00        -0.44670E+08
 
   -0.55657E+08        -0.85099E+06         0.00000E+00
   -0.85099E+06        -0.49930E+08         0.00000E+00
    0.00000E+00         0.00000E+00        -0.42389E+08
 
   -0.55045E+08        -0.19257E+07         0.00000E+00
   -0.19257E+07        -0.50171E+08         0.00000E+00
    0.00000E+00         0.00000E+00        -0.42315E+08
 
   -0.54222E+08        -0.26242E+07         0.00000E+00
   -0.26242E+07        -0.50318E+08         0.00000E+00
    0.00000E+00         0.00000E+00        -0.42180E+08
 
   -0.53360E+08        -0.30556E+07         0.00000E+00
   -0.30556E+07        -0.50381E+08         0.00000E+00
    0.00000E+00         0.00000E+00        -0.42020E+08
 
   -0.52535E+08        -0.33000E+07         0.00000E+00
   -0.33000E+07        -0.50373E+08         0.00000E+00
    0.00000E+00         0.00000E+00        -0.41854E+08
 
   -0.51777E+08        -0.34145E+07         0.00000E+00
   -0.34145E+07        -0.50307E+08         0.00000E+00
    0.00000E+00         0.00000E+00        -0.41689E+08
 
   -0.51095E+08        -0.34396E+07         0.00000E+00
   -0.34396E+07        -0.50195E+08         0.00000E+00
    0.00000E+00         0.00000E+00        -0.41530E+08
 
   -0.50487E+08        -0.34038E+07         0.00000E+00
   -0.34038E+07        -0.50048E+08         0.00000E+00
    0.00000E+00         0.00000E+00        -0.41379E+08
 
   -0.49949E+08        -0.33273E+07         0.00000E+00
   -0.33273E+07        -0.49876E+08         0.00000E+00
    0.00000E+00         0.00000E+00        -0.41237E+08
 
   -0.49473E+08        -0.32242E+07         0.00000E+00
   -0.32242E+07        -0.49684E+08         0.00000E+00
    0.00000E+00         0.00000E+00        -0.41103E+08
 
   -0.49052E+08        -0.31045E+07         0.00000E+00
   -0.31045E+07        -0.49480E+08         0.00000E+00
    0.00000E+00         0.00000E+00        -0.40978E+08
 
   -0.48680E+08        -0.29752E+07         0.00000E+00
   -0.29752E+07        -0.49268E+08         0.00000E+00
    0.00000E+00         0.00000E+00        -0.40861E+08
 
   -0.48349E+08        -0.28411E+07         0.00000E+00
   -0.28411E+07        -0.49052E+08         0.00000E+00
    0.00000E+00         0.00000E+00        -0.40752E+08
 
   -0.48053E+08        -0.27059E+07         0.00000E+00
   -0.27059E+07        -0.48836E+08         0.00000E+00
    0.00000E+00         0.00000E+00        -0.40650E+08
 
   -0.47789E+08        -0.25716E+07         0.00000E+00
   -0.25716E+07        -0.48620E+08         0.00000E+00
    0.00000E+00         0.00000E+00        -0.40554E+08
 
   -0.47550E+08        -0.24400E+07         0.00000E+00
   -0.24400E+07        -0.48408E+08         0.00000E+00
    0.00000E+00         0.00000E+00        -0.40464E+08
 
   -0.47334E+08        -0.23120E+07         0.00000E+00
   -0.23120E+07        -0.48201E+08         0.00000E+00
    0.00000E+00         0.00000E+00        -0.40379E+08
 
   -0.47136E+08        -0.21881E+07         0.00000E+00
   -0.21881E+07        -0.47999E+08         0.00000E+00
    0.00000E+00         0.00000E+00        -0.40299E+08
 
   -0.46954E+08        -0.20688E+07         0.00000E+00
   -0.20688E+07        -0.47804E+08         0.00000E+00
    0.00000E+00         0.00000E+00        -0.40224E+08
 
   -0.46784E+08        -0.19541E+07         0.00000E+00
   -0.19541E+07        -0.47616E+08         0.00000E+00
    0.00000E+00         0.00000E+00        -0.40152E+08
 
   -0.46625E+08        -0.18439E+07         0.00000E+00
   -0.18439E+07        -0.47436E+08         0.00000E+00
    0.00000E+00         0.00000E+00        -0.40084E+08
 
   -0.46474E+08        -0.17380E+07         0.00000E+00
   -0.17380E+07        -0.47263E+08         0.00000E+00
    0.00000E+00         0.00000E+00        -0.40019E+08
 
   -0.46329E+08        -0.16362E+07         0.00000E+00
   -0.16362E+07        -0.47099E+08         0.00000E+00
    0.00000E+00         0.00000E+00        -0.39958E+08
 
   -0.46189E+08        -0.15380E+07         0.00000E+00
   -0.15380E+07        -0.46943E+08         0.00000E+00
    0.00000E+00         0.00000E+00        -0.39898E+08
 
   -0.46051E+08        -0.14432E+07         0.00000E+00
   -0.14432E+07        -0.46795E+08         0.00000E+00
    0.00000E+00         0.00000E+00        -0.39841E+08
 
   -0.45914E+08        -0.13511E+07         0.00000E+00
   -0.13511E+07        -0.46656E+08         0.00000E+00
    0.00000E+00         0.00000E+00        -0.39786E+08
 
   -0.45776E+08        -0.12613E+07         0.00000E+00
   -0.12613E+07        -0.46526E+08         0.00000E+00
    0.00000E+00         0.00000E+00        -0.39732E+08
 
   -0.45636E+08        -0.11732E+07         0.00000E+00
   -0.11732E+07        -0.46406E+08         0.00000E+00
    0.00000E+00         0.00000E+00        -0.39680E+08
 
   -0.45492E+08        -0.10860E+07         0.00000E+00
   -0.10860E+07        -0.46294E+08         0.00000E+00
    0.00000E+00         0.00000E+00        -0.39629E+08
 
   -0.45344E+08        -0.99910E+06         0.00000E+00
   -0.99910E+06        -0.46192E+08         0.00000E+00
    0.00000E+00         0.00000E+00        -0.39579E+08
 
   -0.45188E+08        -0.91151E+06         0.00000E+00
   -0.91151E+06        -0.46099E+08         0.00000E+00
    0.00000E+00         0.00000E+00        -0.39529E+08
 
   -0.45024E+08        -0.82226E+06         0.00000E+00
   -0.82226E+06        -0.46017E+08         0.00000E+00
    0.00000E+00         0.00000E+00        -0.39480E+08
 
   -0.44849E+08        -0.73015E+06         0.00000E+00
   -0.73015E+06        -0.45946E+08         0.00000E+00
    0.00000E+00         0.00000E+00        -0.39431E+08
 
   -0.44662E+08        -0.63376E+06         0.00000E+00
   -0.63376E+06        -0.45885E+08         0.00000E+00
    0.00000E+00         0.00000E+00        -0.39381E+08
 
   -0.44461E+08        -0.53142E+06         0.00000E+00
   -0.53142E+06        -0.45837E+08         0.00000E+00
    0.00000E+00         0.00000E+00        -0.39332E+08
 
   -0.44243E+08        -0.42107E+06         0.00000E+00
   -0.42107E+06        -0.45802E+08         0.00000E+00
    0.00000E+00         0.00000E+00        -0.39281E+08
 
   -0.44005E+08        -0.30019E+06         0.00000E+00
   -0.30019E+06        -0.45781E+08         0.00000E+00
    0.00000E+00         0.00000E+00        -0.39229E+08
 
   -0.43746E+08        -0.16567E+06         0.00000E+00
   -0.16567E+06        -0.45775E+08         0.00000E+00
    0.00000E+00         0.00000E+00        -0.39176E+08
 
   -0.43462E+08        -0.13628E+05         0.00000E+00
   -0.13628E+05        -0.45786E+08         0.00000E+00
    0.00000E+00         0.00000E+00        -0.39122E+08
 
   -0.43149E+08         0.16084E+06         0.00000E+00
    0.16084E+06        -0.45816E+08         0.00000E+00
    0.00000E+00         0.00000E+00        -0.39065E+08
 
   -0.42805E+08         0.36398E+06         0.00000E+00
    0.36398E+06        -0.45867E+08         0.00000E+00
    0.00000E+00         0.00000E+00        -0.39006E+08
 
   -0.42426E+08         0.60380E+06         0.00000E+00
    0.60380E+06        -0.45942E+08         0.00000E+00
    0.00000E+00         0.00000E+00        -0.38945E+08
 
   -0.42008E+08         0.89068E+06         0.00000E+00
    0.89068E+06        -0.46042E+08         0.00000E+00
    0.00000E+00         0.00000E+00        -0.38882E+08
 
   -0.41550E+08         0.12382E+07         0.00000E+00
    0.12382E+07        -0.46171E+08         0.00000E+00
    0.00000E+00         0.00000E+00        -0.38816E+08
 
   -0.41050E+08         0.16643E+07         0.00000E+00
    0.16643E+07        -0.46333E+08         0.00000E+00
    0.00000E+00         0.00000E+00        -0.38748E+08
 
   -0.40513E+08         0.21928E+07         0.00000E+00
    0.21928E+07        -0.46529E+08         0.00000E+00
    0.00000E+00         0.00000E+00        -0.38680E+08
 
   -0.39951E+08         0.28554E+07         0.00000E+00
    0.28554E+07        -0.46761E+08         0.00000E+00
    0.00000E+00         0.00000E+00        -0.38614E+08
 
   -0.39392E+08         0.36949E+07         0.00000E+00
    0.36949E+07        -0.47030E+08         0.00000E+00
    0.00000E+00         0.00000E+00        -0.38556E+08
 
   -0.38901E+08         0.47679E+07         0.00000E+00
    0.47679E+07        -0.47331E+08         0.00000E+00
    0.00000E+00         0.00000E+00        -0.38518E+08
 
   -0.38613E+08         0.61476E+07         0.00000E+00
    0.61476E+07        -0.47652E+08         0.00000E+00
    0.00000E+00         0.00000E+00        -0.38525E+08
 
   -0.61536E+08        -0.13817E+07         0.00000E+00
   -0.13817E+07        -0.50223E+08         0.00000E+00
    0.00000E+00         0.00000E+00        -0.37677E+08
 
   -0.58488E+08        -0.17250E+07         0.00000E+00
   -0.17250E+07        -0.49762E+08         0.00000E+00
    0.00000E+00         0.00000E+00        -0.36975E+08
 
   -0.56180E+08        -0.18533E+07         0.00000E+00
   -0.18533E+07        -0.49210E+08         0.00000E+00
    0.00000E+00         0.00000E+00        -0.36403E+08
 
   -0.54390E+08        -0.18703E+07         0.00000E+00
   -0.18703E+07        -0.48614E+08         0.00000E+00
    0.00000E+00         0.00000E+00        -0.35926E+08
 
   -0.52973E+08        -0.18293E+07         0.00000E+00
   -0.18293E+07        -0.48001E+08         0.00000E+00
    0.00000E+00         0.00000E+00        -0.35520E+08
 
   -0.51835E+08        -0.17587E+07         0.00000E+00
   -0.17587E+07        -0.47390E+08         0.00000E+00
    0.00000E+00         0.00000E+00        -0.35170E+08
 
   -0.50910E+08        -0.16740E+07         0.00000E+00
   -0.16740E+07        -0.46793E+08         0.00000E+00
    0.00000E+00         0.00000E+00        -0.34866E+08
 
   -0.50149E+08        -0.15838E+07         0.00000E+00
   -0.15838E+07        -0.46216E+08         0.00000E+00
    0.00000E+00         0.00000E+00        -0.34598E+08
 
   -0.49516E+08        -0.14930E+07         0.00000E+00
   -0.14930E+07        -0.45662E+08         0.00000E+00
    0.00000E+00         0.00000E+00        -0.34361E+08
 
   -0.48986E+08        -0.14041E+07         0.00000E+00
   -0.14041E+07        -0.45135E+08         0.00000E+00
    0.00000E+00         0.00000E+00        -0.34149E+08
 
   -0.48537E+08        -0.13188E+07         0.00000E+00
   -0.13188E+07        -0.44634E+08         0.00000E+00
    0.00000E+00         0.00000E+00        -0.33960E+08
 
   -0.48154E+08        -0.12377E+07         0.00000E+00
   -0.12377E+07        -0.44160E+08         0.00000E+00
    0.00000E+00         0.00000E+00        -0.33788E+08
 
   -0.47826E+08        -0.11612E+07         0.00000E+00
   -0.11612E+07        -0.43713E+08         0.00000E+00
    0.00000E+00         0.00000E+00        -0.33633E+08
 
   -0.47540E+08        -0.10892E+07         0.00000E+00
   -0.10892E+07        -0.43290E+08         0.00000E+00
    0.00000E+00         0.00000E+00        -0.33491E+08
 
   -0.47291E+08        -0.10218E+07         0.00000E+00
   -0.10218E+07        -0.42892E+08         0.00000E+00
    0.00000E+00         0.00000E+00        -0.33362E+08
 
   -0.47070E+08        -0.95857E+06         0.00000E+00
   -0.95857E+06        -0.42517E+08         0.00000E+00
    0.00000E+00         0.00000E+00        -0.33243E+08
 
   -0.46873E+08        -0.89944E+06         0.00000E+00
   -0.89944E+06        -0.42163E+08         0.00000E+00
    0.00000E+00         0.00000E+00        -0.33132E+08
 
   -0.46695E+08        -0.84409E+06         0.00000E+00
   -0.84409E+06        -0.41830E+08         0.00000E+00
    0.00000E+00         0.00000E+00        -0.33030E+08
 
   -0.46533E+08        -0.79224E+06         0.00000E+00
   -0.79224E+06        -0.41517E+08         0.00000E+00
    0.00000E+00         0.00000E+00        -0.32935E+08
 
   -0.46382E+08        -0.74362E+06         0.00000E+00
   -0.74362E+06        -0.41223E+08         0.00000E+00
    0.00000E+00         0.00000E+00        -0.32846E+08
 
   -0.46242E+08        -0.69794E+06         0.00000E+00
   -0.69794E+06        -0.40946E+08         0.00000E+00
    0.00000E+00         0.00000E+00        -0.32763E+08
 
   -0.46107E+08        -0.65493E+06         0.00000E+00
   -0.65493E+06        -0.40686E+08         0.00000E+00
    0.00000E+00         0.00000E+00        -0.32684E+08
 
   -0.45978E+08        -0.61434E+06         0.00000E+00
   -0.61434E+06        -0.40441E+08         0.00000E+00
    0.00000E+00         0.00000E+00        -0.32609E+08
 
   -0.45851E+08        -0.57590E+06         0.00000E+00
   -0.57590E+06        -0.40211E+08         0.00000E+00
    0.00000E+00         0.00000E+00        -0.32538E+08
 
   -0.45725E+08        -0.53934E+06         0.00000E+00
   -0.53934E+06        -0.39996E+08         0.00000E+00
    0.00000E+00         0.00000E+00        -0.32469E+08
 
   -0.45598E+08        -0.50443E+06         0.00000E+00
   -0.50443E+06        -0.39794E+08         0.00000E+00
    0.00000E+00         0.00000E+00        -0.32404E+08
 
   -0.45469E+08        -0.47088E+06         0.00000E+00
   -0.47088E+06        -0.39606E+08         0.00000E+00
    0.00000E+00         0.00000E+00        -0.32340E+08
 
   -0.45334E+08        -0.43844E+06         0.00000E+00
   -0.43844E+06        -0.39430E+08         0.00000E+00
    0.00000E+00         0.00000E+00        -0.32278E+08
 
   -0.45194E+08        -0.40680E+06         0.00000E+00
   -0.40680E+06        -0.39266E+08         0.00000E+00
    0.00000E+00         0.00000E+00        -0.32217E+08
 
   -0.45045E+08        -0.37567E+06         0.00000E+00
   -0.37567E+06        -0.39115E+08         0.00000E+00
    0.00000E+00         0.00000E+00        -0.32157E+08
 
   -0.44886E+08        -0.34470E+06         0.00000E+00
   -0.34470E+06        -0.38976E+08         0.00000E+00
    0.00000E+00         0.00000E+00        -0.32098E+08
 
   -0.44715E+08        -0.31350E+06         0.00000E+00
   -0.31350E+06        -0.38849E+08         0.00000E+00
    0.00000E+00         0.00000E+00        -0.32038E+08
 
   -0.44528E+08        -0.28162E+06         0.00000E+00
   -0.28162E+06        -0.38735E+08         0.00000E+00
    0.00000E+00         0.00000E+00        -0.31978E+08
 
   -0.44324E+08        -0.24852E+06         0.00000E+00
   -0.24852E+06        -0.38633E+08         0.00000E+00
    0.00000E+00         0.00000E+00        -0.31917E+08
 
   -0.44098E+08        -0.21358E+06         0.00000E+00
   -0.21358E+06        -0.38544E+08         0.00000E+00
    0.00000E+00         0.00000E+00        -0.31854E+08
 
   -0.43848E+08        -0.17600E+06         0.00000E+00
   -0.17600E+06        -0.38470E+08         0.00000E+00
    0.00000E+00         0.00000E+00        -0.31789E+08
 
   -0.43568E+08        -0.13481E+06         0.00000E+00
   -0.13481E+06        -0.38412E+08         0.00000E+00
    0.00000E+00         0.00000E+00        -0.31721E+08
 
   -0.43253E+08        -0.88783E+05         0.00000E+00
   -0.88783E+05        -0.38370E+08         0.00000E+00
    0.00000E+00         0.00000E+00        -0.31650E+08
 
   -0.42897E+08        -0.36324E+05         0.00000E+00
   -0.36324E+05        -0.38348E+08         0.00000E+00
    0.00000E+00         0.00000E+00        -0.31574E+08
 
   -0.42491E+08         0.24626E+05         0.00000E+00
    0.24626E+05        -0.38348E+08         0.00000E+00
    0.00000E+00         0.00000E+00        -0.31493E+08
 
   -0.42026E+08         0.96801E+05         0.00000E+00
    0.96801E+05        -0.38374E+08         0.00000E+00
    0.00000E+00         0.00000E+00        -0.31405E+08
 
   -0.41490E+08         0.18387E+06         0.00000E+00
    0.18387E+06        -0.38430E+08         0.00000E+00
    0.00000E+00         0.00000E+00        -0.31309E+08
 
   -0.40865E+08         0.29088E+06         0.00000E+00
    0.29088E+06        -0.38522E+08         0.00000E+00
    0.00000E+00         0.00000E+00        -0.31203E+08
 
   -0.40134E+08         0.42486E+06         0.00000E+00
    0.42486E+06        -0.38660E+08         0.00000E+00
    0.00000E+00         0.00000E+00        -0.31084E+08
 
   -0.39268E+08         0.59589E+06         0.00000E+00
    0.59589E+06        -0.38852E+08         0.00000E+00
    0.00000E+00         0.00000E+00        -0.30949E+08
 
   -0.38232E+08         0.81879E+06         0.00000E+00
    0.81879E+06        -0.39116E+08         0.00000E+00
    0.00000E+00         0.00000E+00        -0.30795E+08
 
   -0.36978E+08         0.11161E+07         0.00000E+00
    0.11161E+07        -0.39468E+08         0.00000E+00
    0.00000E+00         0.00000E+00        -0.30615E+08
 
   -0.35436E+08         0.15235E+07         0.00000E+00
    0.15235E+07        -0.39938E+08         0.00000E+00
    0.00000E+00         0.00000E+00        -0.30400E+08
 
   -0.33505E+08         0.20999E+07         0.00000E+00
    0.20999E+07        -0.40561E+08         0.00000E+00
    0.00000E+00         0.00000E+00        -0.30138E+08
 
   -0.31025E+08         0.29487E+07         0.00000E+00
    0.29487E+07        -0.41391E+08         0.00000E+00
    0.00000E+00         0.00000E+00        -0.29808E+08
 
SCALARS stresss double 
LOOKUP_TABLE default
  -49695099.6871027     
  -50489039.4792382     
  -51231189.3932885     
  -51907400.9863412     
  -52514274.5548416     
  -53073163.7729962     
  -53558881.7042167     
  -53971970.0942856     
  -54330312.6559326     
  -54644910.1864866     
  -54923748.8138907     
  -55172861.9978010     
  -55396948.5773721     
  -55599755.2981388     
  -55784326.5264260     
  -55953174.7160371     
  -56108401.1585629     
  -56251784.1728881     
  -56384845.1864110     
  -56508899.3523036     
  -56625095.0868636     
  -56734445.5162110     
  -56837853.9313760     
  -56936134.7664681     
  -57030031.2224832     
  -57120230.3922996     
  -57207376.5598166     
  -57292083.2228768     
  -57374944.3101049     
  -57456545.0168733     
  -57537472.6705632     
  -57618328.0489958     
  -57699737.6207258     
  -57782367.2581018     
  -57866938.1051930     
  -57954245.4822190     
  -58045182.0076490     
  -58140766.5706753     
  -58242181.4772799     
  -58350821.1718109     
  -58468357.6667268     
  -58596830.6787759     
  -58738775.3871510     
  -58897409.5084917     
  -59076917.7475133     
  -59282903.6035964     
  -59523143.7685093     
  -59808920.1213438     
  -60157517.5186176     
  -60597207.6702834     
  -50943727.1108442     
  -50905212.7812494     
  -50968799.5693515     
  -51087200.2561065     
  -51236714.1722935     
  -51389649.6388446     
  -51557413.2440240     
  -51738673.0517989     
  -51919589.8145481     
  -52094746.3363245     
  -52261739.3801897     
  -52419673.8756032     
  -52568427.2710611     
  -52708274.8399147     
  -52839691.8935025     
  -52963246.5090583     
  -53079540.4352351     
  -53189176.5410397     
  -53292741.3111348     
  -53390796.0576715     
  -53483873.2551947     
  -53572475.9062792     
  -53657078.6955902     
  -53738130.1849439     
  -53816055.5968626     
  -53891259.9130690     
  -53964131.1241131     
  -54035043.5334767     
  -54104361.0593181     
  -54172440.4980602     
  -54239634.7205564     
  -54306295.7646642     
  -54372777.7658412     
  -54439439.6243968     
  -54506647.2337028     
  -54574774.9689007     
  -54644205.9267322     
  -54715330.0537471     
  -54788538.6924304     
  -54864213.0073990     
  -54942701.8320810     
  -55024280.9179260     
  -55109078.7713943     
  -55196940.8360750     
  -55287176.2819556     
  -55378073.2359498     
  -55465939.3887450     
  -55543129.8768578     
  -55593824.7773866     
  -55584604.1694420     
  -50948463.0771803     
  -50842735.8056608     
  -50748621.7399094     
  -50680925.8360531     
  -50640157.8580460     
  -50626394.8413831     
  -50630924.0415400     
  -50649708.9616168     
  -50681961.5635326     
  -50724899.1197954     
  -50775667.5863649     
  -50831849.1327395     
  -50891538.9884976     
  -50953288.1045196     
  -51016016.5329743     
  -51078931.9349242     
  -51141462.1999074     
  -51203202.4983706     
  -51263874.5667340     
  -51323295.6585798     
  -51381354.9021258     
  -51437995.2513727     
  -51493199.6307865     
  -51546980.2065370     
  -51599369.9712304     
  -51650416.0163725     
  -51700174.0012955     
  -51748703.4204423     
  -51796063.3311165     
  -51842308.2365394     
  -51887483.8271098     
  -51931622.2665072     
  -51974736.6666084     
  -52016814.3212567     
  -52057808.1557511     
  -52097625.6847188     
  -52136114.5398679     
  -52173043.3115931     
  -52208076.0259749     
  -52240738.0480681     
  -52270370.6166420     
  -52296070.7951182     
  -52316614.0470638     
  -52330359.8079476     
  -52335151.4235684     
  -52328254.1790899     
  -52306464.7082933     
  -52266767.5682973     
  -52208568.2745089     
  -52140300.7036147     
  -51131848.5996605     
  -50930531.1084012     
  -50767016.4698594     
  -50630373.0554780     
  -50516796.4190018     
  -50423148.4043596     
  -50348392.8269007     
  -50290327.5097348     
  -50246357.5842846     
  -50214706.8353641     
  -50193780.2263593     
  -50182054.5974226     
  -50178105.4713958     
  -50180641.9295282     
  -50188523.7717509     
  -50200762.3309071     
  -50216511.0652040     
  -50235051.0754248     
  -50255774.8810474     
  -50278170.3433167     
  -50301805.6761423     
  -50326315.9210905     
  -50351390.9476080     
  -50376764.8749188     
  -50402206.7334500     
  -50427512.1518991     
  -50452495.8480865     
  -50476984.7042992     
  -50500811.2135335     
  -50523807.0879712     
  -50545796.8233612     
  -50566591.0124482     
  -50585979.1982946     
  -50603722.0572469     
  -50619542.7072325     
  -50633116.9607802     
  -50644062.4027677     
  -50651926.3038244     
  -50656172.6386395     
  -50656168.9588194     
  -50651174.7215089     
  -50640334.1096672     
  -50622678.6261510     
  -50597147.7911094     
  -50562638.9216363     
  -50518093.7248785     
  -50462600.8439982     
  -50395377.0537320     
  -50315093.2268569     
  -50216755.5286212     
  -51214373.9003189     
  -51041304.0002853     
  -50882565.3158260     
  -50740322.3080072     
  -50613797.5417941     
  -50502032.4473521     
  -50403680.6882096     
  -50317759.8894164     
  -50243366.5357772     
  -50179439.5264133     
  -50124968.0405948     
  -50079010.7166886     
  -50040681.9784450     
  -50009145.4583882     
  -49983614.7960106     
  -49963356.9143300     
  -49947694.6046419     
  -49936007.2041239     
  -49927729.2735685     
  -49922347.6503683     
  -49919397.3613647     
  -49918456.8317564     
  -49919142.7268976     
  -49921104.6622781     
  -49924019.9315580     
  -49927588.3373222     
  -49931527.1626732     
  -49935566.2907038     
  -49939443.4602375     
  -49942899.6377949     
  -49945674.4863787     
  -49947501.9213711     
  -49948105.7637647     
  -49947195.5334975     
  -49944462.4744168     
  -49939575.9718484     
  -49932180.6183642     
  -49921894.3049641     
  -49908307.8568985     
  -49890986.8679875     
  -49869476.4408539     
  -49843309.3488289     
  -49812017.3773217     
  -49775143.7457192     
  -49732250.9588812     
  -49682913.6309566     
  -49626685.9500503     
  -49563067.5740721     
  -49491669.7558917     
  -49413484.6174747     
  -51237239.0922353     
  -51101608.4853827     
  -50974694.7872955     
  -50855912.3560531     
  -50745463.5171399     
  -50643355.2789154     
  -50549503.0827364     
  -50463622.4477507     
  -50385357.0681741     
  -50314342.8716053     
  -50250168.0363492     
  -50192390.4064320     
  -50140555.6974384     
  -50094207.9412328     
  -50052895.4881213     
  -50016175.1992021     
  -49983615.8368861     
  -49954800.8290314     
  -49929330.3363399     
  -49906822.5593676     
  -49886914.2932504     
  -49869260.8009190     
  -49853535.1111808     
  -49839426.8598289     
  -49826640.7883573     
  -49814895.0036325     
  -49803919.0884679     
  -49793452.1409163     
  -49783240.8111622     
  -49773037.4001837     
  -49762598.0842844     
  -49751681.3342399     
  -49740046.6068564     
  -49727453.3993759     
  -49713660.7716589     
  -49698427.4541694     
  -49681512.6658353     
  -49662677.7558427     
  -49641688.7445044     
  -49618319.7556678     
  -49592357.1980240     
  -49563604.3862863     
  -49531886.2013201     
  -49497053.6662633     
  -49458989.5834818     
  -49417619.4949887     
  -49372936.7610813     
  -49325046.8711466     
  -49274173.3096740     
  -49220235.4798651     
  -51211913.2909738     
  -51111551.7685625     
  -51014596.0334686     
  -50921655.5968595     
  -50832947.7607302     
  -50748649.8552272     
  -50668868.8599033     
  -50593667.6040047     
  -50523041.8041306     
  -50456923.9975020     
  -50395207.1152596     
  -50337749.1542327     
  -50284378.2129565     
  -50234898.8986667     
  -50189098.4211527     
  -50146751.7154412     
  -50107625.6038410     
  -50071482.1829321     
  -50038081.5959115     
  -50007184.2915207     
  -49978552.8307272     
  -49951953.2856519     
  -49927156.2730884     
  -49903937.6688840     
  -49882079.0543349     
  -49861367.9493832     
  -49841597.8892947     
  -49822568.4019822     
  -49804084.9427353     
  -49785958.8422949     
  -49768007.3231751     
  -49750053.6378149     
  -49731927.3801327     
  -49713465.0186419     
  -49694510.6935046     
  -49674917.3107630     
  -49654547.9539090     
  -49633277.6167337     
  -49610995.2457081     
  -49587606.0736781     
  -49563034.2446514     
  -49537225.7907654     
  -49510152.1315529     
  -49481814.3567530     
  -49452248.3669673     
  -49421529.8554263     
  -49389775.3254515     
  -49357132.7223709     
  -49323772.4960283     
  -49290029.1791938     
  -51157051.1197413     
  -51081585.6325813     
  -51007785.4474066     
  -50935839.4548529     
  -50865994.0658563     
  -50798438.7716440     
  -50733322.8882686     
  -50670754.8475950     
  -50610811.4443454     
  -50553538.8739033     
  -50498951.3672197     
  -50447035.4421742     
  -50397753.4156426     
  -50351046.3159616     
  -50306836.7290471     
  -50265031.6278262     
  -50225525.0767504     
  -50188200.7246140     
  -50152934.0507688     
  -50119594.3642878     
  -50088046.5710064     
  -50058152.7282431     
  -50029773.4081311     
  -50002768.8911471     
  -49977000.2125514     
  -49952330.0859616     
  -49928623.7297662     
  -49905749.6231883     
  -49883580.2192750     
  -49861992.6417685     
  -49840869.3916246     
  -49820099.0868270     
  -49799577.2560896     
  -49779207.2031012     
  -49758900.9533450     
  -49738580.2906431     
  -49718177.8861154     
  -49697638.5190341     
  -49676920.3875807     
  -49655996.5066443     
  -49634856.1845380     
  -49613506.5491159     
  -49591974.0379070     
  -49570305.6663258     
  -49548569.7972569     
  -49526856.3078767     
  -49505277.0749499     
  -49483969.7838562     
  -49463104.8228312     
  -49442841.4501191     
  -51083380.2492517     
  -51025504.9476146     
  -50968381.8507208     
  -50912192.7449438     
  -50857077.9645706     
  -50803170.0282070     
  -50750585.4010545     
  -50699423.6177644     
  -50649765.3502915     
  -50601673.3185860     
  -50555193.5825059     
  -50510355.7003627     
  -50467173.5523569     
  -50425646.5021842     
  -50385760.6472846     
  -50347490.1093837     
  -50310798.3570532     
  -50275639.5416762     
  -50241959.8208274     
  -50209698.6455664     
  -50178789.9952522     
  -50149163.5508038     
  -50120745.8031133     
  -50093461.0974135     
  -50067232.6172096     
  -50041983.3133234     
  -50017636.7849111     
  -49994118.1201367     
  -49971354.7045397     
  -49949277.0050245     
  -49927819.3368331     
  -49906920.6198475     
  -49886525.1291711     
  -49866583.2432196     
  -49847052.1905969     
  -49827896.7948498     
  -49809090.2137042     
  -49790614.6662237     
  -49772462.1369386     
  -49754635.0397132     
  -49737146.8161834     
  -49720022.4370504     
  -49703298.7781795     
  -49687024.8722724     
  -49671262.0965717     
  -49656084.3825396     
  -49641578.2602274     
  -49627841.5733165     
  -49614979.6980630     
  -49603117.3883458     
  -50998700.9100222     
  -50953628.5659546     
  -50908906.1564894     
  -50864632.0995998     
  -50820906.6671203     
  -50777820.4644152     
  -50735456.3515504     
  -50693888.8792172     
  -50653184.1105899     
  -50613399.0112517     
  -50574581.1701975     
  -50536769.0140246     
  -50499991.9906627     
  -50464270.8470771     
  -50429618.0375243     
  -50396038.2343547     
  -50363528.9125496     
  -50332080.9888682     
  -50301679.5015417     
  -50272304.3180896     
  -50243930.8597956     
  -50216530.8327796     
  -50190072.9574191     
  -50164523.6898059     
  -50139847.9306754     
  -50116009.7186996     
  -50092972.9061404     
  -50070701.8156369     
  -50049161.8773752     
  -50028320.2460963     
  -50008146.3973633     
  -49988612.7022564     
  -49969694.9792146     
  -49951373.0211013     
  -49933631.0947452     
  -49916458.4091923     
  -49899849.5477206     
  -49883804.8574228     
  -49868330.7891092     
  -49853440.1799680     
  -49839152.4724999     
  -49825493.8659671     
  -49812497.3990401     
  -49800202.9580730     
  -49788657.1845542     
  -49777913.2241702     
  -49768030.3083104     
  -49759073.5274626     
  -49751114.5505054     
  -49744227.4671797     
  -50908761.9890310     
  -50873528.4056895     
  -50838396.5431397     
  -50803440.5748973     
  -50768729.2923847     
  -50734328.7371818     
  -50700300.8271122     
  -50666703.0178956     
  -50633587.9829923     
  -50601003.4909675     
  -50568992.2725626     
  -50537591.8916394     
  -50506834.7481821     
  -50476748.1540166     
  -50447354.4656224     
  -50418671.2749387     
  -50390711.6552054     
  -50363484.4551204     
  -50336994.6337502     
  -50311243.6290294     
  -50286229.7532321     
  -50261948.6092398     
  -50238393.5218397     
  -50215555.9787206     
  -50193426.0763180     
  -50171992.9661530     
  -50151245.2977651     
  -50131171.6547430     
  -50111760.9806678     
  -50093002.9920081     
  -50074888.5751463     
  -50057410.1647606     
  -50040562.1007744     
  -50024340.9610046     
  -50008745.8665353     
  -49993778.7567506     
  -49979444.6309261     
  -49965751.7533714     
  -49952711.8193577     
  -49940340.0793784     
  -49928655.4194266     
  -49917680.3945548     
  -49907441.2120137     
  -49897967.6605120     
  -49889292.9886067     
  -49881453.7520944     
  -49874489.6544107     
  -49868443.2894594     
  -49863359.4466658     
  -49859285.7903983     
  -50818057.9006628     
  -50790640.3934645     
  -50763165.3863305     
  -50735688.9534405     
  -50708265.5719803     
  -50680947.0568975     
  -50653782.7110765     
  -50626819.1458585     
  -50600100.1433646     
  -50573666.5215256     
  -50547556.0568427     
  -50521803.4497445     
  -50496440.3045411     
  -50471495.1444556     
  -50446993.4628230     
  -50422957.8069075     
  -50399407.8920686     
  -50376360.7444308     
  -50353830.8697577     
  -50331830.4457138     
  -50310369.5343869     
  -50289456.3118068     
  -50269097.3111599     
  -50249297.6764119     
  -50230061.4230962     
  -50211391.7031008     
  -50193291.0703860     
  -50175761.7446733     
  -50158805.8702712     
  -50142425.7673174     
  -50126624.1728416     
  -50111404.4691607     
  -50096770.8972377     
  -50082728.7527547     
  -50069284.5627859     
  -50056446.2411121     
  -50044223.2203913     
  -50032626.5595827     
  -50021669.0251999     
  -50011365.1451351     
  -50001731.2340199     
  -49992785.3895354     
  -49984547.4599747     
  -49977038.9844446     
  -49970283.1066610     
  -49964304.4580191     
  -49959128.9990978     
  -49954783.8400897     
  -49951297.1770914     
  -49948697.8017509     
  -50729983.9435142     
  -50708864.1631868     
  -50687580.3559597     
  -50666179.1719349     
  -50644705.4478220     
  -50623202.3800738     
  -50601711.3525602     
  -50580271.8881798     
  -50558921.5983660     
  -50537696.1462562     
  -50516629.2137509     
  -50495752.4814183     
  -50475095.6282006     
  -50454686.3454304     
  -50434550.3659785     
  -50414711.5095147     
  -50395191.7437114     
  -50376011.2606776     
  -50357188.5676985     
  -50338740.5911675     
  -50320682.7923861     
  -50303029.2937195     
  -50285793.0134366     
  -50268985.8074582     
  -50252618.6161578     
  -50236701.6143205     
  -50221244.3623466     
  -50206255.9567947     
  -50191745.1783846     
  -50177720.6356310     
  -50164190.9023395     
  -50151164.6472794     
  -50138650.7544422     
  -50126658.4324046     
  -50115197.3114337     
  -50104277.5271055     
  -50093909.7893457     
  -50084105.4359552     
  -50074876.4698503     
  -50066235.5794485     
  -50058196.1418498     
  -50050772.2086577     
  -50043978.4743333     
  -50037830.2267964     
  -50032343.2800081     
  -50027533.8899532     
  -50023418.6592547     
  -50020014.4289706     
  -50017338.1095683     
  -50015406.6115954     
  -50646931.6926301     
  -50630882.1455388     
  -50614602.7877777     
  -50598132.9441822     
  -50581510.7196193     
  -50564772.9025628     
  -50547954.9707199     
  -50531091.0616308     
  -50514213.9525586     
  -50497355.0451781     
  -50480544.3581446     
  -50463810.5257435     
  -50447180.8022806     
  -50430681.0744442     
  -50414335.8815704     
  -50398168.4436754     
  -50382200.6972552     
  -50366453.3387202     
  -50350945.8751451     
  -50335696.6818522     
  -50320723.0662131     
  -50306041.3369413     
  -50291666.8780437     
  -50277614.2265136     
  -50263897.1527730     
  -50250528.7428207     
  -50237521.4810052     
  -50224887.3323249     
  -50212637.8231521     
  -50200784.1192935     
  -50189337.1003274     
  -50178307.4291942     
  -50167705.6160766     
  -50157542.0756641     
  -50147827.1769742     
  -50138571.2849822     
  -50129784.7934078     
  -50121478.1480984     
  -50113661.8605574     
  -50106346.5112578     
  -50099542.7424738     
  -50093261.2404391     
  -50087512.7067554     
  -50082307.8191760     
  -50077657.1821327     
  -50073571.2671333     
  -50070060.3417502     
  -50067134.3868961     
  -50064803.0192631     
  -50063075.3734521     
  -50570401.0917488     
  -50558397.1278073     
  -50546128.6392014     
  -50533628.9030700     
  -50520930.2550711     
  -50508064.0902917     
  -50495060.8384368     
  -50481949.9536151     
  -50468759.9047415     
  -50455518.1689921     
  -50442251.2281382     
  -50428984.5686898     
  -50415742.6860974     
  -50402549.0926788     
  -50389426.3295273     
  -50376395.9824912     
  -50363478.7021612     
  -50350694.2277399     
  -50338061.4146093     
  -50325598.2653489     
  -50313321.9638863     
  -50301248.9123973     
  -50289394.7705165     
  -50277774.4963672     
  -50266402.3888793     
  -50255292.1308254     
  -50244456.8319841     
  -50233909.0718190     
  -50223660.9410577     
  -50213724.0815536     
  -50204109.7238280     
  -50194828.7217035     
  -50185891.5834721     
  -50177308.4990712     
  -50169089.3627814     
  -50161243.7910081     
  -50153781.1347562     
  -50146710.4864597     
  -50140040.6808866     
  -50133780.2898912     
  -50127937.6108522     
  -50122520.6486995     
  -50117537.0914957     
  -50112994.2795691     
  -50108899.1681763     
  -50105258.2837560     
  -50102077.6743895     
  -50099362.8552704     
  -50097118.7441159     
  -50095349.5997916     
  -50501155.6094789     
  -50492337.0267558     
  -50483242.4149488     
  -50473899.5892528     
  -50464335.7169689     
  -50454577.2955258     
  -50444650.1404695     
  -50434579.3720131     
  -50424389.4047347     
  -50414103.9396101     
  -50403745.9585026     
  -50393337.7209617     
  -50382900.7633738     
  -50372455.9005801     
  -50362023.2298709     
  -50351622.1372955     
  -50341271.3062209     
  -50330988.7280360     
  -50320791.7148632     
  -50310696.9141073     
  -50300720.3246445     
  -50290877.3144219     
  -50281182.6392132     
  -50271650.4622512     
  -50262294.3744354     
  -50253127.4147969     
  -50244162.0908871     
  -50235410.3987511     
  -50226883.8421381     
  -50218593.4506065     
  -50210549.7961808     
  -50202763.0082319     
  -50195242.7862629     
  -50187998.4103022     
  -50181038.7486260     
  -50174372.2625586     
  -50168007.0081249     
  -50161950.6343610     
  -50156210.3781203     
  -50150793.0552470     
  -50145705.0480251     
  -50140952.2888393     
  -50136540.2400213     
  -50132473.8698914     
  -50128757.6250653     
  -50125395.3991474     
  -50122390.4978118     
  -50119745.6001310     
  -50117462.7179954     
  -50115543.1502317     
  -50439393.7844494     
  -50433044.7254296     
  -50426424.4192721     
  -50419555.7504875     
  -50412461.1784842     
  -50405162.7192789     
  -50397681.9271817     
  -50390039.8796176     
  -50382257.1636156     
  -50374353.8642334     
  -50366349.5548420     
  -50358263.2892568     
  -50350113.5956394     
  -50341918.4720819     
  -50333695.3838241     
  -50325461.2620249     
  -50317232.5039936     
  -50309024.9747793     
  -50300854.0100046     
  -50292734.4198183     
  -50284680.4938274     
  -50276706.0068578     
  -50268824.2253815     
  -50261047.9144376     
  -50253389.3448658     
  -50245860.3006642     
  -50238472.0862767     
  -50231235.5336147     
  -50224161.0086135     
  -50217258.4171275     
  -50210537.2099723     
  -50204006.3869245     
  -50197674.4995041     
  -50191549.6523692     
  -50185639.5031679     
  -50179951.2607086     
  -50174491.6813226     
  -50169267.0633130     
  -50164283.2394030     
  -50159545.5671159     
  -50155058.9170410     
  -50150827.6589602     
  -50146855.6458379     
  -50143146.1956954     
  -50139702.0714094     
  -50136525.4584875     
  -50133617.9409332     
  -50130980.4754338     
  -50128613.3635028     
  -50126516.2227265     
  -50384913.2867085     
  -50380446.8328572     
  -50375724.5058511     
  -50370764.8001856     
  -50365585.9607625     
  -50360205.9609796     
  -50354642.4832166     
  -50348912.9007474     
  -50343034.2614378     
  -50337023.2730431     
  -50330896.2900457     
  -50324669.3019535     
  -50318357.9229945     
  -50311977.3831374     
  -50305542.5203569     
  -50299067.7740624     
  -50292567.1796097     
  -50286054.3638069     
  -50279542.5413217     
  -50273044.5118950     
  -50266572.6582576     
  -50260138.9446471     
  -50253754.9158143     
  -50247431.6964067     
  -50241179.9906147     
  -50235010.0819626     
  -50228931.8331272     
  -50222954.6856643     
  -50217087.6595283     
  -50211339.3522683     
  -50205717.9377905     
  -50200231.1645805     
  -50194886.3532832     
  -50189690.3935493     
  -50184649.7400600     
  -50179770.4076561     
  -50175057.9655043     
  -50170517.5302457     
  -50166153.7580844     
  -50161970.8357867     
  -50157972.4705721     
  -50154161.8788961     
  -50150541.7741338     
  -50147114.3531909     
  -50143881.2820822     
  -50140843.6805396     
  -50138002.1057163     
  -50135356.5350290     
  -50132906.3483863     
  -50130650.3096468     
  -50337252.0336146     
  -50334195.2172844     
  -50330904.0433188     
  -50327393.1910537     
  -50323677.2181390     
  -50319770.5385089     
  -50315687.4016998     
  -50311441.8737024     
  -50307047.8191603     
  -50302518.8848917     
  -50297868.4846709     
  -50293109.7852058     
  -50288255.6932485     
  -50283318.8437737     
  -50278311.5891612     
  -50273245.9893153     
  -50268133.8026550     
  -50262986.4779037     
  -50257815.1466096     
  -50252630.6163251     
  -50247443.3643714     
  -50242263.5321154     
  -50237100.9196837     
  -50231964.9810387     
  -50226864.8193422     
  -50221809.1825296     
  -50216806.4590240     
  -50211864.6735140     
  -50206991.4827268     
  -50202194.1711268     
  -50197479.6464759     
  -50192854.4351929     
  -50188324.6774552     
  -50183896.1219923     
  -50179574.1205225     
  -50175363.6217944     
  -50171269.1651998     
  -50167294.8739316     
  -50163444.4476689     
  -50159721.1547789     
  -50156127.8240355     
  -50152666.8358603     
  -50149340.1131044     
  -50146149.1113956     
  -50143094.8090876     
  -50140177.6968535     
  -50137397.7669773     
  -50134754.5024213     
  -50132246.8656995     
  -50129873.2877089     
  -50295800.3315583     
  -50293778.7875681     
  -50291547.2594899     
  -50289117.1905231     
  -50286499.9915512     
  -50283707.0197968     
  -50280749.5586951     
  -50277638.7988774     
  -50274385.8202620     
  -50271001.5751935     
  -50267496.8725906     
  -50263882.3630540     
  -50260168.5248912     
  -50256365.6510082     
  -50252483.8366216     
  -50248532.9677410     
  -50244522.7103737     
  -50240462.5004002     
  -50236361.5340722     
  -50232228.7590798     
  -50228072.8661403     
  -50223902.2810562     
  -50219725.1571915     
  -50215549.3683195     
  -50211382.5017889     
  -50207231.8519640     
  -50203104.4138902     
  -50199006.8771393     
  -50194945.6197935     
  -50190926.7025254     
  -50186955.8627357     
  -50183038.5087150     
  -50179179.7137956     
  -50175384.2104664     
  -50171656.3844259     
  -50168000.2685533     
  -50164419.5367829     
  -50160917.4978699     
  -50157497.0890441     
  -50154160.8695495     
  -50150911.0140771     
  -50147749.3061004     
  -50144677.1311326     
  -50141695.4699265     
  -50138804.8916470     
  -50136005.5470507     
  -50133297.1617148     
  -50130679.0293545     
  -50128150.0052959     
  -50125708.5001397     
  -50259884.2043704     
  -50258606.9256589     
  -50257144.6055936     
  -50255506.0053525     
  -50253699.9123514     
  -50251735.1206861     
  -50249620.4124498     
  -50247364.5399203     
  -50244976.2085830     
  -50242464.0609673     
  -50239836.6612680     
  -50237102.4807241     
  -50234269.8837228     
  -50231347.1146010     
  -50228342.2851097     
  -50225263.3625107     
  -50222118.1582730     
  -50218914.3173344     
  -50215659.3078960     
  -50212360.4117167     
  -50209024.7148727     
  -50205659.0989514     
  -50202270.2326448     
  -50198864.5637129     
  -50195448.3112837     
  -50192027.4584619     
  -50188607.7452161     
  -50185194.6615172     
  -50181793.4407031     
  -50178409.0530440     
  -50175046.1994882     
  -50171709.3055669     
  -50168402.5154410     
  -50165129.6860766     
  -50161894.3815345     
  -50158699.8673662     
  -50155549.1051115     
  -50152444.7468921     
  -50149389.1301041     
  -50146384.2722142     
  -50143431.8656643     
  -50140533.2728995     
  -50137689.5215322     
  -50134901.2996628     
  -50132168.9513782     
  -50129492.4724552     
  -50126871.5062986     
  -50124305.3401476     
  -50121792.9015851     
  -50119332.7553941     
  -50228823.4312092     
  -50228068.3033512     
  -50227152.1534407     
  -50226081.5670137     
  -50224863.1912076     
  -50223503.7174985     
  -50222009.8650810     
  -50220388.3648777     
  -50218645.9441693     
  -50216789.3118343     
  -50214825.1441824     
  -50212760.0713694     
  -50210600.6643748     
  -50208353.4225267     
  -50206024.7615555     
  -50203621.0021570     
  -50201148.3590472     
  -50198612.9304866     
  -50196020.6882566     
  -50193377.4680669     
  -50190688.9603727     
  -50187960.7015845     
  -50185198.0656481     
  -50182406.2559781     
  -50179590.2977252     
  -50176755.0303591     
  -50173905.1005524     
  -50171044.9553467     
  -50168178.8355888     
  -50165310.7696225     
  -50162444.5672234     
  -50159583.8137685     
  -50156731.8646289     
  -50153891.8397811     
  -50151066.6186311     
  -50148258.8350478     
  -50145470.8726041     
  -50142704.8600295     
  -50139962.6668737     
  -50137245.8993900     
  -50134555.8966451     
  -50131893.7268646     
  -50129260.1840289     
  -50126655.7847324     
  -50124080.7653239     
  -50121535.0793478     
  -50119018.3953077     
  -50116530.0947746     
  -50114069.2708680     
  -50111634.7271348     
  -50201969.1050854     
  -50201569.7532437     
  -50201031.5864109     
  -50200359.4601883     
  -50199558.3103632     
  -50198633.1381568     
  -50197588.9959142     
  -50196430.9732388     
  -50195164.1835700     
  -50193793.7512020     
  -50192324.7987405     
  -50190762.4349918     
  -50189111.7432795     
  -50187377.7701798     
  -50185565.5146697     
  -50183679.9176772     
  -50181725.8520268     
  -50179708.1127680     
  -50177631.4078786     
  -50175500.3493317     
  -50173319.4445160     
  -50171093.0879995     
  -50168825.5536253     
  -50166520.9869308     
  -50164183.3978797     
  -50161816.6538972     
  -50159424.4732015     
  -50157010.4184211     
  -50154577.8904926     
  -50152130.1228312     
  -50149670.1757693     
  -50147200.9312583     
  -50144725.0878298     
  -50142245.1558141     
  -50139763.4528154     
  -50137282.0994432     
  -50134803.0153015     
  -50132327.9152387     
  -50129858.3058631     
  -50127395.4823282     
  -50124940.5253963     
  -50122494.2987876     
  -50120057.4468267     
  -50117630.3923949     
  -50115213.3352039     
  -50112806.2504030     
  -50110408.8875364     
  -50108020.7698653     
  -50105641.1940753     
  -50103269.2303850     
  -50178725.5916815     
  -50178559.8469314     
  -50178275.2297271     
  -50177875.2459953     
  -50177363.4888480     
  -50176743.6263054     
  -50176019.3893095     
  -50175194.5600372     
  -50174272.9605178     
  -50173258.4415596     
  -50172154.8719876     
  -50170966.1281953     
  -50169696.0840111     
  -50168348.6008782     
  -50166927.5183488     
  -50165436.6448892     
  -50163879.7489947     
  -50162260.5506111     
  -50160582.7128597     
  -50158849.8340618     
  -50157065.4400600     
  -50155232.9768313     
  -50153355.8033890     
  -50151437.1849686     
  -50149480.2864948     
  -50147488.1663257     
  -50145463.7702707     
  -50143409.9258793     
  -50141329.3369986     
  -50139224.5785970     
  -50137098.0918522     
  -50134952.1795044     
  -50132789.0014717     
  -50130610.5707303     
  -50128418.7494600     
  -50126215.2454558     
  -50124001.6088107     
  -50121779.2288699     
  -50119549.3314642     
  -50117312.9764249     
  -50115071.0553882     
  -50112824.2898941     
  -50110573.2297896     
  -50108318.2519422     
  -50106059.5592757     
  -50103797.1801354     
  -50101530.9679955     
  -50099260.6015192     
  -50096985.5849834     
  -50094705.2490810     
  -50158561.2194438     
  -50158541.3089009     
  -50158420.0521338     
  -50158199.9213874     
  -50157883.4754992     
  -50157473.3499140     
  -50156972.2468775     
  -50156382.9258216     
  -50155708.1939479     
  -50154950.8970193     
  -50154113.9103648     
  -50153200.1301051     
  -50152212.4646025     
  -50151153.8261402     
  -50150027.1228341     
  -50148835.2507796     
  -50147581.0864368     
  -50146267.4792541     
  -50144897.2445324     
  -50143473.1565318     
  -50141997.9418190     
  -50140474.2728577     
  -50138904.7618425     
  -50137291.9547742     
  -50135638.3257791     
  -50133946.2716710     
  -50132218.1067563     
  -50130456.0578828     
  -50128662.2597328     
  -50126838.7503600     
  -50124987.4669731     
  -50123110.2419658     
  -50121208.7991953     
  -50119284.7505114     
  -50117339.5925379     
  -50115374.7037105     
  -50113391.3415722     
  -50111390.6403314     
  -50109373.6086867     
  -50107341.1279216     
  -50105293.9502756     
  -50103232.6975960     
  -50101157.8602767     
  -50099069.7964896     
  -50096968.7317166     
  -50094854.7585871     
  -50092727.8370301     
  -50090587.7947480     
  -50088434.3280185     
  -50086267.0028358     
  -50141011.2502798     
  -50141075.6677369     
  -50141053.8925405     
  -50140947.6198885     
  -50140758.6263441     
  -50140488.7618799     
  -50140139.9420217     
  -50139714.1401047     
  -50139213.3796517     
  -50138639.7268820     
  -50137995.2833621     
  -50137282.1788039     
  -50136502.5640183     
  -50135658.6040314     
  -50134752.4713684     
  -50133786.3395104     
  -50132762.3765304     
  -50131682.7389107     
  -50130549.5655470     
  -50129364.9719434     
  -50128131.0445989     
  -50126849.8355924     
  -50125523.3573642     
  -50124153.5777012     
  -50122742.4149250     
  -50121291.7332864     
  -50119803.3385691     
  -50118278.9739035     
  -50116720.3157945     
  -50115128.9703640     
  -50113506.4698117     
  -50111854.2690964     
  -50110173.7428394     
  -50108466.1824543     
  -50106732.7935054     
  -50104974.6932967     
  -50103192.9086969     
  -50101388.3742019     
  -50099561.9302393     
  -50097714.3217187     
  -50095846.1968312     
  -50093958.1061031     
  -50092050.5017077     
  -50090123.7370393     
  -50088178.0665548     
  -50086213.6458873     
  -50084230.5322364     
  -50082228.6850402     
  -50080207.9669345     
  -50078168.1450032     
  -50125675.8792110     
  -50125782.8002241     
  -50125816.4707782     
  -50125778.0131957     
  -50125668.6234126     
  -50125489.5647594     
  -50125242.1617873     
  -50124927.7941522     
  -50124547.8905644     
  -50124103.9228163     
  -50123597.3998961     
  -50123029.8621971     
  -50122402.8758290     
  -50121718.0270408     
  -50120976.9167611     
  -50120181.1552621     
  -50119332.3569544     
  -50118432.1353176     
  -50117482.0979722     
  -50116483.8418970     
  -50115438.9487986     
  -50114348.9806352     
  -50113215.4752999     
  -50112039.9424674     
  -50110823.8596077     
  -50109568.6681697     
  -50108275.7699397     
  -50106946.5235763     
  -50105582.2413258     
  -50104184.1859217     
  -50102753.5676702     
  -50101291.5417261     
  -50099799.2055604     
  -50098277.5966248     
  -50096727.6902148     
  -50095150.3975339     
  -50093546.5639638     
  -50091916.9675424     
  -50090262.3176524     
  -50088583.2539255     
  -50086880.3453629     
  -50085154.0896776     
  -50083404.9128597     
  -50081633.1689703     
  -50079839.1401641     
  -50078023.0369469     
  -50076184.9986688     
  -50074325.0942582     
  -50072443.3231970     
  -50070539.6167430     
  -50112215.2951683     
  -50112337.3519461     
  -50112397.1126558     
  -50112395.2860860     
  -50112332.6458094     
  -50112210.0254098     
  -50112028.3137204     
  -50111788.4500795     
  -50111491.4196174     
  -50111138.2485809     
  -50110729.9997069     
  -50110267.7676516     
  -50109752.6744848     
  -50109185.8652555     
  -50108568.5036379     
  -50107901.7676625     
  -50107186.8455404     
  -50106424.9315866     
  -50105617.2222467     
  -50104764.9122348     
  -50103869.1907859     
  -50102931.2380283     
  -50101952.2214813     
  -50100933.2926817     
  -50099875.5839438     
  -50098780.2052572     
  -50097648.2413256     
  -50096480.7487513     
  -50095278.7533676     
  -50094043.2477244     
  -50092775.1887285     
  -50091475.4954431     
  -50090145.0470488     
  -50088784.6809699     
  -50087395.1911684     
  -50085977.3266089     
  -50084531.7898969     
  -50083059.2360936     
  -50081560.2717095     
  -50080035.4538801     
  -50078485.2897250     
  -50076910.2358941     
  -50075310.6983022     
  -50073687.0320555     
  -50072039.5415706     
  -50070368.4808895     
  -50068674.0541909     
  -50066956.4165016     
  -50065215.6746081     
  -50063451.8881693     
  -50100343.2427812     
  -50100463.4572459     
  -50100530.5903413     
  -50100545.0593889     
  -50100507.3375337     
  -50100417.9501491     
  -50100277.4712290     
  -50100086.5197752     
  -50099845.7561894     
  -50099555.8786791     
  -50099217.6196849     
  -50098831.7423366     
  -50098399.0369465     
  -50097920.3175469     
  -50097396.4184784     
  -50096828.1910349     
  -50096216.5001736     
  -50095562.2212934     
  -50094866.2370893     
  -50094129.4344874     
  -50093352.7016659     
  -50092536.9251669     
  -50091682.9871041     
  -50090791.7624698     
  -50089864.1165475     
  -50088900.9024321     
  -50087902.9586629     
  -50086871.1069731     
  -50085806.1501581     
  -50084708.8700684     
  -50083580.0257276     
  -50082420.3515815     
  -50081230.5558781     
  -50080011.3191849     
  -50078763.2930432     
  -50077487.0987634     
  -50076183.3263643     
  -50074852.5336576     
  -50073495.2454799     
  -50072111.9530757     
  -50070703.1136317     
  -50069269.1499651     
  -50067810.4503675     
  -50066327.3686058     
  -50064820.2240815     
  -50063289.3021501     
  -50061734.8546009     
  -50060157.1002984     
  -50058556.2259863     
  -50056932.3872545     
  -50089820.0604477     
  -50089928.7374413     
  -50089992.0562369     
  -50090010.2344745     
  -50089983.5371077     
  -50089912.2737476     
  -50089796.7959792     
  -50089637.4946609     
  -50089434.7972123     
  -50089189.1648996     
  -50088901.0901245     
  -50088571.0937251     
  -50088199.7222928     
  -50087787.5455149     
  -50087335.1535467     
  -50086843.1544196     
  -50086312.1714918     
  -50085742.8409460     
  -50085135.8093399     
  -50084491.7312141     
  -50083811.2667637     
  -50083095.0795758     
  -50082343.8344392     
  -50081558.1952304     
  -50080738.8228792     
  -50079886.3734179     
  -50079001.4961186     
  -50078084.8317209     
  -50077137.0107553     
  -50076158.6519623     
  -50075150.3608143     
  -50074112.7281394     
  -50073046.3288523     
  -50071951.7207941     
  -50070829.4436831     
  -50069680.0181797     
  -50068503.9450661     
  -50067301.7045452     
  -50066073.7556575     
  -50064820.5358203     
  -50063542.4604894     
  -50062239.9229448     
  -50060913.2942020     
  -50059562.9230494     
  -50058189.1362136     
  -50056792.2386517     
  -50055372.5139728     
  -50053930.2249885     
  -50052465.6143912     
  -50050978.9055623     
  -50080445.8203694     
  -50080538.2186975     
  -50080591.7238708     
  -50080606.4215356     
  -50080582.4369158     
  -50080519.9328897     
  -50080419.1080353     
  -50080280.1946481     
  -50080103.4567419     
  -50079889.1880355     
  -50079637.7099322     
  -50079349.3694998     
  -50079024.5374539     
  -50078663.6061526     
  -50078266.9876070     
  -50077835.1115117     
  -50077368.4233024     
  -50076867.3822440     
  -50076332.4595536     
  -50075764.1365647     
  -50075162.9029345     
  -50074529.2549008     
  -50073863.6935903     
  -50073166.7233841     
  -50072438.8503424     
  -50071680.5806936     
  -50070892.4193886     
  -50070074.8687268     
  -50069228.4270537     
  -50068353.5875350     
  -50067450.8370090     
  -50066520.6549202     
  -50065563.5123358     
  -50064579.8710491     
  -50063570.1827693     
  -50062534.8884023     
  -50061474.4174224     
  -50060389.1873373     
  -50059279.6032481     
  -50058146.0575051     
  -50056988.9294606     
  -50055808.5853206     
  -50054605.3780947     
  -50053379.6476470     
  -50052131.7208455     
  -50050861.9118138     
  -50049570.5222825     
  -50048257.8420416     
  -50046924.1494932     
  -50045569.7123048     
  -50072053.9425125     
  -50072128.5633192     
  -50072169.7085088     
  -50072177.3806078     
  -50072151.6149033     
  -50072092.4780834     
  -50072000.0668435     
  -50071874.5064638     
  -50071715.9493639     
  -50071524.5736393     
  -50071300.5815847     
  -50071044.1982094     
  -50070755.6697493     
  -50070435.2621803     
  -50070083.2597377     
  -50069699.9634455     
  -50069285.6896612     
  -50068840.7686383     
  -50068365.5431127     
  -50067860.3669145     
  -50067325.6036108     
  -50066761.6251829     
  -50066168.8107399     
  -50065547.5452739     
  -50064898.2184582     
  -50064221.2234935     
  -50063516.9560028     
  -50062785.8129797     
  -50062028.1917916     
  -50061244.4892402     
  -50060435.1006826     
  -50059600.4192145     
  -50058740.8349167     
  -50057856.7341695     
  -50056948.4990334     
  -50056016.5067000     
  -50055061.1290145     
  -50054082.7320694     
  -50053081.6758728     
  -50052058.3140907     
  -50051012.9938653     
  -50049946.0557089     
  -50048857.8334754     
  -50047748.6544084     
  -50046618.8392667     
  -50045468.7025285     
  -50044298.5526716     
  -50043108.6925320     
  -50041899.4197386     
  -50040671.0272249     
  -50064505.4767622     
  -50064562.8325810     
  -50064591.2672711     
  -50064590.7346911     
  -50064561.2155931     
  -50064502.7166881     
  -50064415.2696770     
  -50064298.9302550     
  -50064153.7770907     
  -50063979.9107847     
  -50063777.4528135     
  -50063546.5444602     
  -50063287.3457376     
  -50063000.0343074     
  -50062684.8043981     
  -50062341.8657270     
  -50061971.4424279     
  -50061573.7719900     
  -50061149.1042096     
  -50060697.7001586     
  -50060219.8311732     
  -50059715.7778655     
  -50059185.8291604     
  -50058630.2813616     
  -50058049.4372489     
  -50057443.6052091     
  -50056813.0984033     
  -50056158.2339728     
  -50055479.3322858     
  -50054776.7162275     
  -50054050.7105344     
  -50053301.6411754     
  -50052529.8347821     
  -50051735.6181283     
  -50050919.3176613     
  -50050081.2590863     
  -50049221.7670044     
  -50048341.1646057     
  -50047439.7734192     
  -50046517.9131185     
  -50045575.9013858     
  -50044614.0538334     
  -50043632.6839843     
  -50042632.1033106     
  -50041612.6213315     
  -50040574.5457693     
  -50039518.1827647     
  -50038443.8371494     
  -50037351.8127769     
  -50036242.4129105     
  -50057684.1279095     
  -50057725.8791321     
  -50057742.5585597     
  -50057734.0949821     
  -50057700.4391245     
  -50057641.5630266     
  -50057557.4593908     
  -50057448.1409053     
  -50057313.6395416     
  -50057154.0058341     
  -50056969.3081411     
  -50056759.6318933     
  -50056525.0788313     
  -50056265.7662356     
  -50055981.8261523     
  -50055673.4046179     
  -50055340.6608843     
  -50054983.7666491     
  -50054602.9052928     
  -50054198.2711249     
  -50053770.0686431     
  -50053318.5118067     
  -50052843.8233271     
  -50052346.2339778     
  -50051825.9819261     
  -50051283.3120884     
  -50050718.4755111     
  -50050131.7287797     
  -50049523.3334569     
  -50048893.5555519     
  -50048242.6650228     
  -50047570.9353136     
  -50046878.6429261     
  -50046166.0670296     
  -50045433.4891085     
  -50044681.1926496     
  -50043909.4628688     
  -50043118.5864798     
  -50042308.8515043     
  -50041480.5471246     
  -50040633.9635790     
  -50039769.3921009     
  -50038887.1249012     
  -50037987.4551945     
  -50037070.6772685     
  -50036137.0865980     
  -50035186.9800008     
  -50034220.6558378     
  -50033238.4142545     
  -50032240.5574651     
  -50051492.0214268     
  -50051520.3884367     
  -50051526.9605911     
  -50051511.6571987     
  -50051474.4153733     
  -50051415.1896398     
  -50051333.9515143     
  -50051230.6890599     
  -50051105.4064211     
  -50050958.1233397     
  -50050788.8746534     
  -50050597.7097815     
  -50050384.6921989     
  -50050149.8989007     
  -50049893.4198612     
  -50049615.3574876     
  -50049315.8260729     
  -50048994.9512479     
  -50048652.8694370     
  -50048289.7273178     
  -50047905.6812875     
  -50047500.8969390     
  -50047075.5485458     
  -50046629.8185616     
  -50046163.8971321     
  -50045677.9816251     
  -50045172.2761760     
  -50044646.9912542     
  -50044102.3432497     
  -50043538.5540809     
  -50042955.8508279     
  -50042354.4653880     
  -50041734.6341586     
  -50041096.5977465     
  -50040440.6007043     
  -50039766.8912963     
  -50039075.7212932     
  -50038367.3457966     
  -50037642.0230950     
  -50036900.0145492     
  -50036141.5845108     
  -50035367.0002713     
  -50034576.5320427     
  -50033770.4529710     
  -50032949.0391805     
  -50032112.5698500     
  -50031261.3273204     
  -50030395.5972333     
  -50029515.6686995     
  -50028621.8344977     
  -50045846.1621479     
  -50045863.5402726     
  -50045861.9381440     
  -50045841.2753857     
  -50045801.4860235     
  -50045742.5182522     
  -50045664.3341807     
  -50045566.9095555     
  -50045450.2334661     
  -50045314.3080325     
  -50045159.1480782     
  -50044984.7807896     
  -50044791.2453645     
  -50044578.5926510     
  -50044346.8847795     
  -50044096.1947879     
  -50043826.6062442     
  -50043538.2128658     
  -50043231.1181397     
  -50042905.4349429     
  -50042561.2851661     
  -50042198.7993424     
  -50041818.1162814     
  -50041419.3827112     
  -50041002.7529288     
  -50040568.3884621     
  -50040116.4577417     
  -50039647.1357875     
  -50039160.6039077     
  -50038657.0494138     
  -50038136.6653515     
  -50037599.6502494     
  -50037046.2078838     
  -50036476.5470653     
  -50035890.8814420     
  -50035289.4293249     
  -50034672.4135337     
  -50034040.0612628     
  -50033392.6039712     
  -50032730.2772923     
  -50032053.3209672     
  -50031361.9788008     
  -50030656.4986391     
  -50029937.1323706     
  -50029204.1359495     
  -50028457.7694412     
  -50027698.2970898     
  -50026925.9874076     
  -50026141.1132857     
  -50025343.9521255     
  -50040675.5135838     
  -50040684.2341140     
  -50040676.4168826     
  -50040651.9875361     
  -50040610.8833415     
  -50040553.0530655     
  -50040478.4568333     
  -50040387.0659706     
  -50040278.8628288     
  -50040153.8405954     
  -50040012.0030906     
  -50039853.3645535     
  -50039677.9494152     
  -50039485.7920656     
  -50039276.9366106     
  -50039051.4366236     
  -50038809.3548929     
  -50038550.7631644     
  -50038275.7418831     
  -50037984.3799331     
  -50037676.7743787     
  -50037353.0302061     
  -50037013.2600694     
  -50036657.5840390     
  -50036286.1293563     
  -50035899.0301939     
  -50035496.4274234     
  -50035078.4683911     
  -50034645.3067029     
  -50034197.1020188     
  -50033734.0198585     
  -50033256.2314186     
  -50032763.9134014     
  -50032257.2478571     
  -50031736.4220390     
  -50031201.6282726     
  -50030653.0638393     
  -50030090.9308745     
  -50029515.4362810     
  -50028926.7916574     
  -50028325.2132422     
  -50027710.9218729     
  -50027084.1429617     
  -50026445.1064855     
  -50025794.0469927     
  -50025131.2036243     
  -50024456.8201500     
  -50023771.1450201     
  -50023074.4314307     
  -50022366.9374032     
  -50035918.6156490     
  -50035920.8095017     
  -50035908.6093302     
  -50035881.9497052     
  -50035840.7745582     
  -50035785.0371336     
  -50035714.6999255     
  -50035629.7345996     
  -50035530.1219008     
  -50035415.8515492     
  -50035286.9221230     
  -50035143.3409325     
  -50034985.1238837     
  -50034812.2953337     
  -50034624.8879388     
  -50034422.9424967     
  -50034206.5077830     
  -50033975.6403840     
  -50033730.4045262     
  -50033470.8719035     
  -50033197.1215035     
  -50032909.2394332     
  -50032607.3187459     
  -50032291.4592691     
  -50031961.7674351     
  -50031618.3561150     
  -50031261.3444564     
  -50030890.8577257     
  -50030507.0271567     
  -50030109.9898041     
  -50029699.8884049     
  -50029276.8712464     
  -50028841.0920420     
  -50028392.7098160     
  -50027931.8887965     
  -50027458.7983176     
  -50026973.6127310     
  -50026476.5113279     
  -50025967.6782700     
  -50025447.3025315     
  -50024915.5778507     
  -50024372.7026924     
  -50023818.8802204     
  -50023254.3182804     
  -50022679.2293933     
  -50022093.8307583     
  -50021498.3442660     
  -50020892.9965208     
  -50020278.0188733     
  -50019653.6474604     
  -50031521.6578576     
  -50031519.1892654     
  -50031504.2309370     
  -50031476.7274128     
  -50031436.6307611     
  -50031383.9005779     
  -50031318.5039732     
  -50031240.4155451     
  -50031149.6173430     
  -50031046.0988198     
  -50030929.8567743     
  -50030800.8952852     
  -50030659.2256357     
  -50030504.8662322     
  -50030337.8425144     
  -50030158.1868619     
  -50029965.9384935     
  -50029761.1433636     
  -50029543.8540545     
  -50029314.1296658     
  -50029072.0357020     
  -50028817.6439586     
  -50028551.0324074     
  -50028272.2850817     
  -50027981.4919627     
  -50027678.7488662     
  -50027364.1573318     
  -50027037.8245141     
  -50026699.8630775     
  -50026350.3910932     
  -50025989.5319412     
  -50025617.4142164     
  -50025234.1716386     
  -50024839.9429685     
  -50024434.8719289     
  -50024019.1071312     
  -50023592.8020082     
  -50023156.1147529     
  -50022709.2082633     
  -50022252.2500945     
  -50021785.4124162     
  -50021308.8719772     
  -50020822.8100770     
  -50020327.4125430     
  -50019822.8697143     
  -50019309.3764323     
  -50018787.1320368     
  -50018256.3403683     
  -50017717.2097753     
  -50017169.9531285     
  -50027436.9299037     
  -50027431.3760878     
  -50027415.0451906     
  -50027387.8915972     
  -50027349.8757346     
  -50027300.9640976     
  -50027241.1292670     
  -50027170.3499150     
  -50027088.6108040     
  -50026995.9027747     
  -50026892.2227277     
  -50026777.5735960     
  -50026651.9643120     
  -50026515.4097666     
  -50026367.9307637     
  -50026209.5539686     
  -50026040.3118519     
  -50025860.2426291     
  -50025669.3901971     
  -50025467.8040670     
  -50025255.5392944     
  -50025032.6564084     
  -50024799.2213382     
  -50024555.3053392     
  -50024300.9849184     
  -50024036.3417599     
  -50023761.4626505     
  -50023476.4394065     
  -50023181.3688007     
  -50022876.3524926     
  -50022561.4969589     
  -50022236.9134270     
  -50021902.7178111     
  -50021559.0306503     
  -50021205.9770511     
  -50020843.6866315     
  -50020472.2934698     
  -50020091.9360560     
  -50019702.7572478     
  -50019304.9042295     
  -50018898.5284753     
  -50018483.7857158     
  -50018060.8359093     
  -50017629.8432156     
  -50017190.9759745     
  -50016744.4066876     
  -50016290.3120031     
  -50015828.8727044     
  -50015360.2737015     
  -50014884.7040251     
  -50023621.5793881     
  -50023614.2388600     
  -50023597.6808427     
  -50023571.8687593     
  -50023536.7708632     
  -50023492.3602791     
  -50023438.6150366     
  -50023375.5180951     
  -50023303.0573623     
  -50023221.2257052     
  -50023130.0209544     
  -50023029.4459027     
  -50022919.5082967     
  -50022800.2208245     
  -50022671.6010969     
  -50022533.6716250     
  -50022386.4597929     
  -50022229.9978271     
  -50022064.3227619     
  -50021889.4764023     
  -50021705.5052838     
  -50021512.4606303     
  -50021310.3983100     
  -50021099.3787895     
  -50020879.4670867     
  -50020650.7327235     
  -50020413.2496775     
  -50020167.0963329     
  -50019912.3554324     
  -50019649.1140291     
  -50019377.4634389     
  -50019097.4991934     
  -50018809.3209946     
  -50018513.0326701     
  -50018208.7421300     
  -50017896.5613258     
  -50017576.6062093     
  -50017248.9966958     
  -50016913.8566271     
  -50016571.3137370     
  -50016221.4996194     
  -50015864.5496972     
  -50015500.6031944     
  -50015129.8031085     
  -50014752.2961868     
  -50014368.2329025     
  -50013977.7674330     
  -50013581.0576408     
  -50013178.2650541     
  -50012769.5548491     
  -50020036.6155848     
  -50020028.5328311     
  -50020012.6703577     
  -50019988.9994729     
  -50019957.4953194     
  -50019918.1369215     
  -50019870.9072253     
  -50019815.7931331     
  -50019752.7855326     
  -50019681.8793191     
  -50019603.0734142     
  -50019516.3707775     
  -50019421.7784153     
  -50019319.3073832     
  -50019208.9727860     
  -50019090.7937720     
  -50018964.7935253     
  -50018830.9992536     
  -50018689.4421728     
  -50018540.1574897     
  -50018383.1843815     
  -50018218.5659730     
  -50018046.3493120     
  -50017866.5853427     
  -50017679.3288780     
  -50017484.6385701     
  -50017282.5768802     
  -50017073.2100476     
  -50016856.6080576     
  -50016632.8446096     
  -50016401.9970851     
  -50016164.1465142     
  -50015919.3775446     
  -50015667.7784081     
  -50015409.4408898     
  -50015144.4602962     
  -50014872.9354242     
  -50014594.9685317     
  -50014310.6653072     
  -50014020.1348409     
  -50013723.4895972     
  -50013420.8453868     
  -50013112.3213399     
  -50012798.0398802     
  -50012478.1266994     
  -50012152.7107324     
  -50011821.9241324     
  -50011485.9022471     
  -50011144.7835943     
  -50010798.7098382     
  -50016646.1074234     
  -50016638.1055664     
  -50016623.6654473     
  -50016602.7649844     
  -50016575.3851025     
  -50016541.5097789     
  -50016501.1260857     
  -50016454.2242263     
  -50016400.7975686     
  -50016340.8426723     
  -50016274.3593140     
  -50016201.3505058     
  -50016121.8225127     
  -50016035.7848641     
  -50015943.2503630     
  -50015844.2350917     
  -50015738.7584146     
  -50015626.8429774     
  -50015508.5147046     
  -50015383.8027933     
  -50015252.7397061     
  -50015115.3611605     
  -50014971.7061174     
  -50014821.8167669     
  -50014665.7385138     
  -50014503.5199599     
  -50014335.2128868     
  -50014160.8722367     
  -50013980.5560920     
  -50013794.3256547     
  -50013602.2452249     
  -50013404.3821786     
  -50013200.8069450     
  -50012991.5929835     
  -50012776.8167607     
  -50012556.5577267     
  -50012330.8982915     
  -50012099.9238012     
  -50011863.7225142     
  -50011622.3855773     
  -50011376.0070020     
  -50011124.6836399     
  -50010868.5151597     
  -50010607.6040221     
  -50010342.0554559     
  -50010071.9774338     
  -50009797.4806474     
  -50009518.6784819     
  -50009235.6869912     
  -50008948.6248711     
  -50013416.5326483     
  -50013409.2484965     
  -50013396.7923207     
  -50013379.1473976     
  -50013356.2993098     
  -50013328.2359876     
  -50013294.9477487     
  -50013256.4273339     
  -50013212.6699383     
  -50013163.6732413     
  -50013109.4374310     
  -50013049.9652274     
  -50012985.2619012     
  -50012915.3352906     
  -50012840.1958148     
  -50012759.8564849     
  -50012674.3329128     
  -50012583.6433167     
  -50012487.8085258     
  -50012386.8519810     
  -50012280.7997351     
  -50012169.6804508     
  -50012053.5253967     
  -50011932.3684414     
  -50011806.2460466     
  -50011675.1972591     
  -50011539.2637004     
  -50011398.4895564     
  -50011252.9215650     
  -50011102.6090036     
  -50010947.6036748     
  -50010787.9598920     
  -50010623.7344645     
  -50010454.9866803     
  -50010281.7782909     
  -50010104.1734930     
  -50009922.2389113     
  -50009736.0435801     
  -50009545.6589247     
  -50009351.1587422     
  -50009152.6191823     
  -50008950.1187263     
  -50008743.7381679     
  -50008533.5605908     
  -50008319.6713485     
  -50008102.1580411     
  -50007881.1104932     
  -50007656.6207300     
  -50007428.7829536     
  -50007197.6935175     
  -50010316.2430149     
  -50010310.1609372     
  -50010300.1155918     
  -50010286.0944745     
  -50010268.0867811     
  -50010246.0834441     
  -50010220.0771675     
  -50010190.0624574     
  -50010156.0356520     
  -50010117.9949473     
  -50010075.9404214     
  -50010029.8740563     
  -50009979.7997573     
  -50009925.7233697     
  -50009867.6526943     
  -50009805.5974999     
  -50009739.5695348     
  -50009669.5825349     
  -50009595.6522319     
  -50009517.7963582     
  -50009436.0346508     
  -50009350.3888537     
  -50009260.8827187     
  -50009167.5420049     
  -50009070.3944765     
  -50008969.4699000     
  -50008864.8000398     
  -50008756.4186529     
  -50008644.3614823     
  -50008528.6662501     
  -50008409.3726490     
  -50008286.5223329     
  -50008160.1589080     
  -50008030.3279212     
  -50007897.0768493     
  -50007760.4550871     
  -50007620.5139344     
  -50007477.3065830     
  -50007330.8881030     
  -50007181.3154277     
  -50007028.6473390     
  -50006872.9444515     
  -50006714.2691965     
  -50006552.6858042     
  -50006388.2602868     
  -50006221.0604199     
  -50006051.1557231     
  -50005878.6174402     
  -50005703.5185187     
  -50005525.9335874     
  -50007315.0172216     
  -50007310.4996907     
  -50007303.1854023     
  -50007293.0650937     
  -50007280.1306668     
  -50007264.3752182     
  -50007245.7930666     
  -50007224.3797788     
  -50007200.1321949     
  -50007173.0484496     
  -50007143.1279937     
  -50007110.3716124     
  -50007074.7814436     
  -50007036.3609925     
  -50006995.1151462     
  -50006951.0501862     
  -50006904.1737993     
  -50006854.4950875     
  -50006802.0245760     
  -50006746.7742202     
  -50006688.7574116     
  -50006627.9889818     
  -50006564.4852063     
  -50006498.2638067     
  -50006429.3439515     
  -50006357.7462565     
  -50006283.4927843     
  -50006206.6070423     
  -50006127.1139802     
  -50006045.0399872     
  -50005960.4128873     
  -50005873.2619349     
  -50005783.6178091     
  -50005691.5126077     
  -50005596.9798399     
  -50005500.0544198     
  -50005400.7726571     
  -50005299.1722494     
  -50005195.2922726     
  -50005089.1731708     
  -50004980.8567462     
  -50004870.3861477     
  -50004757.8058596     
  -50004643.1616893     
  -50004526.5007538     
  -50004407.8714668     
  -50004287.3235239     
  -50004164.9078877     
  -50004040.6767723     
  -50003914.6836257     
  -50004383.6790318     
  -50004380.9926288     
  -50004376.6471427     
  -50004370.6357649     
  -50004362.9523649     
  -50004353.5915132     
  -50004342.5485017     
  -50004329.8193635     
  -50004315.4008920     
  -50004299.2906581     
  -50004281.4870261     
  -50004261.9891689     
  -50004240.7970824     
  -50004217.9115977     
  -50004193.3343932     
  -50004167.0680050     
  -50004139.1158369     
  -50004109.4821694     
  -50004078.1721665     
  -50004045.1918836     
  -50004010.5482730     
  -50003974.2491891     
  -50003936.3033930     
  -50003896.7205560     
  -50003855.5112622     
  -50003812.6870110     
  -50003768.2602186     
  -50003722.2442189     
  -50003674.6532632     
  -50003625.5025210     
  -50003574.8080780     
  -50003522.5869354     
  -50003468.8570077     
  -50003413.6371202     
  -50003356.9470063     
  -50003298.8073041     
  -50003239.2395524     
  -50003178.2661867     
  -50003115.9105340     
  -50003052.1968082     
  -50002987.1501038     
  -50002920.7963903     
  -50002853.1625054     
  -50002784.2761482     
  -50002714.1658712     
  -50002642.8610725     
  -50002570.3919873     
  -50002496.7896785     
  -50002422.0860272     
  -50002346.3137223     
  -50001493.7627376     
  -50001493.0990049     
  -50001491.8971554     
  -50001490.1522486     
  -50001487.8595683     
  -50001485.0146375     
  -50001481.6132320     
  -50001477.6513935     
  -50001473.1254422     
  -50001468.0319881     
  -50001462.3679428     
  -50001456.1305288     
  -50001449.3172906     
  -50001441.9261027     
  -50001433.9551785     
  -50001425.4030790     
  -50001416.2687188     
  -50001406.5513744     
  -50001396.2506894     
  -50001385.3666812     
  -50001373.8997456     
  -50001361.8506624     
  -50001349.2205997     
  -50001336.0111174     
  -50001322.2241719     
  -50001307.8621182     
  -50001292.9277141     
  -50001277.4241218     
  -50001261.3549109     
  -50001244.7240599     
  -50001227.5359582     
  -50001209.7954076     
  -50001191.5076232     
  -50001172.6782347     
  -50001153.3132866     
  -50001133.4192392     
  -50001113.0029684     
  -50001092.0717659     
  -50001070.6333390     
  -50001048.6958100     
  -50001026.2677155     
  -50001003.3580056     
  -50000979.9760428     
  -50000956.1316001     
  -50000931.8348601     
  -50000907.0964123     
  -50000881.9272513     
  -50000856.3387741     
  -50000830.3427771     
  -50000803.9514532     
  -49998617.2118231     
  -49998618.7027010     
  -49998620.7710011     
  -49998623.4132720     
  -49998626.6258516     
  -49998630.4048735     
  -49998634.7462739     
  -49998639.6457972     
  -49998645.0990022     
  -49998651.1012675     
  -49998657.6477972     
  -49998664.7336263     
  -49998672.3536254     
  -49998680.5025059     
  -49998689.1748250     
  -49998698.3649901     
  -49998708.0672633     
  -49998718.2757660     
  -49998728.9844830     
  -49998740.1872668     
  -49998751.8778418     
  -49998764.0498083     
  -49998776.6966464     
  -49998789.8117202     
  -49998803.3882816     
  -49998817.4194741     
  -49998831.8983370     
  -49998846.8178090     
  -49998862.1707322     
  -49998877.9498559     
  -49998894.1478412     
  -49998910.7572641     
  -49998927.7706198     
  -49998945.1803271     
  -49998962.9787320     
  -49998981.1581122     
  -49998999.7106814     
  -49999018.6285928     
  -49999037.9039444     
  -49999057.5287825     
  -49999077.4951067     
  -49999097.7948738     
  -49999118.4200029     
  -49999139.3623790     
  -49999160.6138586     
  -49999182.1662733     
  -49999204.0114348     
  -49999226.1411393     
  -49999248.5471723     
  -49999271.2213125     
  -49995726.0995072     
  -49995729.8272523     
  -49995735.2533270     
  -49995742.3756008     
  -49995751.1913032     
  -49995761.6970230     
  -49995773.8887066     
  -49995787.7616569     
  -49995803.3105325     
  -49995820.5293468     
  -49995839.4114681     
  -49995859.9496192     
  -49995882.1358774     
  -49995905.9616752     
  -49995931.4178010     
  -49995958.4943999     
  -49995987.1809753     
  -49996017.4663901     
  -49996049.3388690     
  -49996082.7860006     
  -49996117.7947400     
  -49996154.3514115     
  -49996192.4417121     
  -49996232.0507149     
  -49996273.1628731     
  -49996315.7620238     
  -49996359.8313935     
  -49996405.3536019     
  -49996452.3106683     
  -49996500.6840162     
  -49996550.4544803     
  -49996601.6023122     
  -49996654.1071869     
  -49996707.9482107     
  -49996763.1039281     
  -49996819.5523293     
  -49996877.2708593     
  -49996936.2364253     
  -49996996.4254062     
  -49997057.8136615     
  -49997120.3765414     
  -49997184.0888959     
  -49997248.9250856     
  -49997314.8589924     
  -49997381.8640298     
  -49997449.9131548     
  -49997518.9788790     
  -49997589.0332811     
  -49997660.0480186     
  -49997731.9943405     
  -49992792.3618516     
  -49992798.3633758     
  -49992807.2001314     
  -49992818.8713551     
  -49992833.3752095     
  -49992850.7087742     
  -49992870.8680360     
  -49992893.8478803     
  -49992919.6420833     
  -49992948.2433051     
  -49992979.6430829     
  -49993013.8318253     
  -49993050.7988074     
  -49993090.5321665     
  -49993133.0188987     
  -49993178.2448556     
  -49993226.1947427     
  -49993276.8521180     
  -49993330.1993909     
  -49993386.2178233     
  -49993444.8875295     
  -49993506.1874781     
  -49993570.0954947     
  -49993636.5882645     
  -49993705.6413364     
  -49993777.2291271     
  -49993851.3249268     
  -49993927.9009046     
  -49994006.9281155     
  -49994088.3765076     
  -49994172.2149301     
  -49994258.4111420     
  -49994346.9318216     
  -49994437.7425764     
  -49994530.8079540     
  -49994626.0914536     
  -49994723.5555379     
  -49994823.1616460     
  -49994924.8702071     
  -49995028.6406540     
  -49995134.4314386     
  -49995242.2000469     
  -49995351.9030152     
  -49995463.4959471     
  -49995576.9335307     
  -49995692.1695567     
  -49995809.1569372     
  -49995927.8477255     
  -49996048.1931355     
  -49996170.1435630     
  -49989787.5353765     
  -49989795.8009070     
  -49989808.0653163     
  -49989824.3294761     
  -49989844.5927334     
  -49989868.8528923     
  -49989897.1061961     
  -49989929.3473114     
  -49989965.5693125     
  -49990005.7636679     
  -49990049.9202277     
  -49990098.0272117     
  -49990150.0711992     
  -49990206.0371205     
  -49990265.9082484     
  -49990329.6661917     
  -49990397.2908902     
  -49990468.7606098     
  -49990544.0519398     
  -49990623.1397912     
  -49990705.9973954     
  -49990792.5963050     
  -49990882.9063953     
  -49990976.8958671     
  -49991074.5312500     
  -49991175.7774078     
  -49991280.5975441     
  -49991388.9532096     
  -49991500.8043099     
  -49991616.1091148     
  -49991734.8242686     
  -49991856.9048008     
  -49991982.3041390     
  -49992110.9741213     
  -49992242.8650111     
  -49992377.9255122     
  -49992516.1027847     
  -49992657.3424621     
  -49992801.5886700     
  -49992948.7840443     
  -49993098.8697522     
  -49993251.7855122     
  -49993407.4696172     
  -49993565.8589564     
  -49993726.8890400     
  -49993890.4940238     
  -49994056.6067352     
  -49994225.1586998     
  -49994396.0801700     
  -49994569.3001533     
  -49986682.4916865     
  -49986692.9575703     
  -49986708.6239019     
  -49986729.4936871     
  -49986755.5679266     
  -49986786.8455879     
  -49986823.3235798     
  -49986864.9967275     
  -49986911.8577508     
  -49986963.8972425     
  -49987021.1036504     
  -49987083.4632593     
  -49987150.9601761     
  -49987223.5763159     
  -49987301.2913901     
  -49987384.0828958     
  -49987471.9261080     
  -49987564.7940722     
  -49987662.6575992     
  -49987765.4852616     
  -49987873.2433919     
  -49987985.8960821     
  -49988103.4051845     
  -49988225.7303148     
  -49988352.8288561     
  -49988484.6559645     
  -49988621.1645761     
  -49988762.3054158     
  -49988908.0270067     
  -49989058.2756818     
  -49989212.9955966     
  -49989372.1287425     
  -49989535.6149629     
  -49989703.3919690     
  -49989875.3953578     
  -49990051.5586315     
  -49990231.8132178     
  -49990416.0884909     
  -49990604.3117950     
  -49990796.4084680     
  -49990992.3018671     
  -49991191.9133950     
  -49991395.1625279     
  -49991601.9668444     
  -49991812.2420560     
  -49992025.9020385     
  -49992242.8588647     
  -49992463.0228390     
  -49992686.3025322     
  -49992912.6048188     
  -49983447.1614757     
  -49983459.6968673     
  -49983478.6841297     
  -49983504.1291442     
  -49983536.0352615     
  -49983574.4032642     
  -49983619.2313319     
  -49983670.5150090     
  -49983728.2471748     
  -49983792.4180160     
  -49983863.0150019     
  -49983940.0228614     
  -49984023.4235635     
  -49984113.1962984     
  -49984209.3174632     
  -49984311.7606473     
  -49984420.4966226     
  -49984535.4933340     
  -49984656.7158927     
  -49984784.1265722     
  -49984917.6848050     
  -49985057.3471830     
  -49985203.0674584     
  -49985354.7965473     
  -49985512.4825350     
  -49985676.0706831     
  -49985845.5034385     
  -49986020.7204438     
  -49986201.6585500     
  -49986388.2518302     
  -49986580.4315953     
  -49986778.1264113     
  -49986981.2621182     
  -49987189.7618497     
  -49987403.5460556     
  -49987622.5325250     
  -49987846.6364109     
  -49988075.7702562     
  -49988309.8440220     
  -49988548.7651158     
  -49988792.4384228     
  -49989040.7663375     
  -49989293.6487969     
  -49989550.9833158     
  -49989812.6650229     
  -49990078.5866985     
  -49990348.6388139     
  -49990622.7095726     
  -49990900.6849523     
  -49991182.4487491     
  -49980050.2394422     
  -49980064.6265584     
  -49980086.7799033     
  -49980116.7092277     
  -49980154.4211623     
  -49980199.9191710     
  -49980253.2035075     
  -49980314.2711749     
  -49980383.1158892     
  -49980459.7280456     
  -49980544.0946878     
  -49980636.1994814     
  -49980736.0226892     
  -49980843.5411506     
  -49980958.7282633     
  -49981081.5539682     
  -49981211.9847372     
  -49981349.9835637     
  -49981495.5099555     
  -49981648.5199310     
  -49981808.9660172     
  -49981976.7972506     
  -49982151.9591805     
  -49982334.3938742     
  -49982524.0399249     
  -49982720.8324615     
  -49982924.7031605     
  -49983135.5802599     
  -49983353.3885751     
  -49983578.0495168     
  -49983809.4811103     
  -49984047.5980169     
  -49984292.3115572     
  -49984543.5297354     
  -49984801.1572659     
  -49985065.0956016     
  -49985335.2429624     
  -49985611.4943675     
  -49985893.7416672     
  -49986181.8735773     
  -49986475.7757145     
  -49986775.3306341     
  -49987080.4178682     
  -49987390.9139663     
  -49987706.6925370     
  -49988027.6242913     
  -49988353.5770880     
  -49988684.4159804     
  -49989020.0032645     
  -49989360.1985298     
  -49976458.8600382     
  -49976474.7676825     
  -49976499.8335620     
  -49976534.0725463     
  -49976577.4957090     
  -49976630.1102717     
  -49976691.9195528     
  -49976762.9229204     
  -49976843.1157492     
  -49976932.4893830     
  -49977031.0310990     
  -49977138.7240790     
  -49977255.5473820     
  -49977381.4759224     
  -49977516.4804514     
  -49977660.5275417     
  -49977813.5795760     
  -49977975.5947390     
  -49978146.5270129     
  -49978326.3261749     
  -49978514.9377993     
  -49978712.3032613     
  -49978918.3597439     
  -49979133.0402479     
  -49979356.2736034     
  -49979587.9844851     
  -49979828.0934285     
  -49980076.5168491     
  -49980333.1670636     
  -49980597.9523128     
  -49980870.7767869     
  -49981151.5406518     
  -49981440.1400781     
  -49981736.4672710     
  -49982040.4105020     
  -49982351.8541428     
  -49982670.6786996     
  -49982996.7608498     
  -49983329.9734795     
  -49983670.1857233     
  -49984017.2630043     
  -49984371.0670768     
  -49984731.4560696     
  -49985098.2845313     
  -49985471.4034765     
  -49985850.6604342     
  -49986235.8994976     
  -49986626.9613754     
  -49987023.6834446     
  -49987425.8998062     
  -49972638.2315348     
  -49972655.1817314     
  -49972682.7767750     
  -49972721.0381497     
  -49972769.9827513     
  -49972829.6228238     
  -49972899.9659017     
  -49972981.0147581     
  -49973072.7673583     
  -49973175.2168187     
  -49973288.3513715     
  -49973412.1543339     
  -49973546.6040830     
  -49973691.6740350     
  -49973847.3326292     
  -49974013.5433160     
  -49974190.2645502     
  -49974377.4497874     
  -49974575.0474843     
  -49974783.0011033     
  -49975001.2491199     
  -49975229.7250339     
  -49975468.3573833     
  -49975717.0697612     
  -49975975.7808357     
  -49976244.4043717     
  -49976522.8492559     
  -49976811.0195236     
  -49977108.8143872     
  -49977416.1282675     
  -49977732.8508259     
  -49978058.8669989     
  -49978394.0570339     
  -49978738.2965264     
  -49979091.4564587     
  -49979453.4032396     
  -49979823.9987459     
  -49980203.1003643     
  -49980590.5610354     
  -49980986.2292974     
  -49981389.9493326     
  -49981801.5610136     
  -49982220.8999514     
  -49982647.7975440     
  -49983082.0810273     
  -49983523.5735257     
  -49983972.0941057     
  -49984427.4578293     
  -49984889.4758101     
  -49985357.9552707     
  -49968551.2124807     
  -49968568.5403800     
  -49968598.1143215     
  -49968639.9641120     
  -49968694.1140244     
  -49968760.5827290     
  -49968839.3832331     
  -49968930.5228276     
  -49969034.0030410     
  -49969149.8196004     
  -49969277.9623985     
  -49969418.4154681     
  -49969571.1569619     
  -49969736.1591389     
  -49969913.3883555     
  -49970102.8050629     
  -49970304.3638087     
  -49970518.0132439     
  -49970743.6961339     
  -49970981.3493737     
  -49971230.9040072     
  -49971492.2852499     
  -49971765.4125150     
  -49972050.1994423     
  -49972346.5539303     
  -49972654.3781702     
  -49972973.5686828     
  -49973304.0163573     
  -49973645.6064913     
  -49973998.2188333     
  -49974361.7276262     
  -49974736.0016515     
  -49975120.9042758     
  -49975516.2934972     
  -49975922.0219926     
  -49976337.9371661     
  -49976763.8811980     
  -49977199.6910934     
  -49977645.1987328     
  -49978100.2309211     
  -49978564.6094394     
  -49979038.1510946     
  -49979520.6677718     
  -49980011.9664854     
  -49980511.8494312     
  -49981020.1140402     
  -49981536.5530308     
  -49982060.9544642     
  -49982593.1017991     
  -49983132.7739485     
  -49964157.8101289     
  -49964174.6179342     
  -49964205.4115520     
  -49964250.2309608     
  -49964309.1094577     
  -49964382.0735916     
  -49964469.1431052     
  -49964570.3308861     
  -49964685.6429275     
  -49964815.0782980     
  -49964958.6291190     
  -49965116.2805501     
  -49965288.0107825     
  -49965473.7910392     
  -49965673.5855820     
  -49965887.3517243     
  -49966115.0398506     
  -49966356.5934408     
  -49966611.9490993     
  -49966881.0365894     
  -49967163.7788710     
  -49967460.0921429     
  -49967769.8858876     
  -49968093.0629196     
  -49968429.5194362     
  -49968779.1450704     
  -49969141.8229454     
  -49969517.4297314     
  -49969905.8357028     
  -49970306.9047967     
  -49970720.4946722     
  -49971146.4567696     
  -49971584.6363704     
  -49972034.8726567     
  -49972496.9987705     
  -49972970.8418726     
  -49973456.2232016     
  -49973952.9581307     
  -49974460.8562254     
  -49974979.7212997     
  -49975509.3514710     
  -49976049.5392152     
  -49976600.0714201     
  -49977160.7294384     
  -49977731.2891399     
  -49978311.5209636     
  -49978901.1899681     
  -49979500.0558834     
  -49980107.8731610     
  -49980724.3910252     
  -49959414.5746511     
  -49959429.6812841     
  -49959460.6813374     
  -49959507.6268173     
  -49959570.5616429     
  -49959649.5215880     
  -49959744.5342350     
  -49959855.6189409     
  -49959982.7868148     
  -49960126.0407060     
  -49960285.3752021     
  -49960460.7766378     
  -49960652.2231115     
  -49960859.6845113     
  -49961083.1225479     
  -49961322.4907959     
  -49961577.7347410     
  -49961848.7918326     
  -49962135.5915437     
  -49962438.0554335     
  -49962756.0972156     
  -49963089.6228290     
  -49963438.5305132     
  -49963802.7108848     
  -49964182.0470166     
  -49964576.4145187     
  -49964985.6816192     
  -49965409.7092472     
  -49965848.3511148     
  -49966301.4537990     
  -49966768.8568236     
  -49967250.3927391     
  -49967745.8872014     
  -49968255.1590502     
  -49968778.0203836     
  -49969314.2766317     
  -49969863.7266275     
  -49970426.1626760     
  -49971001.3706189     
  -49971589.1298993     
  -49972189.2136209     
  -49972801.3886062     
  -49973425.4154515     
  -49974061.0485788     
  -49974708.0362857     
  -49975366.1207923     
  -49976035.0382860     
  -49976714.5189648     
  -49977404.2870771     
  -49978104.0609621     
  -49954273.8558132     
  -49954285.7455166     
  -49954315.6401922     
  -49954363.6055210     
  -49954429.6973589     
  -49954513.9617009     
  -49954616.4346617     
  -49954737.1424699     
  -49954876.1014778     
  -49955033.3181830     
  -49955208.7892638     
  -49955402.5016255     
  -49955614.4324570     
  -49955844.5492985     
  -49956092.8101170     
  -49956359.1633909     
  -49956643.5482010     
  -49956945.8943290     
  -49957266.1223608     
  -49957604.1437944     
  -49957959.8611533     
  -49958333.1681008     
  -49958723.9495590     
  -49959132.0818278     
  -49959557.4327056     
  -49959999.8616102     
  -49960459.2196993     
  -49960935.3499899     
  -49961428.0874761     
  -49961937.2592445     
  -49962462.6845873     
  -49963004.1751118     
  -49963561.5348469     
  -49964134.5603444     
  -49964723.0407767     
  -49965326.7580300     
  -49965945.4867919     
  -49966578.9946338     
  -49967227.0420882     
  -49967889.3827206     
  -49968565.7631949     
  -49969255.9233340     
  -49969959.5961746     
  -49970676.5080161     
  -49971406.3784642     
  -49972148.9204693     
  -49972903.8403595     
  -49973670.8378691     
  -49974449.6061621     
  -49975239.8318523     
  -49948682.8801067     
  -49948689.6553553     
  -49948716.7959740     
  -49948764.3824149     
  -49948832.4831471     
  -49948921.1546641     
  -49949030.4415107     
  -49949160.3763277     
  -49949310.9799149     
  -49949482.2613090     
  -49949674.2178769     
  -49949886.8354234     
  -49950120.0883102     
  -49950373.9395867     
  -49950648.3411315     
  -49950943.2338019     
  -49951258.5475916     
  -49951594.2017954     
  -49951950.1051786     
  -49952326.1561510     
  -49952722.2429450     
  -49953138.2437941     
  -49953574.0271146     
  -49954029.4516857     
  -49954504.3668300     
  -49954998.6125913     
  -49955512.0199106     
  -49956044.4107978     
  -49956595.5984998     
  -49957165.3876632     
  -49957753.5744907     
  -49958359.9468924     
  -49958984.2846290     
  -49959626.3594472     
  -49960285.9352083     
  -49960962.7680074     
  -49961656.6062837     
  -49962367.1909217     
  -49963094.2553435     
  -49963837.5255908     
  -49964596.7203974     
  -49965371.5512516     
  -49966161.7224499     
  -49966966.9311391     
  -49967786.8673507     
  -49968621.2140238     
  -49969469.6470211     
  -49970331.8351346     
  -49971207.4400826     
  -49972096.1165001     
  -49942582.5960734     
  -49942581.9432612     
  -49942604.3211363     
  -49942649.8249582     
  -49942718.5353215     
  -49942810.5182352     
  -49942925.8252255     
  -49943064.4934613     
  -49943226.5459005     
  -49943411.9914554     
  -49943620.8251754     
  -49943853.0284456     
  -49944108.5692002     
  -49944387.4021476     
  -49944689.4690073     
  -49945014.6987558     
  -49945363.0078804     
  -49945734.3006395     
  -49946128.4693272     
  -49946545.3945416     
  -49946984.9454549     
  -49947446.9800831     
  -49947931.3455563     
  -49948437.8783846     
  -49948966.4047225     
  -49949516.7406265     
  -49950088.6923083     
  -49950682.0563799     
  -49951296.6200907     
  -49951932.1615557     
  -49952588.4499732     
  -49953265.2458315     
  -49953962.3011043     
  -49954679.3594327     
  -49955416.1562951     
  -49956172.4191625     
  -49956947.8676397     
  -49957742.2135920     
  -49958555.1612570     
  -49959386.4073405     
  -49960235.6410974     
  -49961102.5443970     
  -49961986.7917723     
  -49962888.0504538     
  -49963805.9803887     
  -49964740.2342431     
  -49965690.4573912     
  -49966656.2878890     
  -49967637.3564339     
  -49968633.2863113     
  -49935906.2237993     
  -49935895.4044499     
  -49935910.6561139     
  -49935952.0870970     
  -49936019.7877122     
  -49936113.8304716     
  -49936234.2703069     
  -49936381.1448172     
  -49936554.4745410     
  -49936754.2632504     
  -49936980.4982662     
  -49937233.1507898     
  -49937512.1762518     
  -49937817.5146738     
  -49938149.0910419     
  -49938506.8156889     
  -49938890.5846848     
  -49939300.2802313     
  -49939735.7710607     
  -49940196.9128351     
  -49940683.5485451     
  -49941195.5089069     
  -49941732.6127536     
  -49942294.6674215     
  -49942881.4691284     
  -49943492.8033425     
  -49944128.4451403     
  -49944788.1595532     
  -49945471.7018981     
  -49946178.8180958     
  -49946909.2449716     
  -49947662.7105388     
  -49948438.9342636     
  -49949237.6273114     
  -49950058.4927729     
  -49950901.2258677     
  -49951765.5141285     
  -49952651.0375616     
  -49953557.4687853     
  -49954484.4731451     
  -49955431.7088054     
  -49956398.8268184     
  -49957385.4711686     
  -49958391.2787940     
  -49959415.8795848     
  -49960458.8963571     
  -49961519.9448059     
  -49962598.6334345     
  -49963694.5634622     
  -49964807.3287116     
  -49928577.4315260     
  -49928553.3175832     
  -49928558.7774234     
  -49928593.9278001     
  -49928658.8633621     
  -49928753.6570151     
  -49928878.3603159     
  -49929033.0038992     
  -49929217.5979326     
  -49929432.1325962     
  -49929676.5785858     
  -49929950.8876354     
  -49930254.9930560     
  -49930588.8102892     
  -49930952.2374712     
  -49931345.1560056     
  -49931767.4311418     
  -49932218.9125559     
  -49932699.4349331     
  -49933208.8185469     
  -49933746.8698346     
  -49934313.3819654     
  -49934908.1353991     
  -49935530.8984343     
  -49936181.4277414     
  -49936859.4688820     
  -49937564.7568088     
  -49938297.0163472     
  -49939055.9626551     
  -49939841.3016606     
  -49940652.7304742     
  -49941489.9377764     
  -49942352.6041765     
  -49943240.4025445     
  -49944152.9983127     
  -49945090.0497468     
  -49946051.2081855     
  -49947036.1182481     
  -49948044.4180094     
  -49949075.7391410     
  -49950129.7070186     
  -49951205.9407963     
  -49952304.0534455     
  -49953423.6517607     
  -49954564.3363310     
  -49955725.7014770     
  -49956907.3351563     
  -49958108.8188338     
  -49959329.7273213     
  -49960569.6285860     
  -49920508.0486439     
  -49920467.2281090     
  -49920460.0551417     
  -49920486.6460727     
  -49920547.0900841     
  -49920641.4498147     
  -49920769.7620047     
  -49920932.0381766     
  -49921128.2653484     
  -49921358.4067741     
  -49921622.4027090     
  -49921920.1711960     
  -49922251.6088676     
  -49922616.5917626     
  -49923014.9761513     
  -49923446.5993668     
  -49923911.2806394     
  -49924408.8219306     
  -49924939.0087612     
  -49925501.6110350     
  -49926096.3838498     
  -49926723.0682959     
  -49927381.3922387     
  -49928071.0710815     
  -49928791.8085077     
  -49929543.2971972     
  -49930325.2195176     
  -49931137.2481852     
  -49931979.0468946     
  -49932850.2709164     
  -49933750.5676583     
  -49934679.5771888     
  -49935636.9327228     
  -49936622.2610668     
  -49937635.1830218     
  -49938675.3137431     
  -49939742.2630565     
  -49940835.6357284     
  -49941955.0316905     
  -49943100.0462173     
  -49944270.2700566     
  -49945465.2895120     
  -49946684.6864778     
  -49947928.0384253     
  -49949194.9183423     
  -49950484.8946232     
  -49951797.5309137     
  -49953132.3859071     
  -49954489.0130957     
  -49955866.9604767     
  -49911595.2109949     
  -49911534.2002441     
  -49911511.6157272     
  -49911527.5582761     
  -49911582.0954431     
  -49911675.2624497     
  -49911807.0631818     
  -49911977.4712240     
  -49912186.4309285     
  -49912433.8585141     
  -49912719.6431899     
  -49913043.6482988     
  -49913405.7124774     
  -49913805.6508254     
  -49914243.2560823     
  -49914718.2998048     
  -49915230.5335430     
  -49915779.6900088     
  -49916365.4842334     
  -49916987.6147113     
  -49917645.7645241     
  -49918339.6024426     
  -49919068.7840033     
  -49919832.9525542     
  -49920631.7402701     
  -49921464.7691294     
  -49922331.6518533     
  -49923231.9928043     
  -49924165.3888371     
  -49925131.4301058     
  -49926129.7008195     
  -49927159.7799460     
  -49928221.2418631     
  -49929313.6569526     
  -49930436.5921375     
  -49931589.6113597     
  -49932772.2759965     
  -49933984.1452166     
  -49935224.7762715     
  -49936493.7247236     
  -49937790.5446098     
  -49939114.7885396     
  -49940466.0077271     
  -49941843.7519579     
  -49943247.5694900     
  -49944677.0068883     
  -49946131.6087949     
  -49947610.9176334     
  -49949114.4732503     
  -49950641.8124934     
  -49901717.8231599     
  -49901633.4351524     
  -49901593.1204318     
  -49901596.9404839     
  -49901644.9161511     
  -49901737.0290562     
  -49901873.2230756     
  -49902053.4058545     
  -49902277.4503573     
  -49902545.1964497     
  -49902856.4525005     
  -49903210.9970042     
  -49903608.5802137     
  -49904048.9257784     
  -49904531.7323837     
  -49905056.6753839     
  -49905623.4084252     
  -49906231.5650533     
  -49906880.7602991     
  -49907570.5922400     
  -49908300.6435304     
  -49909070.4828969     
  -49909879.6665957     
  -49910727.7398248     
  -49911614.2380913     
  -49912538.6885245     
  -49913500.6111371     
  -49914499.5200264     
  -49915534.9245146     
  -49916606.3302235     
  -49917713.2400835     
  -49918855.1552698     
  -49920031.5760670     
  -49921242.0026586     
  -49922485.9358380     
  -49923762.8776410     
  -49925072.3318955     
  -49926413.8046904     
  -49927786.8047585     
  -49929190.8437738     
  -49930625.4365635     
  -49932090.1012311     
  -49933584.3591931     
  -49935107.7351256     
  -49936659.7568244     
  -49938239.9549748     
  -49939847.8628344     
  -49941483.0158278     
  -49943144.9510541     
  -49944833.2067101     
  -49890732.2158270     
  -49890622.1496142     
  -49890562.8694488     
  -49890554.3615148     
  -49890596.5626414     
  -49890689.3623678     
  -49890832.6050583     
  -49891026.0920587     
  -49891269.5838872     
  -49891562.8024518     
  -49891905.4332847     
  -49892297.1277902     
  -49892737.5054952     
  -49893226.1562973     
  -49893762.6427031     
  -49894346.5020508     
  -49894977.2487093     
  -49895654.3762496     
  -49896377.3595797     
  -49897145.6570411     
  -49897958.7124574     
  -49898815.9571328     
  -49899716.8117928     
  -49900660.6884638     
  -49901646.9922875     
  -49902675.1232623     
  -49903744.4779118     
  -49904854.4508727     
  -49906004.4364001     
  -49907193.8297862     
  -49908422.0286884     
  -49909688.4343634     
  -49910992.4528062     
  -49912333.4957877     
  -49913710.9817918     
  -49915124.3368468     
  -49916572.9952508     
  -49918056.4001876     
  -49919574.0042332     
  -49921125.2697485     
  -49922709.6691598     
  -49924326.6851245     
  -49925975.8105808     
  -49927656.5486816     
  -49929368.4126122     
  -49931110.9252907     
  -49932883.6189521     
  -49934686.0346160     
  -49936517.7214386     
  -49938378.2359506     
  -49878466.8783476     
  -49878330.6152361     
  -49878253.1512434     
  -49878234.3449218     
  -49878273.9953576     
  -49878371.8450849     
  -49878527.5830456     
  -49878740.8475865     
  -49879011.2294844     
  -49879338.2749892     
  -49879721.4888753     
  -49880160.3374941     
  -49880654.2518176     
  -49881202.6304655     
  -49881804.8427074     
  -49882460.2314329     
  -49883168.1160813     
  -49883927.7955250     
  -49884738.5508976     
  -49885599.6483624     
  -49886510.3418133     
  -49887469.8755018     
  -49888477.4865857     
  -49889532.4075923     
  -49890633.8687912     
  -49891781.1004715     
  -49892973.3351190     
  -49894209.8094878     
  -49895489.7665621     
  -49896812.4574041     
  -49898177.1428846     
  -49899583.0952907     
  -49901029.5998091     
  -49902515.9558800     
  -49904041.4784200     
  -49905605.4989093     
  -49907207.3663419     
  -49908846.4480365     
  -49910522.1303040     
  -49912233.8189720     
  -49913980.9397629     
  -49915762.9385248     
  -49917579.2813132     
  -49919429.4543239     
  -49921312.9636738     
  -49923229.3350329     
  -49925178.1131027     
  -49927158.8609447     
  -49929171.1591577     
  -49931214.6049042     
  -49864716.1627808     
  -49864556.2785226     
  -49864464.7805541     
  -49864441.3257439     
  -49864485.5000418     
  -49864596.8224948     
  -49864774.7493011     
  -49865018.6778886     
  -49865327.9510083     
  -49865701.8608302     
  -49866139.6530317     
  -49866640.5308678     
  -49867203.6592133     
  -49867828.1685676     
  -49868513.1590127     
  -49869257.7041159     
  -49870060.8547677     
  -49870921.6429486     
  -49871839.0854149     
  -49872812.1872976     
  -49873839.9456065     
  -49874921.3526325     
  -49876055.3992425     
  -49877241.0780588     
  -49878477.3865195     
  -49879763.3298113     
  -49881097.9236721     
  -49882480.1970556     
  -49883909.1946549     
  -49885383.9792793     
  -49886903.6340799     
  -49888467.2646200     
  -49890074.0007861     
  -49891722.9985361     
  -49893413.4414797     
  -49895144.5422896     
  -49896915.5439388     
  -49898725.7207612     
  -49900574.3793341     
  -49902460.8591778     
  -49904384.5332723     
  -49906344.8083871     
  -49908341.1252241     
  -49910372.9583699     
  -49912439.8160585     
  -49914541.2397413     
  -49916676.8034649     
  -49918846.1130552     
  -49921048.8051086     
  -49923284.5457899     
  -49849232.8938861     
  -49849056.9244252     
  -49848960.8145932     
  -49848943.9172314     
  -49849005.5017013     
  -49849144.7593084     
  -49849360.8087443     
  -49849652.7015321     
  -49850019.4274627     
  -49850459.9200082     
  -49850973.0617017     
  -49851557.6894699     
  -49852212.5999098     
  -49852936.5544967     
  -49853728.2847148     
  -49854586.4970995     
  -49855509.8781838     
  -49856497.0993377     
  -49857546.8214951     
  -49858657.6997572     
  -49859828.3878666     
  -49861057.5425451     
  -49862343.8276862     
  -49863685.9183983     
  -49865082.5048898     
  -49866532.2961922     
  -49868034.0237138     
  -49869586.4446193     
  -49871188.3450300     
  -49872838.5430393     
  -49874535.8915387     
  -49876279.2808497     
  -49878067.6411572     
  -49879899.9447403     
  -49881775.2079964     
  -49883692.4932544     
  -49885650.9103734     
  -49887649.6181243     
  -49889687.8253491     
  -49891764.7918971     
  -49893879.8293327     
  -49896032.3014140     
  -49898221.6243384     
  -49900447.2667528     
  -49902708.7495276     
  -49905005.6452910     
  -49907337.5777228     
  -49909704.2206058     
  -49912105.2966349     
  -49914540.5759812     
  -49831719.8903046     
  -49831542.9205290     
  -49831459.5147479     
  -49831468.5832555     
  -49831568.9396987     
  -49831759.3082664     
  -49832038.3308597     
  -49832404.5742313     
  -49832856.5370753     
  -49833392.6570579     
  -49834011.3177713     
  -49834710.8556020     
  -49835489.5664987     
  -49836345.7126311     
  -49837277.5289260     
  -49838283.2294748     
  -49839361.0137977     
  -49840509.0729606     
  -49841725.5955334     
  -49843008.7733816     
  -49844356.8072855     
  -49845767.9123778     
  -49847240.3233943     
  -49848772.2997298     
  -49850362.1302940     
  -49852008.1381618     
  -49853708.6850104     
  -49855462.1753409     
  -49857267.0604755     
  -49859121.8423284     
  -49861025.0769438     
  -49862975.3777969     
  -49864971.4188526     
  -49867011.9373787     
  -49869095.7365081     
  -49871221.6875456     
  -49873388.7320169     
  -49875595.8834531     
  -49877842.2289094     
  -49880126.9302117     
  -49882449.2249294     
  -49884808.4270690     
  -49887203.9274870     
  -49889635.1940157     
  -49892101.7713015     
  -49894603.2803524     
  -49897139.4177878     
  -49899709.9547950     
  -49902314.7357818     
  -49904953.6767302     
  -49811820.5196484     
  -49811668.6991764     
  -49811626.7432109     
  -49811692.9355941     
  -49811865.4506453     
  -49812142.3625137     
  -49812521.6544577     
  -49813001.2280354     
  -49813578.9121904     
  -49814252.4722177     
  -49815019.6185965     
  -49815878.0156783     
  -49816825.2902162     
  -49817859.0397259     
  -49818976.8406683     
  -49820176.2564435     
  -49821454.8451877     
  -49822810.1673642     
  -49824239.7931424     
  -49825741.3095550     
  -49827312.3274295     
  -49828950.4880860     
  -49830653.4697959     
  -49832418.9939955     
  -49834244.8312503     
  -49836128.8069626     
  -49838068.8068218     
  -49840062.7819864     
  -49842108.7539997     
  -49844204.8194293     
  -49846349.1542301     
  -49848540.0178228     
  -49850775.7568863     
  -49853054.8088580     
  -49855375.7051386     
  -49857737.0739950     
  -49860137.6431598     
  -49862576.2421194     
  -49865051.8040889     
  -49867563.3676681     
  -49870110.0781724     
  -49872691.1886365     
  -49875306.0604835     
  -49877954.1638566     
  -49880635.0776073     
  -49883348.4889354     
  -49886094.1926762     
  -49888872.0902312     
  -49891682.1881358     
  -49894524.5962605     
  -49789108.5926107     
  -49789023.8176819     
  -49789068.1664296     
  -49789239.0565762     
  -49789533.7851853     
  -49789949.5406068     
  -49790483.4142669     
  -49791132.4122837     
  -49791893.4668957     
  -49792763.4476867     
  -49793739.1725978     
  -49794817.4187109     
  -49795994.9327972     
  -49797268.4416178     
  -49798634.6619712     
  -49800090.3104769     
  -49801632.1130914     
  -49803256.8143477     
  -49804961.1863143     
  -49806742.0372686     
  -49808596.2200798     
  -49810520.6402972     
  -49812512.2639410     
  -49814568.1249899     
  -49816685.3325661     
  -49818861.0778085     
  -49821092.6404388     
  -49823377.3950092     
  -49825712.8168356     
  -49828096.4876081     
  -49830526.1006786     
  -49832999.4660202     
  -49835514.5148558     
  -49838069.3039512     
  -49840662.0195699     
  -49843290.9810826     
  -49845954.6442305     
  -49848651.6040329     
  -49851380.5973377     
  -49854140.5050072     
  -49856930.3537333     
  -49859749.3174768     
  -49862596.7185224     
  -49865472.0281450     
  -49868374.8668802     
  -49871305.0043873     
  -49874262.3589044     
  -49877246.9962829     
  -49880259.1285954     
  -49883299.1123099     
  -49763078.1711490     
  -49763124.2033549     
  -49763321.8994651     
  -49763667.5044820     
  -49764157.1355581     
  -49764786.7969625     
  -49765552.3947725     
  -49766449.7512717     
  -49767474.6190429     
  -49768622.6947439     
  -49769889.6325584     
  -49771271.0573108     
  -49772762.5772406     
  -49774359.7964286     
  -49776058.3268720     
  -49777853.8002032     
  -49779741.8790509     
  -49781718.2680398     
  -49783778.7244299     
  -49785919.0683914     
  -49788135.1929180     
  -49790423.0733757     
  -49792778.7766898     
  -49795198.4701674     
  -49797678.4299597     
  -49800215.0491594     
  -49802804.8455381     
  -49805444.4689208     
  -49808130.7081977     
  -49810860.4979734     
  -49813630.9248513     
  -49816439.2333533     
  -49819282.8314701     
  -49822159.2958426     
  -49825066.3765687     
  -49828002.0016327     
  -49830964.2809533     
  -49833951.5100432     
  -49836962.1732766     
  -49839994.9467558     
  -49843048.7007718     
  -49846122.5018492     
  -49849215.6143669     
  -49852327.5017457     
  -49855457.8271945     
  -49858606.4539998     
  -49861773.4453527     
  -49864959.0636992     
  -49868163.7696012     
  -49871388.2200983     
  -49733134.2501694     
  -49733404.5649609     
  -49733852.5896768     
  -49734473.0118538     
  -49735260.3911358     
  -49736209.1776442     
  -49737313.7299027     
  -49738568.3323045     
  -49739967.2121157     
  -49741504.5560083     
  -49743174.5261201     
  -49744971.2756373     
  -49746888.9639023     
  -49748921.7710448     
  -49751063.9121393     
  -49753309.6508942     
  -49755653.3128725     
  -49758089.2982521     
  -49760612.0941304     
  -49763216.2863791     
  -49765896.5710548     
  -49768647.7653727     
  -49771464.8182502     
  -49774342.8204251     
  -49777277.0141571     
  -49780262.8025164     
  -49783295.7582665     
  -49786371.6323447     
  -49789486.3619465     
  -49792636.0782150     
  -49795817.1135411     
  -49799026.0084733     
  -49802259.5182402     
  -49805514.6188846     
  -49808788.5130078     
  -49812078.6351217     
  -49815382.6566050     
  -49818698.4902596     
  -49822024.2944579     
  -49825358.4768776     
  -49828699.6978115     
  -49832046.8730443     
  -49835399.1762844     
  -49838756.0411375     
  -49842117.1626094     
  -49845482.4981210     
  -49848852.2680208     
  -49852226.9555780     
  -49855607.3064369     
  -49858994.3275129     
  -49698585.8005681     
  -49699213.4621166     
  -49700048.4283773     
  -49701083.3565100     
  -49702310.7873687     
  -49703723.1675333     
  -49705312.8706656     
  -49707072.2181895     
  -49708993.4992973     
  -49711068.9902863     
  -49713290.9732306     
  -49715651.7539991     
  -49718143.6796262     
  -49720759.1550492     
  -49723490.6592241     
  -49726330.7606340     
  -49729272.1322040     
  -49732307.5656396     
  -49735429.9852031     
  -49738632.4609448     
  -49741908.2214061     
  -49745250.6658102     
  -49748653.3757562     
  -49752110.1264345     
  -49755614.8973761     
  -49759161.8827530     
  -49762745.5012417     
  -49766360.4054633     
  -49770001.4910126     
  -49773663.9050853     
  -49777343.0547131     
  -49781034.6146135     
  -49784734.5346620     
  -49788439.0469873     
  -49792144.6726951     
  -49795848.2282192     
  -49799546.8312976     
  -49803237.9065708     
  -49806919.1907960     
  -49810588.7376685     
  -49814244.9222404     
  -49817886.4449241     
  -49821512.3350657     
  -49825121.9540709     
  -49828714.9980652     
  -49832291.5000664     
  -49835851.8316470     
  -49839396.7040616     
  -49842927.1688110     
  -49846444.6176168     
  -49658643.3624051     
  -49659813.1937446     
  -49661223.2166600     
  -49662863.4899156     
  -49664723.9852296     
  -49666794.6129940     
  -49669065.2470223     
  -49671525.7483399     
  -49674165.9880318     
  -49676975.8691693     
  -49679945.3478345     
  -49683064.4532679     
  -49686323.3071642     
  -49689712.1421424     
  -49693221.3194190     
  -49696841.3457134     
  -49700562.8894152     
  -49704376.7960452     
  -49708274.1030394     
  -49712246.0538881     
  -49716284.1116620     
  -49720379.9719544     
  -49724525.5752721     
  -49728713.1189016     
  -49732935.0682831     
  -49737184.1679166     
  -49741453.4518287     
  -49745736.2536226     
  -49750026.2161372     
  -49754317.3007333     
  -49758603.7962272     
  -49762880.3274889     
  -49767141.8637166     
  -49771383.7264013     
  -49775601.5969876     
  -49779791.5242381     
  -49783949.9313013     
  -49788073.6224847     
  -49792159.7897250     
  -49796206.0187517     
  -49800210.2949290     
  -49804171.0087627     
  -49808086.9610539     
  -49811957.3676760     
  -49815781.8639509     
  -49819560.5085936     
  -49823293.7871946     
  -49826982.6152031     
  -49830628.3403718     
  -49834232.7446244     
  -49612424.2694136     
  -49614387.5114225     
  -49616626.4086169     
  -49619127.7570122     
  -49621878.3203441     
  -49624864.8591412     
  -49628074.1584584     
  -49631493.0542986     
  -49635108.4587666     
  -49638907.3839917     
  -49642876.9648626     
  -49647004.4806191     
  -49651277.3753466     
  -49655683.2774210     
  -49660210.0179526     
  -49664845.6482792     
  -49669578.4565586     
  -49674396.9835118     
  -49679290.0373676     
  -49684246.7080617     
  -49689256.3807392     
  -49694308.7486135     
  -49699393.8252305     
  -49704501.9561876     
  -49709623.8303559     
  -49714750.4906512     
  -49719873.3443990     
  -49724984.1733366     
  -49730075.1432911     
  -49735138.8135712     
  -49740168.1461082     
  -49745156.5143752     
  -49750097.7121134     
  -49754985.9618884     
  -49759815.9234947     
  -49764582.7022252     
  -49769281.8570127     
  -49773909.4084510     
  -49778461.8466935     
  -49782936.1392244     
  -49787329.7384914     
  -49791640.5893830     
  -49795867.1365285     
  -49800008.3313921     
  -49804063.6391277     
  -49808033.0451554     
  -49811917.0614152     
  -49815716.7322447     
  -49819433.6398333     
  -49823069.9091802     
  -49558969.6641682     
  -49562061.1751496     
  -49565465.0021684     
  -49569163.9255835     
  -49573140.7834597     
  -49577378.5031563     
  -49581860.1311195     
  -49586568.8609632     
  -49591488.0598848     
  -49596601.2934948     
  -49601892.3491206     
  -49607345.2576595     
  -49612944.3140481     
  -49618674.0964240     
  -49624519.4840517     
  -49630465.6740883     
  -49636498.1972647     
  -49642602.9325593     
  -49648766.1209403     
  -49654974.3782561     
  -49661214.7073495     
  -49667474.5094752     
  -49673741.5950969     
  -49680004.1941402     
  -49686250.9657781     
  -49692471.0078216     
  -49698653.8657883     
  -49704789.5417172     
  -49710868.5027984     
  -49716881.6898786     
  -49722820.5259022     
  -49728676.9243445     
  -49734443.2976827     
  -49740112.5659527     
  -49745678.1654277     
  -49751134.0574499     
  -49756474.7374412     
  -49761695.2441077     
  -49766791.1688501     
  -49771758.6653781     
  -49776594.4595245     
  -49781295.8592392     
  -49785860.7647429     
  -49790287.6788026     
  -49794575.7170886     
  -49798724.6185604     
  -49802734.7558190     
  -49806607.1453648     
  -49810343.4576642     
  -49813946.0269675     
  -49497278.6693162     
  -49501936.4929525     
  -49506942.1942639     
  -49512273.7166990     
  -49517909.1980195     
  -49523827.0028922     
  -49530005.7532536     
  -49536424.3564570     
  -49543062.0313467     
  -49549898.3323347     
  -49556913.1715701     
  -49564086.8393053     
  -49571400.0225472     
  -49578833.8221006     
  -49586369.7680939     
  -49593989.8340955     
  -49601676.4499219     
  -49609412.5132432     
  -49617181.4000955     
  -49624966.9744079     
  -49632753.5966574     
  -49640526.1317643     
  -49648269.9563433     
  -49655970.9654239     
  -49663615.5787575     
  -49671190.7468238     
  -49678683.9566521     
  -49686083.2375679     
  -49693377.1669729     
  -49700554.8762650     
  -49707606.0569964     
  -49714520.9673652     
  -49721290.4391278     
  -49727905.8850123     
  -49734359.3067036     
  -49740643.3034635     
  -49746751.0814360     
  -49752676.4636792     
  -49758413.9009526     
  -49763958.4832753     
  -49769305.9522611     
  -49774452.7142151     
  -49779395.8539764     
  -49784133.1494595     
  -49788663.0868493     
  -49792984.8763824     
  -49797098.4686354     
  -49801004.5712056     
  -49804704.6657365     
  -49808201.0250619     
  -49426366.2608465     
  -49433153.0847251     
  -49440318.7444556     
  -49447835.4916815     
  -49455675.9677711     
  -49463813.2355039     
  -49472220.8078176     
  -49480872.6740303     
  -49489743.3234591     
  -49498807.7666088     
  -49508041.5540381     
  -49517420.7930021     
  -49526922.1619819     
  -49536522.9232184     
  -49546200.9333635     
  -49555934.6523768     
  -49565703.1507917     
  -49575486.1154880     
  -49585263.8541121     
  -49595017.2982910     
  -49604728.0057992     
  -49614378.1618348     
  -49623950.5795759     
  -49633428.7001876     
  -49642796.5924560     
  -49652038.9522279     
  -49661141.1018385     
  -49670088.9897047     
  -49678869.1902641     
  -49687468.9044353     
  -49695875.9607684     
  -49704078.8174480     
  -49712066.5653046     
  -49719828.9319748     
  -49727356.2873431     
  -49734639.6503810     
  -49741670.6974852     
  -49748441.7723990     
  -49754945.8977831     
  -49761176.7884832     
  -49767128.8665210     
  -49772797.2778135     
  -49778177.9106087     
  -49783267.4155968     
  -49788063.2276419     
  -49792563.5890387     
  -49796767.5741983     
  -49800675.1157009     
  -49804287.0313433     
  -49807605.0524159     
  -49345352.2299489     
  -49354977.9171491     
  -49365003.7806462     
  -49375395.5373304     
  -49386119.5600216     
  -49397142.9054872     
  -49408433.3399695     
  -49419959.3611566     
  -49431690.2173353     
  -49443595.9236144     
  -49455647.2752786     
  -49467815.8583785     
  -49480074.0576545     
  -49492395.0618876     
  -49504752.8667830     
  -49517122.2755119     
  -49529478.8970506     
  -49541799.1424766     
  -49554060.2193944     
  -49566240.1246878     
  -49578317.6358106     
  -49590272.3008463     
  -49602084.4275872     
  -49613735.0718950     
  -49625206.0256201     
  -49636479.8043663     
  -49647539.6353979     
  -49658369.4459867     
  -49668953.8525006     
  -49679278.1505335     
  -49689328.3063672     
  -49699090.9500512     
  -49708553.3703698     
  -49717703.5119496     
  -49726529.9747489     
  -49735022.0161346     
  -49743169.5557412     
  -49750963.1832725     
  -49758394.1693790     
  -49765454.4797129     
  -49772136.7922358     
  -49778434.5178128     
  -49784341.8240983     
  -49789853.6626785     
  -49794965.7994143     
  -49799674.8479119     
  -49803978.3059470     
  -49807874.5945017     
  -49811363.0999653     
  -49814444.2177763     
  -49253588.5600938     
  -49266932.7241284     
  -49280682.0003089     
  -49294794.7806977     
  -49309230.4573478     
  -49323949.4481342     
  -49338913.2165632     
  -49354084.2897933     
  -49369426.2725816     
  -49384903.8576234     
  -49400482.8323745     
  -49416130.0822438     
  -49431813.5901118     
  -49447502.4321965     
  -49463166.7703208     
  -49478777.8406629     
  -49494307.9391149     
  -49509730.4034118     
  -49525019.5922482     
  -49540150.8616401     
  -49555100.5388406     
  -49569845.8941574     
  -49584365.1110637     
  -49598637.2550284     
  -49612642.2415250     
  -49626360.8037024     
  -49639774.4602228     
  -49652865.4837828     
  -49665616.8708424     
  -49678012.3130812     
  -49690036.1710988     
  -49701673.4508573     
  -49712909.7833429     
  -49723731.4078982     
  -49734125.1596451     
  -49744078.4613748     
  -49753579.3202459     
  -49762616.3295858     
  -49771178.6760361     
  -49779256.1522380     
  -49786839.1751989     
  -49793918.8104336     
  -49800486.8019232     
  -49806535.6078813     
  -49812058.4422211     
  -49817049.3215500     
  -49821503.1176871     
  -49825415.6159234     
  -49828783.5762596     
  -49831604.8027174     
  -49150830.7030216     
  -49168964.6237409     
  -49187483.4873881     
  -49206337.6065674     
  -49225478.7247822     
  -49244860.0351998     
  -49264436.2057830     
  -49284163.3946960     
  -49303999.2629783     
  -49323902.9828262     
  -49343835.2404950     
  -49363758.2336385     
  -49383635.6629365     
  -49403432.7178016     
  -49423116.0560204     
  -49442653.7772829     
  -49462015.3906836     
  -49481171.7763761     
  -49500095.1416731     
  -49518758.9719830     
  -49537137.9770742     
  -49555208.0332536     
  -49572946.1221285     
  -49590330.2667004     
  -49607339.4656008     
  -49623953.6263286     
  -49640153.4983887     
  -49655920.6072522     
  -49671237.1900712     
  -49686086.1340727     
  -49700450.9185453     
  -49714315.5612960     
  -49727664.5704200     
  -49740482.9021689     
  -49752755.9256453     
  -49764469.3949821     
  -49775609.4295869     
  -49786162.5029576     
  -49796115.4404868     
  -49805455.4265924     
  -49814170.0214183     
  -49822247.1872463     
  -49829675.3246717     
  -49836443.3185488     
  -49842540.5937382     
  -49847957.1805724     
  -49852683.7891128     
  -49856711.8910094     
  -49860033.8165653     
  -49862642.8471098     
  -49037453.4146420     
  -49061662.4245991     
  -49086200.5312169     
  -49111009.0792944     
  -49136031.3385927     
  -49161212.5673972     
  -49186500.0353165     
  -49211843.0607603     
  -49237193.0379169     
  -49262503.4543013     
  -49287729.9000436     
  -49312830.0677817     
  -49337763.7419047     
  -49362492.7764208     
  -49386981.0611169     
  -49411194.4758934     
  -49435100.8333558     
  -49458669.8099505     
  -49481872.8661568     
  -49504683.1564721     
  -49527075.4301272     
  -49549025.9236469     
  -49570512.2465319     
  -49591513.2614572     
  -49612008.9604930     
  -49631980.3389264     
  -49651409.2683148     
  -49670278.3704276     
  -49688570.8937322     
  -49706270.5940601     
  -49723361.6210430     
  -49739828.4118444     
  -49755655.5936320     
  -49770827.8961354     
  -49785330.0755231     
  -49799146.8507043     
  -49812262.8530265     
  -49824662.5901882     
  -49836330.4250381     
  -49847250.5697831     
  -49857407.0959975     
  -49866783.9607077     
  -49875365.0486636     
  -49883134.2306014     
  -49890075.4369454     
  -49896172.7467563     
  -49901410.4938539     
  -49905773.3905744     
  -49909246.6438607     
  -49911816.1319125     
  -48914702.8763239     
  -48946515.7329077     
  -48978553.9092918     
  -49010748.0982722     
  -49043031.5848598     
  -49075340.2670415     
  -49107612.8069459     
  -49139790.7065043     
  -49171818.3782232     
  -49203643.2069060     
  -49235215.5920814     
  -49266488.9681608     
  -49297419.8018773     
  -49327967.5664941     
  -49358094.6921790     
  -49387766.4923062     
  -49416951.0660290     
  -49445619.1780285     
  -49473744.1168133     
  -49501301.5333254     
  -49528269.2619187     
  -49554627.1260381     
  -49580356.7311295     
  -49605441.2474786     
  -49629865.1857759     
  -49653614.1682779     
  -49676674.6984462     
  -49699033.9319351     
  -49720679.4517459     
  -49741599.0502846     
  -49761780.5209636     
  -49781211.4618496     
  -49799879.0937222     
  -49817770.0947326     
  -49834870.4536707     
  -49851165.3436494     
  -49866639.0178029     
  -49881274.7283670     
  -49895054.6702597     
  -49907959.9499783     
  -49919970.5803064     
  -49931065.5010335     
  -49941222.6258252     
  -49950418.9156508     
  -49958630.4791568     
  -49965832.6978511     
  -49972000.3682518     
  -49977107.8631811     
  -49981129.3842301     
  -49984039.0646397     
  -48784963.8214322     
  -48826208.9500124     
  -48867513.0965724     
  -48908792.5104755     
  -48949966.6347953     
  -48990958.7048506     
  -49031695.8266108     
  -49072109.2365940     
  -49112134.5197638     
  -49151711.7631371     
  -49190785.6626973     
  -49229305.5869558     
  -49267225.5930405     
  -49304504.3921976     
  -49341105.2644646     
  -49376995.9242713     
  -49412148.3397938     
  -49446538.5094903     
  -49480146.1997266     
  -49512954.6478212     
  -49544950.2351750     
  -49576122.1353926     
  -49606461.9424018     
  -49635963.2835941     
  -49664621.4229180     
  -49692432.8587215     
  -49719394.9209646     
  -49745505.3722260     
  -49770762.0167354     
  -49795162.3214638     
  -49818703.0531207     
  -49841379.9347200     
  -49863187.3252024     
  -49884117.9254035     
  -49904162.5134540     
  -49923309.7124591     
  -49941545.7930407     
  -49958854.5130554     
  -49975216.9965357     
  -49990611.6536595     
  -50005014.1432223     
  -50018397.3784290     
  -50030731.5754952     
  -50041984.3429287     
  -50052120.8100343     
  -50061103.8010941     
  -50068894.0714777     
  -50075450.5749532     
  -50080730.5568119     
  -50084690.2865941     
  -48652008.3133673     
  -48704945.5985114     
  -48757692.1533900     
  -48810139.5794131     
  -48862185.1825488     
  -48913731.4308952     
  -48964687.1437955     
  -49014967.9674027     
  -49064496.7157793     
  -49113203.6821238     
  -49161026.8635013     
  -49207912.0673579     
  -49253812.9000466     
  -49298690.6476739     
  -49342514.0593918     
  -49385259.0418916     
  -49426908.2737838     
  -49467450.7492892     
  -49506881.2614134     
  -49545199.8350880     
  -49582411.1205751     
  -49618523.7568925     
  -49653549.7142437     
  -49687503.6235957     
  -49720402.1006887     
  -49752263.0709738     
  -49783105.1012558     
  -49812946.7432199     
  -49841805.8935322     
  -49869699.1748491     
  -49896641.3418364     
  -49922644.7161926     
  -49947718.6546778     
  -49971869.0542441     
  -49995097.8985123     
  -50017402.8499873     
  -50038776.8924508     
  -50059208.0278563     
  -50078679.0316968     
  -50097167.2703713     
  -50114644.5838888     
  -50131077.2378994     
  -50146425.9505191     
  -50160645.9990541     
  -50173687.4020674     
  -50185495.1469370     
  -50196009.4268824     
  -50205166.0233190     
  -50212897.3438704     
  -50219131.3978460     
  -48521197.1994865     
  -48588830.9526699     
  -48655892.1136942     
  -48722228.4855378     
  -48787694.2555846     
  -48852155.8903184     
  -48915491.4687629     
  -48977591.5364901     
  -49038360.0304140     
  -49097714.7658382     
  -49155587.5645943     
  -49211924.1401387     
  -49266683.7892405     
  -49319838.9068657     
  -49371374.3387238     
  -49421286.5930392     
  -49469582.9382399     
  -49516280.4141661     
  -49561404.7823216     
  -49604989.4372771     
  -49647074.2976276     
  -49687704.6914405     
  -49726930.2480057     
  -49764803.8049636     
  -49801380.3375060     
  -49836715.9143278     
  -49870866.6833515     
  -49903887.8889945     
  -49935832.9218866     
  -49966752.4015056     
  -49996693.2921373     
  -50025698.0528876     
  -50053803.8231247     
  -50081041.6457142     
  -50107435.7316799     
  -50133002.7715133     
  -50157751.3001815     
  -50181681.1248307     
  -50204782.8258016     
  -50227037.3421187     
  -50248415.6510218     
  -50268878.5470704     
  -50288376.5227129     
  -50306849.7586088     
  -50324228.2633421     
  -50340432.2488344     
  -50355372.7551946     
  -50368951.9858150     
  -50381062.2217038     
  -50391592.0491316     
  -48399671.6333764     
  -48486422.4365977     
  -48571954.8861255     
  -48656021.9311773     
  -48738408.9177767     
  -48818919.6231062     
  -48897383.3106834     
  -48973656.6945915     
  -49047623.6845578     
  -49119194.8069822     
  -49188306.4927422     
  -49254920.0630278     
  -49319020.3505543     
  -49380614.0104739     
  -49439727.6180022     
  -49496405.6448873     
  -49550708.3864502     
  -49602709.8910814     
  -49652495.9291935     
  -49700162.0280657     
  -49745811.5910946     
  -49789554.1133844     
  -49831503.4997394     
  -49871776.4858059     
  -49910491.1584494     
  -49947765.5675669     
  -49983716.4185928     
  -50018457.8329890     
  -50052100.1630603     
  -50084748.8474659     
  -50116503.2947068     
  -50147455.7835837     
  -50177690.3719652     
  -50207281.8080509     
  -50236294.4414992     
  -50264781.1352761     
  -50292782.1830052     
  -50320324.2414739     
  -50347419.2946529     
  -50374063.6750671     
  -50400237.1803120     
  -50425902.3323443     
  -50451003.8216919     
  -50475468.1354838     
  -50499203.2786557     
  -50522098.4594353     
  -50544024.0200235     
  -50564833.3584698     
  -50584368.5918326     
  -50602442.7772474     
  -48296756.0164430     
  -48409688.1277295     
  -48520066.0375662     
  -48627530.1463847     
  -48731734.7075495     
  -48832407.4244012     
  -48929335.5965576     
  -49022359.7419346     
  -49111372.0579623     
  -49196314.4630854     
  -49277175.0970307     
  -49353983.8067274     
  -49426807.2665444     
  -49495744.1224147     
  -49560920.3351574     
  -49622484.7916022     
  -49680605.2145661     
  -49735464.3934049     
  -49787256.7530823     
  -49836185.2732254     
  -49882458.7587068     
  -49926289.4516788     
  -49967890.9636897     
  -50007476.4968506     
  -50045257.3156523     
  -50081441.4260132     
  -50116232.4153044     
  -50149828.4061067     
  -50182421.0770239     
  -50214194.7057900     
  -50245325.1930264     
  -50275979.0293138     
  -50306312.1737119     
  -50336468.8184227     
  -50366580.0216743     
  -50396762.1985213     
  -50427115.4661132     
  -50457721.8448736     
  -50488643.3192528     
  -50519919.7629857     
  -50551566.7416191     
  -50583573.2370813     
  -50615899.4227752     
  -50648474.7684161     
  -50681196.8898764     
  -50713931.3003590     
  -50746510.6810554     
  -50778729.1633286     
  -50810331.9800294     
  -50841081.2041426     
  -48225205.0149437     
  -48375392.5135990     
  -48520064.7479777     
  -48658591.0655793     
  -48790624.1184656     
  -48915894.7998060     
  -49034231.8379151     
  -49145570.9797995     
  -49249944.8840585     
  -49347467.3416190     
  -49438318.4459649     
  -49522732.0502223     
  -49600985.0846167     
  -49673388.1656014     
  -49740277.1937009     
  -49802005.8629718     
  -49858939.1074655     
  -49911447.5218293     
  -49959902.7613829     
  -50004673.8844499     
  -50046124.5631079     
  -50084611.0636067     
  -50120480.8844433     
  -50154071.9359781     
  -50185712.1475194     
  -50215719.3932875     
  -50244401.6355292     
  -50272057.1898649     
  -50298975.0239039     
  -50325435.0049047     
  -50351708.0159353     
  -50378055.8631007     
  -50404730.8998902     
  -50431975.2998846     
  -50460019.9175388     
  -50489082.6901622     
  -50519366.5534563     
  -50551056.8669283     
  -50584318.3686732     
  -50619291.6883883     
  -50656089.4201950     
  -50694791.6646142     
  -50735440.7852645     
  -50778034.9889525     
  -50822520.6180551     
  -50868784.6804737     
  -50916653.3252964     
  -50965905.8958861     
  -51016288.3358795     
  -51067300.8196724     
  -48204076.7222952     
  -48405933.3805780     
  -48595160.1022431     
  -48771776.4947571     
  -48935504.9260750     
  -49086381.9680771     
  -49224694.0127908     
  -49350878.8341557     
  -49465471.7259736     
  -49569078.4594557     
  -49662357.3906934     
  -49746003.3485996     
  -49820731.9024172     
  -49887264.6956994     
  -49946316.7622658     
  -49998586.3689494     
  -50044747.5106890     
  -50085444.8874034     
  -50121291.0332759     
  -50152865.2130094     
  -50180713.7068406     
  -50205351.1460694     
  -50227262.6133769     
  -50246906.2754499     
  -50264716.3631684     
  -50281106.3540791     
  -50296472.2421996     
  -50311195.8014673     
  -50325647.7618098     
  -50340190.8214084     
  -50355182.4157499     
  -50370977.1540373     
  -50387928.8171854     
  -50406391.7903163     
  -50426721.7789908     
  -50449275.6372079     
  -50474410.1249056     
  -50502479.4267655     
  -50533831.3217571     
  -50568802.0163175     
  -50607709.8562798     
  -50650848.3819407     
  -50698479.3282291     
  -50750825.7548181     
  -50808063.5891536     
  -50870305.1885683     
  -50937561.7293307     
  -51009676.7515596     
  -51086317.3751562     
  -51167607.4327075     
  -48263624.2311098     
  -48523472.8175549     
  -48758453.8365554     
  -48967960.0830185     
  -49153568.7650467     
  -49316970.7144272     
  -49459757.1073972     
  -49583496.8169907     
  -49689782.0399654     
  -49780220.9154793     
  -49856405.0510418     
  -49919873.7586220     
  -49972085.3106483     
  -50014398.0868847     
  -50048060.9211111     
  -50074210.7016618     
  -50093875.1421479     
  -50107978.9425806     
  -50117351.9770259     
  -50122738.5328124     
  -50124806.9425209     
  -50124159.1889299     
  -50121340.2354918     
  -50116846.9551078     
  -50111136.6112431     
  -50104634.8984787     
  -50097743.5824023     
  -50090847.7968326     
  -50084323.0632613     
  -50078542.0948624     
  -50073881.4357291     
  -50070727.9639819     
  -50069485.2523533     
  -50070579.7275430     
  -50074466.4941703     
  -50081634.5834368     
  -50092611.2437082     
  -50107964.7071846     
  -50128304.6534729     
  -50154279.3887585     
  -50186568.6788789     
  -50225871.4621153     
  -50272888.8045438     
  -50328305.2459759     
  -50392777.0126471     
  -50466942.7824363     
  -50551472.4998241     
  -50647118.5551876     
  -50754466.6314195     
  -50872031.8385639     
  -48446682.0594351     
  -48734792.7436970     
  -48973172.3338347     
  -49171778.4626947     
  -49334537.3659864     
  -49464692.2157517     
  -49565781.7914638     
  -49641526.4331193     
  -49695566.9687774     
  -49731278.8460937     
  -49751679.3896301     
  -49759401.4040157     
  -49756705.6399225     
  -49745512.7661867     
  -49727443.0157889     
  -49703856.9009576     
  -49675893.6377368     
  -49644505.8083465     
  -49610489.8324020     
  -49574512.3610438     
  -49537132.9662857     
  -49498823.5997294     
  -49459985.3146164     
  -49420962.7253460     
  -49382056.6426205     
  -49343535.2830825     
  -49305644.4163636     
  -49268616.7831647     
  -49232681.0966967     
  -49198070.9267993     
  -49165033.7607796     
  -49133840.5360523     
  -49104795.9443117     
  -49078249.8102106     
  -49054609.8402938     
  -49034356.0039766     
  -49018056.7189052     
  -49006386.8179390     
  -49000146.8886336     
  -49000282.8564958     
  -49007903.4067635     
  -49024290.6881906     
  -49050896.3735694     
  -49089310.5812840     
  -49141187.1885529     
  -49208113.9391528     
  -49291458.6366000     
  -49392397.3782364     
  -49512925.6493067     
  -49660536.5929932     
  -48798574.0691654     
  -48974111.1164832     
  -49104138.7046454     
  -49179375.7820574     
  -49206443.1316898     
  -49195405.0592203     
  -49155716.4641737     
  -49095169.5704526     
  -49019854.5880260     
  -48934414.2435426     
  -48842341.5329862     
  -48746242.6226246     
  -48648048.3193718     
  -48549177.6935335     
  -48450662.5832071     
  -48353241.7404183     
  -48257431.9502880     
  -48163581.8498497     
  -48071912.7876358     
  -47982549.9743157     
  -47895546.3500443     
  -47810900.9827678     
  -47728573.3626999     
  -47648494.6303398     
  -47570576.5375001     
  -47494718.7701307     
  -47420815.1421502     
  -47348759.0900334     
  -47278448.8515299     
  -47209792.6948099     
  -47142714.5756315     
  -47077160.6416336     
  -47013107.0794994     
  -46950569.9209720     
  -46889617.6004299     
  -46830387.3082604     
  -46773106.5349512     
  -46718121.6801003     
  -46665936.2364733     
  -46617261.8569762     
  -46573086.4923750     
  -46534764.4193201     
  -46504132.3436864     
  -46483651.0199550     
  -46476555.3299409     
  -46486947.2344826     
  -46519631.6637568     
  -46579131.6690458     
  -46666338.8952001     
  -46768602.5142924     
  -49325395.3013980     
  -49176990.3097075     
  -48906722.0252625     
  -48587332.4163096     
  -48254077.5039132     
  -47924336.3232120     
  -47606596.1987536     
  -47304759.3457217     
  -47020299.2431981     
  -46753384.7537417     
  -46503486.9399925     
  -46269715.8779597     
  -46051011.2323211     
  -45846251.0292621     
  -45654313.4252397     
  -45474110.8940994     
  -45304607.9891051     
  -45144829.2455744     
  -44993861.1641856     
  -44850850.6741098     
  -44715001.5503865     
  -44585569.6944933     
  -44461857.8359417     
  -44343209.9922061     
  -44229005.8848421     
  -44118655.4215022     
  -44011593.2986267     
  -43907273.7469199     
  -43805165.4249633     
  -43704746.4622734     
  -43605499.6611777     
  -43506907.8889332     
  -43408449.7325883     
  -43309595.5586936     
  -43209804.2349106     
  -43108520.9600091     
  -43005176.9636480     
  -42899192.3684108     
  -42789984.4188037     
  -42676984.8834432     
  -42559673.3195314     
  -42437638.2264190     
  -42310688.3103461     
  -42179056.2243219     
  -42043778.3901033     
  -41907422.1510982     
  -41775524.8535761     
  -41659552.0078472     
  -41583231.0232330     
  -41596688.5860785     
  -49812044.7755383     
  -48408490.1941249     
  -47264664.2384170     
  -46309683.4750710     
  -45498041.0674549     
  -44798720.2111494     
  -44189546.8968905     
  -43654064.9522599     
  -43179698.3662565     
  -42756609.9702714     
  -42376958.2829270     
  -42034393.8604265     
  -41723706.3364675     
  -41440570.0340434     
  -41181356.2362653     
  -40942991.8237170     
  -40722850.9408211     
  -40518670.6676766     
  -40328484.4355440     
  -40150568.7416166     
  -39983399.9436649     
  -39825618.7575969     
  -39676000.6700475     
  -39533430.8951372     
  -39396882.8018270     
  -39265398.9500426     
  -39138074.0224007     
  -39014039.0385871     
  -38892446.3003231     
  -38772454.5413665     
  -38653213.7505440     
  -38533849.0943540     
  -38413443.2832482     
  -38291016.5911657     
  -38165503.5327604     
  -38035724.8971854     
  -37900353.3832283     
  -37757870.3996393     
  -37606510.5558806     
  -37444188.7482603     
  -37268402.1485290     
  -37076095.1021751     
  -36863467.5665576     
  -36625694.5490044     
  -36356499.4582495     
  -36047476.3994208     
  -35686958.5597061     
  -35258020.1746157     
  -34734729.7759871     
  -34074674.2825694     
SCALARS 2waySource double 
LOOKUP_TABLE default
  0.000000000000000E+000
  0.000000000000000E+000
  0.000000000000000E+000
  0.000000000000000E+000
  0.000000000000000E+000
  0.000000000000000E+000
  0.000000000000000E+000
  0.000000000000000E+000
  0.000000000000000E+000
  0.000000000000000E+000
  0.000000000000000E+000
  0.000000000000000E+000
  0.000000000000000E+000
  0.000000000000000E+000
  0.000000000000000E+000
  0.000000000000000E+000
  0.000000000000000E+000
  0.000000000000000E+000
  0.000000000000000E+000
  0.000000000000000E+000
  0.000000000000000E+000
  0.000000000000000E+000
  0.000000000000000E+000
  0.000000000000000E+000
  0.000000000000000E+000
  0.000000000000000E+000
  0.000000000000000E+000
  0.000000000000000E+000
  0.000000000000000E+000
  0.000000000000000E+000
  0.000000000000000E+000
  0.000000000000000E+000
  0.000000000000000E+000
  0.000000000000000E+000
  0.000000000000000E+000
  0.000000000000000E+000
  0.000000000000000E+000
  0.000000000000000E+000
  0.000000000000000E+000
  0.000000000000000E+000
  0.000000000000000E+000
  0.000000000000000E+000
  0.000000000000000E+000
  0.000000000000000E+000
  0.000000000000000E+000
  0.000000000000000E+000
  0.000000000000000E+000
  0.000000000000000E+000
  0.000000000000000E+000
  0.000000000000000E+000
  0.000000000000000E+000
  0.000000000000000E+000
  0.000000000000000E+000
  0.000000000000000E+000
  0.000000000000000E+000
  0.000000000000000E+000
  0.000000000000000E+000
  0.000000000000000E+000
  0.000000000000000E+000
  0.000000000000000E+000
  0.000000000000000E+000
  0.000000000000000E+000
  0.000000000000000E+000
  0.000000000000000E+000
  0.000000000000000E+000
  0.000000000000000E+000
  0.000000000000000E+000
  0.000000000000000E+000
  0.000000000000000E+000
  0.000000000000000E+000
  0.000000000000000E+000
  0.000000000000000E+000
  0.000000000000000E+000
  0.000000000000000E+000
  0.000000000000000E+000
  0.000000000000000E+000
  0.000000000000000E+000
  0.000000000000000E+000
  0.000000000000000E+000
  0.000000000000000E+000
  0.000000000000000E+000
  0.000000000000000E+000
  0.000000000000000E+000
  0.000000000000000E+000
  0.000000000000000E+000
  0.000000000000000E+000
  0.000000000000000E+000
  0.000000000000000E+000
  0.000000000000000E+000
  0.000000000000000E+000
  0.000000000000000E+000
  0.000000000000000E+000
  0.000000000000000E+000
  0.000000000000000E+000
  0.000000000000000E+000
  0.000000000000000E+000
  0.000000000000000E+000
  0.000000000000000E+000
  0.000000000000000E+000
  0.000000000000000E+000
  0.000000000000000E+000
  0.000000000000000E+000
  0.000000000000000E+000
  0.000000000000000E+000
  0.000000000000000E+000
  0.000000000000000E+000
  0.000000000000000E+000
  0.000000000000000E+000
  0.000000000000000E+000
  0.000000000000000E+000
  0.000000000000000E+000
  0.000000000000000E+000
  0.000000000000000E+000
  0.000000000000000E+000
  0.000000000000000E+000
  0.000000000000000E+000
  0.000000000000000E+000
  0.000000000000000E+000
  0.000000000000000E+000
  0.000000000000000E+000
  0.000000000000000E+000
  0.000000000000000E+000
  0.000000000000000E+000
  0.000000000000000E+000
  0.000000000000000E+000
  0.000000000000000E+000
  0.000000000000000E+000
  0.000000000000000E+000
  0.000000000000000E+000
  0.000000000000000E+000
  0.000000000000000E+000
  0.000000000000000E+000
  0.000000000000000E+000
  0.000000000000000E+000
  0.000000000000000E+000
  0.000000000000000E+000
  0.000000000000000E+000
  0.000000000000000E+000
  0.000000000000000E+000
  0.000000000000000E+000
  0.000000000000000E+000
  0.000000000000000E+000
  0.000000000000000E+000
  0.000000000000000E+000
  0.000000000000000E+000
  0.000000000000000E+000
  0.000000000000000E+000
  0.000000000000000E+000
  0.000000000000000E+000
  0.000000000000000E+000
  0.000000000000000E+000
  0.000000000000000E+000
  0.000000000000000E+000
  0.000000000000000E+000
  0.000000000000000E+000
  0.000000000000000E+000
  0.000000000000000E+000
  0.000000000000000E+000
  0.000000000000000E+000
  0.000000000000000E+000
  0.000000000000000E+000
  0.000000000000000E+000
  0.000000000000000E+000
  0.000000000000000E+000
  0.000000000000000E+000
  0.000000000000000E+000
  0.000000000000000E+000
  0.000000000000000E+000
  0.000000000000000E+000
  0.000000000000000E+000
  0.000000000000000E+000
  0.000000000000000E+000
  0.000000000000000E+000
  0.000000000000000E+000
  0.000000000000000E+000
  0.000000000000000E+000
  0.000000000000000E+000
  0.000000000000000E+000
  0.000000000000000E+000
  0.000000000000000E+000
  0.000000000000000E+000
  0.000000000000000E+000
  0.000000000000000E+000
  0.000000000000000E+000
  0.000000000000000E+000
  0.000000000000000E+000
  0.000000000000000E+000
  0.000000000000000E+000
  0.000000000000000E+000
  0.000000000000000E+000
  0.000000000000000E+000
  0.000000000000000E+000
  0.000000000000000E+000
  0.000000000000000E+000
  0.000000000000000E+000
  0.000000000000000E+000
  0.000000000000000E+000
  0.000000000000000E+000
  0.000000000000000E+000
  0.000000000000000E+000
  0.000000000000000E+000
  0.000000000000000E+000
  0.000000000000000E+000
  0.000000000000000E+000
  0.000000000000000E+000
  0.000000000000000E+000
  0.000000000000000E+000
  0.000000000000000E+000
  0.000000000000000E+000
  0.000000000000000E+000
  0.000000000000000E+000
  0.000000000000000E+000
  0.000000000000000E+000
  0.000000000000000E+000
  0.000000000000000E+000
  0.000000000000000E+000
  0.000000000000000E+000
  0.000000000000000E+000
  0.000000000000000E+000
  0.000000000000000E+000
  0.000000000000000E+000
  0.000000000000000E+000
  0.000000000000000E+000
  0.000000000000000E+000
  0.000000000000000E+000
  0.000000000000000E+000
  0.000000000000000E+000
  0.000000000000000E+000
  0.000000000000000E+000
  0.000000000000000E+000
  0.000000000000000E+000
  0.000000000000000E+000
  0.000000000000000E+000
  0.000000000000000E+000
  0.000000000000000E+000
  0.000000000000000E+000
  0.000000000000000E+000
  0.000000000000000E+000
  0.000000000000000E+000
  0.000000000000000E+000
  0.000000000000000E+000
  0.000000000000000E+000
  0.000000000000000E+000
  0.000000000000000E+000
  0.000000000000000E+000
  0.000000000000000E+000
  0.000000000000000E+000
  0.000000000000000E+000
  0.000000000000000E+000
  0.000000000000000E+000
  0.000000000000000E+000
  0.000000000000000E+000
  0.000000000000000E+000
  0.000000000000000E+000
  0.000000000000000E+000
  0.000000000000000E+000
  0.000000000000000E+000
  0.000000000000000E+000
  0.000000000000000E+000
  0.000000000000000E+000
  0.000000000000000E+000
  0.000000000000000E+000
  0.000000000000000E+000
  0.000000000000000E+000
  0.000000000000000E+000
  0.000000000000000E+000
  0.000000000000000E+000
  0.000000000000000E+000
  0.000000000000000E+000
  0.000000000000000E+000
  0.000000000000000E+000
  0.000000000000000E+000
  0.000000000000000E+000
  0.000000000000000E+000
  0.000000000000000E+000
  0.000000000000000E+000
  0.000000000000000E+000
  0.000000000000000E+000
  0.000000000000000E+000
  0.000000000000000E+000
  0.000000000000000E+000
  0.000000000000000E+000
  0.000000000000000E+000
  0.000000000000000E+000
  0.000000000000000E+000
  0.000000000000000E+000
  0.000000000000000E+000
  0.000000000000000E+000
  0.000000000000000E+000
  0.000000000000000E+000
  0.000000000000000E+000
  0.000000000000000E+000
  0.000000000000000E+000
  0.000000000000000E+000
  0.000000000000000E+000
  0.000000000000000E+000
  0.000000000000000E+000
  0.000000000000000E+000
  0.000000000000000E+000
  0.000000000000000E+000
  0.000000000000000E+000
  0.000000000000000E+000
  0.000000000000000E+000
  0.000000000000000E+000
  0.000000000000000E+000
  0.000000000000000E+000
  0.000000000000000E+000
  0.000000000000000E+000
  0.000000000000000E+000
  0.000000000000000E+000
  0.000000000000000E+000
  0.000000000000000E+000
  0.000000000000000E+000
  0.000000000000000E+000
  0.000000000000000E+000
  0.000000000000000E+000
  0.000000000000000E+000
  0.000000000000000E+000
  0.000000000000000E+000
  0.000000000000000E+000
  0.000000000000000E+000
  0.000000000000000E+000
  0.000000000000000E+000
  0.000000000000000E+000
  0.000000000000000E+000
  0.000000000000000E+000
  0.000000000000000E+000
  0.000000000000000E+000
  0.000000000000000E+000
  0.000000000000000E+000
  0.000000000000000E+000
  0.000000000000000E+000
  0.000000000000000E+000
  0.000000000000000E+000
  0.000000000000000E+000
  0.000000000000000E+000
  0.000000000000000E+000
  0.000000000000000E+000
  0.000000000000000E+000
  0.000000000000000E+000
  0.000000000000000E+000
  0.000000000000000E+000
  0.000000000000000E+000
  0.000000000000000E+000
  0.000000000000000E+000
  0.000000000000000E+000
  0.000000000000000E+000
  0.000000000000000E+000
  0.000000000000000E+000
  0.000000000000000E+000
  0.000000000000000E+000
  0.000000000000000E+000
  0.000000000000000E+000
  0.000000000000000E+000
  0.000000000000000E+000
  0.000000000000000E+000
  0.000000000000000E+000
  0.000000000000000E+000
  0.000000000000000E+000
  0.000000000000000E+000
  0.000000000000000E+000
  0.000000000000000E+000
  0.000000000000000E+000
  0.000000000000000E+000
  0.000000000000000E+000
  0.000000000000000E+000
  0.000000000000000E+000
  0.000000000000000E+000
  0.000000000000000E+000
  0.000000000000000E+000
  0.000000000000000E+000
  0.000000000000000E+000
  0.000000000000000E+000
  0.000000000000000E+000
  0.000000000000000E+000
  0.000000000000000E+000
  0.000000000000000E+000
  0.000000000000000E+000
  0.000000000000000E+000
  0.000000000000000E+000
  0.000000000000000E+000
  0.000000000000000E+000
  0.000000000000000E+000
  0.000000000000000E+000
  0.000000000000000E+000
  0.000000000000000E+000
  0.000000000000000E+000
  0.000000000000000E+000
  0.000000000000000E+000
  0.000000000000000E+000
  0.000000000000000E+000
  0.000000000000000E+000
  0.000000000000000E+000
  0.000000000000000E+000
  0.000000000000000E+000
  0.000000000000000E+000
  0.000000000000000E+000
  0.000000000000000E+000
  0.000000000000000E+000
  0.000000000000000E+000
  0.000000000000000E+000
  0.000000000000000E+000
  0.000000000000000E+000
  0.000000000000000E+000
  0.000000000000000E+000
  0.000000000000000E+000
  0.000000000000000E+000
  0.000000000000000E+000
  0.000000000000000E+000
  0.000000000000000E+000
  0.000000000000000E+000
  0.000000000000000E+000
  0.000000000000000E+000
  0.000000000000000E+000
  0.000000000000000E+000
  0.000000000000000E+000
  0.000000000000000E+000
  0.000000000000000E+000
  0.000000000000000E+000
  0.000000000000000E+000
  0.000000000000000E+000
  0.000000000000000E+000
  0.000000000000000E+000
  0.000000000000000E+000
  0.000000000000000E+000
  0.000000000000000E+000
  0.000000000000000E+000
  0.000000000000000E+000
  0.000000000000000E+000
  0.000000000000000E+000
  0.000000000000000E+000
  0.000000000000000E+000
  0.000000000000000E+000
  0.000000000000000E+000
  0.000000000000000E+000
  0.000000000000000E+000
  0.000000000000000E+000
  0.000000000000000E+000
  0.000000000000000E+000
  0.000000000000000E+000
  0.000000000000000E+000
  0.000000000000000E+000
  0.000000000000000E+000
  0.000000000000000E+000
  0.000000000000000E+000
  0.000000000000000E+000
  0.000000000000000E+000
  0.000000000000000E+000
  0.000000000000000E+000
  0.000000000000000E+000
  0.000000000000000E+000
  0.000000000000000E+000
  0.000000000000000E+000
  0.000000000000000E+000
  0.000000000000000E+000
  0.000000000000000E+000
  0.000000000000000E+000
  0.000000000000000E+000
  0.000000000000000E+000
  0.000000000000000E+000
  0.000000000000000E+000
  0.000000000000000E+000
  0.000000000000000E+000
  0.000000000000000E+000
  0.000000000000000E+000
  0.000000000000000E+000
  0.000000000000000E+000
  0.000000000000000E+000
  0.000000000000000E+000
  0.000000000000000E+000
  0.000000000000000E+000
  0.000000000000000E+000
  0.000000000000000E+000
  0.000000000000000E+000
  0.000000000000000E+000
  0.000000000000000E+000
  0.000000000000000E+000
  0.000000000000000E+000
  0.000000000000000E+000
  0.000000000000000E+000
  0.000000000000000E+000
  0.000000000000000E+000
  0.000000000000000E+000
  0.000000000000000E+000
  0.000000000000000E+000
  0.000000000000000E+000
  0.000000000000000E+000
  0.000000000000000E+000
  0.000000000000000E+000
  0.000000000000000E+000
  0.000000000000000E+000
  0.000000000000000E+000
  0.000000000000000E+000
  0.000000000000000E+000
  0.000000000000000E+000
  0.000000000000000E+000
  0.000000000000000E+000
  0.000000000000000E+000
  0.000000000000000E+000
  0.000000000000000E+000
  0.000000000000000E+000
  0.000000000000000E+000
  0.000000000000000E+000
  0.000000000000000E+000
  0.000000000000000E+000
  0.000000000000000E+000
  0.000000000000000E+000
  0.000000000000000E+000
  0.000000000000000E+000
  0.000000000000000E+000
  0.000000000000000E+000
  0.000000000000000E+000
  0.000000000000000E+000
  0.000000000000000E+000
  0.000000000000000E+000
  0.000000000000000E+000
  0.000000000000000E+000
  0.000000000000000E+000
  0.000000000000000E+000
  0.000000000000000E+000
  0.000000000000000E+000
  0.000000000000000E+000
  0.000000000000000E+000
  0.000000000000000E+000
  0.000000000000000E+000
  0.000000000000000E+000
  0.000000000000000E+000
  0.000000000000000E+000
  0.000000000000000E+000
  0.000000000000000E+000
  0.000000000000000E+000
  0.000000000000000E+000
  0.000000000000000E+000
  0.000000000000000E+000
  0.000000000000000E+000
  0.000000000000000E+000
  0.000000000000000E+000
  0.000000000000000E+000
  0.000000000000000E+000
  0.000000000000000E+000
  0.000000000000000E+000
  0.000000000000000E+000
  0.000000000000000E+000
  0.000000000000000E+000
  0.000000000000000E+000
  0.000000000000000E+000
  0.000000000000000E+000
  0.000000000000000E+000
  0.000000000000000E+000
  0.000000000000000E+000
  0.000000000000000E+000
  0.000000000000000E+000
  0.000000000000000E+000
  0.000000000000000E+000
  0.000000000000000E+000
  0.000000000000000E+000
  0.000000000000000E+000
  0.000000000000000E+000
  0.000000000000000E+000
  0.000000000000000E+000
  0.000000000000000E+000
  0.000000000000000E+000
  0.000000000000000E+000
  0.000000000000000E+000
  0.000000000000000E+000
  0.000000000000000E+000
  0.000000000000000E+000
  0.000000000000000E+000
  0.000000000000000E+000
  0.000000000000000E+000
  0.000000000000000E+000
  0.000000000000000E+000
  0.000000000000000E+000
  0.000000000000000E+000
  0.000000000000000E+000
  0.000000000000000E+000
  0.000000000000000E+000
  0.000000000000000E+000
  0.000000000000000E+000
  0.000000000000000E+000
  0.000000000000000E+000
  0.000000000000000E+000
  0.000000000000000E+000
  0.000000000000000E+000
  0.000000000000000E+000
  0.000000000000000E+000
  0.000000000000000E+000
  0.000000000000000E+000
  0.000000000000000E+000
  0.000000000000000E+000
  0.000000000000000E+000
  0.000000000000000E+000
  0.000000000000000E+000
  0.000000000000000E+000
  0.000000000000000E+000
  0.000000000000000E+000
  0.000000000000000E+000
  0.000000000000000E+000
  0.000000000000000E+000
  0.000000000000000E+000
  0.000000000000000E+000
  0.000000000000000E+000
  0.000000000000000E+000
  0.000000000000000E+000
  0.000000000000000E+000
  0.000000000000000E+000
  0.000000000000000E+000
  0.000000000000000E+000
  0.000000000000000E+000
  0.000000000000000E+000
  0.000000000000000E+000
  0.000000000000000E+000
  0.000000000000000E+000
  0.000000000000000E+000
  0.000000000000000E+000
  0.000000000000000E+000
  0.000000000000000E+000
  0.000000000000000E+000
  0.000000000000000E+000
  0.000000000000000E+000
  0.000000000000000E+000
  0.000000000000000E+000
  0.000000000000000E+000
  0.000000000000000E+000
  0.000000000000000E+000
  0.000000000000000E+000
  0.000000000000000E+000
  0.000000000000000E+000
  0.000000000000000E+000
  0.000000000000000E+000
  0.000000000000000E+000
  0.000000000000000E+000
  0.000000000000000E+000
  0.000000000000000E+000
  0.000000000000000E+000
  0.000000000000000E+000
  0.000000000000000E+000
  0.000000000000000E+000
  0.000000000000000E+000
  0.000000000000000E+000
  0.000000000000000E+000
  0.000000000000000E+000
  0.000000000000000E+000
  0.000000000000000E+000
  0.000000000000000E+000
  0.000000000000000E+000
  0.000000000000000E+000
  0.000000000000000E+000
  0.000000000000000E+000
  0.000000000000000E+000
  0.000000000000000E+000
  0.000000000000000E+000
  0.000000000000000E+000
  0.000000000000000E+000
  0.000000000000000E+000
  0.000000000000000E+000
  0.000000000000000E+000
  0.000000000000000E+000
  0.000000000000000E+000
  0.000000000000000E+000
  0.000000000000000E+000
  0.000000000000000E+000
  0.000000000000000E+000
  0.000000000000000E+000
  0.000000000000000E+000
  0.000000000000000E+000
  0.000000000000000E+000
  0.000000000000000E+000
  0.000000000000000E+000
  0.000000000000000E+000
  0.000000000000000E+000
  0.000000000000000E+000
  0.000000000000000E+000
  0.000000000000000E+000
  0.000000000000000E+000
  0.000000000000000E+000
  0.000000000000000E+000
  0.000000000000000E+000
  0.000000000000000E+000
  0.000000000000000E+000
  0.000000000000000E+000
  0.000000000000000E+000
  0.000000000000000E+000
  0.000000000000000E+000
  0.000000000000000E+000
  0.000000000000000E+000
  0.000000000000000E+000
  0.000000000000000E+000
  0.000000000000000E+000
  0.000000000000000E+000
  0.000000000000000E+000
  0.000000000000000E+000
  0.000000000000000E+000
  0.000000000000000E+000
  0.000000000000000E+000
  0.000000000000000E+000
  0.000000000000000E+000
  0.000000000000000E+000
  0.000000000000000E+000
  0.000000000000000E+000
  0.000000000000000E+000
  0.000000000000000E+000
  0.000000000000000E+000
  0.000000000000000E+000
  0.000000000000000E+000
  0.000000000000000E+000
  0.000000000000000E+000
  0.000000000000000E+000
  0.000000000000000E+000
  0.000000000000000E+000
  0.000000000000000E+000
  0.000000000000000E+000
  0.000000000000000E+000
  0.000000000000000E+000
  0.000000000000000E+000
  0.000000000000000E+000
  0.000000000000000E+000
  0.000000000000000E+000
  0.000000000000000E+000
  0.000000000000000E+000
  0.000000000000000E+000
  0.000000000000000E+000
  0.000000000000000E+000
  0.000000000000000E+000
  0.000000000000000E+000
  0.000000000000000E+000
  0.000000000000000E+000
  0.000000000000000E+000
  0.000000000000000E+000
  0.000000000000000E+000
  0.000000000000000E+000
  0.000000000000000E+000
  0.000000000000000E+000
  0.000000000000000E+000
  0.000000000000000E+000
  0.000000000000000E+000
  0.000000000000000E+000
  0.000000000000000E+000
  0.000000000000000E+000
  0.000000000000000E+000
  0.000000000000000E+000
  0.000000000000000E+000
  0.000000000000000E+000
  0.000000000000000E+000
  0.000000000000000E+000
  0.000000000000000E+000
  0.000000000000000E+000
  0.000000000000000E+000
  0.000000000000000E+000
  0.000000000000000E+000
  0.000000000000000E+000
  0.000000000000000E+000
  0.000000000000000E+000
  0.000000000000000E+000
  0.000000000000000E+000
  0.000000000000000E+000
  0.000000000000000E+000
  0.000000000000000E+000
  0.000000000000000E+000
  0.000000000000000E+000
  0.000000000000000E+000
  0.000000000000000E+000
  0.000000000000000E+000
  0.000000000000000E+000
  0.000000000000000E+000
  0.000000000000000E+000
  0.000000000000000E+000
  0.000000000000000E+000
  0.000000000000000E+000
  0.000000000000000E+000
  0.000000000000000E+000
  0.000000000000000E+000
  0.000000000000000E+000
  0.000000000000000E+000
  0.000000000000000E+000
  0.000000000000000E+000
  0.000000000000000E+000
  0.000000000000000E+000
  0.000000000000000E+000
  0.000000000000000E+000
  0.000000000000000E+000
  0.000000000000000E+000
  0.000000000000000E+000
  0.000000000000000E+000
  0.000000000000000E+000
  0.000000000000000E+000
  0.000000000000000E+000
  0.000000000000000E+000
  0.000000000000000E+000
  0.000000000000000E+000
  0.000000000000000E+000
  0.000000000000000E+000
  0.000000000000000E+000
  0.000000000000000E+000
  0.000000000000000E+000
  0.000000000000000E+000
  0.000000000000000E+000
  0.000000000000000E+000
  0.000000000000000E+000
  0.000000000000000E+000
  0.000000000000000E+000
  0.000000000000000E+000
  0.000000000000000E+000
  0.000000000000000E+000
  0.000000000000000E+000
  0.000000000000000E+000
  0.000000000000000E+000
  0.000000000000000E+000
  0.000000000000000E+000
  0.000000000000000E+000
  0.000000000000000E+000
  0.000000000000000E+000
  0.000000000000000E+000
  0.000000000000000E+000
  0.000000000000000E+000
  0.000000000000000E+000
  0.000000000000000E+000
  0.000000000000000E+000
  0.000000000000000E+000
  0.000000000000000E+000
  0.000000000000000E+000
  0.000000000000000E+000
  0.000000000000000E+000
  0.000000000000000E+000
  0.000000000000000E+000
  0.000000000000000E+000
  0.000000000000000E+000
  0.000000000000000E+000
  0.000000000000000E+000
  0.000000000000000E+000
  0.000000000000000E+000
  0.000000000000000E+000
  0.000000000000000E+000
  0.000000000000000E+000
  0.000000000000000E+000
  0.000000000000000E+000
  0.000000000000000E+000
  0.000000000000000E+000
  0.000000000000000E+000
  0.000000000000000E+000
  0.000000000000000E+000
  0.000000000000000E+000
  0.000000000000000E+000
  0.000000000000000E+000
  0.000000000000000E+000
  0.000000000000000E+000
  0.000000000000000E+000
  0.000000000000000E+000
  0.000000000000000E+000
  0.000000000000000E+000
  0.000000000000000E+000
  0.000000000000000E+000
  0.000000000000000E+000
  0.000000000000000E+000
  0.000000000000000E+000
  0.000000000000000E+000
  0.000000000000000E+000
  0.000000000000000E+000
  0.000000000000000E+000
  0.000000000000000E+000
  0.000000000000000E+000
  0.000000000000000E+000
  0.000000000000000E+000
  0.000000000000000E+000
  0.000000000000000E+000
  0.000000000000000E+000
  0.000000000000000E+000
  0.000000000000000E+000
  0.000000000000000E+000
  0.000000000000000E+000
  0.000000000000000E+000
  0.000000000000000E+000
  0.000000000000000E+000
  0.000000000000000E+000
  0.000000000000000E+000
  0.000000000000000E+000
  0.000000000000000E+000
  0.000000000000000E+000
  0.000000000000000E+000
  0.000000000000000E+000
  0.000000000000000E+000
  0.000000000000000E+000
  0.000000000000000E+000
  0.000000000000000E+000
  0.000000000000000E+000
  0.000000000000000E+000
  0.000000000000000E+000
  0.000000000000000E+000
  0.000000000000000E+000
  0.000000000000000E+000
  0.000000000000000E+000
  0.000000000000000E+000
  0.000000000000000E+000
  0.000000000000000E+000
  0.000000000000000E+000
  0.000000000000000E+000
  0.000000000000000E+000
  0.000000000000000E+000
  0.000000000000000E+000
  0.000000000000000E+000
  0.000000000000000E+000
  0.000000000000000E+000
  0.000000000000000E+000
  0.000000000000000E+000
  0.000000000000000E+000
  0.000000000000000E+000
  0.000000000000000E+000
  0.000000000000000E+000
  0.000000000000000E+000
  0.000000000000000E+000
  0.000000000000000E+000
  0.000000000000000E+000
  0.000000000000000E+000
  0.000000000000000E+000
  0.000000000000000E+000
  0.000000000000000E+000
  0.000000000000000E+000
  0.000000000000000E+000
  0.000000000000000E+000
  0.000000000000000E+000
  0.000000000000000E+000
  0.000000000000000E+000
  0.000000000000000E+000
  0.000000000000000E+000
  0.000000000000000E+000
  0.000000000000000E+000
  0.000000000000000E+000
  0.000000000000000E+000
  0.000000000000000E+000
  0.000000000000000E+000
  0.000000000000000E+000
  0.000000000000000E+000
  0.000000000000000E+000
  0.000000000000000E+000
  0.000000000000000E+000
  0.000000000000000E+000
  0.000000000000000E+000
  0.000000000000000E+000
  0.000000000000000E+000
  0.000000000000000E+000
  0.000000000000000E+000
  0.000000000000000E+000
  0.000000000000000E+000
  0.000000000000000E+000
  0.000000000000000E+000
  0.000000000000000E+000
  0.000000000000000E+000
  0.000000000000000E+000
  0.000000000000000E+000
  0.000000000000000E+000
  0.000000000000000E+000
  0.000000000000000E+000
  0.000000000000000E+000
  0.000000000000000E+000
  0.000000000000000E+000
  0.000000000000000E+000
  0.000000000000000E+000
  0.000000000000000E+000
  0.000000000000000E+000
  0.000000000000000E+000
  0.000000000000000E+000
  0.000000000000000E+000
  0.000000000000000E+000
  0.000000000000000E+000
  0.000000000000000E+000
  0.000000000000000E+000
  0.000000000000000E+000
  0.000000000000000E+000
  0.000000000000000E+000
  0.000000000000000E+000
  0.000000000000000E+000
  0.000000000000000E+000
  0.000000000000000E+000
  0.000000000000000E+000
  0.000000000000000E+000
  0.000000000000000E+000
  0.000000000000000E+000
  0.000000000000000E+000
  0.000000000000000E+000
  0.000000000000000E+000
  0.000000000000000E+000
  0.000000000000000E+000
  0.000000000000000E+000
  0.000000000000000E+000
  0.000000000000000E+000
  0.000000000000000E+000
  0.000000000000000E+000
  0.000000000000000E+000
  0.000000000000000E+000
  0.000000000000000E+000
  0.000000000000000E+000
  0.000000000000000E+000
  0.000000000000000E+000
  0.000000000000000E+000
  0.000000000000000E+000
  0.000000000000000E+000
  0.000000000000000E+000
  0.000000000000000E+000
  0.000000000000000E+000
  0.000000000000000E+000
  0.000000000000000E+000
  0.000000000000000E+000
  0.000000000000000E+000
  0.000000000000000E+000
  0.000000000000000E+000
  0.000000000000000E+000
  0.000000000000000E+000
  0.000000000000000E+000
  0.000000000000000E+000
  0.000000000000000E+000
  0.000000000000000E+000
  0.000000000000000E+000
  0.000000000000000E+000
  0.000000000000000E+000
  0.000000000000000E+000
  0.000000000000000E+000
  0.000000000000000E+000
  0.000000000000000E+000
  0.000000000000000E+000
  0.000000000000000E+000
  0.000000000000000E+000
  0.000000000000000E+000
  0.000000000000000E+000
  0.000000000000000E+000
  0.000000000000000E+000
  0.000000000000000E+000
  0.000000000000000E+000
  0.000000000000000E+000
  0.000000000000000E+000
  0.000000000000000E+000
  0.000000000000000E+000
  0.000000000000000E+000
  0.000000000000000E+000
  0.000000000000000E+000
  0.000000000000000E+000
  0.000000000000000E+000
  0.000000000000000E+000
  0.000000000000000E+000
  0.000000000000000E+000
  0.000000000000000E+000
  0.000000000000000E+000
  0.000000000000000E+000
  0.000000000000000E+000
  0.000000000000000E+000
  0.000000000000000E+000
  0.000000000000000E+000
  0.000000000000000E+000
  0.000000000000000E+000
  0.000000000000000E+000
  0.000000000000000E+000
  0.000000000000000E+000
  0.000000000000000E+000
  0.000000000000000E+000
  0.000000000000000E+000
  0.000000000000000E+000
  0.000000000000000E+000
  0.000000000000000E+000
  0.000000000000000E+000
  0.000000000000000E+000
  0.000000000000000E+000
  0.000000000000000E+000
  0.000000000000000E+000
  0.000000000000000E+000
  0.000000000000000E+000
  0.000000000000000E+000
  0.000000000000000E+000
  0.000000000000000E+000
  0.000000000000000E+000
  0.000000000000000E+000
  0.000000000000000E+000
  0.000000000000000E+000
  0.000000000000000E+000
  0.000000000000000E+000
  0.000000000000000E+000
  0.000000000000000E+000
  0.000000000000000E+000
  0.000000000000000E+000
  0.000000000000000E+000
  0.000000000000000E+000
  0.000000000000000E+000
  0.000000000000000E+000
  0.000000000000000E+000
  0.000000000000000E+000
  0.000000000000000E+000
  0.000000000000000E+000
  0.000000000000000E+000
  0.000000000000000E+000
  0.000000000000000E+000
  0.000000000000000E+000
  0.000000000000000E+000
  0.000000000000000E+000
  0.000000000000000E+000
  0.000000000000000E+000
  0.000000000000000E+000
  0.000000000000000E+000
  0.000000000000000E+000
  0.000000000000000E+000
  0.000000000000000E+000
  0.000000000000000E+000
  0.000000000000000E+000
  0.000000000000000E+000
  0.000000000000000E+000
  0.000000000000000E+000
  0.000000000000000E+000
  0.000000000000000E+000
  0.000000000000000E+000
  0.000000000000000E+000
  0.000000000000000E+000
  0.000000000000000E+000
  0.000000000000000E+000
  0.000000000000000E+000
  0.000000000000000E+000
  0.000000000000000E+000
  0.000000000000000E+000
  0.000000000000000E+000
  0.000000000000000E+000
  0.000000000000000E+000
  0.000000000000000E+000
  0.000000000000000E+000
  0.000000000000000E+000
  0.000000000000000E+000
  0.000000000000000E+000
  0.000000000000000E+000
  0.000000000000000E+000
  0.000000000000000E+000
  0.000000000000000E+000
  0.000000000000000E+000
  0.000000000000000E+000
  0.000000000000000E+000
  0.000000000000000E+000
  0.000000000000000E+000
  0.000000000000000E+000
  0.000000000000000E+000
  0.000000000000000E+000
  0.000000000000000E+000
  0.000000000000000E+000
  0.000000000000000E+000
  0.000000000000000E+000
  0.000000000000000E+000
  0.000000000000000E+000
  0.000000000000000E+000
  0.000000000000000E+000
  0.000000000000000E+000
  0.000000000000000E+000
  0.000000000000000E+000
  0.000000000000000E+000
  0.000000000000000E+000
  0.000000000000000E+000
  0.000000000000000E+000
  0.000000000000000E+000
  0.000000000000000E+000
  0.000000000000000E+000
  0.000000000000000E+000
  0.000000000000000E+000
  0.000000000000000E+000
  0.000000000000000E+000
  0.000000000000000E+000
  0.000000000000000E+000
  0.000000000000000E+000
  0.000000000000000E+000
  0.000000000000000E+000
  0.000000000000000E+000
  0.000000000000000E+000
  0.000000000000000E+000
  0.000000000000000E+000
  0.000000000000000E+000
  0.000000000000000E+000
  0.000000000000000E+000
  0.000000000000000E+000
  0.000000000000000E+000
  0.000000000000000E+000
  0.000000000000000E+000
  0.000000000000000E+000
  0.000000000000000E+000
  0.000000000000000E+000
  0.000000000000000E+000
  0.000000000000000E+000
  0.000000000000000E+000
  0.000000000000000E+000
  0.000000000000000E+000
  0.000000000000000E+000
  0.000000000000000E+000
  0.000000000000000E+000
  0.000000000000000E+000
  0.000000000000000E+000
  0.000000000000000E+000
  0.000000000000000E+000
  0.000000000000000E+000
  0.000000000000000E+000
  0.000000000000000E+000
  0.000000000000000E+000
  0.000000000000000E+000
  0.000000000000000E+000
  0.000000000000000E+000
  0.000000000000000E+000
  0.000000000000000E+000
  0.000000000000000E+000
  0.000000000000000E+000
  0.000000000000000E+000
  0.000000000000000E+000
  0.000000000000000E+000
  0.000000000000000E+000
  0.000000000000000E+000
  0.000000000000000E+000
  0.000000000000000E+000
  0.000000000000000E+000
  0.000000000000000E+000
  0.000000000000000E+000
  0.000000000000000E+000
  0.000000000000000E+000
  0.000000000000000E+000
  0.000000000000000E+000
  0.000000000000000E+000
  0.000000000000000E+000
  0.000000000000000E+000
  0.000000000000000E+000
  0.000000000000000E+000
  0.000000000000000E+000
  0.000000000000000E+000
  0.000000000000000E+000
  0.000000000000000E+000
  0.000000000000000E+000
  0.000000000000000E+000
  0.000000000000000E+000
  0.000000000000000E+000
  0.000000000000000E+000
  0.000000000000000E+000
  0.000000000000000E+000
  0.000000000000000E+000
  0.000000000000000E+000
  0.000000000000000E+000
  0.000000000000000E+000
  0.000000000000000E+000
  0.000000000000000E+000
  0.000000000000000E+000
  0.000000000000000E+000
  0.000000000000000E+000
  0.000000000000000E+000
  0.000000000000000E+000
  0.000000000000000E+000
  0.000000000000000E+000
  0.000000000000000E+000
  0.000000000000000E+000
  0.000000000000000E+000
  0.000000000000000E+000
  0.000000000000000E+000
  0.000000000000000E+000
  0.000000000000000E+000
  0.000000000000000E+000
  0.000000000000000E+000
  0.000000000000000E+000
  0.000000000000000E+000
  0.000000000000000E+000
  0.000000000000000E+000
  0.000000000000000E+000
  0.000000000000000E+000
  0.000000000000000E+000
  0.000000000000000E+000
  0.000000000000000E+000
  0.000000000000000E+000
  0.000000000000000E+000
  0.000000000000000E+000
  0.000000000000000E+000
  0.000000000000000E+000
  0.000000000000000E+000
  0.000000000000000E+000
  0.000000000000000E+000
  0.000000000000000E+000
  0.000000000000000E+000
  0.000000000000000E+000
  0.000000000000000E+000
  0.000000000000000E+000
  0.000000000000000E+000
  0.000000000000000E+000
  0.000000000000000E+000
  0.000000000000000E+000
  0.000000000000000E+000
  0.000000000000000E+000
  0.000000000000000E+000
  0.000000000000000E+000
  0.000000000000000E+000
  0.000000000000000E+000
  0.000000000000000E+000
  0.000000000000000E+000
  0.000000000000000E+000
  0.000000000000000E+000
  0.000000000000000E+000
  0.000000000000000E+000
  0.000000000000000E+000
  0.000000000000000E+000
  0.000000000000000E+000
  0.000000000000000E+000
  0.000000000000000E+000
  0.000000000000000E+000
  0.000000000000000E+000
  0.000000000000000E+000
  0.000000000000000E+000
  0.000000000000000E+000
  0.000000000000000E+000
  0.000000000000000E+000
  0.000000000000000E+000
  0.000000000000000E+000
  0.000000000000000E+000
  0.000000000000000E+000
  0.000000000000000E+000
  0.000000000000000E+000
  0.000000000000000E+000
  0.000000000000000E+000
  0.000000000000000E+000
  0.000000000000000E+000
  0.000000000000000E+000
  0.000000000000000E+000
  0.000000000000000E+000
  0.000000000000000E+000
  0.000000000000000E+000
  0.000000000000000E+000
  0.000000000000000E+000
  0.000000000000000E+000
  0.000000000000000E+000
  0.000000000000000E+000
  0.000000000000000E+000
  0.000000000000000E+000
  0.000000000000000E+000
  0.000000000000000E+000
  0.000000000000000E+000
  0.000000000000000E+000
  0.000000000000000E+000
  0.000000000000000E+000
  0.000000000000000E+000
  0.000000000000000E+000
  0.000000000000000E+000
  0.000000000000000E+000
  0.000000000000000E+000
  0.000000000000000E+000
  0.000000000000000E+000
  0.000000000000000E+000
  0.000000000000000E+000
  0.000000000000000E+000
  0.000000000000000E+000
  0.000000000000000E+000
  0.000000000000000E+000
  0.000000000000000E+000
  0.000000000000000E+000
  0.000000000000000E+000
  0.000000000000000E+000
  0.000000000000000E+000
  0.000000000000000E+000
  0.000000000000000E+000
  0.000000000000000E+000
  0.000000000000000E+000
  0.000000000000000E+000
  0.000000000000000E+000
  0.000000000000000E+000
  0.000000000000000E+000
  0.000000000000000E+000
  0.000000000000000E+000
  0.000000000000000E+000
  0.000000000000000E+000
  0.000000000000000E+000
  0.000000000000000E+000
  0.000000000000000E+000
  0.000000000000000E+000
  0.000000000000000E+000
  0.000000000000000E+000
  0.000000000000000E+000
  0.000000000000000E+000
  0.000000000000000E+000
  0.000000000000000E+000
  0.000000000000000E+000
  0.000000000000000E+000
  0.000000000000000E+000
  0.000000000000000E+000
  0.000000000000000E+000
  0.000000000000000E+000
  0.000000000000000E+000
  0.000000000000000E+000
  0.000000000000000E+000
  0.000000000000000E+000
  0.000000000000000E+000
  0.000000000000000E+000
  0.000000000000000E+000
  0.000000000000000E+000
  0.000000000000000E+000
  0.000000000000000E+000
  0.000000000000000E+000
  0.000000000000000E+000
  0.000000000000000E+000
  0.000000000000000E+000
  0.000000000000000E+000
  0.000000000000000E+000
  0.000000000000000E+000
  0.000000000000000E+000
  0.000000000000000E+000
  0.000000000000000E+000
  0.000000000000000E+000
  0.000000000000000E+000
  0.000000000000000E+000
  0.000000000000000E+000
  0.000000000000000E+000
  0.000000000000000E+000
  0.000000000000000E+000
  0.000000000000000E+000
  0.000000000000000E+000
  0.000000000000000E+000
  0.000000000000000E+000
  0.000000000000000E+000
  0.000000000000000E+000
  0.000000000000000E+000
  0.000000000000000E+000
  0.000000000000000E+000
  0.000000000000000E+000
  0.000000000000000E+000
  0.000000000000000E+000
  0.000000000000000E+000
  0.000000000000000E+000
  0.000000000000000E+000
  0.000000000000000E+000
  0.000000000000000E+000
  0.000000000000000E+000
  0.000000000000000E+000
  0.000000000000000E+000
  0.000000000000000E+000
  0.000000000000000E+000
  0.000000000000000E+000
  0.000000000000000E+000
  0.000000000000000E+000
  0.000000000000000E+000
  0.000000000000000E+000
  0.000000000000000E+000
  0.000000000000000E+000
  0.000000000000000E+000
  0.000000000000000E+000
  0.000000000000000E+000
  0.000000000000000E+000
  0.000000000000000E+000
  0.000000000000000E+000
  0.000000000000000E+000
  0.000000000000000E+000
  0.000000000000000E+000
  0.000000000000000E+000
  0.000000000000000E+000
  0.000000000000000E+000
  0.000000000000000E+000
  0.000000000000000E+000
  0.000000000000000E+000
  0.000000000000000E+000
  0.000000000000000E+000
  0.000000000000000E+000
  0.000000000000000E+000
  0.000000000000000E+000
  0.000000000000000E+000
  0.000000000000000E+000
  0.000000000000000E+000
  0.000000000000000E+000
  0.000000000000000E+000
  0.000000000000000E+000
  0.000000000000000E+000
  0.000000000000000E+000
  0.000000000000000E+000
  0.000000000000000E+000
  0.000000000000000E+000
  0.000000000000000E+000
  0.000000000000000E+000
  0.000000000000000E+000
  0.000000000000000E+000
  0.000000000000000E+000
  0.000000000000000E+000
  0.000000000000000E+000
  0.000000000000000E+000
  0.000000000000000E+000
  0.000000000000000E+000
  0.000000000000000E+000
  0.000000000000000E+000
  0.000000000000000E+000
  0.000000000000000E+000
  0.000000000000000E+000
  0.000000000000000E+000
  0.000000000000000E+000
  0.000000000000000E+000
  0.000000000000000E+000
  0.000000000000000E+000
  0.000000000000000E+000
  0.000000000000000E+000
  0.000000000000000E+000
  0.000000000000000E+000
  0.000000000000000E+000
  0.000000000000000E+000
  0.000000000000000E+000
  0.000000000000000E+000
  0.000000000000000E+000
  0.000000000000000E+000
  0.000000000000000E+000
  0.000000000000000E+000
  0.000000000000000E+000
  0.000000000000000E+000
  0.000000000000000E+000
  0.000000000000000E+000
  0.000000000000000E+000
  0.000000000000000E+000
  0.000000000000000E+000
  0.000000000000000E+000
  0.000000000000000E+000
  0.000000000000000E+000
  0.000000000000000E+000
  0.000000000000000E+000
  0.000000000000000E+000
  0.000000000000000E+000
  0.000000000000000E+000
  0.000000000000000E+000
  0.000000000000000E+000
  0.000000000000000E+000
  0.000000000000000E+000
  0.000000000000000E+000
  0.000000000000000E+000
  0.000000000000000E+000
  0.000000000000000E+000
  0.000000000000000E+000
  0.000000000000000E+000
  0.000000000000000E+000
  0.000000000000000E+000
  0.000000000000000E+000
  0.000000000000000E+000
  0.000000000000000E+000
  0.000000000000000E+000
  0.000000000000000E+000
  0.000000000000000E+000
  0.000000000000000E+000
  0.000000000000000E+000
  0.000000000000000E+000
  0.000000000000000E+000
  0.000000000000000E+000
  0.000000000000000E+000
  0.000000000000000E+000
  0.000000000000000E+000
  0.000000000000000E+000
  0.000000000000000E+000
  0.000000000000000E+000
  0.000000000000000E+000
  0.000000000000000E+000
  0.000000000000000E+000
  0.000000000000000E+000
  0.000000000000000E+000
  0.000000000000000E+000
  0.000000000000000E+000
  0.000000000000000E+000
  0.000000000000000E+000
  0.000000000000000E+000
  0.000000000000000E+000
  0.000000000000000E+000
  0.000000000000000E+000
  0.000000000000000E+000
  0.000000000000000E+000
  0.000000000000000E+000
  0.000000000000000E+000
  0.000000000000000E+000
  0.000000000000000E+000
  0.000000000000000E+000
  0.000000000000000E+000
  0.000000000000000E+000
  0.000000000000000E+000
  0.000000000000000E+000
  0.000000000000000E+000
  0.000000000000000E+000
  0.000000000000000E+000
  0.000000000000000E+000
  0.000000000000000E+000
  0.000000000000000E+000
  0.000000000000000E+000
  0.000000000000000E+000
  0.000000000000000E+000
  0.000000000000000E+000
  0.000000000000000E+000
  0.000000000000000E+000
  0.000000000000000E+000
  0.000000000000000E+000
  0.000000000000000E+000
  0.000000000000000E+000
  0.000000000000000E+000
  0.000000000000000E+000
  0.000000000000000E+000
  0.000000000000000E+000
  0.000000000000000E+000
  0.000000000000000E+000
  0.000000000000000E+000
  0.000000000000000E+000
  0.000000000000000E+000
  0.000000000000000E+000
  0.000000000000000E+000
  0.000000000000000E+000
  0.000000000000000E+000
  0.000000000000000E+000
  0.000000000000000E+000
  0.000000000000000E+000
  0.000000000000000E+000
  0.000000000000000E+000
  0.000000000000000E+000
  0.000000000000000E+000
  0.000000000000000E+000
  0.000000000000000E+000
  0.000000000000000E+000
  0.000000000000000E+000
  0.000000000000000E+000
  0.000000000000000E+000
  0.000000000000000E+000
  0.000000000000000E+000
  0.000000000000000E+000
  0.000000000000000E+000
  0.000000000000000E+000
  0.000000000000000E+000
  0.000000000000000E+000
  0.000000000000000E+000
  0.000000000000000E+000
  0.000000000000000E+000
  0.000000000000000E+000
  0.000000000000000E+000
  0.000000000000000E+000
  0.000000000000000E+000
  0.000000000000000E+000
  0.000000000000000E+000
  0.000000000000000E+000
  0.000000000000000E+000
  0.000000000000000E+000
  0.000000000000000E+000
  0.000000000000000E+000
  0.000000000000000E+000
  0.000000000000000E+000
  0.000000000000000E+000
  0.000000000000000E+000
  0.000000000000000E+000
  0.000000000000000E+000
  0.000000000000000E+000
  0.000000000000000E+000
  0.000000000000000E+000
  0.000000000000000E+000
  0.000000000000000E+000
  0.000000000000000E+000
  0.000000000000000E+000
  0.000000000000000E+000
  0.000000000000000E+000
  0.000000000000000E+000
  0.000000000000000E+000
  0.000000000000000E+000
  0.000000000000000E+000
  0.000000000000000E+000
  0.000000000000000E+000
  0.000000000000000E+000
  0.000000000000000E+000
  0.000000000000000E+000
  0.000000000000000E+000
  0.000000000000000E+000
  0.000000000000000E+000
  0.000000000000000E+000
  0.000000000000000E+000
  0.000000000000000E+000
  0.000000000000000E+000
  0.000000000000000E+000
  0.000000000000000E+000
  0.000000000000000E+000
  0.000000000000000E+000
  0.000000000000000E+000
  0.000000000000000E+000
  0.000000000000000E+000
  0.000000000000000E+000
  0.000000000000000E+000
  0.000000000000000E+000
  0.000000000000000E+000
  0.000000000000000E+000
  0.000000000000000E+000
  0.000000000000000E+000
  0.000000000000000E+000
  0.000000000000000E+000
  0.000000000000000E+000
  0.000000000000000E+000
  0.000000000000000E+000
  0.000000000000000E+000
  0.000000000000000E+000
  0.000000000000000E+000
  0.000000000000000E+000
  0.000000000000000E+000
  0.000000000000000E+000
  0.000000000000000E+000
  0.000000000000000E+000
  0.000000000000000E+000
  0.000000000000000E+000
  0.000000000000000E+000
  0.000000000000000E+000
  0.000000000000000E+000
  0.000000000000000E+000
  0.000000000000000E+000
  0.000000000000000E+000
  0.000000000000000E+000
  0.000000000000000E+000
  0.000000000000000E+000
  0.000000000000000E+000
  0.000000000000000E+000
  0.000000000000000E+000
  0.000000000000000E+000
  0.000000000000000E+000
  0.000000000000000E+000
  0.000000000000000E+000
  0.000000000000000E+000
  0.000000000000000E+000
  0.000000000000000E+000
  0.000000000000000E+000
  0.000000000000000E+000
  0.000000000000000E+000
  0.000000000000000E+000
  0.000000000000000E+000
  0.000000000000000E+000
  0.000000000000000E+000
  0.000000000000000E+000
  0.000000000000000E+000
  0.000000000000000E+000
  0.000000000000000E+000
  0.000000000000000E+000
  0.000000000000000E+000
  0.000000000000000E+000
  0.000000000000000E+000
  0.000000000000000E+000
  0.000000000000000E+000
  0.000000000000000E+000
  0.000000000000000E+000
  0.000000000000000E+000
  0.000000000000000E+000
  0.000000000000000E+000
  0.000000000000000E+000
  0.000000000000000E+000
  0.000000000000000E+000
  0.000000000000000E+000
  0.000000000000000E+000
  0.000000000000000E+000
  0.000000000000000E+000
  0.000000000000000E+000
  0.000000000000000E+000
  0.000000000000000E+000
  0.000000000000000E+000
  0.000000000000000E+000
  0.000000000000000E+000
  0.000000000000000E+000
  0.000000000000000E+000
  0.000000000000000E+000
  0.000000000000000E+000
  0.000000000000000E+000
  0.000000000000000E+000
  0.000000000000000E+000
  0.000000000000000E+000
  0.000000000000000E+000
  0.000000000000000E+000
  0.000000000000000E+000
  0.000000000000000E+000
  0.000000000000000E+000
  0.000000000000000E+000
  0.000000000000000E+000
  0.000000000000000E+000
  0.000000000000000E+000
  0.000000000000000E+000
  0.000000000000000E+000
  0.000000000000000E+000
  0.000000000000000E+000
  0.000000000000000E+000
  0.000000000000000E+000
  0.000000000000000E+000
  0.000000000000000E+000
  0.000000000000000E+000
  0.000000000000000E+000
  0.000000000000000E+000
  0.000000000000000E+000
  0.000000000000000E+000
  0.000000000000000E+000
  0.000000000000000E+000
  0.000000000000000E+000
  0.000000000000000E+000
  0.000000000000000E+000
  0.000000000000000E+000
  0.000000000000000E+000
  0.000000000000000E+000
  0.000000000000000E+000
  0.000000000000000E+000
  0.000000000000000E+000
  0.000000000000000E+000
  0.000000000000000E+000
  0.000000000000000E+000
  0.000000000000000E+000
  0.000000000000000E+000
  0.000000000000000E+000
  0.000000000000000E+000
  0.000000000000000E+000
  0.000000000000000E+000
  0.000000000000000E+000
  0.000000000000000E+000
  0.000000000000000E+000
  0.000000000000000E+000
  0.000000000000000E+000
  0.000000000000000E+000
  0.000000000000000E+000
  0.000000000000000E+000
  0.000000000000000E+000
  0.000000000000000E+000
  0.000000000000000E+000
  0.000000000000000E+000
  0.000000000000000E+000
  0.000000000000000E+000
  0.000000000000000E+000
  0.000000000000000E+000
  0.000000000000000E+000
  0.000000000000000E+000
  0.000000000000000E+000
  0.000000000000000E+000
  0.000000000000000E+000
  0.000000000000000E+000
  0.000000000000000E+000
  0.000000000000000E+000
  0.000000000000000E+000
  0.000000000000000E+000
  0.000000000000000E+000
  0.000000000000000E+000
  0.000000000000000E+000
  0.000000000000000E+000
  0.000000000000000E+000
  0.000000000000000E+000
  0.000000000000000E+000
  0.000000000000000E+000
  0.000000000000000E+000
  0.000000000000000E+000
  0.000000000000000E+000
  0.000000000000000E+000
  0.000000000000000E+000
  0.000000000000000E+000
  0.000000000000000E+000
  0.000000000000000E+000
  0.000000000000000E+000
  0.000000000000000E+000
  0.000000000000000E+000
  0.000000000000000E+000
  0.000000000000000E+000
  0.000000000000000E+000
  0.000000000000000E+000
  0.000000000000000E+000
  0.000000000000000E+000
  0.000000000000000E+000
  0.000000000000000E+000
  0.000000000000000E+000
  0.000000000000000E+000
  0.000000000000000E+000
  0.000000000000000E+000
  0.000000000000000E+000
  0.000000000000000E+000
  0.000000000000000E+000
  0.000000000000000E+000
  0.000000000000000E+000
  0.000000000000000E+000
  0.000000000000000E+000
  0.000000000000000E+000
  0.000000000000000E+000
  0.000000000000000E+000
  0.000000000000000E+000
  0.000000000000000E+000
  0.000000000000000E+000
  0.000000000000000E+000
  0.000000000000000E+000
  0.000000000000000E+000
  0.000000000000000E+000
  0.000000000000000E+000
  0.000000000000000E+000
  0.000000000000000E+000
  0.000000000000000E+000
  0.000000000000000E+000
  0.000000000000000E+000
  0.000000000000000E+000
  0.000000000000000E+000
  0.000000000000000E+000
  0.000000000000000E+000
  0.000000000000000E+000
  0.000000000000000E+000
  0.000000000000000E+000
  0.000000000000000E+000
  0.000000000000000E+000
  0.000000000000000E+000
  0.000000000000000E+000
  0.000000000000000E+000
  0.000000000000000E+000
  0.000000000000000E+000
  0.000000000000000E+000
  0.000000000000000E+000
  0.000000000000000E+000
  0.000000000000000E+000
  0.000000000000000E+000
  0.000000000000000E+000
  0.000000000000000E+000
  0.000000000000000E+000
  0.000000000000000E+000
  0.000000000000000E+000
  0.000000000000000E+000
  0.000000000000000E+000
  0.000000000000000E+000
  0.000000000000000E+000
  0.000000000000000E+000
  0.000000000000000E+000
  0.000000000000000E+000
  0.000000000000000E+000
  0.000000000000000E+000
  0.000000000000000E+000
  0.000000000000000E+000
  0.000000000000000E+000
  0.000000000000000E+000
  0.000000000000000E+000
  0.000000000000000E+000
  0.000000000000000E+000
  0.000000000000000E+000
  0.000000000000000E+000
  0.000000000000000E+000
  0.000000000000000E+000
  0.000000000000000E+000
  0.000000000000000E+000
  0.000000000000000E+000
  0.000000000000000E+000
  0.000000000000000E+000
  0.000000000000000E+000
  0.000000000000000E+000
  0.000000000000000E+000
  0.000000000000000E+000
  0.000000000000000E+000
  0.000000000000000E+000
  0.000000000000000E+000
  0.000000000000000E+000
  0.000000000000000E+000
  0.000000000000000E+000
  0.000000000000000E+000
  0.000000000000000E+000
  0.000000000000000E+000
  0.000000000000000E+000
  0.000000000000000E+000
  0.000000000000000E+000
  0.000000000000000E+000
  0.000000000000000E+000
  0.000000000000000E+000
  0.000000000000000E+000
  0.000000000000000E+000
  0.000000000000000E+000
  0.000000000000000E+000
  0.000000000000000E+000
  0.000000000000000E+000
  0.000000000000000E+000
  0.000000000000000E+000
  0.000000000000000E+000
  0.000000000000000E+000
  0.000000000000000E+000
  0.000000000000000E+000
  0.000000000000000E+000
  0.000000000000000E+000
  0.000000000000000E+000
  0.000000000000000E+000
  0.000000000000000E+000
  0.000000000000000E+000
  0.000000000000000E+000
  0.000000000000000E+000
  0.000000000000000E+000
  0.000000000000000E+000
  0.000000000000000E+000
  0.000000000000000E+000
  0.000000000000000E+000
  0.000000000000000E+000
  0.000000000000000E+000
  0.000000000000000E+000
  0.000000000000000E+000
  0.000000000000000E+000
  0.000000000000000E+000
  0.000000000000000E+000
  0.000000000000000E+000
  0.000000000000000E+000
  0.000000000000000E+000
  0.000000000000000E+000
  0.000000000000000E+000
  0.000000000000000E+000
  0.000000000000000E+000
  0.000000000000000E+000
  0.000000000000000E+000
  0.000000000000000E+000
  0.000000000000000E+000
  0.000000000000000E+000
  0.000000000000000E+000
  0.000000000000000E+000
  0.000000000000000E+000
  0.000000000000000E+000
  0.000000000000000E+000
  0.000000000000000E+000
  0.000000000000000E+000
  0.000000000000000E+000
  0.000000000000000E+000
  0.000000000000000E+000
  0.000000000000000E+000
  0.000000000000000E+000
  0.000000000000000E+000
  0.000000000000000E+000
  0.000000000000000E+000
  0.000000000000000E+000
  0.000000000000000E+000
  0.000000000000000E+000
  0.000000000000000E+000
  0.000000000000000E+000
  0.000000000000000E+000
  0.000000000000000E+000
  0.000000000000000E+000
  0.000000000000000E+000
  0.000000000000000E+000
  0.000000000000000E+000
  0.000000000000000E+000
  0.000000000000000E+000
  0.000000000000000E+000
  0.000000000000000E+000
  0.000000000000000E+000
  0.000000000000000E+000
  0.000000000000000E+000
  0.000000000000000E+000
  0.000000000000000E+000
  0.000000000000000E+000
  0.000000000000000E+000
  0.000000000000000E+000
  0.000000000000000E+000
  0.000000000000000E+000
  0.000000000000000E+000
  0.000000000000000E+000
  0.000000000000000E+000
  0.000000000000000E+000
  0.000000000000000E+000
  0.000000000000000E+000
  0.000000000000000E+000
  0.000000000000000E+000
  0.000000000000000E+000
  0.000000000000000E+000
  0.000000000000000E+000
  0.000000000000000E+000
  0.000000000000000E+000
  0.000000000000000E+000
  0.000000000000000E+000
  0.000000000000000E+000
  0.000000000000000E+000
  0.000000000000000E+000
  0.000000000000000E+000
  0.000000000000000E+000
  0.000000000000000E+000
  0.000000000000000E+000
  0.000000000000000E+000
  0.000000000000000E+000
  0.000000000000000E+000
  0.000000000000000E+000
  0.000000000000000E+000
  0.000000000000000E+000
  0.000000000000000E+000
  0.000000000000000E+000
  0.000000000000000E+000
  0.000000000000000E+000
  0.000000000000000E+000
  0.000000000000000E+000
  0.000000000000000E+000
  0.000000000000000E+000
  0.000000000000000E+000
  0.000000000000000E+000
  0.000000000000000E+000
  0.000000000000000E+000
  0.000000000000000E+000
  0.000000000000000E+000
  0.000000000000000E+000
  0.000000000000000E+000
  0.000000000000000E+000
  0.000000000000000E+000
  0.000000000000000E+000
  0.000000000000000E+000
  0.000000000000000E+000
  0.000000000000000E+000
  0.000000000000000E+000
  0.000000000000000E+000
  0.000000000000000E+000
  0.000000000000000E+000
  0.000000000000000E+000
  0.000000000000000E+000
  0.000000000000000E+000
  0.000000000000000E+000
  0.000000000000000E+000
  0.000000000000000E+000
  0.000000000000000E+000
  0.000000000000000E+000
  0.000000000000000E+000
  0.000000000000000E+000
  0.000000000000000E+000
  0.000000000000000E+000
  0.000000000000000E+000
  0.000000000000000E+000
  0.000000000000000E+000
  0.000000000000000E+000
  0.000000000000000E+000
  0.000000000000000E+000
  0.000000000000000E+000
  0.000000000000000E+000
  0.000000000000000E+000
  0.000000000000000E+000
  0.000000000000000E+000
  0.000000000000000E+000
  0.000000000000000E+000
  0.000000000000000E+000
  0.000000000000000E+000
  0.000000000000000E+000
  0.000000000000000E+000
  0.000000000000000E+000
  0.000000000000000E+000
  0.000000000000000E+000
  0.000000000000000E+000
  0.000000000000000E+000
  0.000000000000000E+000
  0.000000000000000E+000
  0.000000000000000E+000
  0.000000000000000E+000
  0.000000000000000E+000
  0.000000000000000E+000
  0.000000000000000E+000
  0.000000000000000E+000
  0.000000000000000E+000
  0.000000000000000E+000
  0.000000000000000E+000
  0.000000000000000E+000
  0.000000000000000E+000
  0.000000000000000E+000
  0.000000000000000E+000
  0.000000000000000E+000
  0.000000000000000E+000
  0.000000000000000E+000
  0.000000000000000E+000
  0.000000000000000E+000
  0.000000000000000E+000
  0.000000000000000E+000
  0.000000000000000E+000
  0.000000000000000E+000
  0.000000000000000E+000
  0.000000000000000E+000
  0.000000000000000E+000
  0.000000000000000E+000
  0.000000000000000E+000
  0.000000000000000E+000
  0.000000000000000E+000
  0.000000000000000E+000
  0.000000000000000E+000
  0.000000000000000E+000
  0.000000000000000E+000
  0.000000000000000E+000
  0.000000000000000E+000
  0.000000000000000E+000
  0.000000000000000E+000
  0.000000000000000E+000
  0.000000000000000E+000
  0.000000000000000E+000
  0.000000000000000E+000
  0.000000000000000E+000
  0.000000000000000E+000
  0.000000000000000E+000
  0.000000000000000E+000
  0.000000000000000E+000
  0.000000000000000E+000
  0.000000000000000E+000
  0.000000000000000E+000
  0.000000000000000E+000
  0.000000000000000E+000
  0.000000000000000E+000
  0.000000000000000E+000
  0.000000000000000E+000
  0.000000000000000E+000
  0.000000000000000E+000
  0.000000000000000E+000
  0.000000000000000E+000
  0.000000000000000E+000
  0.000000000000000E+000
  0.000000000000000E+000
  0.000000000000000E+000
  0.000000000000000E+000
  0.000000000000000E+000
  0.000000000000000E+000
  0.000000000000000E+000
  0.000000000000000E+000
  0.000000000000000E+000
  0.000000000000000E+000
  0.000000000000000E+000
  0.000000000000000E+000
  0.000000000000000E+000
  0.000000000000000E+000
  0.000000000000000E+000
  0.000000000000000E+000
  0.000000000000000E+000
  0.000000000000000E+000
  0.000000000000000E+000
  0.000000000000000E+000
  0.000000000000000E+000
  0.000000000000000E+000
  0.000000000000000E+000
  0.000000000000000E+000
  0.000000000000000E+000
  0.000000000000000E+000
  0.000000000000000E+000
  0.000000000000000E+000
  0.000000000000000E+000
  0.000000000000000E+000
  0.000000000000000E+000
  0.000000000000000E+000
  0.000000000000000E+000
  0.000000000000000E+000
  0.000000000000000E+000
  0.000000000000000E+000
  0.000000000000000E+000
  0.000000000000000E+000
  0.000000000000000E+000
  0.000000000000000E+000
  0.000000000000000E+000
  0.000000000000000E+000
  0.000000000000000E+000
  0.000000000000000E+000
  0.000000000000000E+000
  0.000000000000000E+000
  0.000000000000000E+000
  0.000000000000000E+000
  0.000000000000000E+000
  0.000000000000000E+000
  0.000000000000000E+000
  0.000000000000000E+000
  0.000000000000000E+000
  0.000000000000000E+000
  0.000000000000000E+000
  0.000000000000000E+000
  0.000000000000000E+000
  0.000000000000000E+000
  0.000000000000000E+000
  0.000000000000000E+000
  0.000000000000000E+000
  0.000000000000000E+000
  0.000000000000000E+000
  0.000000000000000E+000
  0.000000000000000E+000
  0.000000000000000E+000
  0.000000000000000E+000
  0.000000000000000E+000
  0.000000000000000E+000
  0.000000000000000E+000
  0.000000000000000E+000
  0.000000000000000E+000
  0.000000000000000E+000
  0.000000000000000E+000
  0.000000000000000E+000
  0.000000000000000E+000
  0.000000000000000E+000
  0.000000000000000E+000
  0.000000000000000E+000
  0.000000000000000E+000
  0.000000000000000E+000
  0.000000000000000E+000
  0.000000000000000E+000
  0.000000000000000E+000
  0.000000000000000E+000
  0.000000000000000E+000
  0.000000000000000E+000
  0.000000000000000E+000
  0.000000000000000E+000
  0.000000000000000E+000
  0.000000000000000E+000
  0.000000000000000E+000
  0.000000000000000E+000
  0.000000000000000E+000
  0.000000000000000E+000
  0.000000000000000E+000
  0.000000000000000E+000
  0.000000000000000E+000
  0.000000000000000E+000
  0.000000000000000E+000
  0.000000000000000E+000
  0.000000000000000E+000
  0.000000000000000E+000
  0.000000000000000E+000
  0.000000000000000E+000
  0.000000000000000E+000
  0.000000000000000E+000
  0.000000000000000E+000
  0.000000000000000E+000
  0.000000000000000E+000
  0.000000000000000E+000
  0.000000000000000E+000
  0.000000000000000E+000
  0.000000000000000E+000
  0.000000000000000E+000
  0.000000000000000E+000
  0.000000000000000E+000
  0.000000000000000E+000
  0.000000000000000E+000
  0.000000000000000E+000
  0.000000000000000E+000
  0.000000000000000E+000
  0.000000000000000E+000
  0.000000000000000E+000
  0.000000000000000E+000
  0.000000000000000E+000
  0.000000000000000E+000
  0.000000000000000E+000
  0.000000000000000E+000
  0.000000000000000E+000
  0.000000000000000E+000
  0.000000000000000E+000
  0.000000000000000E+000
  0.000000000000000E+000
  0.000000000000000E+000
  0.000000000000000E+000
  0.000000000000000E+000
  0.000000000000000E+000
  0.000000000000000E+000
  0.000000000000000E+000
  0.000000000000000E+000
  0.000000000000000E+000
  0.000000000000000E+000
  0.000000000000000E+000
  0.000000000000000E+000
  0.000000000000000E+000
  0.000000000000000E+000
  0.000000000000000E+000
  0.000000000000000E+000
  0.000000000000000E+000
  0.000000000000000E+000
  0.000000000000000E+000
  0.000000000000000E+000
  0.000000000000000E+000
  0.000000000000000E+000
  0.000000000000000E+000
  0.000000000000000E+000
  0.000000000000000E+000
  0.000000000000000E+000
  0.000000000000000E+000
  0.000000000000000E+000
  0.000000000000000E+000
  0.000000000000000E+000
  0.000000000000000E+000
  0.000000000000000E+000
  0.000000000000000E+000
  0.000000000000000E+000
  0.000000000000000E+000
  0.000000000000000E+000
  0.000000000000000E+000
  0.000000000000000E+000
  0.000000000000000E+000
  0.000000000000000E+000
  0.000000000000000E+000
  0.000000000000000E+000
  0.000000000000000E+000
  0.000000000000000E+000
  0.000000000000000E+000
  0.000000000000000E+000
  0.000000000000000E+000
  0.000000000000000E+000
  0.000000000000000E+000
  0.000000000000000E+000
  0.000000000000000E+000
  0.000000000000000E+000
  0.000000000000000E+000
  0.000000000000000E+000
  0.000000000000000E+000
  0.000000000000000E+000
  0.000000000000000E+000
  0.000000000000000E+000
  0.000000000000000E+000
  0.000000000000000E+000
  0.000000000000000E+000
  0.000000000000000E+000
  0.000000000000000E+000
  0.000000000000000E+000
  0.000000000000000E+000
  0.000000000000000E+000
  0.000000000000000E+000
  0.000000000000000E+000
  0.000000000000000E+000
  0.000000000000000E+000
  0.000000000000000E+000
  0.000000000000000E+000
  0.000000000000000E+000
  0.000000000000000E+000
  0.000000000000000E+000
  0.000000000000000E+000
  0.000000000000000E+000
  0.000000000000000E+000
  0.000000000000000E+000
  0.000000000000000E+000
  0.000000000000000E+000
  0.000000000000000E+000
  0.000000000000000E+000
  0.000000000000000E+000
  0.000000000000000E+000
  0.000000000000000E+000
  0.000000000000000E+000
  0.000000000000000E+000
  0.000000000000000E+000
  0.000000000000000E+000
  0.000000000000000E+000
  0.000000000000000E+000
  0.000000000000000E+000
  0.000000000000000E+000
  0.000000000000000E+000
  0.000000000000000E+000
  0.000000000000000E+000
  0.000000000000000E+000
  0.000000000000000E+000
  0.000000000000000E+000
  0.000000000000000E+000
  0.000000000000000E+000
  0.000000000000000E+000
  0.000000000000000E+000
  0.000000000000000E+000
  0.000000000000000E+000
  0.000000000000000E+000
  0.000000000000000E+000
  0.000000000000000E+000
  0.000000000000000E+000
  0.000000000000000E+000
  0.000000000000000E+000
  0.000000000000000E+000
  0.000000000000000E+000
  0.000000000000000E+000
  0.000000000000000E+000
  0.000000000000000E+000
  0.000000000000000E+000
  0.000000000000000E+000
  0.000000000000000E+000
  0.000000000000000E+000
  0.000000000000000E+000
  0.000000000000000E+000
  0.000000000000000E+000
  0.000000000000000E+000
  0.000000000000000E+000
  0.000000000000000E+000
  0.000000000000000E+000
  0.000000000000000E+000
  0.000000000000000E+000
  0.000000000000000E+000
  0.000000000000000E+000
  0.000000000000000E+000
  0.000000000000000E+000
  0.000000000000000E+000
  0.000000000000000E+000
  0.000000000000000E+000
  0.000000000000000E+000
  0.000000000000000E+000
  0.000000000000000E+000
  0.000000000000000E+000
  0.000000000000000E+000
  0.000000000000000E+000
  0.000000000000000E+000
  0.000000000000000E+000
  0.000000000000000E+000
  0.000000000000000E+000
  0.000000000000000E+000
  0.000000000000000E+000
  0.000000000000000E+000
  0.000000000000000E+000
  0.000000000000000E+000
  0.000000000000000E+000
  0.000000000000000E+000
  0.000000000000000E+000
  0.000000000000000E+000
  0.000000000000000E+000
  0.000000000000000E+000
  0.000000000000000E+000
  0.000000000000000E+000
  0.000000000000000E+000
  0.000000000000000E+000
  0.000000000000000E+000
  0.000000000000000E+000
  0.000000000000000E+000
  0.000000000000000E+000
  0.000000000000000E+000
  0.000000000000000E+000
  0.000000000000000E+000
  0.000000000000000E+000
  0.000000000000000E+000
  0.000000000000000E+000
  0.000000000000000E+000
  0.000000000000000E+000
  0.000000000000000E+000
  0.000000000000000E+000
  0.000000000000000E+000
  0.000000000000000E+000
  0.000000000000000E+000
  0.000000000000000E+000
  0.000000000000000E+000
  0.000000000000000E+000
  0.000000000000000E+000
  0.000000000000000E+000
  0.000000000000000E+000
  0.000000000000000E+000
  0.000000000000000E+000
  0.000000000000000E+000
  0.000000000000000E+000
  0.000000000000000E+000
  0.000000000000000E+000
  0.000000000000000E+000
  0.000000000000000E+000
  0.000000000000000E+000
  0.000000000000000E+000
  0.000000000000000E+000
  0.000000000000000E+000
  0.000000000000000E+000
  0.000000000000000E+000
  0.000000000000000E+000
  0.000000000000000E+000
  0.000000000000000E+000
  0.000000000000000E+000
  0.000000000000000E+000
  0.000000000000000E+000
  0.000000000000000E+000
  0.000000000000000E+000
  0.000000000000000E+000
  0.000000000000000E+000
  0.000000000000000E+000
  0.000000000000000E+000
  0.000000000000000E+000
  0.000000000000000E+000
  0.000000000000000E+000
  0.000000000000000E+000
  0.000000000000000E+000
  0.000000000000000E+000
  0.000000000000000E+000
  0.000000000000000E+000
  0.000000000000000E+000
  0.000000000000000E+000
  0.000000000000000E+000
  0.000000000000000E+000
  0.000000000000000E+000
  0.000000000000000E+000
  0.000000000000000E+000
  0.000000000000000E+000
  0.000000000000000E+000
  0.000000000000000E+000
  0.000000000000000E+000
  0.000000000000000E+000
  0.000000000000000E+000
  0.000000000000000E+000
  0.000000000000000E+000
  0.000000000000000E+000
  0.000000000000000E+000
  0.000000000000000E+000
  0.000000000000000E+000
  0.000000000000000E+000
  0.000000000000000E+000
  0.000000000000000E+000
  0.000000000000000E+000
  0.000000000000000E+000
  0.000000000000000E+000
  0.000000000000000E+000
  0.000000000000000E+000
  0.000000000000000E+000
  0.000000000000000E+000
  0.000000000000000E+000
  0.000000000000000E+000
  0.000000000000000E+000
  0.000000000000000E+000
  0.000000000000000E+000
  0.000000000000000E+000
  0.000000000000000E+000
  0.000000000000000E+000
  0.000000000000000E+000
  0.000000000000000E+000
  0.000000000000000E+000
  0.000000000000000E+000
  0.000000000000000E+000
  0.000000000000000E+000
  0.000000000000000E+000
  0.000000000000000E+000
  0.000000000000000E+000
  0.000000000000000E+000
  0.000000000000000E+000
  0.000000000000000E+000
  0.000000000000000E+000
  0.000000000000000E+000
  0.000000000000000E+000
  0.000000000000000E+000
  0.000000000000000E+000
  0.000000000000000E+000
  0.000000000000000E+000
  0.000000000000000E+000
  0.000000000000000E+000
  0.000000000000000E+000
  0.000000000000000E+000
  0.000000000000000E+000
  0.000000000000000E+000
  0.000000000000000E+000
  0.000000000000000E+000
  0.000000000000000E+000
  0.000000000000000E+000
  0.000000000000000E+000
  0.000000000000000E+000
  0.000000000000000E+000
  0.000000000000000E+000
  0.000000000000000E+000
  0.000000000000000E+000
  0.000000000000000E+000
  0.000000000000000E+000
  0.000000000000000E+000
  0.000000000000000E+000
  0.000000000000000E+000
  0.000000000000000E+000
  0.000000000000000E+000
  0.000000000000000E+000
  0.000000000000000E+000
  0.000000000000000E+000
  0.000000000000000E+000
  0.000000000000000E+000
  0.000000000000000E+000
  0.000000000000000E+000
  0.000000000000000E+000
  0.000000000000000E+000
  0.000000000000000E+000
  0.000000000000000E+000
  0.000000000000000E+000
  0.000000000000000E+000
  0.000000000000000E+000
  0.000000000000000E+000
  0.000000000000000E+000
  0.000000000000000E+000
  0.000000000000000E+000
  0.000000000000000E+000
  0.000000000000000E+000
  0.000000000000000E+000
  0.000000000000000E+000
  0.000000000000000E+000
  0.000000000000000E+000
  0.000000000000000E+000
  0.000000000000000E+000
  0.000000000000000E+000
  0.000000000000000E+000
  0.000000000000000E+000
  0.000000000000000E+000
  0.000000000000000E+000
  0.000000000000000E+000
  0.000000000000000E+000
  0.000000000000000E+000
  0.000000000000000E+000
  0.000000000000000E+000
  0.000000000000000E+000
  0.000000000000000E+000
  0.000000000000000E+000
  0.000000000000000E+000
  0.000000000000000E+000
  0.000000000000000E+000
  0.000000000000000E+000
  0.000000000000000E+000
  0.000000000000000E+000
  0.000000000000000E+000
  0.000000000000000E+000
  0.000000000000000E+000
  0.000000000000000E+000
  0.000000000000000E+000
  0.000000000000000E+000
  0.000000000000000E+000
  0.000000000000000E+000
  0.000000000000000E+000
  0.000000000000000E+000
  0.000000000000000E+000
  0.000000000000000E+000
  0.000000000000000E+000
  0.000000000000000E+000
  0.000000000000000E+000
  0.000000000000000E+000
  0.000000000000000E+000
  0.000000000000000E+000
  0.000000000000000E+000
  0.000000000000000E+000
  0.000000000000000E+000
  0.000000000000000E+000
  0.000000000000000E+000
  0.000000000000000E+000
  0.000000000000000E+000
  0.000000000000000E+000
  0.000000000000000E+000
  0.000000000000000E+000
  0.000000000000000E+000
  0.000000000000000E+000
  0.000000000000000E+000
  0.000000000000000E+000
  0.000000000000000E+000
  0.000000000000000E+000
  0.000000000000000E+000
  0.000000000000000E+000
  0.000000000000000E+000
  0.000000000000000E+000
  0.000000000000000E+000
  0.000000000000000E+000
  0.000000000000000E+000
  0.000000000000000E+000
  0.000000000000000E+000
  0.000000000000000E+000
  0.000000000000000E+000
  0.000000000000000E+000
  0.000000000000000E+000
  0.000000000000000E+000
  0.000000000000000E+000
  0.000000000000000E+000
  0.000000000000000E+000
  0.000000000000000E+000
  0.000000000000000E+000
  0.000000000000000E+000
  0.000000000000000E+000
  0.000000000000000E+000
  0.000000000000000E+000
  0.000000000000000E+000
  0.000000000000000E+000
  0.000000000000000E+000
  0.000000000000000E+000
  0.000000000000000E+000
  0.000000000000000E+000
  0.000000000000000E+000
  0.000000000000000E+000
  0.000000000000000E+000
  0.000000000000000E+000
  0.000000000000000E+000
  0.000000000000000E+000
  0.000000000000000E+000
  0.000000000000000E+000
  0.000000000000000E+000
  0.000000000000000E+000
  0.000000000000000E+000
  0.000000000000000E+000
  0.000000000000000E+000
  0.000000000000000E+000
  0.000000000000000E+000
  0.000000000000000E+000
  0.000000000000000E+000
  0.000000000000000E+000
  0.000000000000000E+000
  0.000000000000000E+000
  0.000000000000000E+000
  0.000000000000000E+000
  0.000000000000000E+000
  0.000000000000000E+000
  0.000000000000000E+000
  0.000000000000000E+000
  0.000000000000000E+000
  0.000000000000000E+000
  0.000000000000000E+000
  0.000000000000000E+000
  0.000000000000000E+000
  0.000000000000000E+000
  0.000000000000000E+000
  0.000000000000000E+000
  0.000000000000000E+000
  0.000000000000000E+000
  0.000000000000000E+000
  0.000000000000000E+000
  0.000000000000000E+000
  0.000000000000000E+000
  0.000000000000000E+000
  0.000000000000000E+000
  0.000000000000000E+000
  0.000000000000000E+000
  0.000000000000000E+000
  0.000000000000000E+000
  0.000000000000000E+000
  0.000000000000000E+000
  0.000000000000000E+000
  0.000000000000000E+000
  0.000000000000000E+000
  0.000000000000000E+000
  0.000000000000000E+000
  0.000000000000000E+000
  0.000000000000000E+000
  0.000000000000000E+000
  0.000000000000000E+000
  0.000000000000000E+000
  0.000000000000000E+000
  0.000000000000000E+000
  0.000000000000000E+000
  0.000000000000000E+000
  0.000000000000000E+000
  0.000000000000000E+000
  0.000000000000000E+000
  0.000000000000000E+000
  0.000000000000000E+000
  0.000000000000000E+000
  0.000000000000000E+000
  0.000000000000000E+000
  0.000000000000000E+000
  0.000000000000000E+000
  0.000000000000000E+000
  0.000000000000000E+000
  0.000000000000000E+000
  0.000000000000000E+000
  0.000000000000000E+000
  0.000000000000000E+000
  0.000000000000000E+000
  0.000000000000000E+000
  0.000000000000000E+000
  0.000000000000000E+000
  0.000000000000000E+000
  0.000000000000000E+000
  0.000000000000000E+000
  0.000000000000000E+000
  0.000000000000000E+000
  0.000000000000000E+000
  0.000000000000000E+000
  0.000000000000000E+000
  0.000000000000000E+000
  0.000000000000000E+000
  0.000000000000000E+000
  0.000000000000000E+000
  0.000000000000000E+000
  0.000000000000000E+000
  0.000000000000000E+000
  0.000000000000000E+000
  0.000000000000000E+000
  0.000000000000000E+000
  0.000000000000000E+000
  0.000000000000000E+000
  0.000000000000000E+000
  0.000000000000000E+000
  0.000000000000000E+000
  0.000000000000000E+000
  0.000000000000000E+000
  0.000000000000000E+000
  0.000000000000000E+000
  0.000000000000000E+000
  0.000000000000000E+000
  0.000000000000000E+000
  0.000000000000000E+000
  0.000000000000000E+000
  0.000000000000000E+000
  0.000000000000000E+000
  0.000000000000000E+000
  0.000000000000000E+000
  0.000000000000000E+000
  0.000000000000000E+000
  0.000000000000000E+000
  0.000000000000000E+000
  0.000000000000000E+000
  0.000000000000000E+000
  0.000000000000000E+000
  0.000000000000000E+000
  0.000000000000000E+000
  0.000000000000000E+000
  0.000000000000000E+000
  0.000000000000000E+000
  0.000000000000000E+000
  0.000000000000000E+000
  0.000000000000000E+000
  0.000000000000000E+000
  0.000000000000000E+000
  0.000000000000000E+000
  0.000000000000000E+000
  0.000000000000000E+000
  0.000000000000000E+000
  0.000000000000000E+000
  0.000000000000000E+000
  0.000000000000000E+000
  0.000000000000000E+000
  0.000000000000000E+000
  0.000000000000000E+000
  0.000000000000000E+000
  0.000000000000000E+000
  0.000000000000000E+000
  0.000000000000000E+000
  0.000000000000000E+000
  0.000000000000000E+000
  0.000000000000000E+000
  0.000000000000000E+000
  0.000000000000000E+000
  0.000000000000000E+000
  0.000000000000000E+000
  0.000000000000000E+000
  0.000000000000000E+000
  0.000000000000000E+000
  0.000000000000000E+000
  0.000000000000000E+000
  0.000000000000000E+000
  0.000000000000000E+000
  0.000000000000000E+000
  0.000000000000000E+000
  0.000000000000000E+000
  0.000000000000000E+000
  0.000000000000000E+000
  0.000000000000000E+000
  0.000000000000000E+000
  0.000000000000000E+000
  0.000000000000000E+000
  0.000000000000000E+000
  0.000000000000000E+000
  0.000000000000000E+000
  0.000000000000000E+000
  0.000000000000000E+000
  0.000000000000000E+000
  0.000000000000000E+000
  0.000000000000000E+000
  0.000000000000000E+000
  0.000000000000000E+000
  0.000000000000000E+000
  0.000000000000000E+000
  0.000000000000000E+000
  0.000000000000000E+000
  0.000000000000000E+000
  0.000000000000000E+000
  0.000000000000000E+000
  0.000000000000000E+000
  0.000000000000000E+000
  0.000000000000000E+000
  0.000000000000000E+000
  0.000000000000000E+000
  0.000000000000000E+000
  0.000000000000000E+000
  0.000000000000000E+000
  0.000000000000000E+000
  0.000000000000000E+000
  0.000000000000000E+000
  0.000000000000000E+000
  0.000000000000000E+000
  0.000000000000000E+000
  0.000000000000000E+000
  0.000000000000000E+000
  0.000000000000000E+000
  0.000000000000000E+000
  0.000000000000000E+000
  0.000000000000000E+000
  0.000000000000000E+000
  0.000000000000000E+000
  0.000000000000000E+000
  0.000000000000000E+000
  0.000000000000000E+000
  0.000000000000000E+000
  0.000000000000000E+000
  0.000000000000000E+000
  0.000000000000000E+000
  0.000000000000000E+000
  0.000000000000000E+000
  0.000000000000000E+000
  0.000000000000000E+000
  0.000000000000000E+000
  0.000000000000000E+000
  0.000000000000000E+000
  0.000000000000000E+000
  0.000000000000000E+000
  0.000000000000000E+000
  0.000000000000000E+000
  0.000000000000000E+000
  0.000000000000000E+000
  0.000000000000000E+000
  0.000000000000000E+000
  0.000000000000000E+000
  0.000000000000000E+000
  0.000000000000000E+000
  0.000000000000000E+000
  0.000000000000000E+000
  0.000000000000000E+000
  0.000000000000000E+000
  0.000000000000000E+000
  0.000000000000000E+000
  0.000000000000000E+000
  0.000000000000000E+000
  0.000000000000000E+000
  0.000000000000000E+000
  0.000000000000000E+000
  0.000000000000000E+000
  0.000000000000000E+000
  0.000000000000000E+000
  0.000000000000000E+000
  0.000000000000000E+000
  0.000000000000000E+000
  0.000000000000000E+000
  0.000000000000000E+000
  0.000000000000000E+000
  0.000000000000000E+000
  0.000000000000000E+000
  0.000000000000000E+000
  0.000000000000000E+000
  0.000000000000000E+000
  0.000000000000000E+000
  0.000000000000000E+000
  0.000000000000000E+000
  0.000000000000000E+000
  0.000000000000000E+000
  0.000000000000000E+000
  0.000000000000000E+000
  0.000000000000000E+000
  0.000000000000000E+000
  0.000000000000000E+000
  0.000000000000000E+000
  0.000000000000000E+000
  0.000000000000000E+000
  0.000000000000000E+000
  0.000000000000000E+000
  0.000000000000000E+000
  0.000000000000000E+000
  0.000000000000000E+000
  0.000000000000000E+000
  0.000000000000000E+000
  0.000000000000000E+000
  0.000000000000000E+000
  0.000000000000000E+000
  0.000000000000000E+000
  0.000000000000000E+000
  0.000000000000000E+000
  0.000000000000000E+000
  0.000000000000000E+000
  0.000000000000000E+000
  0.000000000000000E+000
  0.000000000000000E+000
  0.000000000000000E+000
  0.000000000000000E+000
  0.000000000000000E+000
  0.000000000000000E+000
  0.000000000000000E+000
  0.000000000000000E+000
  0.000000000000000E+000
  0.000000000000000E+000
  0.000000000000000E+000
  0.000000000000000E+000
  0.000000000000000E+000
  0.000000000000000E+000
  0.000000000000000E+000
  0.000000000000000E+000
  0.000000000000000E+000
  0.000000000000000E+000
  0.000000000000000E+000
  0.000000000000000E+000
  0.000000000000000E+000
  0.000000000000000E+000
  0.000000000000000E+000
  0.000000000000000E+000
  0.000000000000000E+000
  0.000000000000000E+000
  0.000000000000000E+000
  0.000000000000000E+000
  0.000000000000000E+000
  0.000000000000000E+000
  0.000000000000000E+000
  0.000000000000000E+000
  0.000000000000000E+000
  0.000000000000000E+000
  0.000000000000000E+000
  0.000000000000000E+000
  0.000000000000000E+000
  0.000000000000000E+000
  0.000000000000000E+000
  0.000000000000000E+000
  0.000000000000000E+000
  0.000000000000000E+000
  0.000000000000000E+000
  0.000000000000000E+000
  0.000000000000000E+000
  0.000000000000000E+000
  0.000000000000000E+000
  0.000000000000000E+000
  0.000000000000000E+000
  0.000000000000000E+000
  0.000000000000000E+000
  0.000000000000000E+000
  0.000000000000000E+000
  0.000000000000000E+000
  0.000000000000000E+000
  0.000000000000000E+000
  0.000000000000000E+000
  0.000000000000000E+000
  0.000000000000000E+000
  0.000000000000000E+000
  0.000000000000000E+000
  0.000000000000000E+000
  0.000000000000000E+000
  0.000000000000000E+000
  0.000000000000000E+000
  0.000000000000000E+000
  0.000000000000000E+000
  0.000000000000000E+000
  0.000000000000000E+000
  0.000000000000000E+000
  0.000000000000000E+000
  0.000000000000000E+000
  0.000000000000000E+000
  0.000000000000000E+000
  0.000000000000000E+000
  0.000000000000000E+000
  0.000000000000000E+000
  0.000000000000000E+000
  0.000000000000000E+000
  0.000000000000000E+000
  0.000000000000000E+000
  0.000000000000000E+000
  0.000000000000000E+000
  0.000000000000000E+000
  0.000000000000000E+000
  0.000000000000000E+000
  0.000000000000000E+000
  0.000000000000000E+000
  0.000000000000000E+000
  0.000000000000000E+000
  0.000000000000000E+000
  0.000000000000000E+000
  0.000000000000000E+000
  0.000000000000000E+000
  0.000000000000000E+000
  0.000000000000000E+000
  0.000000000000000E+000
  0.000000000000000E+000
  0.000000000000000E+000
  0.000000000000000E+000
  0.000000000000000E+000
  0.000000000000000E+000
  0.000000000000000E+000
  0.000000000000000E+000
  0.000000000000000E+000
  0.000000000000000E+000
  0.000000000000000E+000
  0.000000000000000E+000
  0.000000000000000E+000
  0.000000000000000E+000
  0.000000000000000E+000
  0.000000000000000E+000
  0.000000000000000E+000
  0.000000000000000E+000
  0.000000000000000E+000
  0.000000000000000E+000
  0.000000000000000E+000
  0.000000000000000E+000
  0.000000000000000E+000
  0.000000000000000E+000
  0.000000000000000E+000
  0.000000000000000E+000
  0.000000000000000E+000
  0.000000000000000E+000
  0.000000000000000E+000
  0.000000000000000E+000
  0.000000000000000E+000
  0.000000000000000E+000
  0.000000000000000E+000
  0.000000000000000E+000
  0.000000000000000E+000
  0.000000000000000E+000
  0.000000000000000E+000
  0.000000000000000E+000
  0.000000000000000E+000
  0.000000000000000E+000
  0.000000000000000E+000
  0.000000000000000E+000
  0.000000000000000E+000
  0.000000000000000E+000
  0.000000000000000E+000
  0.000000000000000E+000
  0.000000000000000E+000
  0.000000000000000E+000
  0.000000000000000E+000
  0.000000000000000E+000
  0.000000000000000E+000
  0.000000000000000E+000
  0.000000000000000E+000
  0.000000000000000E+000
  0.000000000000000E+000
  0.000000000000000E+000
  0.000000000000000E+000
  0.000000000000000E+000
  0.000000000000000E+000
  0.000000000000000E+000
  0.000000000000000E+000
  0.000000000000000E+000
  0.000000000000000E+000
  0.000000000000000E+000
  0.000000000000000E+000
  0.000000000000000E+000
  0.000000000000000E+000
  0.000000000000000E+000
  0.000000000000000E+000
  0.000000000000000E+000
  0.000000000000000E+000
  0.000000000000000E+000
  0.000000000000000E+000
  0.000000000000000E+000
  0.000000000000000E+000
  0.000000000000000E+000
  0.000000000000000E+000
  0.000000000000000E+000
  0.000000000000000E+000
  0.000000000000000E+000
  0.000000000000000E+000
  0.000000000000000E+000
  0.000000000000000E+000
  0.000000000000000E+000
  0.000000000000000E+000
  0.000000000000000E+000
  0.000000000000000E+000
  0.000000000000000E+000
  0.000000000000000E+000
  0.000000000000000E+000
  0.000000000000000E+000
  0.000000000000000E+000
  0.000000000000000E+000
  0.000000000000000E+000
  0.000000000000000E+000
  0.000000000000000E+000
  0.000000000000000E+000
  0.000000000000000E+000
  0.000000000000000E+000
  0.000000000000000E+000
  0.000000000000000E+000
  0.000000000000000E+000
  0.000000000000000E+000
  0.000000000000000E+000
  0.000000000000000E+000
  0.000000000000000E+000
  0.000000000000000E+000
  0.000000000000000E+000
  0.000000000000000E+000
  0.000000000000000E+000
  0.000000000000000E+000
  0.000000000000000E+000
  0.000000000000000E+000
  0.000000000000000E+000
  0.000000000000000E+000
  0.000000000000000E+000
  0.000000000000000E+000
  0.000000000000000E+000
  0.000000000000000E+000
  0.000000000000000E+000
  0.000000000000000E+000
  0.000000000000000E+000
  0.000000000000000E+000
  0.000000000000000E+000
  0.000000000000000E+000
  0.000000000000000E+000
  0.000000000000000E+000
  0.000000000000000E+000
  0.000000000000000E+000
  0.000000000000000E+000
  0.000000000000000E+000
  0.000000000000000E+000
  0.000000000000000E+000
  0.000000000000000E+000
  0.000000000000000E+000
  0.000000000000000E+000
  0.000000000000000E+000
  0.000000000000000E+000
  0.000000000000000E+000
  0.000000000000000E+000
  0.000000000000000E+000
  0.000000000000000E+000
  0.000000000000000E+000
  0.000000000000000E+000
  0.000000000000000E+000
  0.000000000000000E+000
  0.000000000000000E+000
  0.000000000000000E+000
  0.000000000000000E+000
  0.000000000000000E+000
  0.000000000000000E+000
  0.000000000000000E+000
  0.000000000000000E+000
  0.000000000000000E+000
  0.000000000000000E+000
  0.000000000000000E+000
  0.000000000000000E+000
  0.000000000000000E+000
  0.000000000000000E+000
  0.000000000000000E+000
  0.000000000000000E+000
  0.000000000000000E+000
  0.000000000000000E+000
  0.000000000000000E+000
  0.000000000000000E+000
  0.000000000000000E+000
  0.000000000000000E+000
  0.000000000000000E+000
  0.000000000000000E+000
  0.000000000000000E+000
  0.000000000000000E+000
  0.000000000000000E+000
  0.000000000000000E+000
  0.000000000000000E+000
  0.000000000000000E+000
  0.000000000000000E+000
  0.000000000000000E+000
  0.000000000000000E+000
  0.000000000000000E+000
  0.000000000000000E+000
  0.000000000000000E+000
  0.000000000000000E+000
  0.000000000000000E+000
  0.000000000000000E+000
  0.000000000000000E+000
  0.000000000000000E+000
  0.000000000000000E+000
  0.000000000000000E+000
  0.000000000000000E+000
  0.000000000000000E+000
  0.000000000000000E+000
  0.000000000000000E+000
  0.000000000000000E+000
  0.000000000000000E+000
  0.000000000000000E+000
  0.000000000000000E+000
  0.000000000000000E+000
  0.000000000000000E+000
  0.000000000000000E+000
  0.000000000000000E+000
  0.000000000000000E+000
  0.000000000000000E+000
  0.000000000000000E+000
  0.000000000000000E+000
  0.000000000000000E+000
  0.000000000000000E+000
  0.000000000000000E+000
  0.000000000000000E+000
  0.000000000000000E+000
  0.000000000000000E+000
  0.000000000000000E+000
  0.000000000000000E+000
  0.000000000000000E+000
  0.000000000000000E+000
  0.000000000000000E+000
  0.000000000000000E+000
  0.000000000000000E+000
  0.000000000000000E+000
  0.000000000000000E+000
  0.000000000000000E+000
  0.000000000000000E+000
  0.000000000000000E+000
  0.000000000000000E+000
  0.000000000000000E+000
  0.000000000000000E+000
  0.000000000000000E+000
  0.000000000000000E+000
  0.000000000000000E+000
  0.000000000000000E+000
  0.000000000000000E+000
  0.000000000000000E+000
  0.000000000000000E+000
  0.000000000000000E+000
  0.000000000000000E+000
  0.000000000000000E+000
  0.000000000000000E+000
  0.000000000000000E+000
  0.000000000000000E+000
  0.000000000000000E+000
  0.000000000000000E+000
  0.000000000000000E+000
  0.000000000000000E+000
  0.000000000000000E+000
  0.000000000000000E+000
  0.000000000000000E+000
  0.000000000000000E+000
  0.000000000000000E+000
  0.000000000000000E+000
  0.000000000000000E+000
  0.000000000000000E+000
  0.000000000000000E+000
  0.000000000000000E+000
  0.000000000000000E+000
  0.000000000000000E+000
  0.000000000000000E+000
  0.000000000000000E+000
  0.000000000000000E+000
  0.000000000000000E+000
  0.000000000000000E+000
  0.000000000000000E+000
  0.000000000000000E+000
  0.000000000000000E+000
  0.000000000000000E+000
  0.000000000000000E+000
  0.000000000000000E+000
  0.000000000000000E+000
  0.000000000000000E+000
  0.000000000000000E+000
  0.000000000000000E+000
  0.000000000000000E+000
  0.000000000000000E+000
  0.000000000000000E+000
  0.000000000000000E+000
  0.000000000000000E+000
  0.000000000000000E+000
  0.000000000000000E+000
  0.000000000000000E+000
  0.000000000000000E+000
  0.000000000000000E+000
  0.000000000000000E+000
  0.000000000000000E+000
  0.000000000000000E+000
  0.000000000000000E+000
  0.000000000000000E+000
  0.000000000000000E+000
  0.000000000000000E+000
  0.000000000000000E+000
  0.000000000000000E+000
  0.000000000000000E+000
  0.000000000000000E+000
  0.000000000000000E+000
  0.000000000000000E+000
  0.000000000000000E+000
  0.000000000000000E+000
  0.000000000000000E+000
  0.000000000000000E+000
  0.000000000000000E+000
  0.000000000000000E+000
  0.000000000000000E+000
  0.000000000000000E+000
  0.000000000000000E+000
  0.000000000000000E+000
  0.000000000000000E+000
  0.000000000000000E+000
  0.000000000000000E+000
  0.000000000000000E+000
  0.000000000000000E+000
  0.000000000000000E+000
  0.000000000000000E+000
  0.000000000000000E+000
  0.000000000000000E+000
  0.000000000000000E+000
  0.000000000000000E+000
  0.000000000000000E+000
  0.000000000000000E+000
  0.000000000000000E+000
  0.000000000000000E+000
  0.000000000000000E+000
  0.000000000000000E+000
  0.000000000000000E+000
  0.000000000000000E+000
  0.000000000000000E+000
  0.000000000000000E+000
  0.000000000000000E+000
  0.000000000000000E+000
  0.000000000000000E+000
  0.000000000000000E+000
  0.000000000000000E+000
  0.000000000000000E+000
  0.000000000000000E+000
  0.000000000000000E+000
  0.000000000000000E+000
  0.000000000000000E+000
  0.000000000000000E+000
  0.000000000000000E+000
  0.000000000000000E+000
  0.000000000000000E+000
  0.000000000000000E+000
  0.000000000000000E+000
  0.000000000000000E+000
  0.000000000000000E+000
  0.000000000000000E+000
  0.000000000000000E+000
  0.000000000000000E+000
  0.000000000000000E+000
  0.000000000000000E+000
  0.000000000000000E+000
  0.000000000000000E+000
  0.000000000000000E+000
  0.000000000000000E+000
  0.000000000000000E+000
  0.000000000000000E+000
  0.000000000000000E+000
  0.000000000000000E+000
  0.000000000000000E+000
  0.000000000000000E+000
  0.000000000000000E+000
  0.000000000000000E+000
  0.000000000000000E+000
  0.000000000000000E+000
  0.000000000000000E+000
  0.000000000000000E+000
  0.000000000000000E+000
  0.000000000000000E+000
  0.000000000000000E+000
  0.000000000000000E+000
  0.000000000000000E+000
  0.000000000000000E+000
  0.000000000000000E+000
  0.000000000000000E+000
  0.000000000000000E+000
  0.000000000000000E+000
  0.000000000000000E+000
  0.000000000000000E+000
  0.000000000000000E+000
  0.000000000000000E+000
  0.000000000000000E+000
  0.000000000000000E+000
  0.000000000000000E+000
  0.000000000000000E+000
  0.000000000000000E+000
  0.000000000000000E+000
  0.000000000000000E+000
  0.000000000000000E+000
  0.000000000000000E+000
  0.000000000000000E+000
  0.000000000000000E+000
  0.000000000000000E+000
  0.000000000000000E+000
  0.000000000000000E+000
  0.000000000000000E+000
  0.000000000000000E+000
  0.000000000000000E+000
  0.000000000000000E+000
  0.000000000000000E+000
  0.000000000000000E+000
  0.000000000000000E+000
  0.000000000000000E+000
  0.000000000000000E+000
  0.000000000000000E+000
  0.000000000000000E+000
  0.000000000000000E+000
  0.000000000000000E+000
  0.000000000000000E+000
  0.000000000000000E+000
  0.000000000000000E+000
  0.000000000000000E+000
  0.000000000000000E+000
  0.000000000000000E+000
  0.000000000000000E+000
  0.000000000000000E+000
  0.000000000000000E+000
  0.000000000000000E+000
  0.000000000000000E+000
  0.000000000000000E+000
  0.000000000000000E+000
  0.000000000000000E+000
  0.000000000000000E+000
  0.000000000000000E+000
  0.000000000000000E+000
  0.000000000000000E+000
  0.000000000000000E+000
  0.000000000000000E+000
  0.000000000000000E+000
  0.000000000000000E+000
  0.000000000000000E+000
  0.000000000000000E+000
  0.000000000000000E+000
  0.000000000000000E+000
  0.000000000000000E+000
  0.000000000000000E+000
  0.000000000000000E+000
  0.000000000000000E+000
  0.000000000000000E+000
  0.000000000000000E+000
  0.000000000000000E+000
  0.000000000000000E+000
  0.000000000000000E+000
  0.000000000000000E+000
  0.000000000000000E+000
  0.000000000000000E+000
  0.000000000000000E+000
  0.000000000000000E+000
  0.000000000000000E+000
  0.000000000000000E+000
  0.000000000000000E+000
  0.000000000000000E+000
  0.000000000000000E+000
  0.000000000000000E+000
  0.000000000000000E+000
  0.000000000000000E+000
  0.000000000000000E+000
  0.000000000000000E+000
  0.000000000000000E+000
  0.000000000000000E+000
  0.000000000000000E+000
  0.000000000000000E+000
  0.000000000000000E+000
  0.000000000000000E+000
  0.000000000000000E+000
  0.000000000000000E+000
  0.000000000000000E+000
  0.000000000000000E+000
  0.000000000000000E+000
  0.000000000000000E+000
  0.000000000000000E+000
  0.000000000000000E+000
  0.000000000000000E+000
  0.000000000000000E+000
  0.000000000000000E+000
  0.000000000000000E+000
  0.000000000000000E+000
  0.000000000000000E+000
  0.000000000000000E+000
  0.000000000000000E+000
  0.000000000000000E+000
  0.000000000000000E+000
  0.000000000000000E+000
  0.000000000000000E+000
  0.000000000000000E+000
  0.000000000000000E+000
  0.000000000000000E+000
  0.000000000000000E+000
  0.000000000000000E+000
  0.000000000000000E+000
  0.000000000000000E+000
  0.000000000000000E+000
  0.000000000000000E+000
  0.000000000000000E+000
  0.000000000000000E+000
  0.000000000000000E+000
  0.000000000000000E+000
  0.000000000000000E+000
  0.000000000000000E+000
  0.000000000000000E+000
  0.000000000000000E+000
  0.000000000000000E+000
  0.000000000000000E+000
  0.000000000000000E+000
  0.000000000000000E+000
  0.000000000000000E+000
  0.000000000000000E+000
  0.000000000000000E+000
  0.000000000000000E+000
  0.000000000000000E+000
  0.000000000000000E+000
  0.000000000000000E+000
  0.000000000000000E+000
  0.000000000000000E+000
  0.000000000000000E+000
  0.000000000000000E+000
  0.000000000000000E+000
  0.000000000000000E+000
  0.000000000000000E+000
  0.000000000000000E+000
  0.000000000000000E+000
  0.000000000000000E+000
  0.000000000000000E+000
  0.000000000000000E+000
  0.000000000000000E+000
  0.000000000000000E+000
  0.000000000000000E+000
  0.000000000000000E+000
  0.000000000000000E+000
  0.000000000000000E+000
  0.000000000000000E+000
  0.000000000000000E+000
  0.000000000000000E+000
  0.000000000000000E+000
  0.000000000000000E+000
  0.000000000000000E+000
  0.000000000000000E+000
  0.000000000000000E+000
  0.000000000000000E+000
  0.000000000000000E+000
  0.000000000000000E+000
  0.000000000000000E+000
  0.000000000000000E+000
  0.000000000000000E+000
  0.000000000000000E+000
  0.000000000000000E+000
  0.000000000000000E+000
  0.000000000000000E+000
  0.000000000000000E+000
  0.000000000000000E+000
  0.000000000000000E+000
  0.000000000000000E+000
  0.000000000000000E+000
  0.000000000000000E+000
  0.000000000000000E+000
  0.000000000000000E+000
  0.000000000000000E+000
  0.000000000000000E+000
  0.000000000000000E+000
  0.000000000000000E+000
  0.000000000000000E+000
  0.000000000000000E+000
  0.000000000000000E+000
  0.000000000000000E+000
  0.000000000000000E+000
  0.000000000000000E+000
  0.000000000000000E+000
  0.000000000000000E+000
  0.000000000000000E+000
  0.000000000000000E+000
  0.000000000000000E+000
  0.000000000000000E+000
  0.000000000000000E+000
  0.000000000000000E+000
  0.000000000000000E+000
  0.000000000000000E+000
  0.000000000000000E+000
  0.000000000000000E+000
  0.000000000000000E+000
  0.000000000000000E+000
  0.000000000000000E+000
  0.000000000000000E+000
  0.000000000000000E+000
  0.000000000000000E+000
  0.000000000000000E+000
  0.000000000000000E+000
  0.000000000000000E+000
  0.000000000000000E+000
  0.000000000000000E+000
  0.000000000000000E+000
  0.000000000000000E+000
  0.000000000000000E+000
  0.000000000000000E+000
  0.000000000000000E+000
  0.000000000000000E+000
  0.000000000000000E+000
  0.000000000000000E+000
  0.000000000000000E+000
  0.000000000000000E+000
  0.000000000000000E+000
  0.000000000000000E+000
  0.000000000000000E+000
  0.000000000000000E+000
  0.000000000000000E+000
  0.000000000000000E+000
  0.000000000000000E+000
  0.000000000000000E+000
  0.000000000000000E+000
  0.000000000000000E+000
  0.000000000000000E+000
  0.000000000000000E+000
  0.000000000000000E+000
  0.000000000000000E+000
  0.000000000000000E+000
  0.000000000000000E+000
  0.000000000000000E+000
  0.000000000000000E+000
  0.000000000000000E+000
  0.000000000000000E+000
  0.000000000000000E+000
  0.000000000000000E+000
  0.000000000000000E+000
  0.000000000000000E+000
  0.000000000000000E+000
  0.000000000000000E+000
  0.000000000000000E+000
  0.000000000000000E+000
  0.000000000000000E+000
  0.000000000000000E+000
  0.000000000000000E+000
  0.000000000000000E+000
  0.000000000000000E+000
  0.000000000000000E+000
  0.000000000000000E+000
  0.000000000000000E+000
  0.000000000000000E+000
  0.000000000000000E+000
  0.000000000000000E+000
  0.000000000000000E+000
  0.000000000000000E+000
  0.000000000000000E+000
  0.000000000000000E+000
  0.000000000000000E+000
  0.000000000000000E+000
  0.000000000000000E+000
  0.000000000000000E+000
  0.000000000000000E+000
  0.000000000000000E+000
  0.000000000000000E+000
  0.000000000000000E+000
  0.000000000000000E+000
  0.000000000000000E+000
  0.000000000000000E+000
  0.000000000000000E+000
  0.000000000000000E+000
  0.000000000000000E+000
  0.000000000000000E+000
  0.000000000000000E+000
  0.000000000000000E+000
  0.000000000000000E+000
  0.000000000000000E+000
  0.000000000000000E+000
  0.000000000000000E+000
  0.000000000000000E+000
  0.000000000000000E+000
  0.000000000000000E+000
  0.000000000000000E+000
  0.000000000000000E+000
  0.000000000000000E+000
  0.000000000000000E+000
  0.000000000000000E+000
  0.000000000000000E+000
  0.000000000000000E+000
  0.000000000000000E+000
  0.000000000000000E+000
  0.000000000000000E+000
  0.000000000000000E+000
  0.000000000000000E+000
  0.000000000000000E+000
  0.000000000000000E+000
  0.000000000000000E+000
  0.000000000000000E+000
  0.000000000000000E+000
  0.000000000000000E+000
  0.000000000000000E+000
  0.000000000000000E+000
  0.000000000000000E+000
  0.000000000000000E+000
  0.000000000000000E+000
  0.000000000000000E+000
  0.000000000000000E+000
  0.000000000000000E+000
  0.000000000000000E+000
  0.000000000000000E+000
  0.000000000000000E+000
  0.000000000000000E+000
  0.000000000000000E+000
  0.000000000000000E+000
  0.000000000000000E+000
  0.000000000000000E+000
  0.000000000000000E+000
  0.000000000000000E+000
  0.000000000000000E+000
  0.000000000000000E+000
  0.000000000000000E+000
  0.000000000000000E+000
  0.000000000000000E+000
  0.000000000000000E+000
  0.000000000000000E+000
  0.000000000000000E+000
  0.000000000000000E+000
  0.000000000000000E+000
  0.000000000000000E+000
  0.000000000000000E+000
  0.000000000000000E+000
  0.000000000000000E+000
  0.000000000000000E+000
  0.000000000000000E+000
  0.000000000000000E+000
  0.000000000000000E+000
  0.000000000000000E+000
  0.000000000000000E+000
  0.000000000000000E+000
  0.000000000000000E+000
  0.000000000000000E+000
  0.000000000000000E+000
  0.000000000000000E+000
  0.000000000000000E+000
  0.000000000000000E+000
  0.000000000000000E+000
  0.000000000000000E+000
  0.000000000000000E+000
  0.000000000000000E+000
  0.000000000000000E+000
  0.000000000000000E+000
  0.000000000000000E+000
  0.000000000000000E+000
  0.000000000000000E+000
  0.000000000000000E+000
  0.000000000000000E+000
  0.000000000000000E+000
  0.000000000000000E+000
  0.000000000000000E+000
  0.000000000000000E+000
  0.000000000000000E+000
  0.000000000000000E+000
  0.000000000000000E+000
  0.000000000000000E+000
  0.000000000000000E+000
  0.000000000000000E+000
  0.000000000000000E+000
  0.000000000000000E+000
  0.000000000000000E+000
  0.000000000000000E+000
  0.000000000000000E+000
  0.000000000000000E+000
  0.000000000000000E+000
  0.000000000000000E+000
  0.000000000000000E+000
  0.000000000000000E+000
  0.000000000000000E+000
  0.000000000000000E+000
  0.000000000000000E+000
  0.000000000000000E+000
  0.000000000000000E+000
  0.000000000000000E+000
  0.000000000000000E+000
  0.000000000000000E+000
  0.000000000000000E+000
  0.000000000000000E+000
  0.000000000000000E+000
  0.000000000000000E+000
  0.000000000000000E+000
  0.000000000000000E+000
  0.000000000000000E+000
  0.000000000000000E+000
  0.000000000000000E+000
  0.000000000000000E+000
  0.000000000000000E+000
  0.000000000000000E+000
  0.000000000000000E+000
  0.000000000000000E+000
  0.000000000000000E+000
  0.000000000000000E+000
  0.000000000000000E+000
  0.000000000000000E+000
  0.000000000000000E+000
  0.000000000000000E+000
  0.000000000000000E+000
  0.000000000000000E+000
  0.000000000000000E+000
  0.000000000000000E+000
  0.000000000000000E+000
  0.000000000000000E+000
  0.000000000000000E+000
  0.000000000000000E+000
  0.000000000000000E+000
  0.000000000000000E+000
  0.000000000000000E+000
  0.000000000000000E+000
  0.000000000000000E+000
  0.000000000000000E+000
  0.000000000000000E+000
  0.000000000000000E+000
  0.000000000000000E+000
  0.000000000000000E+000
  0.000000000000000E+000
  0.000000000000000E+000
  0.000000000000000E+000
  0.000000000000000E+000
  0.000000000000000E+000
  0.000000000000000E+000
  0.000000000000000E+000
  0.000000000000000E+000
  0.000000000000000E+000
  0.000000000000000E+000
  0.000000000000000E+000
  0.000000000000000E+000
  0.000000000000000E+000
  0.000000000000000E+000
  0.000000000000000E+000
  0.000000000000000E+000
  0.000000000000000E+000
  0.000000000000000E+000
  0.000000000000000E+000
  0.000000000000000E+000
  0.000000000000000E+000
  0.000000000000000E+000
  0.000000000000000E+000
  0.000000000000000E+000
  0.000000000000000E+000
  0.000000000000000E+000
  0.000000000000000E+000
  0.000000000000000E+000
  0.000000000000000E+000
  0.000000000000000E+000
  0.000000000000000E+000
  0.000000000000000E+000
  0.000000000000000E+000
  0.000000000000000E+000
  0.000000000000000E+000
  0.000000000000000E+000
  0.000000000000000E+000
  0.000000000000000E+000
  0.000000000000000E+000
  0.000000000000000E+000
  0.000000000000000E+000
  0.000000000000000E+000
  0.000000000000000E+000
  0.000000000000000E+000
  0.000000000000000E+000
  0.000000000000000E+000
  0.000000000000000E+000
  0.000000000000000E+000
  0.000000000000000E+000
  0.000000000000000E+000
  0.000000000000000E+000
  0.000000000000000E+000
  0.000000000000000E+000
  0.000000000000000E+000
  0.000000000000000E+000
  0.000000000000000E+000
  0.000000000000000E+000
  0.000000000000000E+000
  0.000000000000000E+000
  0.000000000000000E+000
  0.000000000000000E+000
  0.000000000000000E+000
  0.000000000000000E+000
  0.000000000000000E+000
  0.000000000000000E+000
  0.000000000000000E+000
  0.000000000000000E+000
  0.000000000000000E+000
  0.000000000000000E+000
  0.000000000000000E+000
  0.000000000000000E+000
  0.000000000000000E+000
  0.000000000000000E+000
  0.000000000000000E+000
  0.000000000000000E+000
  0.000000000000000E+000
  0.000000000000000E+000
  0.000000000000000E+000
  0.000000000000000E+000
  0.000000000000000E+000
  0.000000000000000E+000
  0.000000000000000E+000
  0.000000000000000E+000
  0.000000000000000E+000
  0.000000000000000E+000
  0.000000000000000E+000
  0.000000000000000E+000
  0.000000000000000E+000
  0.000000000000000E+000
  0.000000000000000E+000
  0.000000000000000E+000
  0.000000000000000E+000
  0.000000000000000E+000
  0.000000000000000E+000
  0.000000000000000E+000
  0.000000000000000E+000
  0.000000000000000E+000
  0.000000000000000E+000
  0.000000000000000E+000
  0.000000000000000E+000
  0.000000000000000E+000
  0.000000000000000E+000
  0.000000000000000E+000
  0.000000000000000E+000
  0.000000000000000E+000
  0.000000000000000E+000
  0.000000000000000E+000
  0.000000000000000E+000
  0.000000000000000E+000
  0.000000000000000E+000
  0.000000000000000E+000
  0.000000000000000E+000
  0.000000000000000E+000
  0.000000000000000E+000
  0.000000000000000E+000
  0.000000000000000E+000
  0.000000000000000E+000
  0.000000000000000E+000
  0.000000000000000E+000
  0.000000000000000E+000
  0.000000000000000E+000
  0.000000000000000E+000
  0.000000000000000E+000
  0.000000000000000E+000
  0.000000000000000E+000
  0.000000000000000E+000
  0.000000000000000E+000
  0.000000000000000E+000
  0.000000000000000E+000
  0.000000000000000E+000
  0.000000000000000E+000
  0.000000000000000E+000
  0.000000000000000E+000
  0.000000000000000E+000
  0.000000000000000E+000
  0.000000000000000E+000
  0.000000000000000E+000
  0.000000000000000E+000
  0.000000000000000E+000
  0.000000000000000E+000
  0.000000000000000E+000
  0.000000000000000E+000
  0.000000000000000E+000
  0.000000000000000E+000
  0.000000000000000E+000
  0.000000000000000E+000
  0.000000000000000E+000
  0.000000000000000E+000
  0.000000000000000E+000
  0.000000000000000E+000
  0.000000000000000E+000
  0.000000000000000E+000
  0.000000000000000E+000
  0.000000000000000E+000
  0.000000000000000E+000
  0.000000000000000E+000
  0.000000000000000E+000
  0.000000000000000E+000
  0.000000000000000E+000
  0.000000000000000E+000
  0.000000000000000E+000
  0.000000000000000E+000
  0.000000000000000E+000
  0.000000000000000E+000
  0.000000000000000E+000
  0.000000000000000E+000
  0.000000000000000E+000
  0.000000000000000E+000
  0.000000000000000E+000
  0.000000000000000E+000
  0.000000000000000E+000
  0.000000000000000E+000
  0.000000000000000E+000
  0.000000000000000E+000
  0.000000000000000E+000
  0.000000000000000E+000
  0.000000000000000E+000
  0.000000000000000E+000
  0.000000000000000E+000
  0.000000000000000E+000
  0.000000000000000E+000
  0.000000000000000E+000
  0.000000000000000E+000
  0.000000000000000E+000
  0.000000000000000E+000
  0.000000000000000E+000
  0.000000000000000E+000
  0.000000000000000E+000
  0.000000000000000E+000
  0.000000000000000E+000
  0.000000000000000E+000
  0.000000000000000E+000
  0.000000000000000E+000
  0.000000000000000E+000
  0.000000000000000E+000
  0.000000000000000E+000
  0.000000000000000E+000
  0.000000000000000E+000
  0.000000000000000E+000
  0.000000000000000E+000
  0.000000000000000E+000
  0.000000000000000E+000
  0.000000000000000E+000
  0.000000000000000E+000
  0.000000000000000E+000
  0.000000000000000E+000
  0.000000000000000E+000
  0.000000000000000E+000
  0.000000000000000E+000
  0.000000000000000E+000
  0.000000000000000E+000
  0.000000000000000E+000
  0.000000000000000E+000
  0.000000000000000E+000
  0.000000000000000E+000
  0.000000000000000E+000
  0.000000000000000E+000
  0.000000000000000E+000
  0.000000000000000E+000
  0.000000000000000E+000
  0.000000000000000E+000
  0.000000000000000E+000
  0.000000000000000E+000
  0.000000000000000E+000
  0.000000000000000E+000
  0.000000000000000E+000
  0.000000000000000E+000
  0.000000000000000E+000
  0.000000000000000E+000
  0.000000000000000E+000
  0.000000000000000E+000
  0.000000000000000E+000
  0.000000000000000E+000
  0.000000000000000E+000
  0.000000000000000E+000
  0.000000000000000E+000
  0.000000000000000E+000
  0.000000000000000E+000
  0.000000000000000E+000
  0.000000000000000E+000
  0.000000000000000E+000
  0.000000000000000E+000
  0.000000000000000E+000
  0.000000000000000E+000
  0.000000000000000E+000
  0.000000000000000E+000
  0.000000000000000E+000
  0.000000000000000E+000
  0.000000000000000E+000
  0.000000000000000E+000
  0.000000000000000E+000
  0.000000000000000E+000
  0.000000000000000E+000
  0.000000000000000E+000
  0.000000000000000E+000
  0.000000000000000E+000
  0.000000000000000E+000
  0.000000000000000E+000
  0.000000000000000E+000
  0.000000000000000E+000
  0.000000000000000E+000
  0.000000000000000E+000
  0.000000000000000E+000
  0.000000000000000E+000
  0.000000000000000E+000
  0.000000000000000E+000
  0.000000000000000E+000
  0.000000000000000E+000
  0.000000000000000E+000
  0.000000000000000E+000
  0.000000000000000E+000
  0.000000000000000E+000
  0.000000000000000E+000
  0.000000000000000E+000
  0.000000000000000E+000
  0.000000000000000E+000
  0.000000000000000E+000
  0.000000000000000E+000
  0.000000000000000E+000
  0.000000000000000E+000
  0.000000000000000E+000
  0.000000000000000E+000
  0.000000000000000E+000
  0.000000000000000E+000
  0.000000000000000E+000
  0.000000000000000E+000
  0.000000000000000E+000
  0.000000000000000E+000
  0.000000000000000E+000
  0.000000000000000E+000
  0.000000000000000E+000
  0.000000000000000E+000
  0.000000000000000E+000
  0.000000000000000E+000
  0.000000000000000E+000
  0.000000000000000E+000
  0.000000000000000E+000
  0.000000000000000E+000
  0.000000000000000E+000
  0.000000000000000E+000
  0.000000000000000E+000
  0.000000000000000E+000
  0.000000000000000E+000
  0.000000000000000E+000
  0.000000000000000E+000
  0.000000000000000E+000
  0.000000000000000E+000
  0.000000000000000E+000
  0.000000000000000E+000
  0.000000000000000E+000
  0.000000000000000E+000
  0.000000000000000E+000
  0.000000000000000E+000
  0.000000000000000E+000
  0.000000000000000E+000
  0.000000000000000E+000
  0.000000000000000E+000
  0.000000000000000E+000
  0.000000000000000E+000
  0.000000000000000E+000
  0.000000000000000E+000
  0.000000000000000E+000
  0.000000000000000E+000
  0.000000000000000E+000
  0.000000000000000E+000
  0.000000000000000E+000
  0.000000000000000E+000
  0.000000000000000E+000
  0.000000000000000E+000
  0.000000000000000E+000
  0.000000000000000E+000
  0.000000000000000E+000
  0.000000000000000E+000
  0.000000000000000E+000
  0.000000000000000E+000
  0.000000000000000E+000
  0.000000000000000E+000
  0.000000000000000E+000
  0.000000000000000E+000
  0.000000000000000E+000
  0.000000000000000E+000
  0.000000000000000E+000
  0.000000000000000E+000
  0.000000000000000E+000
  0.000000000000000E+000
  0.000000000000000E+000
  0.000000000000000E+000
  0.000000000000000E+000
  0.000000000000000E+000
  0.000000000000000E+000
  0.000000000000000E+000
  0.000000000000000E+000
  0.000000000000000E+000
  0.000000000000000E+000
  0.000000000000000E+000
  0.000000000000000E+000
  0.000000000000000E+000
  0.000000000000000E+000
  0.000000000000000E+000
  0.000000000000000E+000
  0.000000000000000E+000
  0.000000000000000E+000
  0.000000000000000E+000
  0.000000000000000E+000
  0.000000000000000E+000
  0.000000000000000E+000
  0.000000000000000E+000
  0.000000000000000E+000
  0.000000000000000E+000
  0.000000000000000E+000
  0.000000000000000E+000
  0.000000000000000E+000
  0.000000000000000E+000
  0.000000000000000E+000
  0.000000000000000E+000
  0.000000000000000E+000
  0.000000000000000E+000
  0.000000000000000E+000
  0.000000000000000E+000
  0.000000000000000E+000
  0.000000000000000E+000
  0.000000000000000E+000
  0.000000000000000E+000
  0.000000000000000E+000
  0.000000000000000E+000
  0.000000000000000E+000
  0.000000000000000E+000
  0.000000000000000E+000
  0.000000000000000E+000
  0.000000000000000E+000
  0.000000000000000E+000
  0.000000000000000E+000
  0.000000000000000E+000
  0.000000000000000E+000
  0.000000000000000E+000
  0.000000000000000E+000
  0.000000000000000E+000
  0.000000000000000E+000
  0.000000000000000E+000
  0.000000000000000E+000
  0.000000000000000E+000
  0.000000000000000E+000
  0.000000000000000E+000
  0.000000000000000E+000
  0.000000000000000E+000
  0.000000000000000E+000
  0.000000000000000E+000
  0.000000000000000E+000
  0.000000000000000E+000
  0.000000000000000E+000
  0.000000000000000E+000
  0.000000000000000E+000
  0.000000000000000E+000
  0.000000000000000E+000
  0.000000000000000E+000
  0.000000000000000E+000
  0.000000000000000E+000
  0.000000000000000E+000
  0.000000000000000E+000
  0.000000000000000E+000
  0.000000000000000E+000
  0.000000000000000E+000
  0.000000000000000E+000
  0.000000000000000E+000
  0.000000000000000E+000
  0.000000000000000E+000
  0.000000000000000E+000
  0.000000000000000E+000
  0.000000000000000E+000
  0.000000000000000E+000
  0.000000000000000E+000
  0.000000000000000E+000
  0.000000000000000E+000
  0.000000000000000E+000
  0.000000000000000E+000
  0.000000000000000E+000
  0.000000000000000E+000
  0.000000000000000E+000
  0.000000000000000E+000
  0.000000000000000E+000
  0.000000000000000E+000
  0.000000000000000E+000
  0.000000000000000E+000
  0.000000000000000E+000
  0.000000000000000E+000
  0.000000000000000E+000
  0.000000000000000E+000
  0.000000000000000E+000
  0.000000000000000E+000
  0.000000000000000E+000
  0.000000000000000E+000
  0.000000000000000E+000
  0.000000000000000E+000
  0.000000000000000E+000
  0.000000000000000E+000
  0.000000000000000E+000
  0.000000000000000E+000
  0.000000000000000E+000
  0.000000000000000E+000
  0.000000000000000E+000
  0.000000000000000E+000
  0.000000000000000E+000
  0.000000000000000E+000
  0.000000000000000E+000
  0.000000000000000E+000
  0.000000000000000E+000
  0.000000000000000E+000
  0.000000000000000E+000
  0.000000000000000E+000
  0.000000000000000E+000
  0.000000000000000E+000
  0.000000000000000E+000
  0.000000000000000E+000
  0.000000000000000E+000
  0.000000000000000E+000
  0.000000000000000E+000
  0.000000000000000E+000
  0.000000000000000E+000
  0.000000000000000E+000
  0.000000000000000E+000
  0.000000000000000E+000
  0.000000000000000E+000
  0.000000000000000E+000
  0.000000000000000E+000
  0.000000000000000E+000
  0.000000000000000E+000
  0.000000000000000E+000
  0.000000000000000E+000
  0.000000000000000E+000
  0.000000000000000E+000
  0.000000000000000E+000
  0.000000000000000E+000
  0.000000000000000E+000
  0.000000000000000E+000
  0.000000000000000E+000
  0.000000000000000E+000
  0.000000000000000E+000
  0.000000000000000E+000
  0.000000000000000E+000
  0.000000000000000E+000
  0.000000000000000E+000
  0.000000000000000E+000
  0.000000000000000E+000
  0.000000000000000E+000
  0.000000000000000E+000
  0.000000000000000E+000
  0.000000000000000E+000
  0.000000000000000E+000
  0.000000000000000E+000
  0.000000000000000E+000
  0.000000000000000E+000
  0.000000000000000E+000
  0.000000000000000E+000
  0.000000000000000E+000
  0.000000000000000E+000
  0.000000000000000E+000
  0.000000000000000E+000
  0.000000000000000E+000
  0.000000000000000E+000
  0.000000000000000E+000
  0.000000000000000E+000
  0.000000000000000E+000
  0.000000000000000E+000
  0.000000000000000E+000
  0.000000000000000E+000
  0.000000000000000E+000
  0.000000000000000E+000
  0.000000000000000E+000
  0.000000000000000E+000
  0.000000000000000E+000
  0.000000000000000E+000
  0.000000000000000E+000
  0.000000000000000E+000
  0.000000000000000E+000
  0.000000000000000E+000
  0.000000000000000E+000
  0.000000000000000E+000
  0.000000000000000E+000
  0.000000000000000E+000
  0.000000000000000E+000
  0.000000000000000E+000
  0.000000000000000E+000
  0.000000000000000E+000
  0.000000000000000E+000
  0.000000000000000E+000
  0.000000000000000E+000
  0.000000000000000E+000
  0.000000000000000E+000
  0.000000000000000E+000
  0.000000000000000E+000
  0.000000000000000E+000
  0.000000000000000E+000
  0.000000000000000E+000
  0.000000000000000E+000
  0.000000000000000E+000
  0.000000000000000E+000
  0.000000000000000E+000
  0.000000000000000E+000
  0.000000000000000E+000
  0.000000000000000E+000
  0.000000000000000E+000
  0.000000000000000E+000
  0.000000000000000E+000
  0.000000000000000E+000
  0.000000000000000E+000
  0.000000000000000E+000
  0.000000000000000E+000
  0.000000000000000E+000
  0.000000000000000E+000
  0.000000000000000E+000
  0.000000000000000E+000
  0.000000000000000E+000
  0.000000000000000E+000
  0.000000000000000E+000
  0.000000000000000E+000
  0.000000000000000E+000
  0.000000000000000E+000
  0.000000000000000E+000
  0.000000000000000E+000
  0.000000000000000E+000
  0.000000000000000E+000
  0.000000000000000E+000
  0.000000000000000E+000
  0.000000000000000E+000
  0.000000000000000E+000
  0.000000000000000E+000
  0.000000000000000E+000
  0.000000000000000E+000
  0.000000000000000E+000
  0.000000000000000E+000
  0.000000000000000E+000
  0.000000000000000E+000
  0.000000000000000E+000
  0.000000000000000E+000
  0.000000000000000E+000
  0.000000000000000E+000
  0.000000000000000E+000
  0.000000000000000E+000
  0.000000000000000E+000
  0.000000000000000E+000
  0.000000000000000E+000
  0.000000000000000E+000
  0.000000000000000E+000
  0.000000000000000E+000
  0.000000000000000E+000
  0.000000000000000E+000
  0.000000000000000E+000
  0.000000000000000E+000
  0.000000000000000E+000
  0.000000000000000E+000
  0.000000000000000E+000
  0.000000000000000E+000
  0.000000000000000E+000
  0.000000000000000E+000
  0.000000000000000E+000
  0.000000000000000E+000
  0.000000000000000E+000
  0.000000000000000E+000
  0.000000000000000E+000
  0.000000000000000E+000
  0.000000000000000E+000
  0.000000000000000E+000
  0.000000000000000E+000
  0.000000000000000E+000
  0.000000000000000E+000
  0.000000000000000E+000
  0.000000000000000E+000
  0.000000000000000E+000
  0.000000000000000E+000
  0.000000000000000E+000
  0.000000000000000E+000
  0.000000000000000E+000
  0.000000000000000E+000
  0.000000000000000E+000
  0.000000000000000E+000
  0.000000000000000E+000
  0.000000000000000E+000
  0.000000000000000E+000
  0.000000000000000E+000
  0.000000000000000E+000
  0.000000000000000E+000
  0.000000000000000E+000
  0.000000000000000E+000
  0.000000000000000E+000
  0.000000000000000E+000
  0.000000000000000E+000
  0.000000000000000E+000
  0.000000000000000E+000
  0.000000000000000E+000
  0.000000000000000E+000
  0.000000000000000E+000
  0.000000000000000E+000
  0.000000000000000E+000
  0.000000000000000E+000
  0.000000000000000E+000
  0.000000000000000E+000
  0.000000000000000E+000
  0.000000000000000E+000
  0.000000000000000E+000
  0.000000000000000E+000
  0.000000000000000E+000
  0.000000000000000E+000
  0.000000000000000E+000
  0.000000000000000E+000
  0.000000000000000E+000
  0.000000000000000E+000
  0.000000000000000E+000
  0.000000000000000E+000
  0.000000000000000E+000
  0.000000000000000E+000
  0.000000000000000E+000
  0.000000000000000E+000
  0.000000000000000E+000
  0.000000000000000E+000
  0.000000000000000E+000
  0.000000000000000E+000
  0.000000000000000E+000
  0.000000000000000E+000
  0.000000000000000E+000
  0.000000000000000E+000
  0.000000000000000E+000
  0.000000000000000E+000
  0.000000000000000E+000
  0.000000000000000E+000
  0.000000000000000E+000
  0.000000000000000E+000
  0.000000000000000E+000
  0.000000000000000E+000
  0.000000000000000E+000
  0.000000000000000E+000
  0.000000000000000E+000
  0.000000000000000E+000
  0.000000000000000E+000
  0.000000000000000E+000
  0.000000000000000E+000
  0.000000000000000E+000
  0.000000000000000E+000
  0.000000000000000E+000
  0.000000000000000E+000
  0.000000000000000E+000
  0.000000000000000E+000
  0.000000000000000E+000
  0.000000000000000E+000
  0.000000000000000E+000
  0.000000000000000E+000
  0.000000000000000E+000
  0.000000000000000E+000
  0.000000000000000E+000
  0.000000000000000E+000
  0.000000000000000E+000
  0.000000000000000E+000
  0.000000000000000E+000
  0.000000000000000E+000
  0.000000000000000E+000
  0.000000000000000E+000
  0.000000000000000E+000
  0.000000000000000E+000
  0.000000000000000E+000
  0.000000000000000E+000
  0.000000000000000E+000
  0.000000000000000E+000
  0.000000000000000E+000
  0.000000000000000E+000
  0.000000000000000E+000
  0.000000000000000E+000
  0.000000000000000E+000
  0.000000000000000E+000
  0.000000000000000E+000
  0.000000000000000E+000
  0.000000000000000E+000
  0.000000000000000E+000
  0.000000000000000E+000
  0.000000000000000E+000
  0.000000000000000E+000
  0.000000000000000E+000
  0.000000000000000E+000
  0.000000000000000E+000
  0.000000000000000E+000
  0.000000000000000E+000
  0.000000000000000E+000
  0.000000000000000E+000
  0.000000000000000E+000
  0.000000000000000E+000
  0.000000000000000E+000
  0.000000000000000E+000
  0.000000000000000E+000
  0.000000000000000E+000
  0.000000000000000E+000
  0.000000000000000E+000
  0.000000000000000E+000
  0.000000000000000E+000
  0.000000000000000E+000
  0.000000000000000E+000
  0.000000000000000E+000
  0.000000000000000E+000
  0.000000000000000E+000
  0.000000000000000E+000
  0.000000000000000E+000
  0.000000000000000E+000
  0.000000000000000E+000
  0.000000000000000E+000
  0.000000000000000E+000
  0.000000000000000E+000
  0.000000000000000E+000
  0.000000000000000E+000
  0.000000000000000E+000
  0.000000000000000E+000
  0.000000000000000E+000
  0.000000000000000E+000
  0.000000000000000E+000
  0.000000000000000E+000
  0.000000000000000E+000
  0.000000000000000E+000
  0.000000000000000E+000
  0.000000000000000E+000
  0.000000000000000E+000
  0.000000000000000E+000
  0.000000000000000E+000
  0.000000000000000E+000
  0.000000000000000E+000
  0.000000000000000E+000
  0.000000000000000E+000
  0.000000000000000E+000
  0.000000000000000E+000
  0.000000000000000E+000
  0.000000000000000E+000
  0.000000000000000E+000
  0.000000000000000E+000
  0.000000000000000E+000
  0.000000000000000E+000
  0.000000000000000E+000
  0.000000000000000E+000
  0.000000000000000E+000
  0.000000000000000E+000
  0.000000000000000E+000
  0.000000000000000E+000
  0.000000000000000E+000
  0.000000000000000E+000
  0.000000000000000E+000
  0.000000000000000E+000
  0.000000000000000E+000
  0.000000000000000E+000
  0.000000000000000E+000
  0.000000000000000E+000
  0.000000000000000E+000
  0.000000000000000E+000
  0.000000000000000E+000
  0.000000000000000E+000
  0.000000000000000E+000
  0.000000000000000E+000
  0.000000000000000E+000
  0.000000000000000E+000
  0.000000000000000E+000
  0.000000000000000E+000
  0.000000000000000E+000
  0.000000000000000E+000
  0.000000000000000E+000
  0.000000000000000E+000
  0.000000000000000E+000
  0.000000000000000E+000
  0.000000000000000E+000
  0.000000000000000E+000
  0.000000000000000E+000
  0.000000000000000E+000
  0.000000000000000E+000
  0.000000000000000E+000
  0.000000000000000E+000
  0.000000000000000E+000
  0.000000000000000E+000
  0.000000000000000E+000
  0.000000000000000E+000
  0.000000000000000E+000
  0.000000000000000E+000
  0.000000000000000E+000
  0.000000000000000E+000
  0.000000000000000E+000
  0.000000000000000E+000
  0.000000000000000E+000
  0.000000000000000E+000
  0.000000000000000E+000
  0.000000000000000E+000
  0.000000000000000E+000
  0.000000000000000E+000
  0.000000000000000E+000
  0.000000000000000E+000
  0.000000000000000E+000
  0.000000000000000E+000
  0.000000000000000E+000
  0.000000000000000E+000
  0.000000000000000E+000
  0.000000000000000E+000
  0.000000000000000E+000
  0.000000000000000E+000
  0.000000000000000E+000
  0.000000000000000E+000
  0.000000000000000E+000
  0.000000000000000E+000
  0.000000000000000E+000
  0.000000000000000E+000
  0.000000000000000E+000
  0.000000000000000E+000
  0.000000000000000E+000
  0.000000000000000E+000
  0.000000000000000E+000
  0.000000000000000E+000
  0.000000000000000E+000
  0.000000000000000E+000
  0.000000000000000E+000
  0.000000000000000E+000
  0.000000000000000E+000
  0.000000000000000E+000
  0.000000000000000E+000
  0.000000000000000E+000
  0.000000000000000E+000
  0.000000000000000E+000
  0.000000000000000E+000
  0.000000000000000E+000
  0.000000000000000E+000
  0.000000000000000E+000
  0.000000000000000E+000
  0.000000000000000E+000
  0.000000000000000E+000
  0.000000000000000E+000
  0.000000000000000E+000
  0.000000000000000E+000
  0.000000000000000E+000
  0.000000000000000E+000
  0.000000000000000E+000
  0.000000000000000E+000
  0.000000000000000E+000
  0.000000000000000E+000
  0.000000000000000E+000
  0.000000000000000E+000
  0.000000000000000E+000
  0.000000000000000E+000
  0.000000000000000E+000
  0.000000000000000E+000
  0.000000000000000E+000
  0.000000000000000E+000
  0.000000000000000E+000
  0.000000000000000E+000
  0.000000000000000E+000
  0.000000000000000E+000
  0.000000000000000E+000
  0.000000000000000E+000
  0.000000000000000E+000
  0.000000000000000E+000
  0.000000000000000E+000
  0.000000000000000E+000
  0.000000000000000E+000
  0.000000000000000E+000
  0.000000000000000E+000
  0.000000000000000E+000
  0.000000000000000E+000
  0.000000000000000E+000
  0.000000000000000E+000
  0.000000000000000E+000
  0.000000000000000E+000
  0.000000000000000E+000
  0.000000000000000E+000
  0.000000000000000E+000
  0.000000000000000E+000
  0.000000000000000E+000
  0.000000000000000E+000
  0.000000000000000E+000
  0.000000000000000E+000
  0.000000000000000E+000
  0.000000000000000E+000
  0.000000000000000E+000
  0.000000000000000E+000
  0.000000000000000E+000
  0.000000000000000E+000
  0.000000000000000E+000
  0.000000000000000E+000
  0.000000000000000E+000
  0.000000000000000E+000
  0.000000000000000E+000
  0.000000000000000E+000
  0.000000000000000E+000
  0.000000000000000E+000
  0.000000000000000E+000
  0.000000000000000E+000
  0.000000000000000E+000
  0.000000000000000E+000
  0.000000000000000E+000
  0.000000000000000E+000
  0.000000000000000E+000
  0.000000000000000E+000
  0.000000000000000E+000
  0.000000000000000E+000
  0.000000000000000E+000
  0.000000000000000E+000
  0.000000000000000E+000
  0.000000000000000E+000
  0.000000000000000E+000
  0.000000000000000E+000
  0.000000000000000E+000
  0.000000000000000E+000
  0.000000000000000E+000
  0.000000000000000E+000
  0.000000000000000E+000
  0.000000000000000E+000
  0.000000000000000E+000
  0.000000000000000E+000
  0.000000000000000E+000
  0.000000000000000E+000
  0.000000000000000E+000
  0.000000000000000E+000
  0.000000000000000E+000
  0.000000000000000E+000
  0.000000000000000E+000
  0.000000000000000E+000
  0.000000000000000E+000
  0.000000000000000E+000
  0.000000000000000E+000
  0.000000000000000E+000
  0.000000000000000E+000
  0.000000000000000E+000
  0.000000000000000E+000
  0.000000000000000E+000
  0.000000000000000E+000
  0.000000000000000E+000
  0.000000000000000E+000
  0.000000000000000E+000
  0.000000000000000E+000
  0.000000000000000E+000
  0.000000000000000E+000
  0.000000000000000E+000
  0.000000000000000E+000
  0.000000000000000E+000
  0.000000000000000E+000
  0.000000000000000E+000
  0.000000000000000E+000
  0.000000000000000E+000
  0.000000000000000E+000
  0.000000000000000E+000
  0.000000000000000E+000
  0.000000000000000E+000
  0.000000000000000E+000
  0.000000000000000E+000
  0.000000000000000E+000
  0.000000000000000E+000
  0.000000000000000E+000
  0.000000000000000E+000
  0.000000000000000E+000
  0.000000000000000E+000
  0.000000000000000E+000
  0.000000000000000E+000
  0.000000000000000E+000
  0.000000000000000E+000
  0.000000000000000E+000
  0.000000000000000E+000
  0.000000000000000E+000
  0.000000000000000E+000
  0.000000000000000E+000
  0.000000000000000E+000
  0.000000000000000E+000
  0.000000000000000E+000
  0.000000000000000E+000
  0.000000000000000E+000
  0.000000000000000E+000
  0.000000000000000E+000
  0.000000000000000E+000
  0.000000000000000E+000
  0.000000000000000E+000
  0.000000000000000E+000
  0.000000000000000E+000
  0.000000000000000E+000
  0.000000000000000E+000
  0.000000000000000E+000
  0.000000000000000E+000
  0.000000000000000E+000
  0.000000000000000E+000
  0.000000000000000E+000
  0.000000000000000E+000
  0.000000000000000E+000
  0.000000000000000E+000
  0.000000000000000E+000
  0.000000000000000E+000
  0.000000000000000E+000
  0.000000000000000E+000
  0.000000000000000E+000
  0.000000000000000E+000
  0.000000000000000E+000
  0.000000000000000E+000
  0.000000000000000E+000
  0.000000000000000E+000
  0.000000000000000E+000
  0.000000000000000E+000
  0.000000000000000E+000
  0.000000000000000E+000
  0.000000000000000E+000
  0.000000000000000E+000
  0.000000000000000E+000
  0.000000000000000E+000
  0.000000000000000E+000
  0.000000000000000E+000
  0.000000000000000E+000
  0.000000000000000E+000
  0.000000000000000E+000
  0.000000000000000E+000
  0.000000000000000E+000
  0.000000000000000E+000
  0.000000000000000E+000
  0.000000000000000E+000
  0.000000000000000E+000
  0.000000000000000E+000
  0.000000000000000E+000
  0.000000000000000E+000
  0.000000000000000E+000
  0.000000000000000E+000
  0.000000000000000E+000
  0.000000000000000E+000
  0.000000000000000E+000
  0.000000000000000E+000
  0.000000000000000E+000
  0.000000000000000E+000
  0.000000000000000E+000
  0.000000000000000E+000
  0.000000000000000E+000
  0.000000000000000E+000
  0.000000000000000E+000
  0.000000000000000E+000
  0.000000000000000E+000
  0.000000000000000E+000
  0.000000000000000E+000
  0.000000000000000E+000
  0.000000000000000E+000
  0.000000000000000E+000
  0.000000000000000E+000
  0.000000000000000E+000
  0.000000000000000E+000
  0.000000000000000E+000
  0.000000000000000E+000
  0.000000000000000E+000
  0.000000000000000E+000
  0.000000000000000E+000
  0.000000000000000E+000
  0.000000000000000E+000
  0.000000000000000E+000
  0.000000000000000E+000
  0.000000000000000E+000
  0.000000000000000E+000
  0.000000000000000E+000
  0.000000000000000E+000
SCALARS elementIsPlast double 
LOOKUP_TABLE default
   1.00000000000000     
   1.00000000000000     
   1.00000000000000     
   1.00000000000000     
   1.00000000000000     
   1.00000000000000     
  0.000000000000000E+000
  0.000000000000000E+000
  0.000000000000000E+000
  0.000000000000000E+000
  0.000000000000000E+000
  0.000000000000000E+000
  0.000000000000000E+000
  0.000000000000000E+000
  0.000000000000000E+000
  0.000000000000000E+000
  0.000000000000000E+000
  0.000000000000000E+000
  0.000000000000000E+000
  0.000000000000000E+000
  0.000000000000000E+000
  0.000000000000000E+000
  0.000000000000000E+000
  0.000000000000000E+000
  0.000000000000000E+000
  0.000000000000000E+000
  0.000000000000000E+000
  0.000000000000000E+000
  0.000000000000000E+000
  0.000000000000000E+000
  0.000000000000000E+000
  0.000000000000000E+000
  0.000000000000000E+000
  0.000000000000000E+000
  0.000000000000000E+000
  0.000000000000000E+000
  0.000000000000000E+000
  0.000000000000000E+000
  0.000000000000000E+000
  0.000000000000000E+000
  0.000000000000000E+000
  0.000000000000000E+000
  0.000000000000000E+000
  0.000000000000000E+000
  0.000000000000000E+000
  0.000000000000000E+000
  0.000000000000000E+000
  0.000000000000000E+000
  0.000000000000000E+000
  0.000000000000000E+000
  0.000000000000000E+000
  0.000000000000000E+000
  0.000000000000000E+000
  0.000000000000000E+000
  0.000000000000000E+000
  0.000000000000000E+000
  0.000000000000000E+000
  0.000000000000000E+000
  0.000000000000000E+000
  0.000000000000000E+000
  0.000000000000000E+000
  0.000000000000000E+000
  0.000000000000000E+000
  0.000000000000000E+000
  0.000000000000000E+000
  0.000000000000000E+000
  0.000000000000000E+000
  0.000000000000000E+000
  0.000000000000000E+000
  0.000000000000000E+000
  0.000000000000000E+000
  0.000000000000000E+000
  0.000000000000000E+000
  0.000000000000000E+000
  0.000000000000000E+000
  0.000000000000000E+000
  0.000000000000000E+000
  0.000000000000000E+000
  0.000000000000000E+000
  0.000000000000000E+000
  0.000000000000000E+000
  0.000000000000000E+000
  0.000000000000000E+000
  0.000000000000000E+000
  0.000000000000000E+000
  0.000000000000000E+000
  0.000000000000000E+000
  0.000000000000000E+000
  0.000000000000000E+000
  0.000000000000000E+000
  0.000000000000000E+000
  0.000000000000000E+000
  0.000000000000000E+000
  0.000000000000000E+000
  0.000000000000000E+000
  0.000000000000000E+000
  0.000000000000000E+000
  0.000000000000000E+000
  0.000000000000000E+000
  0.000000000000000E+000
  0.000000000000000E+000
  0.000000000000000E+000
  0.000000000000000E+000
  0.000000000000000E+000
  0.000000000000000E+000
  0.000000000000000E+000
  0.000000000000000E+000
  0.000000000000000E+000
  0.000000000000000E+000
  0.000000000000000E+000
  0.000000000000000E+000
  0.000000000000000E+000
  0.000000000000000E+000
  0.000000000000000E+000
  0.000000000000000E+000
  0.000000000000000E+000
  0.000000000000000E+000
  0.000000000000000E+000
  0.000000000000000E+000
  0.000000000000000E+000
  0.000000000000000E+000
  0.000000000000000E+000
  0.000000000000000E+000
  0.000000000000000E+000
  0.000000000000000E+000
  0.000000000000000E+000
  0.000000000000000E+000
  0.000000000000000E+000
  0.000000000000000E+000
  0.000000000000000E+000
  0.000000000000000E+000
  0.000000000000000E+000
  0.000000000000000E+000
  0.000000000000000E+000
  0.000000000000000E+000
  0.000000000000000E+000
  0.000000000000000E+000
  0.000000000000000E+000
  0.000000000000000E+000
  0.000000000000000E+000
  0.000000000000000E+000
  0.000000000000000E+000
  0.000000000000000E+000
  0.000000000000000E+000
  0.000000000000000E+000
  0.000000000000000E+000
  0.000000000000000E+000
  0.000000000000000E+000
  0.000000000000000E+000
  0.000000000000000E+000
  0.000000000000000E+000
  0.000000000000000E+000
  0.000000000000000E+000
  0.000000000000000E+000
  0.000000000000000E+000
  0.000000000000000E+000
  0.000000000000000E+000
  0.000000000000000E+000
  0.000000000000000E+000
  0.000000000000000E+000
  0.000000000000000E+000
  0.000000000000000E+000
  0.000000000000000E+000
  0.000000000000000E+000
  0.000000000000000E+000
  0.000000000000000E+000
  0.000000000000000E+000
  0.000000000000000E+000
  0.000000000000000E+000
  0.000000000000000E+000
  0.000000000000000E+000
  0.000000000000000E+000
  0.000000000000000E+000
  0.000000000000000E+000
  0.000000000000000E+000
  0.000000000000000E+000
  0.000000000000000E+000
  0.000000000000000E+000
  0.000000000000000E+000
  0.000000000000000E+000
  0.000000000000000E+000
  0.000000000000000E+000
  0.000000000000000E+000
  0.000000000000000E+000
  0.000000000000000E+000
  0.000000000000000E+000
  0.000000000000000E+000
  0.000000000000000E+000
  0.000000000000000E+000
  0.000000000000000E+000
  0.000000000000000E+000
  0.000000000000000E+000
  0.000000000000000E+000
  0.000000000000000E+000
  0.000000000000000E+000
  0.000000000000000E+000
  0.000000000000000E+000
  0.000000000000000E+000
  0.000000000000000E+000
  0.000000000000000E+000
  0.000000000000000E+000
  0.000000000000000E+000
  0.000000000000000E+000
  0.000000000000000E+000
  0.000000000000000E+000
  0.000000000000000E+000
  0.000000000000000E+000
  0.000000000000000E+000
  0.000000000000000E+000
  0.000000000000000E+000
  0.000000000000000E+000
  0.000000000000000E+000
  0.000000000000000E+000
  0.000000000000000E+000
  0.000000000000000E+000
  0.000000000000000E+000
  0.000000000000000E+000
  0.000000000000000E+000
  0.000000000000000E+000
  0.000000000000000E+000
  0.000000000000000E+000
  0.000000000000000E+000
  0.000000000000000E+000
  0.000000000000000E+000
  0.000000000000000E+000
  0.000000000000000E+000
  0.000000000000000E+000
  0.000000000000000E+000
  0.000000000000000E+000
  0.000000000000000E+000
  0.000000000000000E+000
  0.000000000000000E+000
  0.000000000000000E+000
  0.000000000000000E+000
  0.000000000000000E+000
  0.000000000000000E+000
  0.000000000000000E+000
  0.000000000000000E+000
  0.000000000000000E+000
  0.000000000000000E+000
  0.000000000000000E+000
  0.000000000000000E+000
  0.000000000000000E+000
  0.000000000000000E+000
  0.000000000000000E+000
  0.000000000000000E+000
  0.000000000000000E+000
  0.000000000000000E+000
  0.000000000000000E+000
  0.000000000000000E+000
  0.000000000000000E+000
  0.000000000000000E+000
  0.000000000000000E+000
  0.000000000000000E+000
  0.000000000000000E+000
  0.000000000000000E+000
  0.000000000000000E+000
  0.000000000000000E+000
  0.000000000000000E+000
  0.000000000000000E+000
  0.000000000000000E+000
  0.000000000000000E+000
  0.000000000000000E+000
  0.000000000000000E+000
  0.000000000000000E+000
  0.000000000000000E+000
  0.000000000000000E+000
  0.000000000000000E+000
  0.000000000000000E+000
  0.000000000000000E+000
  0.000000000000000E+000
  0.000000000000000E+000
  0.000000000000000E+000
  0.000000000000000E+000
  0.000000000000000E+000
  0.000000000000000E+000
  0.000000000000000E+000
  0.000000000000000E+000
  0.000000000000000E+000
  0.000000000000000E+000
  0.000000000000000E+000
  0.000000000000000E+000
  0.000000000000000E+000
  0.000000000000000E+000
  0.000000000000000E+000
  0.000000000000000E+000
  0.000000000000000E+000
  0.000000000000000E+000
  0.000000000000000E+000
  0.000000000000000E+000
  0.000000000000000E+000
  0.000000000000000E+000
  0.000000000000000E+000
  0.000000000000000E+000
  0.000000000000000E+000
  0.000000000000000E+000
  0.000000000000000E+000
  0.000000000000000E+000
  0.000000000000000E+000
  0.000000000000000E+000
  0.000000000000000E+000
  0.000000000000000E+000
  0.000000000000000E+000
  0.000000000000000E+000
  0.000000000000000E+000
  0.000000000000000E+000
  0.000000000000000E+000
  0.000000000000000E+000
  0.000000000000000E+000
  0.000000000000000E+000
  0.000000000000000E+000
  0.000000000000000E+000
  0.000000000000000E+000
  0.000000000000000E+000
  0.000000000000000E+000
  0.000000000000000E+000
  0.000000000000000E+000
  0.000000000000000E+000
  0.000000000000000E+000
  0.000000000000000E+000
  0.000000000000000E+000
  0.000000000000000E+000
  0.000000000000000E+000
  0.000000000000000E+000
  0.000000000000000E+000
  0.000000000000000E+000
  0.000000000000000E+000
  0.000000000000000E+000
  0.000000000000000E+000
  0.000000000000000E+000
  0.000000000000000E+000
  0.000000000000000E+000
  0.000000000000000E+000
  0.000000000000000E+000
  0.000000000000000E+000
  0.000000000000000E+000
  0.000000000000000E+000
  0.000000000000000E+000
  0.000000000000000E+000
  0.000000000000000E+000
  0.000000000000000E+000
  0.000000000000000E+000
  0.000000000000000E+000
  0.000000000000000E+000
  0.000000000000000E+000
  0.000000000000000E+000
  0.000000000000000E+000
  0.000000000000000E+000
  0.000000000000000E+000
  0.000000000000000E+000
  0.000000000000000E+000
  0.000000000000000E+000
  0.000000000000000E+000
  0.000000000000000E+000
  0.000000000000000E+000
  0.000000000000000E+000
  0.000000000000000E+000
  0.000000000000000E+000
  0.000000000000000E+000
  0.000000000000000E+000
  0.000000000000000E+000
  0.000000000000000E+000
  0.000000000000000E+000
  0.000000000000000E+000
  0.000000000000000E+000
  0.000000000000000E+000
  0.000000000000000E+000
  0.000000000000000E+000
  0.000000000000000E+000
  0.000000000000000E+000
  0.000000000000000E+000
  0.000000000000000E+000
  0.000000000000000E+000
  0.000000000000000E+000
  0.000000000000000E+000
  0.000000000000000E+000
  0.000000000000000E+000
  0.000000000000000E+000
  0.000000000000000E+000
  0.000000000000000E+000
  0.000000000000000E+000
  0.000000000000000E+000
  0.000000000000000E+000
  0.000000000000000E+000
  0.000000000000000E+000
  0.000000000000000E+000
  0.000000000000000E+000
  0.000000000000000E+000
  0.000000000000000E+000
  0.000000000000000E+000
  0.000000000000000E+000
  0.000000000000000E+000
  0.000000000000000E+000
  0.000000000000000E+000
  0.000000000000000E+000
  0.000000000000000E+000
  0.000000000000000E+000
  0.000000000000000E+000
  0.000000000000000E+000
  0.000000000000000E+000
  0.000000000000000E+000
  0.000000000000000E+000
  0.000000000000000E+000
  0.000000000000000E+000
  0.000000000000000E+000
  0.000000000000000E+000
  0.000000000000000E+000
  0.000000000000000E+000
  0.000000000000000E+000
  0.000000000000000E+000
  0.000000000000000E+000
  0.000000000000000E+000
  0.000000000000000E+000
  0.000000000000000E+000
  0.000000000000000E+000
  0.000000000000000E+000
  0.000000000000000E+000
  0.000000000000000E+000
  0.000000000000000E+000
  0.000000000000000E+000
  0.000000000000000E+000
  0.000000000000000E+000
  0.000000000000000E+000
  0.000000000000000E+000
  0.000000000000000E+000
  0.000000000000000E+000
  0.000000000000000E+000
  0.000000000000000E+000
  0.000000000000000E+000
  0.000000000000000E+000
  0.000000000000000E+000
  0.000000000000000E+000
  0.000000000000000E+000
  0.000000000000000E+000
  0.000000000000000E+000
  0.000000000000000E+000
  0.000000000000000E+000
  0.000000000000000E+000
  0.000000000000000E+000
  0.000000000000000E+000
  0.000000000000000E+000
  0.000000000000000E+000
  0.000000000000000E+000
  0.000000000000000E+000
  0.000000000000000E+000
  0.000000000000000E+000
  0.000000000000000E+000
  0.000000000000000E+000
  0.000000000000000E+000
  0.000000000000000E+000
  0.000000000000000E+000
  0.000000000000000E+000
  0.000000000000000E+000
  0.000000000000000E+000
  0.000000000000000E+000
  0.000000000000000E+000
  0.000000000000000E+000
  0.000000000000000E+000
  0.000000000000000E+000
  0.000000000000000E+000
  0.000000000000000E+000
  0.000000000000000E+000
  0.000000000000000E+000
  0.000000000000000E+000
  0.000000000000000E+000
  0.000000000000000E+000
  0.000000000000000E+000
  0.000000000000000E+000
  0.000000000000000E+000
  0.000000000000000E+000
  0.000000000000000E+000
  0.000000000000000E+000
  0.000000000000000E+000
  0.000000000000000E+000
  0.000000000000000E+000
  0.000000000000000E+000
  0.000000000000000E+000
  0.000000000000000E+000
  0.000000000000000E+000
  0.000000000000000E+000
  0.000000000000000E+000
  0.000000000000000E+000
  0.000000000000000E+000
  0.000000000000000E+000
  0.000000000000000E+000
  0.000000000000000E+000
  0.000000000000000E+000
  0.000000000000000E+000
  0.000000000000000E+000
  0.000000000000000E+000
  0.000000000000000E+000
  0.000000000000000E+000
  0.000000000000000E+000
  0.000000000000000E+000
  0.000000000000000E+000
  0.000000000000000E+000
  0.000000000000000E+000
  0.000000000000000E+000
  0.000000000000000E+000
  0.000000000000000E+000
  0.000000000000000E+000
  0.000000000000000E+000
  0.000000000000000E+000
  0.000000000000000E+000
  0.000000000000000E+000
  0.000000000000000E+000
  0.000000000000000E+000
  0.000000000000000E+000
  0.000000000000000E+000
  0.000000000000000E+000
  0.000000000000000E+000
  0.000000000000000E+000
  0.000000000000000E+000
  0.000000000000000E+000
  0.000000000000000E+000
  0.000000000000000E+000
  0.000000000000000E+000
  0.000000000000000E+000
  0.000000000000000E+000
  0.000000000000000E+000
  0.000000000000000E+000
  0.000000000000000E+000
  0.000000000000000E+000
  0.000000000000000E+000
  0.000000000000000E+000
  0.000000000000000E+000
  0.000000000000000E+000
  0.000000000000000E+000
  0.000000000000000E+000
  0.000000000000000E+000
  0.000000000000000E+000
  0.000000000000000E+000
  0.000000000000000E+000
  0.000000000000000E+000
  0.000000000000000E+000
  0.000000000000000E+000
  0.000000000000000E+000
  0.000000000000000E+000
  0.000000000000000E+000
  0.000000000000000E+000
  0.000000000000000E+000
  0.000000000000000E+000
  0.000000000000000E+000
  0.000000000000000E+000
  0.000000000000000E+000
  0.000000000000000E+000
  0.000000000000000E+000
  0.000000000000000E+000
  0.000000000000000E+000
  0.000000000000000E+000
  0.000000000000000E+000
  0.000000000000000E+000
  0.000000000000000E+000
  0.000000000000000E+000
  0.000000000000000E+000
  0.000000000000000E+000
  0.000000000000000E+000
  0.000000000000000E+000
  0.000000000000000E+000
  0.000000000000000E+000
  0.000000000000000E+000
  0.000000000000000E+000
  0.000000000000000E+000
  0.000000000000000E+000
  0.000000000000000E+000
  0.000000000000000E+000
  0.000000000000000E+000
  0.000000000000000E+000
  0.000000000000000E+000
  0.000000000000000E+000
  0.000000000000000E+000
  0.000000000000000E+000
  0.000000000000000E+000
  0.000000000000000E+000
  0.000000000000000E+000
  0.000000000000000E+000
  0.000000000000000E+000
  0.000000000000000E+000
  0.000000000000000E+000
  0.000000000000000E+000
  0.000000000000000E+000
  0.000000000000000E+000
  0.000000000000000E+000
  0.000000000000000E+000
  0.000000000000000E+000
  0.000000000000000E+000
  0.000000000000000E+000
  0.000000000000000E+000
  0.000000000000000E+000
  0.000000000000000E+000
  0.000000000000000E+000
  0.000000000000000E+000
  0.000000000000000E+000
  0.000000000000000E+000
  0.000000000000000E+000
  0.000000000000000E+000
  0.000000000000000E+000
  0.000000000000000E+000
  0.000000000000000E+000
  0.000000000000000E+000
  0.000000000000000E+000
  0.000000000000000E+000
  0.000000000000000E+000
  0.000000000000000E+000
  0.000000000000000E+000
  0.000000000000000E+000
  0.000000000000000E+000
  0.000000000000000E+000
  0.000000000000000E+000
  0.000000000000000E+000
  0.000000000000000E+000
  0.000000000000000E+000
  0.000000000000000E+000
  0.000000000000000E+000
  0.000000000000000E+000
  0.000000000000000E+000
  0.000000000000000E+000
  0.000000000000000E+000
  0.000000000000000E+000
  0.000000000000000E+000
  0.000000000000000E+000
  0.000000000000000E+000
  0.000000000000000E+000
  0.000000000000000E+000
  0.000000000000000E+000
  0.000000000000000E+000
  0.000000000000000E+000
  0.000000000000000E+000
  0.000000000000000E+000
  0.000000000000000E+000
  0.000000000000000E+000
  0.000000000000000E+000
  0.000000000000000E+000
  0.000000000000000E+000
  0.000000000000000E+000
  0.000000000000000E+000
  0.000000000000000E+000
  0.000000000000000E+000
  0.000000000000000E+000
  0.000000000000000E+000
  0.000000000000000E+000
  0.000000000000000E+000
  0.000000000000000E+000
  0.000000000000000E+000
  0.000000000000000E+000
  0.000000000000000E+000
  0.000000000000000E+000
  0.000000000000000E+000
  0.000000000000000E+000
  0.000000000000000E+000
  0.000000000000000E+000
  0.000000000000000E+000
  0.000000000000000E+000
  0.000000000000000E+000
  0.000000000000000E+000
  0.000000000000000E+000
  0.000000000000000E+000
  0.000000000000000E+000
  0.000000000000000E+000
  0.000000000000000E+000
  0.000000000000000E+000
  0.000000000000000E+000
  0.000000000000000E+000
  0.000000000000000E+000
  0.000000000000000E+000
  0.000000000000000E+000
  0.000000000000000E+000
  0.000000000000000E+000
  0.000000000000000E+000
  0.000000000000000E+000
  0.000000000000000E+000
  0.000000000000000E+000
  0.000000000000000E+000
  0.000000000000000E+000
  0.000000000000000E+000
  0.000000000000000E+000
  0.000000000000000E+000
  0.000000000000000E+000
  0.000000000000000E+000
  0.000000000000000E+000
  0.000000000000000E+000
  0.000000000000000E+000
  0.000000000000000E+000
  0.000000000000000E+000
  0.000000000000000E+000
  0.000000000000000E+000
  0.000000000000000E+000
  0.000000000000000E+000
  0.000000000000000E+000
  0.000000000000000E+000
  0.000000000000000E+000
  0.000000000000000E+000
  0.000000000000000E+000
  0.000000000000000E+000
  0.000000000000000E+000
  0.000000000000000E+000
  0.000000000000000E+000
  0.000000000000000E+000
  0.000000000000000E+000
  0.000000000000000E+000
  0.000000000000000E+000
  0.000000000000000E+000
  0.000000000000000E+000
  0.000000000000000E+000
  0.000000000000000E+000
  0.000000000000000E+000
  0.000000000000000E+000
  0.000000000000000E+000
  0.000000000000000E+000
  0.000000000000000E+000
  0.000000000000000E+000
  0.000000000000000E+000
  0.000000000000000E+000
  0.000000000000000E+000
  0.000000000000000E+000
  0.000000000000000E+000
  0.000000000000000E+000
  0.000000000000000E+000
  0.000000000000000E+000
  0.000000000000000E+000
  0.000000000000000E+000
  0.000000000000000E+000
  0.000000000000000E+000
  0.000000000000000E+000
  0.000000000000000E+000
  0.000000000000000E+000
  0.000000000000000E+000
  0.000000000000000E+000
  0.000000000000000E+000
  0.000000000000000E+000
  0.000000000000000E+000
  0.000000000000000E+000
  0.000000000000000E+000
  0.000000000000000E+000
  0.000000000000000E+000
  0.000000000000000E+000
  0.000000000000000E+000
  0.000000000000000E+000
  0.000000000000000E+000
  0.000000000000000E+000
  0.000000000000000E+000
  0.000000000000000E+000
  0.000000000000000E+000
  0.000000000000000E+000
  0.000000000000000E+000
  0.000000000000000E+000
  0.000000000000000E+000
  0.000000000000000E+000
  0.000000000000000E+000
  0.000000000000000E+000
  0.000000000000000E+000
  0.000000000000000E+000
  0.000000000000000E+000
  0.000000000000000E+000
  0.000000000000000E+000
  0.000000000000000E+000
  0.000000000000000E+000
  0.000000000000000E+000
  0.000000000000000E+000
  0.000000000000000E+000
  0.000000000000000E+000
  0.000000000000000E+000
  0.000000000000000E+000
  0.000000000000000E+000
  0.000000000000000E+000
  0.000000000000000E+000
  0.000000000000000E+000
  0.000000000000000E+000
  0.000000000000000E+000
  0.000000000000000E+000
  0.000000000000000E+000
  0.000000000000000E+000
  0.000000000000000E+000
  0.000000000000000E+000
  0.000000000000000E+000
  0.000000000000000E+000
  0.000000000000000E+000
  0.000000000000000E+000
  0.000000000000000E+000
  0.000000000000000E+000
  0.000000000000000E+000
  0.000000000000000E+000
  0.000000000000000E+000
  0.000000000000000E+000
  0.000000000000000E+000
  0.000000000000000E+000
  0.000000000000000E+000
  0.000000000000000E+000
  0.000000000000000E+000
  0.000000000000000E+000
  0.000000000000000E+000
  0.000000000000000E+000
  0.000000000000000E+000
  0.000000000000000E+000
  0.000000000000000E+000
  0.000000000000000E+000
  0.000000000000000E+000
  0.000000000000000E+000
  0.000000000000000E+000
  0.000000000000000E+000
  0.000000000000000E+000
  0.000000000000000E+000
  0.000000000000000E+000
  0.000000000000000E+000
  0.000000000000000E+000
  0.000000000000000E+000
  0.000000000000000E+000
  0.000000000000000E+000
  0.000000000000000E+000
  0.000000000000000E+000
  0.000000000000000E+000
  0.000000000000000E+000
  0.000000000000000E+000
  0.000000000000000E+000
  0.000000000000000E+000
  0.000000000000000E+000
  0.000000000000000E+000
  0.000000000000000E+000
  0.000000000000000E+000
  0.000000000000000E+000
  0.000000000000000E+000
  0.000000000000000E+000
  0.000000000000000E+000
  0.000000000000000E+000
  0.000000000000000E+000
  0.000000000000000E+000
  0.000000000000000E+000
  0.000000000000000E+000
  0.000000000000000E+000
  0.000000000000000E+000
  0.000000000000000E+000
  0.000000000000000E+000
  0.000000000000000E+000
  0.000000000000000E+000
  0.000000000000000E+000
  0.000000000000000E+000
  0.000000000000000E+000
  0.000000000000000E+000
  0.000000000000000E+000
  0.000000000000000E+000
  0.000000000000000E+000
  0.000000000000000E+000
  0.000000000000000E+000
  0.000000000000000E+000
  0.000000000000000E+000
  0.000000000000000E+000
  0.000000000000000E+000
  0.000000000000000E+000
  0.000000000000000E+000
  0.000000000000000E+000
  0.000000000000000E+000
  0.000000000000000E+000
  0.000000000000000E+000
  0.000000000000000E+000
  0.000000000000000E+000
  0.000000000000000E+000
  0.000000000000000E+000
  0.000000000000000E+000
  0.000000000000000E+000
  0.000000000000000E+000
  0.000000000000000E+000
  0.000000000000000E+000
  0.000000000000000E+000
  0.000000000000000E+000
  0.000000000000000E+000
  0.000000000000000E+000
  0.000000000000000E+000
  0.000000000000000E+000
  0.000000000000000E+000
  0.000000000000000E+000
  0.000000000000000E+000
  0.000000000000000E+000
  0.000000000000000E+000
  0.000000000000000E+000
  0.000000000000000E+000
  0.000000000000000E+000
  0.000000000000000E+000
  0.000000000000000E+000
  0.000000000000000E+000
  0.000000000000000E+000
  0.000000000000000E+000
  0.000000000000000E+000
  0.000000000000000E+000
  0.000000000000000E+000
  0.000000000000000E+000
  0.000000000000000E+000
  0.000000000000000E+000
  0.000000000000000E+000
  0.000000000000000E+000
  0.000000000000000E+000
  0.000000000000000E+000
  0.000000000000000E+000
  0.000000000000000E+000
  0.000000000000000E+000
  0.000000000000000E+000
  0.000000000000000E+000
  0.000000000000000E+000
  0.000000000000000E+000
  0.000000000000000E+000
  0.000000000000000E+000
  0.000000000000000E+000
  0.000000000000000E+000
  0.000000000000000E+000
  0.000000000000000E+000
  0.000000000000000E+000
  0.000000000000000E+000
  0.000000000000000E+000
  0.000000000000000E+000
  0.000000000000000E+000
  0.000000000000000E+000
  0.000000000000000E+000
  0.000000000000000E+000
  0.000000000000000E+000
  0.000000000000000E+000
  0.000000000000000E+000
  0.000000000000000E+000
  0.000000000000000E+000
  0.000000000000000E+000
  0.000000000000000E+000
  0.000000000000000E+000
  0.000000000000000E+000
  0.000000000000000E+000
  0.000000000000000E+000
  0.000000000000000E+000
  0.000000000000000E+000
  0.000000000000000E+000
  0.000000000000000E+000
  0.000000000000000E+000
  0.000000000000000E+000
  0.000000000000000E+000
  0.000000000000000E+000
  0.000000000000000E+000
  0.000000000000000E+000
  0.000000000000000E+000
  0.000000000000000E+000
  0.000000000000000E+000
  0.000000000000000E+000
  0.000000000000000E+000
  0.000000000000000E+000
  0.000000000000000E+000
  0.000000000000000E+000
  0.000000000000000E+000
  0.000000000000000E+000
  0.000000000000000E+000
  0.000000000000000E+000
  0.000000000000000E+000
  0.000000000000000E+000
  0.000000000000000E+000
  0.000000000000000E+000
  0.000000000000000E+000
  0.000000000000000E+000
  0.000000000000000E+000
  0.000000000000000E+000
  0.000000000000000E+000
  0.000000000000000E+000
  0.000000000000000E+000
  0.000000000000000E+000
  0.000000000000000E+000
  0.000000000000000E+000
  0.000000000000000E+000
  0.000000000000000E+000
  0.000000000000000E+000
  0.000000000000000E+000
  0.000000000000000E+000
  0.000000000000000E+000
  0.000000000000000E+000
  0.000000000000000E+000
  0.000000000000000E+000
  0.000000000000000E+000
  0.000000000000000E+000
  0.000000000000000E+000
  0.000000000000000E+000
  0.000000000000000E+000
  0.000000000000000E+000
  0.000000000000000E+000
  0.000000000000000E+000
  0.000000000000000E+000
  0.000000000000000E+000
  0.000000000000000E+000
  0.000000000000000E+000
  0.000000000000000E+000
  0.000000000000000E+000
  0.000000000000000E+000
  0.000000000000000E+000
  0.000000000000000E+000
  0.000000000000000E+000
  0.000000000000000E+000
  0.000000000000000E+000
  0.000000000000000E+000
  0.000000000000000E+000
  0.000000000000000E+000
  0.000000000000000E+000
  0.000000000000000E+000
  0.000000000000000E+000
  0.000000000000000E+000
  0.000000000000000E+000
  0.000000000000000E+000
  0.000000000000000E+000
  0.000000000000000E+000
  0.000000000000000E+000
  0.000000000000000E+000
  0.000000000000000E+000
  0.000000000000000E+000
  0.000000000000000E+000
  0.000000000000000E+000
  0.000000000000000E+000
  0.000000000000000E+000
  0.000000000000000E+000
  0.000000000000000E+000
  0.000000000000000E+000
  0.000000000000000E+000
  0.000000000000000E+000
  0.000000000000000E+000
  0.000000000000000E+000
  0.000000000000000E+000
  0.000000000000000E+000
  0.000000000000000E+000
  0.000000000000000E+000
  0.000000000000000E+000
  0.000000000000000E+000
  0.000000000000000E+000
  0.000000000000000E+000
  0.000000000000000E+000
  0.000000000000000E+000
  0.000000000000000E+000
  0.000000000000000E+000
  0.000000000000000E+000
  0.000000000000000E+000
  0.000000000000000E+000
  0.000000000000000E+000
  0.000000000000000E+000
  0.000000000000000E+000
  0.000000000000000E+000
  0.000000000000000E+000
  0.000000000000000E+000
  0.000000000000000E+000
  0.000000000000000E+000
  0.000000000000000E+000
  0.000000000000000E+000
  0.000000000000000E+000
  0.000000000000000E+000
  0.000000000000000E+000
  0.000000000000000E+000
  0.000000000000000E+000
  0.000000000000000E+000
  0.000000000000000E+000
  0.000000000000000E+000
  0.000000000000000E+000
  0.000000000000000E+000
  0.000000000000000E+000
  0.000000000000000E+000
  0.000000000000000E+000
  0.000000000000000E+000
  0.000000000000000E+000
  0.000000000000000E+000
  0.000000000000000E+000
  0.000000000000000E+000
  0.000000000000000E+000
  0.000000000000000E+000
  0.000000000000000E+000
  0.000000000000000E+000
  0.000000000000000E+000
  0.000000000000000E+000
  0.000000000000000E+000
  0.000000000000000E+000
  0.000000000000000E+000
  0.000000000000000E+000
  0.000000000000000E+000
  0.000000000000000E+000
  0.000000000000000E+000
  0.000000000000000E+000
  0.000000000000000E+000
  0.000000000000000E+000
  0.000000000000000E+000
  0.000000000000000E+000
  0.000000000000000E+000
  0.000000000000000E+000
  0.000000000000000E+000
  0.000000000000000E+000
  0.000000000000000E+000
  0.000000000000000E+000
  0.000000000000000E+000
  0.000000000000000E+000
  0.000000000000000E+000
  0.000000000000000E+000
  0.000000000000000E+000
  0.000000000000000E+000
  0.000000000000000E+000
  0.000000000000000E+000
  0.000000000000000E+000
  0.000000000000000E+000
  0.000000000000000E+000
  0.000000000000000E+000
  0.000000000000000E+000
  0.000000000000000E+000
  0.000000000000000E+000
  0.000000000000000E+000
  0.000000000000000E+000
  0.000000000000000E+000
  0.000000000000000E+000
  0.000000000000000E+000
  0.000000000000000E+000
  0.000000000000000E+000
  0.000000000000000E+000
  0.000000000000000E+000
  0.000000000000000E+000
  0.000000000000000E+000
  0.000000000000000E+000
  0.000000000000000E+000
  0.000000000000000E+000
  0.000000000000000E+000
  0.000000000000000E+000
  0.000000000000000E+000
  0.000000000000000E+000
  0.000000000000000E+000
  0.000000000000000E+000
  0.000000000000000E+000
  0.000000000000000E+000
  0.000000000000000E+000
  0.000000000000000E+000
  0.000000000000000E+000
  0.000000000000000E+000
  0.000000000000000E+000
  0.000000000000000E+000
  0.000000000000000E+000
  0.000000000000000E+000
  0.000000000000000E+000
  0.000000000000000E+000
  0.000000000000000E+000
  0.000000000000000E+000
  0.000000000000000E+000
  0.000000000000000E+000
  0.000000000000000E+000
  0.000000000000000E+000
  0.000000000000000E+000
  0.000000000000000E+000
  0.000000000000000E+000
  0.000000000000000E+000
  0.000000000000000E+000
  0.000000000000000E+000
  0.000000000000000E+000
  0.000000000000000E+000
  0.000000000000000E+000
  0.000000000000000E+000
  0.000000000000000E+000
  0.000000000000000E+000
  0.000000000000000E+000
  0.000000000000000E+000
  0.000000000000000E+000
  0.000000000000000E+000
  0.000000000000000E+000
  0.000000000000000E+000
  0.000000000000000E+000
  0.000000000000000E+000
  0.000000000000000E+000
  0.000000000000000E+000
  0.000000000000000E+000
  0.000000000000000E+000
  0.000000000000000E+000
  0.000000000000000E+000
  0.000000000000000E+000
  0.000000000000000E+000
  0.000000000000000E+000
  0.000000000000000E+000
  0.000000000000000E+000
  0.000000000000000E+000
  0.000000000000000E+000
  0.000000000000000E+000
  0.000000000000000E+000
  0.000000000000000E+000
  0.000000000000000E+000
  0.000000000000000E+000
  0.000000000000000E+000
  0.000000000000000E+000
  0.000000000000000E+000
  0.000000000000000E+000
  0.000000000000000E+000
  0.000000000000000E+000
  0.000000000000000E+000
  0.000000000000000E+000
  0.000000000000000E+000
  0.000000000000000E+000
  0.000000000000000E+000
  0.000000000000000E+000
  0.000000000000000E+000
  0.000000000000000E+000
  0.000000000000000E+000
  0.000000000000000E+000
  0.000000000000000E+000
  0.000000000000000E+000
  0.000000000000000E+000
  0.000000000000000E+000
  0.000000000000000E+000
  0.000000000000000E+000
  0.000000000000000E+000
  0.000000000000000E+000
  0.000000000000000E+000
  0.000000000000000E+000
  0.000000000000000E+000
  0.000000000000000E+000
  0.000000000000000E+000
  0.000000000000000E+000
  0.000000000000000E+000
  0.000000000000000E+000
  0.000000000000000E+000
  0.000000000000000E+000
  0.000000000000000E+000
  0.000000000000000E+000
  0.000000000000000E+000
  0.000000000000000E+000
  0.000000000000000E+000
  0.000000000000000E+000
  0.000000000000000E+000
  0.000000000000000E+000
  0.000000000000000E+000
  0.000000000000000E+000
  0.000000000000000E+000
  0.000000000000000E+000
  0.000000000000000E+000
  0.000000000000000E+000
  0.000000000000000E+000
  0.000000000000000E+000
  0.000000000000000E+000
  0.000000000000000E+000
  0.000000000000000E+000
  0.000000000000000E+000
  0.000000000000000E+000
  0.000000000000000E+000
  0.000000000000000E+000
  0.000000000000000E+000
  0.000000000000000E+000
  0.000000000000000E+000
  0.000000000000000E+000
  0.000000000000000E+000
  0.000000000000000E+000
  0.000000000000000E+000
  0.000000000000000E+000
  0.000000000000000E+000
  0.000000000000000E+000
  0.000000000000000E+000
  0.000000000000000E+000
  0.000000000000000E+000
  0.000000000000000E+000
  0.000000000000000E+000
  0.000000000000000E+000
  0.000000000000000E+000
  0.000000000000000E+000
  0.000000000000000E+000
  0.000000000000000E+000
  0.000000000000000E+000
  0.000000000000000E+000
  0.000000000000000E+000
  0.000000000000000E+000
  0.000000000000000E+000
  0.000000000000000E+000
  0.000000000000000E+000
  0.000000000000000E+000
  0.000000000000000E+000
  0.000000000000000E+000
  0.000000000000000E+000
  0.000000000000000E+000
  0.000000000000000E+000
  0.000000000000000E+000
  0.000000000000000E+000
  0.000000000000000E+000
  0.000000000000000E+000
  0.000000000000000E+000
  0.000000000000000E+000
  0.000000000000000E+000
  0.000000000000000E+000
  0.000000000000000E+000
  0.000000000000000E+000
  0.000000000000000E+000
  0.000000000000000E+000
  0.000000000000000E+000
  0.000000000000000E+000
  0.000000000000000E+000
  0.000000000000000E+000
  0.000000000000000E+000
  0.000000000000000E+000
  0.000000000000000E+000
  0.000000000000000E+000
  0.000000000000000E+000
  0.000000000000000E+000
  0.000000000000000E+000
  0.000000000000000E+000
  0.000000000000000E+000
  0.000000000000000E+000
  0.000000000000000E+000
  0.000000000000000E+000
  0.000000000000000E+000
  0.000000000000000E+000
  0.000000000000000E+000
  0.000000000000000E+000
  0.000000000000000E+000
  0.000000000000000E+000
  0.000000000000000E+000
  0.000000000000000E+000
  0.000000000000000E+000
  0.000000000000000E+000
  0.000000000000000E+000
  0.000000000000000E+000
  0.000000000000000E+000
  0.000000000000000E+000
  0.000000000000000E+000
  0.000000000000000E+000
  0.000000000000000E+000
  0.000000000000000E+000
  0.000000000000000E+000
  0.000000000000000E+000
  0.000000000000000E+000
  0.000000000000000E+000
  0.000000000000000E+000
  0.000000000000000E+000
  0.000000000000000E+000
  0.000000000000000E+000
  0.000000000000000E+000
  0.000000000000000E+000
  0.000000000000000E+000
  0.000000000000000E+000
  0.000000000000000E+000
  0.000000000000000E+000
  0.000000000000000E+000
  0.000000000000000E+000
  0.000000000000000E+000
  0.000000000000000E+000
  0.000000000000000E+000
  0.000000000000000E+000
  0.000000000000000E+000
  0.000000000000000E+000
  0.000000000000000E+000
  0.000000000000000E+000
  0.000000000000000E+000
  0.000000000000000E+000
  0.000000000000000E+000
  0.000000000000000E+000
  0.000000000000000E+000
  0.000000000000000E+000
  0.000000000000000E+000
  0.000000000000000E+000
  0.000000000000000E+000
  0.000000000000000E+000
  0.000000000000000E+000
  0.000000000000000E+000
  0.000000000000000E+000
  0.000000000000000E+000
  0.000000000000000E+000
  0.000000000000000E+000
  0.000000000000000E+000
  0.000000000000000E+000
  0.000000000000000E+000
  0.000000000000000E+000
  0.000000000000000E+000
  0.000000000000000E+000
  0.000000000000000E+000
  0.000000000000000E+000
  0.000000000000000E+000
  0.000000000000000E+000
  0.000000000000000E+000
  0.000000000000000E+000
  0.000000000000000E+000
  0.000000000000000E+000
  0.000000000000000E+000
  0.000000000000000E+000
  0.000000000000000E+000
  0.000000000000000E+000
  0.000000000000000E+000
  0.000000000000000E+000
  0.000000000000000E+000
  0.000000000000000E+000
  0.000000000000000E+000
  0.000000000000000E+000
  0.000000000000000E+000
  0.000000000000000E+000
  0.000000000000000E+000
  0.000000000000000E+000
  0.000000000000000E+000
  0.000000000000000E+000
  0.000000000000000E+000
  0.000000000000000E+000
  0.000000000000000E+000
  0.000000000000000E+000
  0.000000000000000E+000
  0.000000000000000E+000
  0.000000000000000E+000
  0.000000000000000E+000
  0.000000000000000E+000
  0.000000000000000E+000
  0.000000000000000E+000
  0.000000000000000E+000
  0.000000000000000E+000
  0.000000000000000E+000
  0.000000000000000E+000
  0.000000000000000E+000
  0.000000000000000E+000
  0.000000000000000E+000
  0.000000000000000E+000
  0.000000000000000E+000
  0.000000000000000E+000
  0.000000000000000E+000
  0.000000000000000E+000
  0.000000000000000E+000
  0.000000000000000E+000
  0.000000000000000E+000
  0.000000000000000E+000
  0.000000000000000E+000
  0.000000000000000E+000
  0.000000000000000E+000
  0.000000000000000E+000
  0.000000000000000E+000
  0.000000000000000E+000
  0.000000000000000E+000
  0.000000000000000E+000
  0.000000000000000E+000
  0.000000000000000E+000
  0.000000000000000E+000
  0.000000000000000E+000
  0.000000000000000E+000
  0.000000000000000E+000
  0.000000000000000E+000
  0.000000000000000E+000
  0.000000000000000E+000
  0.000000000000000E+000
  0.000000000000000E+000
  0.000000000000000E+000
  0.000000000000000E+000
  0.000000000000000E+000
  0.000000000000000E+000
  0.000000000000000E+000
  0.000000000000000E+000
  0.000000000000000E+000
  0.000000000000000E+000
  0.000000000000000E+000
  0.000000000000000E+000
  0.000000000000000E+000
  0.000000000000000E+000
  0.000000000000000E+000
  0.000000000000000E+000
  0.000000000000000E+000
  0.000000000000000E+000
  0.000000000000000E+000
  0.000000000000000E+000
  0.000000000000000E+000
  0.000000000000000E+000
  0.000000000000000E+000
  0.000000000000000E+000
  0.000000000000000E+000
  0.000000000000000E+000
  0.000000000000000E+000
  0.000000000000000E+000
  0.000000000000000E+000
  0.000000000000000E+000
  0.000000000000000E+000
  0.000000000000000E+000
  0.000000000000000E+000
  0.000000000000000E+000
  0.000000000000000E+000
  0.000000000000000E+000
  0.000000000000000E+000
  0.000000000000000E+000
  0.000000000000000E+000
  0.000000000000000E+000
  0.000000000000000E+000
  0.000000000000000E+000
  0.000000000000000E+000
  0.000000000000000E+000
  0.000000000000000E+000
  0.000000000000000E+000
  0.000000000000000E+000
  0.000000000000000E+000
  0.000000000000000E+000
  0.000000000000000E+000
  0.000000000000000E+000
  0.000000000000000E+000
  0.000000000000000E+000
  0.000000000000000E+000
  0.000000000000000E+000
  0.000000000000000E+000
  0.000000000000000E+000
  0.000000000000000E+000
  0.000000000000000E+000
  0.000000000000000E+000
  0.000000000000000E+000
  0.000000000000000E+000
  0.000000000000000E+000
  0.000000000000000E+000
  0.000000000000000E+000
  0.000000000000000E+000
  0.000000000000000E+000
  0.000000000000000E+000
  0.000000000000000E+000
  0.000000000000000E+000
  0.000000000000000E+000
  0.000000000000000E+000
  0.000000000000000E+000
  0.000000000000000E+000
  0.000000000000000E+000
  0.000000000000000E+000
  0.000000000000000E+000
  0.000000000000000E+000
  0.000000000000000E+000
  0.000000000000000E+000
  0.000000000000000E+000
  0.000000000000000E+000
  0.000000000000000E+000
  0.000000000000000E+000
  0.000000000000000E+000
  0.000000000000000E+000
  0.000000000000000E+000
  0.000000000000000E+000
  0.000000000000000E+000
  0.000000000000000E+000
  0.000000000000000E+000
  0.000000000000000E+000
  0.000000000000000E+000
  0.000000000000000E+000
  0.000000000000000E+000
  0.000000000000000E+000
  0.000000000000000E+000
  0.000000000000000E+000
  0.000000000000000E+000
  0.000000000000000E+000
  0.000000000000000E+000
  0.000000000000000E+000
  0.000000000000000E+000
  0.000000000000000E+000
  0.000000000000000E+000
  0.000000000000000E+000
  0.000000000000000E+000
  0.000000000000000E+000
  0.000000000000000E+000
  0.000000000000000E+000
  0.000000000000000E+000
  0.000000000000000E+000
  0.000000000000000E+000
  0.000000000000000E+000
  0.000000000000000E+000
  0.000000000000000E+000
  0.000000000000000E+000
  0.000000000000000E+000
  0.000000000000000E+000
  0.000000000000000E+000
  0.000000000000000E+000
  0.000000000000000E+000
  0.000000000000000E+000
  0.000000000000000E+000
  0.000000000000000E+000
  0.000000000000000E+000
  0.000000000000000E+000
  0.000000000000000E+000
  0.000000000000000E+000
  0.000000000000000E+000
  0.000000000000000E+000
  0.000000000000000E+000
  0.000000000000000E+000
  0.000000000000000E+000
  0.000000000000000E+000
  0.000000000000000E+000
  0.000000000000000E+000
  0.000000000000000E+000
  0.000000000000000E+000
  0.000000000000000E+000
  0.000000000000000E+000
  0.000000000000000E+000
  0.000000000000000E+000
  0.000000000000000E+000
  0.000000000000000E+000
  0.000000000000000E+000
  0.000000000000000E+000
  0.000000000000000E+000
  0.000000000000000E+000
  0.000000000000000E+000
  0.000000000000000E+000
  0.000000000000000E+000
  0.000000000000000E+000
  0.000000000000000E+000
  0.000000000000000E+000
  0.000000000000000E+000
  0.000000000000000E+000
  0.000000000000000E+000
  0.000000000000000E+000
  0.000000000000000E+000
  0.000000000000000E+000
  0.000000000000000E+000
  0.000000000000000E+000
  0.000000000000000E+000
  0.000000000000000E+000
  0.000000000000000E+000
  0.000000000000000E+000
  0.000000000000000E+000
  0.000000000000000E+000
  0.000000000000000E+000
  0.000000000000000E+000
  0.000000000000000E+000
  0.000000000000000E+000
  0.000000000000000E+000
  0.000000000000000E+000
  0.000000000000000E+000
  0.000000000000000E+000
  0.000000000000000E+000
  0.000000000000000E+000
  0.000000000000000E+000
  0.000000000000000E+000
  0.000000000000000E+000
  0.000000000000000E+000
  0.000000000000000E+000
  0.000000000000000E+000
  0.000000000000000E+000
  0.000000000000000E+000
  0.000000000000000E+000
  0.000000000000000E+000
  0.000000000000000E+000
  0.000000000000000E+000
  0.000000000000000E+000
  0.000000000000000E+000
  0.000000000000000E+000
  0.000000000000000E+000
  0.000000000000000E+000
  0.000000000000000E+000
  0.000000000000000E+000
  0.000000000000000E+000
  0.000000000000000E+000
  0.000000000000000E+000
  0.000000000000000E+000
  0.000000000000000E+000
  0.000000000000000E+000
  0.000000000000000E+000
  0.000000000000000E+000
  0.000000000000000E+000
  0.000000000000000E+000
  0.000000000000000E+000
  0.000000000000000E+000
  0.000000000000000E+000
  0.000000000000000E+000
  0.000000000000000E+000
  0.000000000000000E+000
  0.000000000000000E+000
  0.000000000000000E+000
  0.000000000000000E+000
  0.000000000000000E+000
  0.000000000000000E+000
  0.000000000000000E+000
  0.000000000000000E+000
  0.000000000000000E+000
  0.000000000000000E+000
  0.000000000000000E+000
  0.000000000000000E+000
  0.000000000000000E+000
  0.000000000000000E+000
  0.000000000000000E+000
  0.000000000000000E+000
  0.000000000000000E+000
  0.000000000000000E+000
  0.000000000000000E+000
  0.000000000000000E+000
  0.000000000000000E+000
  0.000000000000000E+000
  0.000000000000000E+000
  0.000000000000000E+000
  0.000000000000000E+000
  0.000000000000000E+000
  0.000000000000000E+000
  0.000000000000000E+000
  0.000000000000000E+000
  0.000000000000000E+000
  0.000000000000000E+000
  0.000000000000000E+000
  0.000000000000000E+000
  0.000000000000000E+000
  0.000000000000000E+000
  0.000000000000000E+000
  0.000000000000000E+000
  0.000000000000000E+000
  0.000000000000000E+000
  0.000000000000000E+000
  0.000000000000000E+000
  0.000000000000000E+000
  0.000000000000000E+000
  0.000000000000000E+000
  0.000000000000000E+000
  0.000000000000000E+000
  0.000000000000000E+000
  0.000000000000000E+000
  0.000000000000000E+000
  0.000000000000000E+000
  0.000000000000000E+000
  0.000000000000000E+000
  0.000000000000000E+000
  0.000000000000000E+000
  0.000000000000000E+000
  0.000000000000000E+000
  0.000000000000000E+000
  0.000000000000000E+000
  0.000000000000000E+000
  0.000000000000000E+000
  0.000000000000000E+000
  0.000000000000000E+000
  0.000000000000000E+000
  0.000000000000000E+000
  0.000000000000000E+000
  0.000000000000000E+000
  0.000000000000000E+000
  0.000000000000000E+000
  0.000000000000000E+000
  0.000000000000000E+000
  0.000000000000000E+000
  0.000000000000000E+000
  0.000000000000000E+000
  0.000000000000000E+000
  0.000000000000000E+000
  0.000000000000000E+000
  0.000000000000000E+000
  0.000000000000000E+000
  0.000000000000000E+000
  0.000000000000000E+000
  0.000000000000000E+000
  0.000000000000000E+000
  0.000000000000000E+000
  0.000000000000000E+000
  0.000000000000000E+000
  0.000000000000000E+000
  0.000000000000000E+000
  0.000000000000000E+000
  0.000000000000000E+000
  0.000000000000000E+000
  0.000000000000000E+000
  0.000000000000000E+000
  0.000000000000000E+000
  0.000000000000000E+000
  0.000000000000000E+000
  0.000000000000000E+000
  0.000000000000000E+000
  0.000000000000000E+000
  0.000000000000000E+000
  0.000000000000000E+000
  0.000000000000000E+000
  0.000000000000000E+000
  0.000000000000000E+000
  0.000000000000000E+000
  0.000000000000000E+000
  0.000000000000000E+000
  0.000000000000000E+000
  0.000000000000000E+000
  0.000000000000000E+000
  0.000000000000000E+000
  0.000000000000000E+000
  0.000000000000000E+000
  0.000000000000000E+000
  0.000000000000000E+000
  0.000000000000000E+000
  0.000000000000000E+000
  0.000000000000000E+000
  0.000000000000000E+000
  0.000000000000000E+000
  0.000000000000000E+000
  0.000000000000000E+000
  0.000000000000000E+000
  0.000000000000000E+000
  0.000000000000000E+000
  0.000000000000000E+000
  0.000000000000000E+000
  0.000000000000000E+000
  0.000000000000000E+000
  0.000000000000000E+000
  0.000000000000000E+000
  0.000000000000000E+000
  0.000000000000000E+000
  0.000000000000000E+000
  0.000000000000000E+000
  0.000000000000000E+000
  0.000000000000000E+000
  0.000000000000000E+000
  0.000000000000000E+000
  0.000000000000000E+000
  0.000000000000000E+000
  0.000000000000000E+000
  0.000000000000000E+000
  0.000000000000000E+000
  0.000000000000000E+000
  0.000000000000000E+000
  0.000000000000000E+000
  0.000000000000000E+000
  0.000000000000000E+000
  0.000000000000000E+000
  0.000000000000000E+000
  0.000000000000000E+000
  0.000000000000000E+000
  0.000000000000000E+000
  0.000000000000000E+000
  0.000000000000000E+000
  0.000000000000000E+000
  0.000000000000000E+000
  0.000000000000000E+000
  0.000000000000000E+000
  0.000000000000000E+000
  0.000000000000000E+000
  0.000000000000000E+000
  0.000000000000000E+000
  0.000000000000000E+000
  0.000000000000000E+000
  0.000000000000000E+000
  0.000000000000000E+000
  0.000000000000000E+000
  0.000000000000000E+000
  0.000000000000000E+000
  0.000000000000000E+000
  0.000000000000000E+000
  0.000000000000000E+000
  0.000000000000000E+000
  0.000000000000000E+000
  0.000000000000000E+000
  0.000000000000000E+000
  0.000000000000000E+000
  0.000000000000000E+000
  0.000000000000000E+000
  0.000000000000000E+000
  0.000000000000000E+000
  0.000000000000000E+000
  0.000000000000000E+000
  0.000000000000000E+000
  0.000000000000000E+000
  0.000000000000000E+000
  0.000000000000000E+000
  0.000000000000000E+000
  0.000000000000000E+000
  0.000000000000000E+000
  0.000000000000000E+000
  0.000000000000000E+000
  0.000000000000000E+000
  0.000000000000000E+000
  0.000000000000000E+000
  0.000000000000000E+000
  0.000000000000000E+000
  0.000000000000000E+000
  0.000000000000000E+000
  0.000000000000000E+000
  0.000000000000000E+000
  0.000000000000000E+000
  0.000000000000000E+000
  0.000000000000000E+000
  0.000000000000000E+000
  0.000000000000000E+000
  0.000000000000000E+000
  0.000000000000000E+000
  0.000000000000000E+000
  0.000000000000000E+000
  0.000000000000000E+000
  0.000000000000000E+000
  0.000000000000000E+000
  0.000000000000000E+000
  0.000000000000000E+000
  0.000000000000000E+000
  0.000000000000000E+000
  0.000000000000000E+000
  0.000000000000000E+000
  0.000000000000000E+000
  0.000000000000000E+000
  0.000000000000000E+000
  0.000000000000000E+000
  0.000000000000000E+000
  0.000000000000000E+000
  0.000000000000000E+000
  0.000000000000000E+000
  0.000000000000000E+000
  0.000000000000000E+000
  0.000000000000000E+000
  0.000000000000000E+000
  0.000000000000000E+000
  0.000000000000000E+000
  0.000000000000000E+000
  0.000000000000000E+000
  0.000000000000000E+000
  0.000000000000000E+000
  0.000000000000000E+000
  0.000000000000000E+000
  0.000000000000000E+000
  0.000000000000000E+000
  0.000000000000000E+000
  0.000000000000000E+000
  0.000000000000000E+000
  0.000000000000000E+000
  0.000000000000000E+000
  0.000000000000000E+000
  0.000000000000000E+000
  0.000000000000000E+000
  0.000000000000000E+000
  0.000000000000000E+000
  0.000000000000000E+000
  0.000000000000000E+000
  0.000000000000000E+000
  0.000000000000000E+000
  0.000000000000000E+000
  0.000000000000000E+000
  0.000000000000000E+000
  0.000000000000000E+000
  0.000000000000000E+000
  0.000000000000000E+000
  0.000000000000000E+000
  0.000000000000000E+000
  0.000000000000000E+000
  0.000000000000000E+000
  0.000000000000000E+000
  0.000000000000000E+000
  0.000000000000000E+000
  0.000000000000000E+000
  0.000000000000000E+000
  0.000000000000000E+000
  0.000000000000000E+000
  0.000000000000000E+000
  0.000000000000000E+000
  0.000000000000000E+000
  0.000000000000000E+000
  0.000000000000000E+000
  0.000000000000000E+000
  0.000000000000000E+000
  0.000000000000000E+000
  0.000000000000000E+000
  0.000000000000000E+000
  0.000000000000000E+000
  0.000000000000000E+000
  0.000000000000000E+000
  0.000000000000000E+000
  0.000000000000000E+000
  0.000000000000000E+000
  0.000000000000000E+000
  0.000000000000000E+000
  0.000000000000000E+000
  0.000000000000000E+000
  0.000000000000000E+000
  0.000000000000000E+000
  0.000000000000000E+000
  0.000000000000000E+000
  0.000000000000000E+000
  0.000000000000000E+000
  0.000000000000000E+000
  0.000000000000000E+000
  0.000000000000000E+000
  0.000000000000000E+000
  0.000000000000000E+000
  0.000000000000000E+000
  0.000000000000000E+000
  0.000000000000000E+000
  0.000000000000000E+000
  0.000000000000000E+000
  0.000000000000000E+000
  0.000000000000000E+000
  0.000000000000000E+000
  0.000000000000000E+000
  0.000000000000000E+000
  0.000000000000000E+000
  0.000000000000000E+000
  0.000000000000000E+000
  0.000000000000000E+000
  0.000000000000000E+000
  0.000000000000000E+000
  0.000000000000000E+000
  0.000000000000000E+000
  0.000000000000000E+000
  0.000000000000000E+000
  0.000000000000000E+000
  0.000000000000000E+000
  0.000000000000000E+000
  0.000000000000000E+000
  0.000000000000000E+000
  0.000000000000000E+000
  0.000000000000000E+000
  0.000000000000000E+000
  0.000000000000000E+000
  0.000000000000000E+000
  0.000000000000000E+000
  0.000000000000000E+000
  0.000000000000000E+000
  0.000000000000000E+000
  0.000000000000000E+000
  0.000000000000000E+000
  0.000000000000000E+000
  0.000000000000000E+000
  0.000000000000000E+000
  0.000000000000000E+000
  0.000000000000000E+000
  0.000000000000000E+000
  0.000000000000000E+000
  0.000000000000000E+000
  0.000000000000000E+000
  0.000000000000000E+000
  0.000000000000000E+000
  0.000000000000000E+000
  0.000000000000000E+000
  0.000000000000000E+000
  0.000000000000000E+000
  0.000000000000000E+000
  0.000000000000000E+000
  0.000000000000000E+000
  0.000000000000000E+000
  0.000000000000000E+000
  0.000000000000000E+000
  0.000000000000000E+000
  0.000000000000000E+000
  0.000000000000000E+000
  0.000000000000000E+000
  0.000000000000000E+000
  0.000000000000000E+000
  0.000000000000000E+000
  0.000000000000000E+000
  0.000000000000000E+000
  0.000000000000000E+000
  0.000000000000000E+000
  0.000000000000000E+000
  0.000000000000000E+000
  0.000000000000000E+000
  0.000000000000000E+000
  0.000000000000000E+000
  0.000000000000000E+000
  0.000000000000000E+000
  0.000000000000000E+000
  0.000000000000000E+000
  0.000000000000000E+000
  0.000000000000000E+000
  0.000000000000000E+000
  0.000000000000000E+000
  0.000000000000000E+000
  0.000000000000000E+000
  0.000000000000000E+000
  0.000000000000000E+000
  0.000000000000000E+000
  0.000000000000000E+000
  0.000000000000000E+000
  0.000000000000000E+000
  0.000000000000000E+000
  0.000000000000000E+000
  0.000000000000000E+000
  0.000000000000000E+000
  0.000000000000000E+000
  0.000000000000000E+000
  0.000000000000000E+000
  0.000000000000000E+000
  0.000000000000000E+000
  0.000000000000000E+000
  0.000000000000000E+000
  0.000000000000000E+000
  0.000000000000000E+000
  0.000000000000000E+000
  0.000000000000000E+000
  0.000000000000000E+000
  0.000000000000000E+000
  0.000000000000000E+000
  0.000000000000000E+000
  0.000000000000000E+000
  0.000000000000000E+000
  0.000000000000000E+000
  0.000000000000000E+000
  0.000000000000000E+000
  0.000000000000000E+000
  0.000000000000000E+000
  0.000000000000000E+000
  0.000000000000000E+000
  0.000000000000000E+000
  0.000000000000000E+000
  0.000000000000000E+000
  0.000000000000000E+000
  0.000000000000000E+000
  0.000000000000000E+000
  0.000000000000000E+000
  0.000000000000000E+000
  0.000000000000000E+000
  0.000000000000000E+000
  0.000000000000000E+000
  0.000000000000000E+000
  0.000000000000000E+000
  0.000000000000000E+000
  0.000000000000000E+000
  0.000000000000000E+000
  0.000000000000000E+000
  0.000000000000000E+000
  0.000000000000000E+000
  0.000000000000000E+000
  0.000000000000000E+000
  0.000000000000000E+000
  0.000000000000000E+000
  0.000000000000000E+000
  0.000000000000000E+000
  0.000000000000000E+000
  0.000000000000000E+000
  0.000000000000000E+000
  0.000000000000000E+000
  0.000000000000000E+000
  0.000000000000000E+000
  0.000000000000000E+000
  0.000000000000000E+000
  0.000000000000000E+000
  0.000000000000000E+000
  0.000000000000000E+000
  0.000000000000000E+000
  0.000000000000000E+000
  0.000000000000000E+000
  0.000000000000000E+000
  0.000000000000000E+000
  0.000000000000000E+000
  0.000000000000000E+000
  0.000000000000000E+000
  0.000000000000000E+000
  0.000000000000000E+000
  0.000000000000000E+000
  0.000000000000000E+000
  0.000000000000000E+000
  0.000000000000000E+000
  0.000000000000000E+000
  0.000000000000000E+000
  0.000000000000000E+000
  0.000000000000000E+000
  0.000000000000000E+000
  0.000000000000000E+000
  0.000000000000000E+000
  0.000000000000000E+000
  0.000000000000000E+000
  0.000000000000000E+000
  0.000000000000000E+000
  0.000000000000000E+000
  0.000000000000000E+000
  0.000000000000000E+000
  0.000000000000000E+000
  0.000000000000000E+000
  0.000000000000000E+000
  0.000000000000000E+000
  0.000000000000000E+000
  0.000000000000000E+000
  0.000000000000000E+000
  0.000000000000000E+000
  0.000000000000000E+000
  0.000000000000000E+000
  0.000000000000000E+000
  0.000000000000000E+000
  0.000000000000000E+000
  0.000000000000000E+000
  0.000000000000000E+000
  0.000000000000000E+000
  0.000000000000000E+000
  0.000000000000000E+000
  0.000000000000000E+000
  0.000000000000000E+000
  0.000000000000000E+000
  0.000000000000000E+000
  0.000000000000000E+000
  0.000000000000000E+000
  0.000000000000000E+000
  0.000000000000000E+000
  0.000000000000000E+000
  0.000000000000000E+000
  0.000000000000000E+000
  0.000000000000000E+000
  0.000000000000000E+000
  0.000000000000000E+000
  0.000000000000000E+000
  0.000000000000000E+000
  0.000000000000000E+000
  0.000000000000000E+000
  0.000000000000000E+000
  0.000000000000000E+000
  0.000000000000000E+000
  0.000000000000000E+000
  0.000000000000000E+000
  0.000000000000000E+000
  0.000000000000000E+000
  0.000000000000000E+000
  0.000000000000000E+000
  0.000000000000000E+000
  0.000000000000000E+000
  0.000000000000000E+000
  0.000000000000000E+000
  0.000000000000000E+000
  0.000000000000000E+000
  0.000000000000000E+000
  0.000000000000000E+000
  0.000000000000000E+000
  0.000000000000000E+000
  0.000000000000000E+000
  0.000000000000000E+000
  0.000000000000000E+000
  0.000000000000000E+000
  0.000000000000000E+000
  0.000000000000000E+000
  0.000000000000000E+000
  0.000000000000000E+000
  0.000000000000000E+000
  0.000000000000000E+000
  0.000000000000000E+000
  0.000000000000000E+000
  0.000000000000000E+000
  0.000000000000000E+000
  0.000000000000000E+000
  0.000000000000000E+000
  0.000000000000000E+000
  0.000000000000000E+000
  0.000000000000000E+000
  0.000000000000000E+000
  0.000000000000000E+000
  0.000000000000000E+000
  0.000000000000000E+000
  0.000000000000000E+000
  0.000000000000000E+000
  0.000000000000000E+000
  0.000000000000000E+000
  0.000000000000000E+000
  0.000000000000000E+000
  0.000000000000000E+000
  0.000000000000000E+000
  0.000000000000000E+000
  0.000000000000000E+000
  0.000000000000000E+000
  0.000000000000000E+000
  0.000000000000000E+000
  0.000000000000000E+000
  0.000000000000000E+000
  0.000000000000000E+000
  0.000000000000000E+000
  0.000000000000000E+000
  0.000000000000000E+000
  0.000000000000000E+000
  0.000000000000000E+000
  0.000000000000000E+000
  0.000000000000000E+000
  0.000000000000000E+000
  0.000000000000000E+000
  0.000000000000000E+000
  0.000000000000000E+000
  0.000000000000000E+000
  0.000000000000000E+000
  0.000000000000000E+000
  0.000000000000000E+000
  0.000000000000000E+000
  0.000000000000000E+000
  0.000000000000000E+000
  0.000000000000000E+000
  0.000000000000000E+000
  0.000000000000000E+000
  0.000000000000000E+000
  0.000000000000000E+000
  0.000000000000000E+000
  0.000000000000000E+000
  0.000000000000000E+000
  0.000000000000000E+000
  0.000000000000000E+000
  0.000000000000000E+000
  0.000000000000000E+000
  0.000000000000000E+000
  0.000000000000000E+000
  0.000000000000000E+000
  0.000000000000000E+000
  0.000000000000000E+000
  0.000000000000000E+000
  0.000000000000000E+000
  0.000000000000000E+000
  0.000000000000000E+000
  0.000000000000000E+000
  0.000000000000000E+000
  0.000000000000000E+000
  0.000000000000000E+000
  0.000000000000000E+000
  0.000000000000000E+000
  0.000000000000000E+000
  0.000000000000000E+000
  0.000000000000000E+000
  0.000000000000000E+000
  0.000000000000000E+000
  0.000000000000000E+000
  0.000000000000000E+000
  0.000000000000000E+000
  0.000000000000000E+000
  0.000000000000000E+000
  0.000000000000000E+000
  0.000000000000000E+000
  0.000000000000000E+000
  0.000000000000000E+000
  0.000000000000000E+000
  0.000000000000000E+000
  0.000000000000000E+000
  0.000000000000000E+000
  0.000000000000000E+000
  0.000000000000000E+000
  0.000000000000000E+000
  0.000000000000000E+000
  0.000000000000000E+000
  0.000000000000000E+000
  0.000000000000000E+000
  0.000000000000000E+000
  0.000000000000000E+000
  0.000000000000000E+000
  0.000000000000000E+000
  0.000000000000000E+000
  0.000000000000000E+000
  0.000000000000000E+000
  0.000000000000000E+000
  0.000000000000000E+000
  0.000000000000000E+000
  0.000000000000000E+000
  0.000000000000000E+000
  0.000000000000000E+000
  0.000000000000000E+000
  0.000000000000000E+000
  0.000000000000000E+000
  0.000000000000000E+000
  0.000000000000000E+000
  0.000000000000000E+000
  0.000000000000000E+000
  0.000000000000000E+000
  0.000000000000000E+000
  0.000000000000000E+000
  0.000000000000000E+000
  0.000000000000000E+000
  0.000000000000000E+000
  0.000000000000000E+000
  0.000000000000000E+000
  0.000000000000000E+000
  0.000000000000000E+000
  0.000000000000000E+000
  0.000000000000000E+000
  0.000000000000000E+000
  0.000000000000000E+000
  0.000000000000000E+000
  0.000000000000000E+000
  0.000000000000000E+000
  0.000000000000000E+000
  0.000000000000000E+000
  0.000000000000000E+000
  0.000000000000000E+000
  0.000000000000000E+000
  0.000000000000000E+000
  0.000000000000000E+000
  0.000000000000000E+000
  0.000000000000000E+000
  0.000000000000000E+000
  0.000000000000000E+000
  0.000000000000000E+000
  0.000000000000000E+000
  0.000000000000000E+000
  0.000000000000000E+000
  0.000000000000000E+000
  0.000000000000000E+000
  0.000000000000000E+000
  0.000000000000000E+000
  0.000000000000000E+000
  0.000000000000000E+000
  0.000000000000000E+000
  0.000000000000000E+000
  0.000000000000000E+000
  0.000000000000000E+000
  0.000000000000000E+000
  0.000000000000000E+000
  0.000000000000000E+000
  0.000000000000000E+000
  0.000000000000000E+000
  0.000000000000000E+000
  0.000000000000000E+000
  0.000000000000000E+000
  0.000000000000000E+000
  0.000000000000000E+000
  0.000000000000000E+000
  0.000000000000000E+000
  0.000000000000000E+000
  0.000000000000000E+000
  0.000000000000000E+000
  0.000000000000000E+000
  0.000000000000000E+000
  0.000000000000000E+000
  0.000000000000000E+000
  0.000000000000000E+000
  0.000000000000000E+000
  0.000000000000000E+000
  0.000000000000000E+000
  0.000000000000000E+000
  0.000000000000000E+000
  0.000000000000000E+000
  0.000000000000000E+000
  0.000000000000000E+000
  0.000000000000000E+000
  0.000000000000000E+000
  0.000000000000000E+000
  0.000000000000000E+000
  0.000000000000000E+000
  0.000000000000000E+000
  0.000000000000000E+000
  0.000000000000000E+000
  0.000000000000000E+000
  0.000000000000000E+000
  0.000000000000000E+000
  0.000000000000000E+000
  0.000000000000000E+000
  0.000000000000000E+000
  0.000000000000000E+000
  0.000000000000000E+000
  0.000000000000000E+000
  0.000000000000000E+000
  0.000000000000000E+000
  0.000000000000000E+000
  0.000000000000000E+000
  0.000000000000000E+000
  0.000000000000000E+000
  0.000000000000000E+000
  0.000000000000000E+000
  0.000000000000000E+000
  0.000000000000000E+000
  0.000000000000000E+000
  0.000000000000000E+000
  0.000000000000000E+000
  0.000000000000000E+000
  0.000000000000000E+000
  0.000000000000000E+000
  0.000000000000000E+000
  0.000000000000000E+000
  0.000000000000000E+000
  0.000000000000000E+000
  0.000000000000000E+000
  0.000000000000000E+000
  0.000000000000000E+000
  0.000000000000000E+000
  0.000000000000000E+000
  0.000000000000000E+000
  0.000000000000000E+000
  0.000000000000000E+000
  0.000000000000000E+000
  0.000000000000000E+000
  0.000000000000000E+000
  0.000000000000000E+000
  0.000000000000000E+000
  0.000000000000000E+000
  0.000000000000000E+000
  0.000000000000000E+000
  0.000000000000000E+000
  0.000000000000000E+000
  0.000000000000000E+000
  0.000000000000000E+000
  0.000000000000000E+000
  0.000000000000000E+000
  0.000000000000000E+000
  0.000000000000000E+000
  0.000000000000000E+000
  0.000000000000000E+000
  0.000000000000000E+000
  0.000000000000000E+000
  0.000000000000000E+000
  0.000000000000000E+000
  0.000000000000000E+000
  0.000000000000000E+000
  0.000000000000000E+000
  0.000000000000000E+000
  0.000000000000000E+000
  0.000000000000000E+000
  0.000000000000000E+000
  0.000000000000000E+000
  0.000000000000000E+000
  0.000000000000000E+000
  0.000000000000000E+000
  0.000000000000000E+000
  0.000000000000000E+000
  0.000000000000000E+000
  0.000000000000000E+000
  0.000000000000000E+000
  0.000000000000000E+000
  0.000000000000000E+000
  0.000000000000000E+000
  0.000000000000000E+000
  0.000000000000000E+000
  0.000000000000000E+000
  0.000000000000000E+000
  0.000000000000000E+000
  0.000000000000000E+000
  0.000000000000000E+000
  0.000000000000000E+000
  0.000000000000000E+000
  0.000000000000000E+000
  0.000000000000000E+000
  0.000000000000000E+000
  0.000000000000000E+000
  0.000000000000000E+000
  0.000000000000000E+000
  0.000000000000000E+000
  0.000000000000000E+000
  0.000000000000000E+000
  0.000000000000000E+000
  0.000000000000000E+000
  0.000000000000000E+000
  0.000000000000000E+000
  0.000000000000000E+000
  0.000000000000000E+000
  0.000000000000000E+000
  0.000000000000000E+000
  0.000000000000000E+000
  0.000000000000000E+000
  0.000000000000000E+000
  0.000000000000000E+000
  0.000000000000000E+000
  0.000000000000000E+000
  0.000000000000000E+000
  0.000000000000000E+000
  0.000000000000000E+000
  0.000000000000000E+000
  0.000000000000000E+000
  0.000000000000000E+000
  0.000000000000000E+000
  0.000000000000000E+000
  0.000000000000000E+000
  0.000000000000000E+000
  0.000000000000000E+000
  0.000000000000000E+000
  0.000000000000000E+000
  0.000000000000000E+000
  0.000000000000000E+000
  0.000000000000000E+000
  0.000000000000000E+000
  0.000000000000000E+000
  0.000000000000000E+000
  0.000000000000000E+000
  0.000000000000000E+000
  0.000000000000000E+000
  0.000000000000000E+000
  0.000000000000000E+000
  0.000000000000000E+000
  0.000000000000000E+000
  0.000000000000000E+000
  0.000000000000000E+000
  0.000000000000000E+000
  0.000000000000000E+000
  0.000000000000000E+000
  0.000000000000000E+000
  0.000000000000000E+000
  0.000000000000000E+000
  0.000000000000000E+000
  0.000000000000000E+000
  0.000000000000000E+000
  0.000000000000000E+000
  0.000000000000000E+000
  0.000000000000000E+000
  0.000000000000000E+000
  0.000000000000000E+000
  0.000000000000000E+000
  0.000000000000000E+000
  0.000000000000000E+000
  0.000000000000000E+000
  0.000000000000000E+000
  0.000000000000000E+000
  0.000000000000000E+000
  0.000000000000000E+000
  0.000000000000000E+000
  0.000000000000000E+000
  0.000000000000000E+000
  0.000000000000000E+000
  0.000000000000000E+000
  0.000000000000000E+000
  0.000000000000000E+000
  0.000000000000000E+000
  0.000000000000000E+000
  0.000000000000000E+000
  0.000000000000000E+000
  0.000000000000000E+000
  0.000000000000000E+000
  0.000000000000000E+000
  0.000000000000000E+000
  0.000000000000000E+000
  0.000000000000000E+000
  0.000000000000000E+000
  0.000000000000000E+000
  0.000000000000000E+000
  0.000000000000000E+000
  0.000000000000000E+000
  0.000000000000000E+000
  0.000000000000000E+000
  0.000000000000000E+000
  0.000000000000000E+000
  0.000000000000000E+000
  0.000000000000000E+000
  0.000000000000000E+000
  0.000000000000000E+000
  0.000000000000000E+000
  0.000000000000000E+000
  0.000000000000000E+000
  0.000000000000000E+000
  0.000000000000000E+000
  0.000000000000000E+000
  0.000000000000000E+000
  0.000000000000000E+000
  0.000000000000000E+000
  0.000000000000000E+000
  0.000000000000000E+000
  0.000000000000000E+000
  0.000000000000000E+000
  0.000000000000000E+000
  0.000000000000000E+000
  0.000000000000000E+000
  0.000000000000000E+000
  0.000000000000000E+000
  0.000000000000000E+000
  0.000000000000000E+000
  0.000000000000000E+000
  0.000000000000000E+000
  0.000000000000000E+000
  0.000000000000000E+000
  0.000000000000000E+000
  0.000000000000000E+000
  0.000000000000000E+000
  0.000000000000000E+000
  0.000000000000000E+000
  0.000000000000000E+000
  0.000000000000000E+000
  0.000000000000000E+000
  0.000000000000000E+000
  0.000000000000000E+000
  0.000000000000000E+000
  0.000000000000000E+000
  0.000000000000000E+000
  0.000000000000000E+000
  0.000000000000000E+000
  0.000000000000000E+000
  0.000000000000000E+000
  0.000000000000000E+000
  0.000000000000000E+000
  0.000000000000000E+000
  0.000000000000000E+000
  0.000000000000000E+000
  0.000000000000000E+000
  0.000000000000000E+000
  0.000000000000000E+000
  0.000000000000000E+000
  0.000000000000000E+000
  0.000000000000000E+000
  0.000000000000000E+000
  0.000000000000000E+000
  0.000000000000000E+000
  0.000000000000000E+000
  0.000000000000000E+000
  0.000000000000000E+000
  0.000000000000000E+000
  0.000000000000000E+000
  0.000000000000000E+000
  0.000000000000000E+000
  0.000000000000000E+000
  0.000000000000000E+000
  0.000000000000000E+000
  0.000000000000000E+000
  0.000000000000000E+000
  0.000000000000000E+000
  0.000000000000000E+000
  0.000000000000000E+000
  0.000000000000000E+000
  0.000000000000000E+000
  0.000000000000000E+000
  0.000000000000000E+000
  0.000000000000000E+000
  0.000000000000000E+000
  0.000000000000000E+000
  0.000000000000000E+000
  0.000000000000000E+000
  0.000000000000000E+000
  0.000000000000000E+000
  0.000000000000000E+000
  0.000000000000000E+000
  0.000000000000000E+000
  0.000000000000000E+000
  0.000000000000000E+000
  0.000000000000000E+000
  0.000000000000000E+000
  0.000000000000000E+000
  0.000000000000000E+000
  0.000000000000000E+000
  0.000000000000000E+000
  0.000000000000000E+000
  0.000000000000000E+000
  0.000000000000000E+000
  0.000000000000000E+000
  0.000000000000000E+000
  0.000000000000000E+000
  0.000000000000000E+000
  0.000000000000000E+000
  0.000000000000000E+000
  0.000000000000000E+000
  0.000000000000000E+000
  0.000000000000000E+000
  0.000000000000000E+000
  0.000000000000000E+000
  0.000000000000000E+000
  0.000000000000000E+000
  0.000000000000000E+000
  0.000000000000000E+000
  0.000000000000000E+000
  0.000000000000000E+000
  0.000000000000000E+000
  0.000000000000000E+000
  0.000000000000000E+000
  0.000000000000000E+000
  0.000000000000000E+000
  0.000000000000000E+000
  0.000000000000000E+000
  0.000000000000000E+000
  0.000000000000000E+000
  0.000000000000000E+000
  0.000000000000000E+000
  0.000000000000000E+000
  0.000000000000000E+000
  0.000000000000000E+000
  0.000000000000000E+000
  0.000000000000000E+000
  0.000000000000000E+000
  0.000000000000000E+000
  0.000000000000000E+000
  0.000000000000000E+000
  0.000000000000000E+000
  0.000000000000000E+000
  0.000000000000000E+000
  0.000000000000000E+000
  0.000000000000000E+000
  0.000000000000000E+000
  0.000000000000000E+000
  0.000000000000000E+000
  0.000000000000000E+000
  0.000000000000000E+000
  0.000000000000000E+000
  0.000000000000000E+000
  0.000000000000000E+000
  0.000000000000000E+000
  0.000000000000000E+000
  0.000000000000000E+000
  0.000000000000000E+000
  0.000000000000000E+000
  0.000000000000000E+000
  0.000000000000000E+000
  0.000000000000000E+000
  0.000000000000000E+000
  0.000000000000000E+000
  0.000000000000000E+000
  0.000000000000000E+000
  0.000000000000000E+000
  0.000000000000000E+000
  0.000000000000000E+000
  0.000000000000000E+000
  0.000000000000000E+000
  0.000000000000000E+000
  0.000000000000000E+000
  0.000000000000000E+000
  0.000000000000000E+000
  0.000000000000000E+000
  0.000000000000000E+000
  0.000000000000000E+000
  0.000000000000000E+000
  0.000000000000000E+000
  0.000000000000000E+000
  0.000000000000000E+000
  0.000000000000000E+000
  0.000000000000000E+000
  0.000000000000000E+000
  0.000000000000000E+000
  0.000000000000000E+000
  0.000000000000000E+000
  0.000000000000000E+000
  0.000000000000000E+000
  0.000000000000000E+000
  0.000000000000000E+000
  0.000000000000000E+000
  0.000000000000000E+000
  0.000000000000000E+000
  0.000000000000000E+000
  0.000000000000000E+000
  0.000000000000000E+000
  0.000000000000000E+000
  0.000000000000000E+000
  0.000000000000000E+000
  0.000000000000000E+000
  0.000000000000000E+000
  0.000000000000000E+000
  0.000000000000000E+000
  0.000000000000000E+000
  0.000000000000000E+000
  0.000000000000000E+000
  0.000000000000000E+000
  0.000000000000000E+000
  0.000000000000000E+000
  0.000000000000000E+000
  0.000000000000000E+000
  0.000000000000000E+000
  0.000000000000000E+000
  0.000000000000000E+000
  0.000000000000000E+000
  0.000000000000000E+000
  0.000000000000000E+000
  0.000000000000000E+000
  0.000000000000000E+000
  0.000000000000000E+000
  0.000000000000000E+000
  0.000000000000000E+000
  0.000000000000000E+000
  0.000000000000000E+000
  0.000000000000000E+000
  0.000000000000000E+000
  0.000000000000000E+000
  0.000000000000000E+000
  0.000000000000000E+000
  0.000000000000000E+000
  0.000000000000000E+000
  0.000000000000000E+000
  0.000000000000000E+000
  0.000000000000000E+000
  0.000000000000000E+000
  0.000000000000000E+000
  0.000000000000000E+000
  0.000000000000000E+000
  0.000000000000000E+000
  0.000000000000000E+000
  0.000000000000000E+000
  0.000000000000000E+000
  0.000000000000000E+000
  0.000000000000000E+000
  0.000000000000000E+000
  0.000000000000000E+000
  0.000000000000000E+000
  0.000000000000000E+000
  0.000000000000000E+000
  0.000000000000000E+000
  0.000000000000000E+000
  0.000000000000000E+000
  0.000000000000000E+000
  0.000000000000000E+000
  0.000000000000000E+000
  0.000000000000000E+000
  0.000000000000000E+000
  0.000000000000000E+000
  0.000000000000000E+000
  0.000000000000000E+000
  0.000000000000000E+000
  0.000000000000000E+000
  0.000000000000000E+000
  0.000000000000000E+000
  0.000000000000000E+000
  0.000000000000000E+000
  0.000000000000000E+000
  0.000000000000000E+000
  0.000000000000000E+000
  0.000000000000000E+000
  0.000000000000000E+000
  0.000000000000000E+000
  0.000000000000000E+000
  0.000000000000000E+000
  0.000000000000000E+000
  0.000000000000000E+000
  0.000000000000000E+000
  0.000000000000000E+000
  0.000000000000000E+000
  0.000000000000000E+000
  0.000000000000000E+000
  0.000000000000000E+000
  0.000000000000000E+000
  0.000000000000000E+000
  0.000000000000000E+000
  0.000000000000000E+000
  0.000000000000000E+000
  0.000000000000000E+000
  0.000000000000000E+000
  0.000000000000000E+000
  0.000000000000000E+000
  0.000000000000000E+000
  0.000000000000000E+000
  0.000000000000000E+000
  0.000000000000000E+000
  0.000000000000000E+000
  0.000000000000000E+000
  0.000000000000000E+000
  0.000000000000000E+000
  0.000000000000000E+000
  0.000000000000000E+000
  0.000000000000000E+000
  0.000000000000000E+000
  0.000000000000000E+000
  0.000000000000000E+000
  0.000000000000000E+000
  0.000000000000000E+000
  0.000000000000000E+000
  0.000000000000000E+000
  0.000000000000000E+000
  0.000000000000000E+000
  0.000000000000000E+000
  0.000000000000000E+000
  0.000000000000000E+000
  0.000000000000000E+000
  0.000000000000000E+000
  0.000000000000000E+000
  0.000000000000000E+000
  0.000000000000000E+000
  0.000000000000000E+000
  0.000000000000000E+000
  0.000000000000000E+000
  0.000000000000000E+000
  0.000000000000000E+000
  0.000000000000000E+000
  0.000000000000000E+000
  0.000000000000000E+000
  0.000000000000000E+000
  0.000000000000000E+000
  0.000000000000000E+000
  0.000000000000000E+000
  0.000000000000000E+000
  0.000000000000000E+000
  0.000000000000000E+000
  0.000000000000000E+000
  0.000000000000000E+000
  0.000000000000000E+000
  0.000000000000000E+000
  0.000000000000000E+000
  0.000000000000000E+000
  0.000000000000000E+000
  0.000000000000000E+000
  0.000000000000000E+000
  0.000000000000000E+000
  0.000000000000000E+000
  0.000000000000000E+000
  0.000000000000000E+000
  0.000000000000000E+000
  0.000000000000000E+000
  0.000000000000000E+000
  0.000000000000000E+000
  0.000000000000000E+000
  0.000000000000000E+000
  0.000000000000000E+000
  0.000000000000000E+000
  0.000000000000000E+000
  0.000000000000000E+000
  0.000000000000000E+000
  0.000000000000000E+000
  0.000000000000000E+000
  0.000000000000000E+000
  0.000000000000000E+000
  0.000000000000000E+000
  0.000000000000000E+000
  0.000000000000000E+000
  0.000000000000000E+000
  0.000000000000000E+000
  0.000000000000000E+000
  0.000000000000000E+000
  0.000000000000000E+000
  0.000000000000000E+000
  0.000000000000000E+000
  0.000000000000000E+000
  0.000000000000000E+000
  0.000000000000000E+000
  0.000000000000000E+000
  0.000000000000000E+000
  0.000000000000000E+000
  0.000000000000000E+000
  0.000000000000000E+000
  0.000000000000000E+000
  0.000000000000000E+000
  0.000000000000000E+000
  0.000000000000000E+000
  0.000000000000000E+000
  0.000000000000000E+000
  0.000000000000000E+000
  0.000000000000000E+000
  0.000000000000000E+000
  0.000000000000000E+000
  0.000000000000000E+000
  0.000000000000000E+000
  0.000000000000000E+000
  0.000000000000000E+000
  0.000000000000000E+000
  0.000000000000000E+000
  0.000000000000000E+000
  0.000000000000000E+000
  0.000000000000000E+000
  0.000000000000000E+000
  0.000000000000000E+000
  0.000000000000000E+000
  0.000000000000000E+000
  0.000000000000000E+000
  0.000000000000000E+000
  0.000000000000000E+000
  0.000000000000000E+000
  0.000000000000000E+000
  0.000000000000000E+000
  0.000000000000000E+000
  0.000000000000000E+000
  0.000000000000000E+000
  0.000000000000000E+000
  0.000000000000000E+000
  0.000000000000000E+000
  0.000000000000000E+000
  0.000000000000000E+000
  0.000000000000000E+000
  0.000000000000000E+000
  0.000000000000000E+000
  0.000000000000000E+000
  0.000000000000000E+000
  0.000000000000000E+000
  0.000000000000000E+000
  0.000000000000000E+000
  0.000000000000000E+000
  0.000000000000000E+000
  0.000000000000000E+000
  0.000000000000000E+000
  0.000000000000000E+000
  0.000000000000000E+000
  0.000000000000000E+000
  0.000000000000000E+000
  0.000000000000000E+000
  0.000000000000000E+000
  0.000000000000000E+000
  0.000000000000000E+000
  0.000000000000000E+000
  0.000000000000000E+000
  0.000000000000000E+000
  0.000000000000000E+000
  0.000000000000000E+000
  0.000000000000000E+000
  0.000000000000000E+000
  0.000000000000000E+000
  0.000000000000000E+000
  0.000000000000000E+000
  0.000000000000000E+000
  0.000000000000000E+000
  0.000000000000000E+000
  0.000000000000000E+000
  0.000000000000000E+000
  0.000000000000000E+000
  0.000000000000000E+000
  0.000000000000000E+000
  0.000000000000000E+000
  0.000000000000000E+000
  0.000000000000000E+000
  0.000000000000000E+000
  0.000000000000000E+000
  0.000000000000000E+000
  0.000000000000000E+000
  0.000000000000000E+000
  0.000000000000000E+000
  0.000000000000000E+000
  0.000000000000000E+000
  0.000000000000000E+000
  0.000000000000000E+000
  0.000000000000000E+000
  0.000000000000000E+000
  0.000000000000000E+000
  0.000000000000000E+000
  0.000000000000000E+000
  0.000000000000000E+000
  0.000000000000000E+000
  0.000000000000000E+000
  0.000000000000000E+000
  0.000000000000000E+000
  0.000000000000000E+000
  0.000000000000000E+000
  0.000000000000000E+000
  0.000000000000000E+000
  0.000000000000000E+000
  0.000000000000000E+000
  0.000000000000000E+000
  0.000000000000000E+000
  0.000000000000000E+000
  0.000000000000000E+000
  0.000000000000000E+000
  0.000000000000000E+000
  0.000000000000000E+000
  0.000000000000000E+000
  0.000000000000000E+000
  0.000000000000000E+000
  0.000000000000000E+000
  0.000000000000000E+000
  0.000000000000000E+000
  0.000000000000000E+000
  0.000000000000000E+000
  0.000000000000000E+000
  0.000000000000000E+000
  0.000000000000000E+000
  0.000000000000000E+000
  0.000000000000000E+000
  0.000000000000000E+000
  0.000000000000000E+000
  0.000000000000000E+000
  0.000000000000000E+000
  0.000000000000000E+000
  0.000000000000000E+000
  0.000000000000000E+000
  0.000000000000000E+000
  0.000000000000000E+000
  0.000000000000000E+000
  0.000000000000000E+000
  0.000000000000000E+000
  0.000000000000000E+000
  0.000000000000000E+000
  0.000000000000000E+000
  0.000000000000000E+000
  0.000000000000000E+000
  0.000000000000000E+000
  0.000000000000000E+000
  0.000000000000000E+000
  0.000000000000000E+000
  0.000000000000000E+000
  0.000000000000000E+000
  0.000000000000000E+000
  0.000000000000000E+000
  0.000000000000000E+000
  0.000000000000000E+000
  0.000000000000000E+000
  0.000000000000000E+000
  0.000000000000000E+000
  0.000000000000000E+000
  0.000000000000000E+000
  0.000000000000000E+000
  0.000000000000000E+000
  0.000000000000000E+000
  0.000000000000000E+000
  0.000000000000000E+000
  0.000000000000000E+000
  0.000000000000000E+000
  0.000000000000000E+000
  0.000000000000000E+000
  0.000000000000000E+000
  0.000000000000000E+000
  0.000000000000000E+000
  0.000000000000000E+000
  0.000000000000000E+000
  0.000000000000000E+000
  0.000000000000000E+000
  0.000000000000000E+000
  0.000000000000000E+000
  0.000000000000000E+000
  0.000000000000000E+000
  0.000000000000000E+000
  0.000000000000000E+000
  0.000000000000000E+000
  0.000000000000000E+000
  0.000000000000000E+000
  0.000000000000000E+000
  0.000000000000000E+000
  0.000000000000000E+000
  0.000000000000000E+000
  0.000000000000000E+000
  0.000000000000000E+000
  0.000000000000000E+000
  0.000000000000000E+000
  0.000000000000000E+000
  0.000000000000000E+000
  0.000000000000000E+000
  0.000000000000000E+000
  0.000000000000000E+000
  0.000000000000000E+000
  0.000000000000000E+000
  0.000000000000000E+000
  0.000000000000000E+000
  0.000000000000000E+000
  0.000000000000000E+000
  0.000000000000000E+000
  0.000000000000000E+000
  0.000000000000000E+000
  0.000000000000000E+000
  0.000000000000000E+000
  0.000000000000000E+000
  0.000000000000000E+000
  0.000000000000000E+000
  0.000000000000000E+000
  0.000000000000000E+000
  0.000000000000000E+000
  0.000000000000000E+000
  0.000000000000000E+000
  0.000000000000000E+000
  0.000000000000000E+000
  0.000000000000000E+000
  0.000000000000000E+000
  0.000000000000000E+000
  0.000000000000000E+000
  0.000000000000000E+000
  0.000000000000000E+000
  0.000000000000000E+000
  0.000000000000000E+000
  0.000000000000000E+000
  0.000000000000000E+000
  0.000000000000000E+000
  0.000000000000000E+000
  0.000000000000000E+000
  0.000000000000000E+000
  0.000000000000000E+000
  0.000000000000000E+000
  0.000000000000000E+000
  0.000000000000000E+000
  0.000000000000000E+000
  0.000000000000000E+000
  0.000000000000000E+000
  0.000000000000000E+000
  0.000000000000000E+000
  0.000000000000000E+000
  0.000000000000000E+000
  0.000000000000000E+000
  0.000000000000000E+000
  0.000000000000000E+000
  0.000000000000000E+000
  0.000000000000000E+000
  0.000000000000000E+000
  0.000000000000000E+000
  0.000000000000000E+000
  0.000000000000000E+000
  0.000000000000000E+000
  0.000000000000000E+000
  0.000000000000000E+000
  0.000000000000000E+000
  0.000000000000000E+000
  0.000000000000000E+000
  0.000000000000000E+000
  0.000000000000000E+000
  0.000000000000000E+000
  0.000000000000000E+000
  0.000000000000000E+000
  0.000000000000000E+000
  0.000000000000000E+000
  0.000000000000000E+000
  0.000000000000000E+000
  0.000000000000000E+000
  0.000000000000000E+000
  0.000000000000000E+000
  0.000000000000000E+000
  0.000000000000000E+000
  0.000000000000000E+000
  0.000000000000000E+000
  0.000000000000000E+000
  0.000000000000000E+000
  0.000000000000000E+000
  0.000000000000000E+000
  0.000000000000000E+000
  0.000000000000000E+000
  0.000000000000000E+000
  0.000000000000000E+000
  0.000000000000000E+000
  0.000000000000000E+000
  0.000000000000000E+000
  0.000000000000000E+000
  0.000000000000000E+000
  0.000000000000000E+000
  0.000000000000000E+000
  0.000000000000000E+000
  0.000000000000000E+000
  0.000000000000000E+000
  0.000000000000000E+000
  0.000000000000000E+000
  0.000000000000000E+000
  0.000000000000000E+000
  0.000000000000000E+000
  0.000000000000000E+000
  0.000000000000000E+000
  0.000000000000000E+000
  0.000000000000000E+000
  0.000000000000000E+000
  0.000000000000000E+000
  0.000000000000000E+000
  0.000000000000000E+000
  0.000000000000000E+000
  0.000000000000000E+000
  0.000000000000000E+000
  0.000000000000000E+000
  0.000000000000000E+000
  0.000000000000000E+000
  0.000000000000000E+000
  0.000000000000000E+000
  0.000000000000000E+000
  0.000000000000000E+000
  0.000000000000000E+000
  0.000000000000000E+000
  0.000000000000000E+000
  0.000000000000000E+000
  0.000000000000000E+000
  0.000000000000000E+000
  0.000000000000000E+000
  0.000000000000000E+000
  0.000000000000000E+000
  0.000000000000000E+000
  0.000000000000000E+000
  0.000000000000000E+000
  0.000000000000000E+000
  0.000000000000000E+000
  0.000000000000000E+000
  0.000000000000000E+000
  0.000000000000000E+000
  0.000000000000000E+000
  0.000000000000000E+000
  0.000000000000000E+000
  0.000000000000000E+000
  0.000000000000000E+000
  0.000000000000000E+000
  0.000000000000000E+000
  0.000000000000000E+000
  0.000000000000000E+000
  0.000000000000000E+000
  0.000000000000000E+000
  0.000000000000000E+000
  0.000000000000000E+000
  0.000000000000000E+000
  0.000000000000000E+000
  0.000000000000000E+000
  0.000000000000000E+000
  0.000000000000000E+000
  0.000000000000000E+000
  0.000000000000000E+000
  0.000000000000000E+000
  0.000000000000000E+000
  0.000000000000000E+000
  0.000000000000000E+000
  0.000000000000000E+000
  0.000000000000000E+000
  0.000000000000000E+000
  0.000000000000000E+000
  0.000000000000000E+000
  0.000000000000000E+000
  0.000000000000000E+000
  0.000000000000000E+000
  0.000000000000000E+000
  0.000000000000000E+000
  0.000000000000000E+000
  0.000000000000000E+000
  0.000000000000000E+000
  0.000000000000000E+000
  0.000000000000000E+000
  0.000000000000000E+000
  0.000000000000000E+000
  0.000000000000000E+000
  0.000000000000000E+000
  0.000000000000000E+000
  0.000000000000000E+000
  0.000000000000000E+000
  0.000000000000000E+000
  0.000000000000000E+000
  0.000000000000000E+000
  0.000000000000000E+000
  0.000000000000000E+000
  0.000000000000000E+000
  0.000000000000000E+000
  0.000000000000000E+000
  0.000000000000000E+000
  0.000000000000000E+000
  0.000000000000000E+000
  0.000000000000000E+000
  0.000000000000000E+000
  0.000000000000000E+000
  0.000000000000000E+000
  0.000000000000000E+000
  0.000000000000000E+000
  0.000000000000000E+000
  0.000000000000000E+000
  0.000000000000000E+000
  0.000000000000000E+000
  0.000000000000000E+000
  0.000000000000000E+000
  0.000000000000000E+000
  0.000000000000000E+000
  0.000000000000000E+000
  0.000000000000000E+000
  0.000000000000000E+000
  0.000000000000000E+000
  0.000000000000000E+000
  0.000000000000000E+000
  0.000000000000000E+000
  0.000000000000000E+000
  0.000000000000000E+000
  0.000000000000000E+000
  0.000000000000000E+000
  0.000000000000000E+000
  0.000000000000000E+000
  0.000000000000000E+000
  0.000000000000000E+000
  0.000000000000000E+000
  0.000000000000000E+000
  0.000000000000000E+000
  0.000000000000000E+000
  0.000000000000000E+000
  0.000000000000000E+000
  0.000000000000000E+000
  0.000000000000000E+000
  0.000000000000000E+000
  0.000000000000000E+000
  0.000000000000000E+000
  0.000000000000000E+000
  0.000000000000000E+000
  0.000000000000000E+000
  0.000000000000000E+000
  0.000000000000000E+000
  0.000000000000000E+000
  0.000000000000000E+000
  0.000000000000000E+000
  0.000000000000000E+000
  0.000000000000000E+000
  0.000000000000000E+000
  0.000000000000000E+000
  0.000000000000000E+000
  0.000000000000000E+000
  0.000000000000000E+000
  0.000000000000000E+000
  0.000000000000000E+000
  0.000000000000000E+000
  0.000000000000000E+000
  0.000000000000000E+000
  0.000000000000000E+000
  0.000000000000000E+000
  0.000000000000000E+000
  0.000000000000000E+000
  0.000000000000000E+000
  0.000000000000000E+000
  0.000000000000000E+000
  0.000000000000000E+000
  0.000000000000000E+000
  0.000000000000000E+000
  0.000000000000000E+000
  0.000000000000000E+000
  0.000000000000000E+000
  0.000000000000000E+000
  0.000000000000000E+000
  0.000000000000000E+000
  0.000000000000000E+000
  0.000000000000000E+000
  0.000000000000000E+000
  0.000000000000000E+000
  0.000000000000000E+000
  0.000000000000000E+000
  0.000000000000000E+000
  0.000000000000000E+000
  0.000000000000000E+000
  0.000000000000000E+000
  0.000000000000000E+000
  0.000000000000000E+000
  0.000000000000000E+000
  0.000000000000000E+000
  0.000000000000000E+000
  0.000000000000000E+000
  0.000000000000000E+000
  0.000000000000000E+000
  0.000000000000000E+000
  0.000000000000000E+000
  0.000000000000000E+000
  0.000000000000000E+000
  0.000000000000000E+000
  0.000000000000000E+000
  0.000000000000000E+000
  0.000000000000000E+000
  0.000000000000000E+000
  0.000000000000000E+000
  0.000000000000000E+000
  0.000000000000000E+000
  0.000000000000000E+000
  0.000000000000000E+000
  0.000000000000000E+000
  0.000000000000000E+000
  0.000000000000000E+000
  0.000000000000000E+000
  0.000000000000000E+000
  0.000000000000000E+000
  0.000000000000000E+000
  0.000000000000000E+000
  0.000000000000000E+000
  0.000000000000000E+000
  0.000000000000000E+000
  0.000000000000000E+000
  0.000000000000000E+000
  0.000000000000000E+000
  0.000000000000000E+000
  0.000000000000000E+000
  0.000000000000000E+000
  0.000000000000000E+000
  0.000000000000000E+000
  0.000000000000000E+000
  0.000000000000000E+000
  0.000000000000000E+000
  0.000000000000000E+000
  0.000000000000000E+000
  0.000000000000000E+000
  0.000000000000000E+000
  0.000000000000000E+000
  0.000000000000000E+000
  0.000000000000000E+000
  0.000000000000000E+000
  0.000000000000000E+000
  0.000000000000000E+000
  0.000000000000000E+000
  0.000000000000000E+000
  0.000000000000000E+000
  0.000000000000000E+000
  0.000000000000000E+000
  0.000000000000000E+000
  0.000000000000000E+000
  0.000000000000000E+000
  0.000000000000000E+000
  0.000000000000000E+000
  0.000000000000000E+000
  0.000000000000000E+000
  0.000000000000000E+000
  0.000000000000000E+000
  0.000000000000000E+000
  0.000000000000000E+000
  0.000000000000000E+000
  0.000000000000000E+000
  0.000000000000000E+000
  0.000000000000000E+000
  0.000000000000000E+000
  0.000000000000000E+000
  0.000000000000000E+000
  0.000000000000000E+000
  0.000000000000000E+000
  0.000000000000000E+000
  0.000000000000000E+000
  0.000000000000000E+000
  0.000000000000000E+000
  0.000000000000000E+000
  0.000000000000000E+000
  0.000000000000000E+000
  0.000000000000000E+000
  0.000000000000000E+000
  0.000000000000000E+000
  0.000000000000000E+000
  0.000000000000000E+000
  0.000000000000000E+000
  0.000000000000000E+000
  0.000000000000000E+000
  0.000000000000000E+000
  0.000000000000000E+000
  0.000000000000000E+000
  0.000000000000000E+000
  0.000000000000000E+000
  0.000000000000000E+000
  0.000000000000000E+000
  0.000000000000000E+000
  0.000000000000000E+000
  0.000000000000000E+000
  0.000000000000000E+000
  0.000000000000000E+000
  0.000000000000000E+000
  0.000000000000000E+000
  0.000000000000000E+000
  0.000000000000000E+000
  0.000000000000000E+000
  0.000000000000000E+000
  0.000000000000000E+000
  0.000000000000000E+000
  0.000000000000000E+000
  0.000000000000000E+000
  0.000000000000000E+000
  0.000000000000000E+000
  0.000000000000000E+000
  0.000000000000000E+000
  0.000000000000000E+000
  0.000000000000000E+000
  0.000000000000000E+000
  0.000000000000000E+000
  0.000000000000000E+000
  0.000000000000000E+000
  0.000000000000000E+000
  0.000000000000000E+000
  0.000000000000000E+000
  0.000000000000000E+000
  0.000000000000000E+000
  0.000000000000000E+000
  0.000000000000000E+000
  0.000000000000000E+000
  0.000000000000000E+000
  0.000000000000000E+000
  0.000000000000000E+000
  0.000000000000000E+000
  0.000000000000000E+000
  0.000000000000000E+000
  0.000000000000000E+000
  0.000000000000000E+000
  0.000000000000000E+000
  0.000000000000000E+000
  0.000000000000000E+000
  0.000000000000000E+000
  0.000000000000000E+000
  0.000000000000000E+000
  0.000000000000000E+000
  0.000000000000000E+000
  0.000000000000000E+000
  0.000000000000000E+000
  0.000000000000000E+000
  0.000000000000000E+000
  0.000000000000000E+000
  0.000000000000000E+000
  0.000000000000000E+000
  0.000000000000000E+000
  0.000000000000000E+000
  0.000000000000000E+000
  0.000000000000000E+000
  0.000000000000000E+000
  0.000000000000000E+000
  0.000000000000000E+000
  0.000000000000000E+000
  0.000000000000000E+000
  0.000000000000000E+000
  0.000000000000000E+000
  0.000000000000000E+000
  0.000000000000000E+000
  0.000000000000000E+000
  0.000000000000000E+000
  0.000000000000000E+000
  0.000000000000000E+000
  0.000000000000000E+000
  0.000000000000000E+000
  0.000000000000000E+000
  0.000000000000000E+000
  0.000000000000000E+000
  0.000000000000000E+000
  0.000000000000000E+000
  0.000000000000000E+000
  0.000000000000000E+000
  0.000000000000000E+000
  0.000000000000000E+000
  0.000000000000000E+000
  0.000000000000000E+000
  0.000000000000000E+000
  0.000000000000000E+000
  0.000000000000000E+000
  0.000000000000000E+000
  0.000000000000000E+000
  0.000000000000000E+000
  0.000000000000000E+000
  0.000000000000000E+000
  0.000000000000000E+000
  0.000000000000000E+000
  0.000000000000000E+000
  0.000000000000000E+000
  0.000000000000000E+000
  0.000000000000000E+000
  0.000000000000000E+000
  0.000000000000000E+000
  0.000000000000000E+000
  0.000000000000000E+000
  0.000000000000000E+000
  0.000000000000000E+000
  0.000000000000000E+000
  0.000000000000000E+000
  0.000000000000000E+000
  0.000000000000000E+000
  0.000000000000000E+000
  0.000000000000000E+000
  0.000000000000000E+000
  0.000000000000000E+000
  0.000000000000000E+000
  0.000000000000000E+000
  0.000000000000000E+000
  0.000000000000000E+000
  0.000000000000000E+000
  0.000000000000000E+000
  0.000000000000000E+000
  0.000000000000000E+000
  0.000000000000000E+000
  0.000000000000000E+000
  0.000000000000000E+000
  0.000000000000000E+000
  0.000000000000000E+000
  0.000000000000000E+000
  0.000000000000000E+000
  0.000000000000000E+000
  0.000000000000000E+000
  0.000000000000000E+000
  0.000000000000000E+000
  0.000000000000000E+000
  0.000000000000000E+000
  0.000000000000000E+000
  0.000000000000000E+000
  0.000000000000000E+000
  0.000000000000000E+000
  0.000000000000000E+000
  0.000000000000000E+000
  0.000000000000000E+000
  0.000000000000000E+000
  0.000000000000000E+000
  0.000000000000000E+000
  0.000000000000000E+000
  0.000000000000000E+000
  0.000000000000000E+000
  0.000000000000000E+000
  0.000000000000000E+000
  0.000000000000000E+000
  0.000000000000000E+000
  0.000000000000000E+000
  0.000000000000000E+000
  0.000000000000000E+000
  0.000000000000000E+000
  0.000000000000000E+000
  0.000000000000000E+000
  0.000000000000000E+000
  0.000000000000000E+000
  0.000000000000000E+000
  0.000000000000000E+000
  0.000000000000000E+000
  0.000000000000000E+000
  0.000000000000000E+000
  0.000000000000000E+000
  0.000000000000000E+000
  0.000000000000000E+000
  0.000000000000000E+000
  0.000000000000000E+000
  0.000000000000000E+000
  0.000000000000000E+000
  0.000000000000000E+000
  0.000000000000000E+000
  0.000000000000000E+000
  0.000000000000000E+000
  0.000000000000000E+000
  0.000000000000000E+000
  0.000000000000000E+000
  0.000000000000000E+000
  0.000000000000000E+000
  0.000000000000000E+000
  0.000000000000000E+000
  0.000000000000000E+000
  0.000000000000000E+000
  0.000000000000000E+000
  0.000000000000000E+000
  0.000000000000000E+000
  0.000000000000000E+000
  0.000000000000000E+000
  0.000000000000000E+000
  0.000000000000000E+000
  0.000000000000000E+000
  0.000000000000000E+000
  0.000000000000000E+000
  0.000000000000000E+000
  0.000000000000000E+000
  0.000000000000000E+000
  0.000000000000000E+000
  0.000000000000000E+000
  0.000000000000000E+000
  0.000000000000000E+000
  0.000000000000000E+000
  0.000000000000000E+000
  0.000000000000000E+000
  0.000000000000000E+000
  0.000000000000000E+000
  0.000000000000000E+000
  0.000000000000000E+000
  0.000000000000000E+000
  0.000000000000000E+000
  0.000000000000000E+000
  0.000000000000000E+000
  0.000000000000000E+000
  0.000000000000000E+000
  0.000000000000000E+000
  0.000000000000000E+000
  0.000000000000000E+000
  0.000000000000000E+000
  0.000000000000000E+000
  0.000000000000000E+000
  0.000000000000000E+000
  0.000000000000000E+000
  0.000000000000000E+000
  0.000000000000000E+000
  0.000000000000000E+000
  0.000000000000000E+000
  0.000000000000000E+000
  0.000000000000000E+000
  0.000000000000000E+000
  0.000000000000000E+000
  0.000000000000000E+000
  0.000000000000000E+000
  0.000000000000000E+000
  0.000000000000000E+000
  0.000000000000000E+000
  0.000000000000000E+000
  0.000000000000000E+000
  0.000000000000000E+000
  0.000000000000000E+000
  0.000000000000000E+000
  0.000000000000000E+000
  0.000000000000000E+000
  0.000000000000000E+000
  0.000000000000000E+000
  0.000000000000000E+000
  0.000000000000000E+000
  0.000000000000000E+000
  0.000000000000000E+000
  0.000000000000000E+000
  0.000000000000000E+000
  0.000000000000000E+000
  0.000000000000000E+000
  0.000000000000000E+000
  0.000000000000000E+000
  0.000000000000000E+000
  0.000000000000000E+000
  0.000000000000000E+000
  0.000000000000000E+000
  0.000000000000000E+000
  0.000000000000000E+000
  0.000000000000000E+000
  0.000000000000000E+000
  0.000000000000000E+000
  0.000000000000000E+000
  0.000000000000000E+000
  0.000000000000000E+000
  0.000000000000000E+000
  0.000000000000000E+000
  0.000000000000000E+000
  0.000000000000000E+000
  0.000000000000000E+000
  0.000000000000000E+000
  0.000000000000000E+000
  0.000000000000000E+000
  0.000000000000000E+000
  0.000000000000000E+000
  0.000000000000000E+000
  0.000000000000000E+000
  0.000000000000000E+000
  0.000000000000000E+000
  0.000000000000000E+000
  0.000000000000000E+000
  0.000000000000000E+000
  0.000000000000000E+000
  0.000000000000000E+000
  0.000000000000000E+000
  0.000000000000000E+000
  0.000000000000000E+000
  0.000000000000000E+000
  0.000000000000000E+000
  0.000000000000000E+000
  0.000000000000000E+000
  0.000000000000000E+000
  0.000000000000000E+000
  0.000000000000000E+000
  0.000000000000000E+000
  0.000000000000000E+000
  0.000000000000000E+000
  0.000000000000000E+000
  0.000000000000000E+000
  0.000000000000000E+000
  0.000000000000000E+000
  0.000000000000000E+000
  0.000000000000000E+000
  0.000000000000000E+000
  0.000000000000000E+000
  0.000000000000000E+000
  0.000000000000000E+000
  0.000000000000000E+000
  0.000000000000000E+000
  0.000000000000000E+000
  0.000000000000000E+000
  0.000000000000000E+000
  0.000000000000000E+000
  0.000000000000000E+000
  0.000000000000000E+000
  0.000000000000000E+000
  0.000000000000000E+000
  0.000000000000000E+000
  0.000000000000000E+000
  0.000000000000000E+000
  0.000000000000000E+000
  0.000000000000000E+000
  0.000000000000000E+000
  0.000000000000000E+000
  0.000000000000000E+000
  0.000000000000000E+000
  0.000000000000000E+000
  0.000000000000000E+000
  0.000000000000000E+000
  0.000000000000000E+000
  0.000000000000000E+000
  0.000000000000000E+000
  0.000000000000000E+000
  0.000000000000000E+000
  0.000000000000000E+000
  0.000000000000000E+000
  0.000000000000000E+000
  0.000000000000000E+000
  0.000000000000000E+000
  0.000000000000000E+000
  0.000000000000000E+000
  0.000000000000000E+000
  0.000000000000000E+000
  0.000000000000000E+000
  0.000000000000000E+000
  0.000000000000000E+000
  0.000000000000000E+000
  0.000000000000000E+000
  0.000000000000000E+000
  0.000000000000000E+000
  0.000000000000000E+000
  0.000000000000000E+000
  0.000000000000000E+000
  0.000000000000000E+000
  0.000000000000000E+000
  0.000000000000000E+000
  0.000000000000000E+000
  0.000000000000000E+000
  0.000000000000000E+000
  0.000000000000000E+000
  0.000000000000000E+000
  0.000000000000000E+000
  0.000000000000000E+000
  0.000000000000000E+000
  0.000000000000000E+000
  0.000000000000000E+000
  0.000000000000000E+000
  0.000000000000000E+000
  0.000000000000000E+000
  0.000000000000000E+000
  0.000000000000000E+000
  0.000000000000000E+000
  0.000000000000000E+000
  0.000000000000000E+000
  0.000000000000000E+000
  0.000000000000000E+000
  0.000000000000000E+000
  0.000000000000000E+000
  0.000000000000000E+000
  0.000000000000000E+000
  0.000000000000000E+000
  0.000000000000000E+000
  0.000000000000000E+000
  0.000000000000000E+000
  0.000000000000000E+000
  0.000000000000000E+000
  0.000000000000000E+000
  0.000000000000000E+000
  0.000000000000000E+000
  0.000000000000000E+000
  0.000000000000000E+000
  0.000000000000000E+000
  0.000000000000000E+000
  0.000000000000000E+000
  0.000000000000000E+000
  0.000000000000000E+000
  0.000000000000000E+000
  0.000000000000000E+000
  0.000000000000000E+000
  0.000000000000000E+000
  0.000000000000000E+000
  0.000000000000000E+000
  0.000000000000000E+000
  0.000000000000000E+000
  0.000000000000000E+000
  0.000000000000000E+000
  0.000000000000000E+000
  0.000000000000000E+000
  0.000000000000000E+000
  0.000000000000000E+000
  0.000000000000000E+000
  0.000000000000000E+000
  0.000000000000000E+000
  0.000000000000000E+000
  0.000000000000000E+000
  0.000000000000000E+000
  0.000000000000000E+000
  0.000000000000000E+000
  0.000000000000000E+000
  0.000000000000000E+000
  0.000000000000000E+000
  0.000000000000000E+000
  0.000000000000000E+000
  0.000000000000000E+000
  0.000000000000000E+000
  0.000000000000000E+000
  0.000000000000000E+000
  0.000000000000000E+000
  0.000000000000000E+000
  0.000000000000000E+000
  0.000000000000000E+000
  0.000000000000000E+000
  0.000000000000000E+000
  0.000000000000000E+000
  0.000000000000000E+000
  0.000000000000000E+000
  0.000000000000000E+000
  0.000000000000000E+000
  0.000000000000000E+000
  0.000000000000000E+000
  0.000000000000000E+000
  0.000000000000000E+000
  0.000000000000000E+000
  0.000000000000000E+000
  0.000000000000000E+000
  0.000000000000000E+000
  0.000000000000000E+000
  0.000000000000000E+000
  0.000000000000000E+000
  0.000000000000000E+000
  0.000000000000000E+000
  0.000000000000000E+000
  0.000000000000000E+000
  0.000000000000000E+000
  0.000000000000000E+000
  0.000000000000000E+000
  0.000000000000000E+000
  0.000000000000000E+000
  0.000000000000000E+000
  0.000000000000000E+000
  0.000000000000000E+000
  0.000000000000000E+000
  0.000000000000000E+000
  0.000000000000000E+000
  0.000000000000000E+000
  0.000000000000000E+000
  0.000000000000000E+000
  0.000000000000000E+000
  0.000000000000000E+000
  0.000000000000000E+000
  0.000000000000000E+000
  0.000000000000000E+000
  0.000000000000000E+000
  0.000000000000000E+000
  0.000000000000000E+000
  0.000000000000000E+000
  0.000000000000000E+000
  0.000000000000000E+000
  0.000000000000000E+000
  0.000000000000000E+000
  0.000000000000000E+000
  0.000000000000000E+000
  0.000000000000000E+000
  0.000000000000000E+000
  0.000000000000000E+000
  0.000000000000000E+000
  0.000000000000000E+000
  0.000000000000000E+000
  0.000000000000000E+000
  0.000000000000000E+000
  0.000000000000000E+000
  0.000000000000000E+000
  0.000000000000000E+000
  0.000000000000000E+000
  0.000000000000000E+000
  0.000000000000000E+000
  0.000000000000000E+000
  0.000000000000000E+000
  0.000000000000000E+000
  0.000000000000000E+000
  0.000000000000000E+000
  0.000000000000000E+000
  0.000000000000000E+000
  0.000000000000000E+000
  0.000000000000000E+000
  0.000000000000000E+000
  0.000000000000000E+000
  0.000000000000000E+000
  0.000000000000000E+000
  0.000000000000000E+000
  0.000000000000000E+000
  0.000000000000000E+000
  0.000000000000000E+000
  0.000000000000000E+000
  0.000000000000000E+000
  0.000000000000000E+000
  0.000000000000000E+000
  0.000000000000000E+000
  0.000000000000000E+000
  0.000000000000000E+000
  0.000000000000000E+000
  0.000000000000000E+000
  0.000000000000000E+000
  0.000000000000000E+000
  0.000000000000000E+000
  0.000000000000000E+000
  0.000000000000000E+000
  0.000000000000000E+000
  0.000000000000000E+000
  0.000000000000000E+000
  0.000000000000000E+000
  0.000000000000000E+000
  0.000000000000000E+000
  0.000000000000000E+000
  0.000000000000000E+000
  0.000000000000000E+000
  0.000000000000000E+000
  0.000000000000000E+000
  0.000000000000000E+000
  0.000000000000000E+000
  0.000000000000000E+000
  0.000000000000000E+000
  0.000000000000000E+000
  0.000000000000000E+000
  0.000000000000000E+000
  0.000000000000000E+000
  0.000000000000000E+000
  0.000000000000000E+000
  0.000000000000000E+000
  0.000000000000000E+000
  0.000000000000000E+000
  0.000000000000000E+000
  0.000000000000000E+000
  0.000000000000000E+000
  0.000000000000000E+000
  0.000000000000000E+000
  0.000000000000000E+000
  0.000000000000000E+000
  0.000000000000000E+000
  0.000000000000000E+000
  0.000000000000000E+000
  0.000000000000000E+000
  0.000000000000000E+000
  0.000000000000000E+000
  0.000000000000000E+000
  0.000000000000000E+000
  0.000000000000000E+000
  0.000000000000000E+000
  0.000000000000000E+000
  0.000000000000000E+000
  0.000000000000000E+000
  0.000000000000000E+000
  0.000000000000000E+000
  0.000000000000000E+000
  0.000000000000000E+000
  0.000000000000000E+000
  0.000000000000000E+000
  0.000000000000000E+000
  0.000000000000000E+000
  0.000000000000000E+000
  0.000000000000000E+000
  0.000000000000000E+000
  0.000000000000000E+000
  0.000000000000000E+000
  0.000000000000000E+000
  0.000000000000000E+000
  0.000000000000000E+000
  0.000000000000000E+000
  0.000000000000000E+000
  0.000000000000000E+000
  0.000000000000000E+000
  0.000000000000000E+000
  0.000000000000000E+000
  0.000000000000000E+000
  0.000000000000000E+000
  0.000000000000000E+000
  0.000000000000000E+000
  0.000000000000000E+000
  0.000000000000000E+000
  0.000000000000000E+000
  0.000000000000000E+000
  0.000000000000000E+000
  0.000000000000000E+000
  0.000000000000000E+000
  0.000000000000000E+000
  0.000000000000000E+000
  0.000000000000000E+000
  0.000000000000000E+000
  0.000000000000000E+000
  0.000000000000000E+000
  0.000000000000000E+000
  0.000000000000000E+000
  0.000000000000000E+000
  0.000000000000000E+000
  0.000000000000000E+000
  0.000000000000000E+000
  0.000000000000000E+000
  0.000000000000000E+000
  0.000000000000000E+000
  0.000000000000000E+000
  0.000000000000000E+000
  0.000000000000000E+000
  0.000000000000000E+000
  0.000000000000000E+000
  0.000000000000000E+000
  0.000000000000000E+000
  0.000000000000000E+000
  0.000000000000000E+000
  0.000000000000000E+000
  0.000000000000000E+000
  0.000000000000000E+000
  0.000000000000000E+000
  0.000000000000000E+000
  0.000000000000000E+000
  0.000000000000000E+000
  0.000000000000000E+000
  0.000000000000000E+000
  0.000000000000000E+000
  0.000000000000000E+000
  0.000000000000000E+000
  0.000000000000000E+000
  0.000000000000000E+000
  0.000000000000000E+000
  0.000000000000000E+000
  0.000000000000000E+000
  0.000000000000000E+000
  0.000000000000000E+000
  0.000000000000000E+000
  0.000000000000000E+000
  0.000000000000000E+000
  0.000000000000000E+000
  0.000000000000000E+000
  0.000000000000000E+000
  0.000000000000000E+000
  0.000000000000000E+000
  0.000000000000000E+000
  0.000000000000000E+000
  0.000000000000000E+000
  0.000000000000000E+000
  0.000000000000000E+000
  0.000000000000000E+000
  0.000000000000000E+000
  0.000000000000000E+000
  0.000000000000000E+000
  0.000000000000000E+000
  0.000000000000000E+000
  0.000000000000000E+000
  0.000000000000000E+000
  0.000000000000000E+000
  0.000000000000000E+000
  0.000000000000000E+000
  0.000000000000000E+000
  0.000000000000000E+000
  0.000000000000000E+000
  0.000000000000000E+000
  0.000000000000000E+000
  0.000000000000000E+000
  0.000000000000000E+000
  0.000000000000000E+000
  0.000000000000000E+000
  0.000000000000000E+000
  0.000000000000000E+000
  0.000000000000000E+000
  0.000000000000000E+000
  0.000000000000000E+000
  0.000000000000000E+000
  0.000000000000000E+000
  0.000000000000000E+000
  0.000000000000000E+000
  0.000000000000000E+000
  0.000000000000000E+000
  0.000000000000000E+000
  0.000000000000000E+000
  0.000000000000000E+000
  0.000000000000000E+000
  0.000000000000000E+000
  0.000000000000000E+000
  0.000000000000000E+000
  0.000000000000000E+000
  0.000000000000000E+000
  0.000000000000000E+000
  0.000000000000000E+000
  0.000000000000000E+000
  0.000000000000000E+000
  0.000000000000000E+000
  0.000000000000000E+000
  0.000000000000000E+000
  0.000000000000000E+000
  0.000000000000000E+000
  0.000000000000000E+000
  0.000000000000000E+000
  0.000000000000000E+000
  0.000000000000000E+000
  0.000000000000000E+000
  0.000000000000000E+000
  0.000000000000000E+000
  0.000000000000000E+000
  0.000000000000000E+000
  0.000000000000000E+000
  0.000000000000000E+000
  0.000000000000000E+000
  0.000000000000000E+000
  0.000000000000000E+000
  0.000000000000000E+000
  0.000000000000000E+000
  0.000000000000000E+000
  0.000000000000000E+000
  0.000000000000000E+000
  0.000000000000000E+000
  0.000000000000000E+000
  0.000000000000000E+000
  0.000000000000000E+000
  0.000000000000000E+000
  0.000000000000000E+000
  0.000000000000000E+000
  0.000000000000000E+000
  0.000000000000000E+000
  0.000000000000000E+000
  0.000000000000000E+000
  0.000000000000000E+000
  0.000000000000000E+000
  0.000000000000000E+000
  0.000000000000000E+000
  0.000000000000000E+000
  0.000000000000000E+000
  0.000000000000000E+000
  0.000000000000000E+000
  0.000000000000000E+000
  0.000000000000000E+000
  0.000000000000000E+000
  0.000000000000000E+000
  0.000000000000000E+000
  0.000000000000000E+000
  0.000000000000000E+000
  0.000000000000000E+000
  0.000000000000000E+000
  0.000000000000000E+000
  0.000000000000000E+000
  0.000000000000000E+000
  0.000000000000000E+000
  0.000000000000000E+000
  0.000000000000000E+000
  0.000000000000000E+000
  0.000000000000000E+000
  0.000000000000000E+000
  0.000000000000000E+000
  0.000000000000000E+000
  0.000000000000000E+000
  0.000000000000000E+000
  0.000000000000000E+000
  0.000000000000000E+000
  0.000000000000000E+000
  0.000000000000000E+000
  0.000000000000000E+000
  0.000000000000000E+000
  0.000000000000000E+000
  0.000000000000000E+000
  0.000000000000000E+000
  0.000000000000000E+000
  0.000000000000000E+000
  0.000000000000000E+000
  0.000000000000000E+000
  0.000000000000000E+000
  0.000000000000000E+000
  0.000000000000000E+000
  0.000000000000000E+000
  0.000000000000000E+000
  0.000000000000000E+000
  0.000000000000000E+000
  0.000000000000000E+000
  0.000000000000000E+000
  0.000000000000000E+000
  0.000000000000000E+000
  0.000000000000000E+000
  0.000000000000000E+000
  0.000000000000000E+000
  0.000000000000000E+000
  0.000000000000000E+000
  0.000000000000000E+000
  0.000000000000000E+000
  0.000000000000000E+000
  0.000000000000000E+000
  0.000000000000000E+000
  0.000000000000000E+000
  0.000000000000000E+000
  0.000000000000000E+000
  0.000000000000000E+000
  0.000000000000000E+000
  0.000000000000000E+000
  0.000000000000000E+000
  0.000000000000000E+000
  0.000000000000000E+000
  0.000000000000000E+000
  0.000000000000000E+000
  0.000000000000000E+000
  0.000000000000000E+000
  0.000000000000000E+000
  0.000000000000000E+000
  0.000000000000000E+000
  0.000000000000000E+000
  0.000000000000000E+000
  0.000000000000000E+000
  0.000000000000000E+000
  0.000000000000000E+000
  0.000000000000000E+000
  0.000000000000000E+000
  0.000000000000000E+000
  0.000000000000000E+000
  0.000000000000000E+000
  0.000000000000000E+000
  0.000000000000000E+000
  0.000000000000000E+000
  0.000000000000000E+000
  0.000000000000000E+000
  0.000000000000000E+000
  0.000000000000000E+000
  0.000000000000000E+000
  0.000000000000000E+000
  0.000000000000000E+000
  0.000000000000000E+000
  0.000000000000000E+000
  0.000000000000000E+000
  0.000000000000000E+000
  0.000000000000000E+000
  0.000000000000000E+000
  0.000000000000000E+000
  0.000000000000000E+000
  0.000000000000000E+000
  0.000000000000000E+000
  0.000000000000000E+000
  0.000000000000000E+000
  0.000000000000000E+000
  0.000000000000000E+000
  0.000000000000000E+000
  0.000000000000000E+000
  0.000000000000000E+000
  0.000000000000000E+000
  0.000000000000000E+000
  0.000000000000000E+000
  0.000000000000000E+000
  0.000000000000000E+000
  0.000000000000000E+000
  0.000000000000000E+000
  0.000000000000000E+000
  0.000000000000000E+000
  0.000000000000000E+000
  0.000000000000000E+000
  0.000000000000000E+000
  0.000000000000000E+000
  0.000000000000000E+000
  0.000000000000000E+000
  0.000000000000000E+000
  0.000000000000000E+000
  0.000000000000000E+000
  0.000000000000000E+000
  0.000000000000000E+000
  0.000000000000000E+000
  0.000000000000000E+000
  0.000000000000000E+000
  0.000000000000000E+000
  0.000000000000000E+000
  0.000000000000000E+000
  0.000000000000000E+000
  0.000000000000000E+000
  0.000000000000000E+000
  0.000000000000000E+000
  0.000000000000000E+000
  0.000000000000000E+000
  0.000000000000000E+000
  0.000000000000000E+000
  0.000000000000000E+000
  0.000000000000000E+000
  0.000000000000000E+000
  0.000000000000000E+000
  0.000000000000000E+000
  0.000000000000000E+000
  0.000000000000000E+000
  0.000000000000000E+000
  0.000000000000000E+000
  0.000000000000000E+000
  0.000000000000000E+000
  0.000000000000000E+000
  0.000000000000000E+000
  0.000000000000000E+000
  0.000000000000000E+000
  0.000000000000000E+000
  0.000000000000000E+000
  0.000000000000000E+000
  0.000000000000000E+000
  0.000000000000000E+000
  0.000000000000000E+000
  0.000000000000000E+000
  0.000000000000000E+000
  0.000000000000000E+000
  0.000000000000000E+000
  0.000000000000000E+000
  0.000000000000000E+000
  0.000000000000000E+000
  0.000000000000000E+000
  0.000000000000000E+000
  0.000000000000000E+000
  0.000000000000000E+000
  0.000000000000000E+000
  0.000000000000000E+000
  0.000000000000000E+000
  0.000000000000000E+000
  0.000000000000000E+000
  0.000000000000000E+000
  0.000000000000000E+000
  0.000000000000000E+000
  0.000000000000000E+000
  0.000000000000000E+000
  0.000000000000000E+000
  0.000000000000000E+000
  0.000000000000000E+000
  0.000000000000000E+000
  0.000000000000000E+000
  0.000000000000000E+000
  0.000000000000000E+000
  0.000000000000000E+000
  0.000000000000000E+000
  0.000000000000000E+000
  0.000000000000000E+000
  0.000000000000000E+000
  0.000000000000000E+000
  0.000000000000000E+000
  0.000000000000000E+000
  0.000000000000000E+000
  0.000000000000000E+000
  0.000000000000000E+000
  0.000000000000000E+000
  0.000000000000000E+000
  0.000000000000000E+000
  0.000000000000000E+000
  0.000000000000000E+000
  0.000000000000000E+000
  0.000000000000000E+000
  0.000000000000000E+000
  0.000000000000000E+000
  0.000000000000000E+000
  0.000000000000000E+000
  0.000000000000000E+000
  0.000000000000000E+000
  0.000000000000000E+000
  0.000000000000000E+000
  0.000000000000000E+000
  0.000000000000000E+000
  0.000000000000000E+000
  0.000000000000000E+000
  0.000000000000000E+000
  0.000000000000000E+000
  0.000000000000000E+000
  0.000000000000000E+000
  0.000000000000000E+000
  0.000000000000000E+000
  0.000000000000000E+000
  0.000000000000000E+000
  0.000000000000000E+000
  0.000000000000000E+000
  0.000000000000000E+000
  0.000000000000000E+000
  0.000000000000000E+000
  0.000000000000000E+000
  0.000000000000000E+000
  0.000000000000000E+000
  0.000000000000000E+000
  0.000000000000000E+000
  0.000000000000000E+000
  0.000000000000000E+000
  0.000000000000000E+000
  0.000000000000000E+000
  0.000000000000000E+000
  0.000000000000000E+000
  0.000000000000000E+000
  0.000000000000000E+000
  0.000000000000000E+000
  0.000000000000000E+000
  0.000000000000000E+000
  0.000000000000000E+000
  0.000000000000000E+000
  0.000000000000000E+000
  0.000000000000000E+000
  0.000000000000000E+000
  0.000000000000000E+000
  0.000000000000000E+000
  0.000000000000000E+000
  0.000000000000000E+000
  0.000000000000000E+000
  0.000000000000000E+000
  0.000000000000000E+000
  0.000000000000000E+000
  0.000000000000000E+000
  0.000000000000000E+000
  0.000000000000000E+000
  0.000000000000000E+000
  0.000000000000000E+000
  0.000000000000000E+000
  0.000000000000000E+000
  0.000000000000000E+000
  0.000000000000000E+000
  0.000000000000000E+000
  0.000000000000000E+000
  0.000000000000000E+000
  0.000000000000000E+000
  0.000000000000000E+000
  0.000000000000000E+000
  0.000000000000000E+000
  0.000000000000000E+000
  0.000000000000000E+000
  0.000000000000000E+000
  0.000000000000000E+000
  0.000000000000000E+000
  0.000000000000000E+000
  0.000000000000000E+000
  0.000000000000000E+000
  0.000000000000000E+000
  0.000000000000000E+000
  0.000000000000000E+000
  0.000000000000000E+000
  0.000000000000000E+000
  0.000000000000000E+000
  0.000000000000000E+000
  0.000000000000000E+000
  0.000000000000000E+000
  0.000000000000000E+000
  0.000000000000000E+000
  0.000000000000000E+000
  0.000000000000000E+000
  0.000000000000000E+000
  0.000000000000000E+000
  0.000000000000000E+000
  0.000000000000000E+000
  0.000000000000000E+000
  0.000000000000000E+000
  0.000000000000000E+000
  0.000000000000000E+000
  0.000000000000000E+000
  0.000000000000000E+000
  0.000000000000000E+000
  0.000000000000000E+000
  0.000000000000000E+000
  0.000000000000000E+000
  0.000000000000000E+000
  0.000000000000000E+000
  0.000000000000000E+000
  0.000000000000000E+000
  0.000000000000000E+000
  0.000000000000000E+000
  0.000000000000000E+000
  0.000000000000000E+000
  0.000000000000000E+000
  0.000000000000000E+000
  0.000000000000000E+000
  0.000000000000000E+000
  0.000000000000000E+000
  0.000000000000000E+000
  0.000000000000000E+000
  0.000000000000000E+000
  0.000000000000000E+000
  0.000000000000000E+000
  0.000000000000000E+000
  0.000000000000000E+000
  0.000000000000000E+000
  0.000000000000000E+000
  0.000000000000000E+000
  0.000000000000000E+000
  0.000000000000000E+000
  0.000000000000000E+000
  0.000000000000000E+000
  0.000000000000000E+000
  0.000000000000000E+000
  0.000000000000000E+000
  0.000000000000000E+000
  0.000000000000000E+000
  0.000000000000000E+000
  0.000000000000000E+000
  0.000000000000000E+000
  0.000000000000000E+000
  0.000000000000000E+000
  0.000000000000000E+000
  0.000000000000000E+000
  0.000000000000000E+000
  0.000000000000000E+000
  0.000000000000000E+000
  0.000000000000000E+000
  0.000000000000000E+000
  0.000000000000000E+000
  0.000000000000000E+000
  0.000000000000000E+000
  0.000000000000000E+000
  0.000000000000000E+000
  0.000000000000000E+000
  0.000000000000000E+000
  0.000000000000000E+000
  0.000000000000000E+000
  0.000000000000000E+000
  0.000000000000000E+000
  0.000000000000000E+000
  0.000000000000000E+000
  0.000000000000000E+000
  0.000000000000000E+000
  0.000000000000000E+000
  0.000000000000000E+000
  0.000000000000000E+000
  0.000000000000000E+000
  0.000000000000000E+000
  0.000000000000000E+000
  0.000000000000000E+000
  0.000000000000000E+000
  0.000000000000000E+000
  0.000000000000000E+000
  0.000000000000000E+000
  0.000000000000000E+000
  0.000000000000000E+000
  0.000000000000000E+000
  0.000000000000000E+000
  0.000000000000000E+000
  0.000000000000000E+000
  0.000000000000000E+000
  0.000000000000000E+000
  0.000000000000000E+000
  0.000000000000000E+000
  0.000000000000000E+000
  0.000000000000000E+000
  0.000000000000000E+000
  0.000000000000000E+000
  0.000000000000000E+000
  0.000000000000000E+000
  0.000000000000000E+000
  0.000000000000000E+000
  0.000000000000000E+000
  0.000000000000000E+000
  0.000000000000000E+000
  0.000000000000000E+000
  0.000000000000000E+000
  0.000000000000000E+000
  0.000000000000000E+000
  0.000000000000000E+000
  0.000000000000000E+000
  0.000000000000000E+000
  0.000000000000000E+000
  0.000000000000000E+000
  0.000000000000000E+000
  0.000000000000000E+000
  0.000000000000000E+000
  0.000000000000000E+000
  0.000000000000000E+000
  0.000000000000000E+000
  0.000000000000000E+000
  0.000000000000000E+000
  0.000000000000000E+000
  0.000000000000000E+000
  0.000000000000000E+000
  0.000000000000000E+000
  0.000000000000000E+000
  0.000000000000000E+000
  0.000000000000000E+000
  0.000000000000000E+000
  0.000000000000000E+000
  0.000000000000000E+000
  0.000000000000000E+000
  0.000000000000000E+000
  0.000000000000000E+000
  0.000000000000000E+000
  0.000000000000000E+000
  0.000000000000000E+000
  0.000000000000000E+000
  0.000000000000000E+000
  0.000000000000000E+000
  0.000000000000000E+000
  0.000000000000000E+000
  0.000000000000000E+000
  0.000000000000000E+000
  0.000000000000000E+000
  0.000000000000000E+000
  0.000000000000000E+000
  0.000000000000000E+000
  0.000000000000000E+000
  0.000000000000000E+000
  0.000000000000000E+000
  0.000000000000000E+000
  0.000000000000000E+000
  0.000000000000000E+000
  0.000000000000000E+000
  0.000000000000000E+000
  0.000000000000000E+000
  0.000000000000000E+000
  0.000000000000000E+000
  0.000000000000000E+000
  0.000000000000000E+000
  0.000000000000000E+000
  0.000000000000000E+000
  0.000000000000000E+000
  0.000000000000000E+000
  0.000000000000000E+000
  0.000000000000000E+000
  0.000000000000000E+000
  0.000000000000000E+000
  0.000000000000000E+000
  0.000000000000000E+000
  0.000000000000000E+000
  0.000000000000000E+000
  0.000000000000000E+000
  0.000000000000000E+000
  0.000000000000000E+000
  0.000000000000000E+000
  0.000000000000000E+000
  0.000000000000000E+000
  0.000000000000000E+000
  0.000000000000000E+000
  0.000000000000000E+000
  0.000000000000000E+000
  0.000000000000000E+000
  0.000000000000000E+000
  0.000000000000000E+000
  0.000000000000000E+000
  0.000000000000000E+000
  0.000000000000000E+000
  0.000000000000000E+000
  0.000000000000000E+000
  0.000000000000000E+000
  0.000000000000000E+000
  0.000000000000000E+000
  0.000000000000000E+000
  0.000000000000000E+000
  0.000000000000000E+000
  0.000000000000000E+000
  0.000000000000000E+000
  0.000000000000000E+000
  0.000000000000000E+000
  0.000000000000000E+000
  0.000000000000000E+000
  0.000000000000000E+000
  0.000000000000000E+000
  0.000000000000000E+000
  0.000000000000000E+000
  0.000000000000000E+000
  0.000000000000000E+000
  0.000000000000000E+000
  0.000000000000000E+000
  0.000000000000000E+000
  0.000000000000000E+000
  0.000000000000000E+000
  0.000000000000000E+000
  0.000000000000000E+000
  0.000000000000000E+000
  0.000000000000000E+000
  0.000000000000000E+000
  0.000000000000000E+000
  0.000000000000000E+000
  0.000000000000000E+000
  0.000000000000000E+000
  0.000000000000000E+000
  0.000000000000000E+000
  0.000000000000000E+000
  0.000000000000000E+000
  0.000000000000000E+000
  0.000000000000000E+000
  0.000000000000000E+000
  0.000000000000000E+000
  0.000000000000000E+000
  0.000000000000000E+000
  0.000000000000000E+000
  0.000000000000000E+000
  0.000000000000000E+000
  0.000000000000000E+000
  0.000000000000000E+000
  0.000000000000000E+000
  0.000000000000000E+000
  0.000000000000000E+000
  0.000000000000000E+000
  0.000000000000000E+000
  0.000000000000000E+000
  0.000000000000000E+000
  0.000000000000000E+000
  0.000000000000000E+000
  0.000000000000000E+000
  0.000000000000000E+000
  0.000000000000000E+000
  0.000000000000000E+000
  0.000000000000000E+000
  0.000000000000000E+000
  0.000000000000000E+000
  0.000000000000000E+000
  0.000000000000000E+000
  0.000000000000000E+000
  0.000000000000000E+000
  0.000000000000000E+000
  0.000000000000000E+000
  0.000000000000000E+000
  0.000000000000000E+000
  0.000000000000000E+000
  0.000000000000000E+000
  0.000000000000000E+000
  0.000000000000000E+000
  0.000000000000000E+000
  0.000000000000000E+000
  0.000000000000000E+000
  0.000000000000000E+000
  0.000000000000000E+000
  0.000000000000000E+000
  0.000000000000000E+000
  0.000000000000000E+000
  0.000000000000000E+000
  0.000000000000000E+000
  0.000000000000000E+000
  0.000000000000000E+000
  0.000000000000000E+000
  0.000000000000000E+000
  0.000000000000000E+000
  0.000000000000000E+000
  0.000000000000000E+000
  0.000000000000000E+000
  0.000000000000000E+000
  0.000000000000000E+000
  0.000000000000000E+000
  0.000000000000000E+000
  0.000000000000000E+000
  0.000000000000000E+000
  0.000000000000000E+000
  0.000000000000000E+000
  0.000000000000000E+000
  0.000000000000000E+000
  0.000000000000000E+000
  0.000000000000000E+000
  0.000000000000000E+000
  0.000000000000000E+000
  0.000000000000000E+000
  0.000000000000000E+000
  0.000000000000000E+000
  0.000000000000000E+000
  0.000000000000000E+000
  0.000000000000000E+000
  0.000000000000000E+000
  0.000000000000000E+000
  0.000000000000000E+000
  0.000000000000000E+000
  0.000000000000000E+000
  0.000000000000000E+000
  0.000000000000000E+000
  0.000000000000000E+000
  0.000000000000000E+000
  0.000000000000000E+000
  0.000000000000000E+000
  0.000000000000000E+000
  0.000000000000000E+000
  0.000000000000000E+000
  0.000000000000000E+000
  0.000000000000000E+000
  0.000000000000000E+000
  0.000000000000000E+000
  0.000000000000000E+000
  0.000000000000000E+000
  0.000000000000000E+000
  0.000000000000000E+000
  0.000000000000000E+000
  0.000000000000000E+000
  0.000000000000000E+000
  0.000000000000000E+000
  0.000000000000000E+000
  0.000000000000000E+000
  0.000000000000000E+000
  0.000000000000000E+000
  0.000000000000000E+000
  0.000000000000000E+000
  0.000000000000000E+000
  0.000000000000000E+000
  0.000000000000000E+000
  0.000000000000000E+000
  0.000000000000000E+000
  0.000000000000000E+000
  0.000000000000000E+000
  0.000000000000000E+000
  0.000000000000000E+000
  0.000000000000000E+000
  0.000000000000000E+000
  0.000000000000000E+000
  0.000000000000000E+000
  0.000000000000000E+000
  0.000000000000000E+000
  0.000000000000000E+000
  0.000000000000000E+000
  0.000000000000000E+000
  0.000000000000000E+000
  0.000000000000000E+000
  0.000000000000000E+000
  0.000000000000000E+000
  0.000000000000000E+000
  0.000000000000000E+000
  0.000000000000000E+000
  0.000000000000000E+000
  0.000000000000000E+000
  0.000000000000000E+000
  0.000000000000000E+000
  0.000000000000000E+000
  0.000000000000000E+000
  0.000000000000000E+000
  0.000000000000000E+000
  0.000000000000000E+000
  0.000000000000000E+000
  0.000000000000000E+000
  0.000000000000000E+000
  0.000000000000000E+000
  0.000000000000000E+000
  0.000000000000000E+000
  0.000000000000000E+000
  0.000000000000000E+000
  0.000000000000000E+000
  0.000000000000000E+000
  0.000000000000000E+000
  0.000000000000000E+000
  0.000000000000000E+000
  0.000000000000000E+000
  0.000000000000000E+000
  0.000000000000000E+000
  0.000000000000000E+000
  0.000000000000000E+000
  0.000000000000000E+000
  0.000000000000000E+000
  0.000000000000000E+000
  0.000000000000000E+000
  0.000000000000000E+000
  0.000000000000000E+000
  0.000000000000000E+000
  0.000000000000000E+000
  0.000000000000000E+000
  0.000000000000000E+000
  0.000000000000000E+000
  0.000000000000000E+000
  0.000000000000000E+000
  0.000000000000000E+000
  0.000000000000000E+000
  0.000000000000000E+000
  0.000000000000000E+000
  0.000000000000000E+000
  0.000000000000000E+000
  0.000000000000000E+000
  0.000000000000000E+000
  0.000000000000000E+000
  0.000000000000000E+000
  0.000000000000000E+000
  0.000000000000000E+000
  0.000000000000000E+000
  0.000000000000000E+000
  0.000000000000000E+000
  0.000000000000000E+000
  0.000000000000000E+000
  0.000000000000000E+000
  0.000000000000000E+000
  0.000000000000000E+000
  0.000000000000000E+000
  0.000000000000000E+000
  0.000000000000000E+000
  0.000000000000000E+000
  0.000000000000000E+000
  0.000000000000000E+000
  0.000000000000000E+000
  0.000000000000000E+000
  0.000000000000000E+000
  0.000000000000000E+000
