# vtk DataFile Version 3.0
vtk output
ASCII
DATASET UNSTRUCTURED_GRID
POINTS      5151 double 
  0.00000000E+00  1.00000000E+02  0.00000000E+00
  0.00000000E+00  9.80000000E+01  0.00000000E+00
  0.00000000E+00  9.60000000E+01  0.00000000E+00
  0.00000000E+00  9.40000000E+01  0.00000000E+00
  0.00000000E+00  9.20000000E+01  0.00000000E+00
  0.00000000E+00  9.00000000E+01  0.00000000E+00
  0.00000000E+00  8.80000000E+01  0.00000000E+00
  0.00000000E+00  8.60000000E+01  0.00000000E+00
  0.00000000E+00  8.40000000E+01  0.00000000E+00
  0.00000000E+00  8.20000000E+01  0.00000000E+00
  0.00000000E+00  8.00000000E+01  0.00000000E+00
  0.00000000E+00  7.80000000E+01  0.00000000E+00
  0.00000000E+00  7.60000000E+01  0.00000000E+00
  0.00000000E+00  7.40000000E+01  0.00000000E+00
  0.00000000E+00  7.20000000E+01  0.00000000E+00
  0.00000000E+00  7.00000000E+01  0.00000000E+00
  0.00000000E+00  6.80000000E+01  0.00000000E+00
  0.00000000E+00  6.60000000E+01  0.00000000E+00
  0.00000000E+00  6.40000000E+01  0.00000000E+00
  0.00000000E+00  6.20000000E+01  0.00000000E+00
  0.00000000E+00  6.00000000E+01  0.00000000E+00
  0.00000000E+00  5.80000000E+01  0.00000000E+00
  0.00000000E+00  5.60000000E+01  0.00000000E+00
  0.00000000E+00  5.40000000E+01  0.00000000E+00
  0.00000000E+00  5.20000000E+01  0.00000000E+00
  0.00000000E+00  5.00000000E+01  0.00000000E+00
  0.00000000E+00  4.80000000E+01  0.00000000E+00
  0.00000000E+00  4.60000000E+01  0.00000000E+00
  0.00000000E+00  4.40000000E+01  0.00000000E+00
  0.00000000E+00  4.20000000E+01  0.00000000E+00
  0.00000000E+00  4.00000000E+01  0.00000000E+00
  0.00000000E+00  3.80000000E+01  0.00000000E+00
  0.00000000E+00  3.60000000E+01  0.00000000E+00
  0.00000000E+00  3.40000000E+01  0.00000000E+00
  0.00000000E+00  3.20000000E+01  0.00000000E+00
  0.00000000E+00  3.00000000E+01  0.00000000E+00
  0.00000000E+00  2.80000000E+01  0.00000000E+00
  0.00000000E+00  2.60000000E+01  0.00000000E+00
  0.00000000E+00  2.40000000E+01  0.00000000E+00
  0.00000000E+00  2.20000000E+01  0.00000000E+00
  0.00000000E+00  2.00000000E+01  0.00000000E+00
  0.00000000E+00  1.80000000E+01  0.00000000E+00
  0.00000000E+00  1.60000000E+01  0.00000000E+00
  0.00000000E+00  1.40000000E+01  0.00000000E+00
  0.00000000E+00  1.20000000E+01  0.00000000E+00
  0.00000000E+00  1.00000000E+01  0.00000000E+00
  0.00000000E+00  8.00000000E+00  0.00000000E+00
  0.00000000E+00  6.00000000E+00  0.00000000E+00
  0.00000000E+00  4.00000000E+00  0.00000000E+00
  0.00000000E+00  2.00000000E+00  0.00000000E+00
  0.00000000E+00 -3.33066907E-14  0.00000000E+00
  1.00000000E+01  1.00000000E+02  0.00000000E+00
  1.00000000E+01  9.80000000E+01  0.00000000E+00
  1.00000000E+01  9.60000000E+01  0.00000000E+00
  1.00000000E+01  9.40000000E+01  0.00000000E+00
  1.00000000E+01  9.20000000E+01  0.00000000E+00
  1.00000000E+01  9.00000000E+01  0.00000000E+00
  1.00000000E+01  8.80000000E+01  0.00000000E+00
  1.00000000E+01  8.60000000E+01  0.00000000E+00
  1.00000000E+01  8.40000000E+01  0.00000000E+00
  1.00000000E+01  8.20000000E+01  0.00000000E+00
  1.00000000E+01  8.00000000E+01  0.00000000E+00
  1.00000000E+01  7.80000000E+01  0.00000000E+00
  1.00000000E+01  7.60000000E+01  0.00000000E+00
  1.00000000E+01  7.40000000E+01  0.00000000E+00
  1.00000000E+01  7.20000000E+01  0.00000000E+00
  1.00000000E+01  7.00000000E+01  0.00000000E+00
  1.00000000E+01  6.80000000E+01  0.00000000E+00
  1.00000000E+01  6.60000000E+01  0.00000000E+00
  1.00000000E+01  6.40000000E+01  0.00000000E+00
  1.00000000E+01  6.20000000E+01  0.00000000E+00
  1.00000000E+01  6.00000000E+01  0.00000000E+00
  1.00000000E+01  5.80000000E+01  0.00000000E+00
  1.00000000E+01  5.60000000E+01  0.00000000E+00
  1.00000000E+01  5.40000000E+01  0.00000000E+00
  1.00000000E+01  5.20000000E+01  0.00000000E+00
  1.00000000E+01  5.00000000E+01  0.00000000E+00
  1.00000000E+01  4.80000000E+01  0.00000000E+00
  1.00000000E+01  4.60000000E+01  0.00000000E+00
  1.00000000E+01  4.40000000E+01  0.00000000E+00
  1.00000000E+01  4.20000000E+01  0.00000000E+00
  1.00000000E+01  4.00000000E+01  0.00000000E+00
  1.00000000E+01  3.80000000E+01  0.00000000E+00
  1.00000000E+01  3.60000000E+01  0.00000000E+00
  1.00000000E+01  3.40000000E+01  0.00000000E+00
  1.00000000E+01  3.20000000E+01  0.00000000E+00
  1.00000000E+01  3.00000000E+01  0.00000000E+00
  1.00000000E+01  2.80000000E+01  0.00000000E+00
  1.00000000E+01  2.60000000E+01  0.00000000E+00
  1.00000000E+01  2.40000000E+01  0.00000000E+00
  1.00000000E+01  2.20000000E+01  0.00000000E+00
  1.00000000E+01  2.00000000E+01  0.00000000E+00
  1.00000000E+01  1.80000000E+01  0.00000000E+00
  1.00000000E+01  1.60000000E+01  0.00000000E+00
  1.00000000E+01  1.40000000E+01  0.00000000E+00
  1.00000000E+01  1.20000000E+01  0.00000000E+00
  1.00000000E+01  1.00000000E+01  0.00000000E+00
  1.00000000E+01  8.00000000E+00  0.00000000E+00
  1.00000000E+01  6.00000000E+00  0.00000000E+00
  1.00000000E+01  4.00000000E+00  0.00000000E+00
  1.00000000E+01  2.00000000E+00  0.00000000E+00
  1.00000000E+01 -3.33066907E-14  0.00000000E+00
  2.00000000E+01  1.00000000E+02  0.00000000E+00
  2.00000000E+01  9.80000000E+01  0.00000000E+00
  2.00000000E+01  9.60000000E+01  0.00000000E+00
  2.00000000E+01  9.40000000E+01  0.00000000E+00
  2.00000000E+01  9.20000000E+01  0.00000000E+00
  2.00000000E+01  9.00000000E+01  0.00000000E+00
  2.00000000E+01  8.80000000E+01  0.00000000E+00
  2.00000000E+01  8.60000000E+01  0.00000000E+00
  2.00000000E+01  8.40000000E+01  0.00000000E+00
  2.00000000E+01  8.20000000E+01  0.00000000E+00
  2.00000000E+01  8.00000000E+01  0.00000000E+00
  2.00000000E+01  7.80000000E+01  0.00000000E+00
  2.00000000E+01  7.60000000E+01  0.00000000E+00
  2.00000000E+01  7.40000000E+01  0.00000000E+00
  2.00000000E+01  7.20000000E+01  0.00000000E+00
  2.00000000E+01  7.00000000E+01  0.00000000E+00
  2.00000000E+01  6.80000000E+01  0.00000000E+00
  2.00000000E+01  6.60000000E+01  0.00000000E+00
  2.00000000E+01  6.40000000E+01  0.00000000E+00
  2.00000000E+01  6.20000000E+01  0.00000000E+00
  2.00000000E+01  6.00000000E+01  0.00000000E+00
  2.00000000E+01  5.80000000E+01  0.00000000E+00
  2.00000000E+01  5.60000000E+01  0.00000000E+00
  2.00000000E+01  5.40000000E+01  0.00000000E+00
  2.00000000E+01  5.20000000E+01  0.00000000E+00
  2.00000000E+01  5.00000000E+01  0.00000000E+00
  2.00000000E+01  4.80000000E+01  0.00000000E+00
  2.00000000E+01  4.60000000E+01  0.00000000E+00
  2.00000000E+01  4.40000000E+01  0.00000000E+00
  2.00000000E+01  4.20000000E+01  0.00000000E+00
  2.00000000E+01  4.00000000E+01  0.00000000E+00
  2.00000000E+01  3.80000000E+01  0.00000000E+00
  2.00000000E+01  3.60000000E+01  0.00000000E+00
  2.00000000E+01  3.40000000E+01  0.00000000E+00
  2.00000000E+01  3.20000000E+01  0.00000000E+00
  2.00000000E+01  3.00000000E+01  0.00000000E+00
  2.00000000E+01  2.80000000E+01  0.00000000E+00
  2.00000000E+01  2.60000000E+01  0.00000000E+00
  2.00000000E+01  2.40000000E+01  0.00000000E+00
  2.00000000E+01  2.20000000E+01  0.00000000E+00
  2.00000000E+01  2.00000000E+01  0.00000000E+00
  2.00000000E+01  1.80000000E+01  0.00000000E+00
  2.00000000E+01  1.60000000E+01  0.00000000E+00
  2.00000000E+01  1.40000000E+01  0.00000000E+00
  2.00000000E+01  1.20000000E+01  0.00000000E+00
  2.00000000E+01  1.00000000E+01  0.00000000E+00
  2.00000000E+01  8.00000000E+00  0.00000000E+00
  2.00000000E+01  6.00000000E+00  0.00000000E+00
  2.00000000E+01  4.00000000E+00  0.00000000E+00
  2.00000000E+01  2.00000000E+00  0.00000000E+00
  2.00000000E+01 -3.33066907E-14  0.00000000E+00
  3.00000000E+01  1.00000000E+02  0.00000000E+00
  3.00000000E+01  9.80000000E+01  0.00000000E+00
  3.00000000E+01  9.60000000E+01  0.00000000E+00
  3.00000000E+01  9.40000000E+01  0.00000000E+00
  3.00000000E+01  9.20000000E+01  0.00000000E+00
  3.00000000E+01  9.00000000E+01  0.00000000E+00
  3.00000000E+01  8.80000000E+01  0.00000000E+00
  3.00000000E+01  8.60000000E+01  0.00000000E+00
  3.00000000E+01  8.40000000E+01  0.00000000E+00
  3.00000000E+01  8.20000000E+01  0.00000000E+00
  3.00000000E+01  8.00000000E+01  0.00000000E+00
  3.00000000E+01  7.80000000E+01  0.00000000E+00
  3.00000000E+01  7.60000000E+01  0.00000000E+00
  3.00000000E+01  7.40000000E+01  0.00000000E+00
  3.00000000E+01  7.20000000E+01  0.00000000E+00
  3.00000000E+01  7.00000000E+01  0.00000000E+00
  3.00000000E+01  6.80000000E+01  0.00000000E+00
  3.00000000E+01  6.60000000E+01  0.00000000E+00
  3.00000000E+01  6.40000000E+01  0.00000000E+00
  3.00000000E+01  6.20000000E+01  0.00000000E+00
  3.00000000E+01  6.00000000E+01  0.00000000E+00
  3.00000000E+01  5.80000000E+01  0.00000000E+00
  3.00000000E+01  5.60000000E+01  0.00000000E+00
  3.00000000E+01  5.40000000E+01  0.00000000E+00
  3.00000000E+01  5.20000000E+01  0.00000000E+00
  3.00000000E+01  5.00000000E+01  0.00000000E+00
  3.00000000E+01  4.80000000E+01  0.00000000E+00
  3.00000000E+01  4.60000000E+01  0.00000000E+00
  3.00000000E+01  4.40000000E+01  0.00000000E+00
  3.00000000E+01  4.20000000E+01  0.00000000E+00
  3.00000000E+01  4.00000000E+01  0.00000000E+00
  3.00000000E+01  3.80000000E+01  0.00000000E+00
  3.00000000E+01  3.60000000E+01  0.00000000E+00
  3.00000000E+01  3.40000000E+01  0.00000000E+00
  3.00000000E+01  3.20000000E+01  0.00000000E+00
  3.00000000E+01  3.00000000E+01  0.00000000E+00
  3.00000000E+01  2.80000000E+01  0.00000000E+00
  3.00000000E+01  2.60000000E+01  0.00000000E+00
  3.00000000E+01  2.40000000E+01  0.00000000E+00
  3.00000000E+01  2.20000000E+01  0.00000000E+00
  3.00000000E+01  2.00000000E+01  0.00000000E+00
  3.00000000E+01  1.80000000E+01  0.00000000E+00
  3.00000000E+01  1.60000000E+01  0.00000000E+00
  3.00000000E+01  1.40000000E+01  0.00000000E+00
  3.00000000E+01  1.20000000E+01  0.00000000E+00
  3.00000000E+01  1.00000000E+01  0.00000000E+00
  3.00000000E+01  8.00000000E+00  0.00000000E+00
  3.00000000E+01  6.00000000E+00  0.00000000E+00
  3.00000000E+01  4.00000000E+00  0.00000000E+00
  3.00000000E+01  2.00000000E+00  0.00000000E+00
  3.00000000E+01 -3.33066907E-14  0.00000000E+00
  4.00000000E+01  1.00000000E+02  0.00000000E+00
  4.00000000E+01  9.80000000E+01  0.00000000E+00
  4.00000000E+01  9.60000000E+01  0.00000000E+00
  4.00000000E+01  9.40000000E+01  0.00000000E+00
  4.00000000E+01  9.20000000E+01  0.00000000E+00
  4.00000000E+01  9.00000000E+01  0.00000000E+00
  4.00000000E+01  8.80000000E+01  0.00000000E+00
  4.00000000E+01  8.60000000E+01  0.00000000E+00
  4.00000000E+01  8.40000000E+01  0.00000000E+00
  4.00000000E+01  8.20000000E+01  0.00000000E+00
  4.00000000E+01  8.00000000E+01  0.00000000E+00
  4.00000000E+01  7.80000000E+01  0.00000000E+00
  4.00000000E+01  7.60000000E+01  0.00000000E+00
  4.00000000E+01  7.40000000E+01  0.00000000E+00
  4.00000000E+01  7.20000000E+01  0.00000000E+00
  4.00000000E+01  7.00000000E+01  0.00000000E+00
  4.00000000E+01  6.80000000E+01  0.00000000E+00
  4.00000000E+01  6.60000000E+01  0.00000000E+00
  4.00000000E+01  6.40000000E+01  0.00000000E+00
  4.00000000E+01  6.20000000E+01  0.00000000E+00
  4.00000000E+01  6.00000000E+01  0.00000000E+00
  4.00000000E+01  5.80000000E+01  0.00000000E+00
  4.00000000E+01  5.60000000E+01  0.00000000E+00
  4.00000000E+01  5.40000000E+01  0.00000000E+00
  4.00000000E+01  5.20000000E+01  0.00000000E+00
  4.00000000E+01  5.00000000E+01  0.00000000E+00
  4.00000000E+01  4.80000000E+01  0.00000000E+00
  4.00000000E+01  4.60000000E+01  0.00000000E+00
  4.00000000E+01  4.40000000E+01  0.00000000E+00
  4.00000000E+01  4.20000000E+01  0.00000000E+00
  4.00000000E+01  4.00000000E+01  0.00000000E+00
  4.00000000E+01  3.80000000E+01  0.00000000E+00
  4.00000000E+01  3.60000000E+01  0.00000000E+00
  4.00000000E+01  3.40000000E+01  0.00000000E+00
  4.00000000E+01  3.20000000E+01  0.00000000E+00
  4.00000000E+01  3.00000000E+01  0.00000000E+00
  4.00000000E+01  2.80000000E+01  0.00000000E+00
  4.00000000E+01  2.60000000E+01  0.00000000E+00
  4.00000000E+01  2.40000000E+01  0.00000000E+00
  4.00000000E+01  2.20000000E+01  0.00000000E+00
  4.00000000E+01  2.00000000E+01  0.00000000E+00
  4.00000000E+01  1.80000000E+01  0.00000000E+00
  4.00000000E+01  1.60000000E+01  0.00000000E+00
  4.00000000E+01  1.40000000E+01  0.00000000E+00
  4.00000000E+01  1.20000000E+01  0.00000000E+00
  4.00000000E+01  1.00000000E+01  0.00000000E+00
  4.00000000E+01  8.00000000E+00  0.00000000E+00
  4.00000000E+01  6.00000000E+00  0.00000000E+00
  4.00000000E+01  4.00000000E+00  0.00000000E+00
  4.00000000E+01  2.00000000E+00  0.00000000E+00
  4.00000000E+01 -3.33066907E-14  0.00000000E+00
  5.00000000E+01  1.00000000E+02  0.00000000E+00
  5.00000000E+01  9.80000000E+01  0.00000000E+00
  5.00000000E+01  9.60000000E+01  0.00000000E+00
  5.00000000E+01  9.40000000E+01  0.00000000E+00
  5.00000000E+01  9.20000000E+01  0.00000000E+00
  5.00000000E+01  9.00000000E+01  0.00000000E+00
  5.00000000E+01  8.80000000E+01  0.00000000E+00
  5.00000000E+01  8.60000000E+01  0.00000000E+00
  5.00000000E+01  8.40000000E+01  0.00000000E+00
  5.00000000E+01  8.20000000E+01  0.00000000E+00
  5.00000000E+01  8.00000000E+01  0.00000000E+00
  5.00000000E+01  7.80000000E+01  0.00000000E+00
  5.00000000E+01  7.60000000E+01  0.00000000E+00
  5.00000000E+01  7.40000000E+01  0.00000000E+00
  5.00000000E+01  7.20000000E+01  0.00000000E+00
  5.00000000E+01  7.00000000E+01  0.00000000E+00
  5.00000000E+01  6.80000000E+01  0.00000000E+00
  5.00000000E+01  6.60000000E+01  0.00000000E+00
  5.00000000E+01  6.40000000E+01  0.00000000E+00
  5.00000000E+01  6.20000000E+01  0.00000000E+00
  5.00000000E+01  6.00000000E+01  0.00000000E+00
  5.00000000E+01  5.80000000E+01  0.00000000E+00
  5.00000000E+01  5.60000000E+01  0.00000000E+00
  5.00000000E+01  5.40000000E+01  0.00000000E+00
  5.00000000E+01  5.20000000E+01  0.00000000E+00
  5.00000000E+01  5.00000000E+01  0.00000000E+00
  5.00000000E+01  4.80000000E+01  0.00000000E+00
  5.00000000E+01  4.60000000E+01  0.00000000E+00
  5.00000000E+01  4.40000000E+01  0.00000000E+00
  5.00000000E+01  4.20000000E+01  0.00000000E+00
  5.00000000E+01  4.00000000E+01  0.00000000E+00
  5.00000000E+01  3.80000000E+01  0.00000000E+00
  5.00000000E+01  3.60000000E+01  0.00000000E+00
  5.00000000E+01  3.40000000E+01  0.00000000E+00
  5.00000000E+01  3.20000000E+01  0.00000000E+00
  5.00000000E+01  3.00000000E+01  0.00000000E+00
  5.00000000E+01  2.80000000E+01  0.00000000E+00
  5.00000000E+01  2.60000000E+01  0.00000000E+00
  5.00000000E+01  2.40000000E+01  0.00000000E+00
  5.00000000E+01  2.20000000E+01  0.00000000E+00
  5.00000000E+01  2.00000000E+01  0.00000000E+00
  5.00000000E+01  1.80000000E+01  0.00000000E+00
  5.00000000E+01  1.60000000E+01  0.00000000E+00
  5.00000000E+01  1.40000000E+01  0.00000000E+00
  5.00000000E+01  1.20000000E+01  0.00000000E+00
  5.00000000E+01  1.00000000E+01  0.00000000E+00
  5.00000000E+01  8.00000000E+00  0.00000000E+00
  5.00000000E+01  6.00000000E+00  0.00000000E+00
  5.00000000E+01  4.00000000E+00  0.00000000E+00
  5.00000000E+01  2.00000000E+00  0.00000000E+00
  5.00000000E+01 -3.33066907E-14  0.00000000E+00
  6.00000000E+01  1.00000000E+02  0.00000000E+00
  6.00000000E+01  9.80000000E+01  0.00000000E+00
  6.00000000E+01  9.60000000E+01  0.00000000E+00
  6.00000000E+01  9.40000000E+01  0.00000000E+00
  6.00000000E+01  9.20000000E+01  0.00000000E+00
  6.00000000E+01  9.00000000E+01  0.00000000E+00
  6.00000000E+01  8.80000000E+01  0.00000000E+00
  6.00000000E+01  8.60000000E+01  0.00000000E+00
  6.00000000E+01  8.40000000E+01  0.00000000E+00
  6.00000000E+01  8.20000000E+01  0.00000000E+00
  6.00000000E+01  8.00000000E+01  0.00000000E+00
  6.00000000E+01  7.80000000E+01  0.00000000E+00
  6.00000000E+01  7.60000000E+01  0.00000000E+00
  6.00000000E+01  7.40000000E+01  0.00000000E+00
  6.00000000E+01  7.20000000E+01  0.00000000E+00
  6.00000000E+01  7.00000000E+01  0.00000000E+00
  6.00000000E+01  6.80000000E+01  0.00000000E+00
  6.00000000E+01  6.60000000E+01  0.00000000E+00
  6.00000000E+01  6.40000000E+01  0.00000000E+00
  6.00000000E+01  6.20000000E+01  0.00000000E+00
  6.00000000E+01  6.00000000E+01  0.00000000E+00
  6.00000000E+01  5.80000000E+01  0.00000000E+00
  6.00000000E+01  5.60000000E+01  0.00000000E+00
  6.00000000E+01  5.40000000E+01  0.00000000E+00
  6.00000000E+01  5.20000000E+01  0.00000000E+00
  6.00000000E+01  5.00000000E+01  0.00000000E+00
  6.00000000E+01  4.80000000E+01  0.00000000E+00
  6.00000000E+01  4.60000000E+01  0.00000000E+00
  6.00000000E+01  4.40000000E+01  0.00000000E+00
  6.00000000E+01  4.20000000E+01  0.00000000E+00
  6.00000000E+01  4.00000000E+01  0.00000000E+00
  6.00000000E+01  3.80000000E+01  0.00000000E+00
  6.00000000E+01  3.60000000E+01  0.00000000E+00
  6.00000000E+01  3.40000000E+01  0.00000000E+00
  6.00000000E+01  3.20000000E+01  0.00000000E+00
  6.00000000E+01  3.00000000E+01  0.00000000E+00
  6.00000000E+01  2.80000000E+01  0.00000000E+00
  6.00000000E+01  2.60000000E+01  0.00000000E+00
  6.00000000E+01  2.40000000E+01  0.00000000E+00
  6.00000000E+01  2.20000000E+01  0.00000000E+00
  6.00000000E+01  2.00000000E+01  0.00000000E+00
  6.00000000E+01  1.80000000E+01  0.00000000E+00
  6.00000000E+01  1.60000000E+01  0.00000000E+00
  6.00000000E+01  1.40000000E+01  0.00000000E+00
  6.00000000E+01  1.20000000E+01  0.00000000E+00
  6.00000000E+01  1.00000000E+01  0.00000000E+00
  6.00000000E+01  8.00000000E+00  0.00000000E+00
  6.00000000E+01  6.00000000E+00  0.00000000E+00
  6.00000000E+01  4.00000000E+00  0.00000000E+00
  6.00000000E+01  2.00000000E+00  0.00000000E+00
  6.00000000E+01 -3.33066907E-14  0.00000000E+00
  7.00000000E+01  1.00000000E+02  0.00000000E+00
  7.00000000E+01  9.80000000E+01  0.00000000E+00
  7.00000000E+01  9.60000000E+01  0.00000000E+00
  7.00000000E+01  9.40000000E+01  0.00000000E+00
  7.00000000E+01  9.20000000E+01  0.00000000E+00
  7.00000000E+01  9.00000000E+01  0.00000000E+00
  7.00000000E+01  8.80000000E+01  0.00000000E+00
  7.00000000E+01  8.60000000E+01  0.00000000E+00
  7.00000000E+01  8.40000000E+01  0.00000000E+00
  7.00000000E+01  8.20000000E+01  0.00000000E+00
  7.00000000E+01  8.00000000E+01  0.00000000E+00
  7.00000000E+01  7.80000000E+01  0.00000000E+00
  7.00000000E+01  7.60000000E+01  0.00000000E+00
  7.00000000E+01  7.40000000E+01  0.00000000E+00
  7.00000000E+01  7.20000000E+01  0.00000000E+00
  7.00000000E+01  7.00000000E+01  0.00000000E+00
  7.00000000E+01  6.80000000E+01  0.00000000E+00
  7.00000000E+01  6.60000000E+01  0.00000000E+00
  7.00000000E+01  6.40000000E+01  0.00000000E+00
  7.00000000E+01  6.20000000E+01  0.00000000E+00
  7.00000000E+01  6.00000000E+01  0.00000000E+00
  7.00000000E+01  5.80000000E+01  0.00000000E+00
  7.00000000E+01  5.60000000E+01  0.00000000E+00
  7.00000000E+01  5.40000000E+01  0.00000000E+00
  7.00000000E+01  5.20000000E+01  0.00000000E+00
  7.00000000E+01  5.00000000E+01  0.00000000E+00
  7.00000000E+01  4.80000000E+01  0.00000000E+00
  7.00000000E+01  4.60000000E+01  0.00000000E+00
  7.00000000E+01  4.40000000E+01  0.00000000E+00
  7.00000000E+01  4.20000000E+01  0.00000000E+00
  7.00000000E+01  4.00000000E+01  0.00000000E+00
  7.00000000E+01  3.80000000E+01  0.00000000E+00
  7.00000000E+01  3.60000000E+01  0.00000000E+00
  7.00000000E+01  3.40000000E+01  0.00000000E+00
  7.00000000E+01  3.20000000E+01  0.00000000E+00
  7.00000000E+01  3.00000000E+01  0.00000000E+00
  7.00000000E+01  2.80000000E+01  0.00000000E+00
  7.00000000E+01  2.60000000E+01  0.00000000E+00
  7.00000000E+01  2.40000000E+01  0.00000000E+00
  7.00000000E+01  2.20000000E+01  0.00000000E+00
  7.00000000E+01  2.00000000E+01  0.00000000E+00
  7.00000000E+01  1.80000000E+01  0.00000000E+00
  7.00000000E+01  1.60000000E+01  0.00000000E+00
  7.00000000E+01  1.40000000E+01  0.00000000E+00
  7.00000000E+01  1.20000000E+01  0.00000000E+00
  7.00000000E+01  1.00000000E+01  0.00000000E+00
  7.00000000E+01  8.00000000E+00  0.00000000E+00
  7.00000000E+01  6.00000000E+00  0.00000000E+00
  7.00000000E+01  4.00000000E+00  0.00000000E+00
  7.00000000E+01  2.00000000E+00  0.00000000E+00
  7.00000000E+01 -3.33066907E-14  0.00000000E+00
  8.00000000E+01  1.00000000E+02  0.00000000E+00
  8.00000000E+01  9.80000000E+01  0.00000000E+00
  8.00000000E+01  9.60000000E+01  0.00000000E+00
  8.00000000E+01  9.40000000E+01  0.00000000E+00
  8.00000000E+01  9.20000000E+01  0.00000000E+00
  8.00000000E+01  9.00000000E+01  0.00000000E+00
  8.00000000E+01  8.80000000E+01  0.00000000E+00
  8.00000000E+01  8.60000000E+01  0.00000000E+00
  8.00000000E+01  8.40000000E+01  0.00000000E+00
  8.00000000E+01  8.20000000E+01  0.00000000E+00
  8.00000000E+01  8.00000000E+01  0.00000000E+00
  8.00000000E+01  7.80000000E+01  0.00000000E+00
  8.00000000E+01  7.60000000E+01  0.00000000E+00
  8.00000000E+01  7.40000000E+01  0.00000000E+00
  8.00000000E+01  7.20000000E+01  0.00000000E+00
  8.00000000E+01  7.00000000E+01  0.00000000E+00
  8.00000000E+01  6.80000000E+01  0.00000000E+00
  8.00000000E+01  6.60000000E+01  0.00000000E+00
  8.00000000E+01  6.40000000E+01  0.00000000E+00
  8.00000000E+01  6.20000000E+01  0.00000000E+00
  8.00000000E+01  6.00000000E+01  0.00000000E+00
  8.00000000E+01  5.80000000E+01  0.00000000E+00
  8.00000000E+01  5.60000000E+01  0.00000000E+00
  8.00000000E+01  5.40000000E+01  0.00000000E+00
  8.00000000E+01  5.20000000E+01  0.00000000E+00
  8.00000000E+01  5.00000000E+01  0.00000000E+00
  8.00000000E+01  4.80000000E+01  0.00000000E+00
  8.00000000E+01  4.60000000E+01  0.00000000E+00
  8.00000000E+01  4.40000000E+01  0.00000000E+00
  8.00000000E+01  4.20000000E+01  0.00000000E+00
  8.00000000E+01  4.00000000E+01  0.00000000E+00
  8.00000000E+01  3.80000000E+01  0.00000000E+00
  8.00000000E+01  3.60000000E+01  0.00000000E+00
  8.00000000E+01  3.40000000E+01  0.00000000E+00
  8.00000000E+01  3.20000000E+01  0.00000000E+00
  8.00000000E+01  3.00000000E+01  0.00000000E+00
  8.00000000E+01  2.80000000E+01  0.00000000E+00
  8.00000000E+01  2.60000000E+01  0.00000000E+00
  8.00000000E+01  2.40000000E+01  0.00000000E+00
  8.00000000E+01  2.20000000E+01  0.00000000E+00
  8.00000000E+01  2.00000000E+01  0.00000000E+00
  8.00000000E+01  1.80000000E+01  0.00000000E+00
  8.00000000E+01  1.60000000E+01  0.00000000E+00
  8.00000000E+01  1.40000000E+01  0.00000000E+00
  8.00000000E+01  1.20000000E+01  0.00000000E+00
  8.00000000E+01  1.00000000E+01  0.00000000E+00
  8.00000000E+01  8.00000000E+00  0.00000000E+00
  8.00000000E+01  6.00000000E+00  0.00000000E+00
  8.00000000E+01  4.00000000E+00  0.00000000E+00
  8.00000000E+01  2.00000000E+00  0.00000000E+00
  8.00000000E+01 -3.33066907E-14  0.00000000E+00
  9.00000000E+01  1.00000000E+02  0.00000000E+00
  9.00000000E+01  9.80000000E+01  0.00000000E+00
  9.00000000E+01  9.60000000E+01  0.00000000E+00
  9.00000000E+01  9.40000000E+01  0.00000000E+00
  9.00000000E+01  9.20000000E+01  0.00000000E+00
  9.00000000E+01  9.00000000E+01  0.00000000E+00
  9.00000000E+01  8.80000000E+01  0.00000000E+00
  9.00000000E+01  8.60000000E+01  0.00000000E+00
  9.00000000E+01  8.40000000E+01  0.00000000E+00
  9.00000000E+01  8.20000000E+01  0.00000000E+00
  9.00000000E+01  8.00000000E+01  0.00000000E+00
  9.00000000E+01  7.80000000E+01  0.00000000E+00
  9.00000000E+01  7.60000000E+01  0.00000000E+00
  9.00000000E+01  7.40000000E+01  0.00000000E+00
  9.00000000E+01  7.20000000E+01  0.00000000E+00
  9.00000000E+01  7.00000000E+01  0.00000000E+00
  9.00000000E+01  6.80000000E+01  0.00000000E+00
  9.00000000E+01  6.60000000E+01  0.00000000E+00
  9.00000000E+01  6.40000000E+01  0.00000000E+00
  9.00000000E+01  6.20000000E+01  0.00000000E+00
  9.00000000E+01  6.00000000E+01  0.00000000E+00
  9.00000000E+01  5.80000000E+01  0.00000000E+00
  9.00000000E+01  5.60000000E+01  0.00000000E+00
  9.00000000E+01  5.40000000E+01  0.00000000E+00
  9.00000000E+01  5.20000000E+01  0.00000000E+00
  9.00000000E+01  5.00000000E+01  0.00000000E+00
  9.00000000E+01  4.80000000E+01  0.00000000E+00
  9.00000000E+01  4.60000000E+01  0.00000000E+00
  9.00000000E+01  4.40000000E+01  0.00000000E+00
  9.00000000E+01  4.20000000E+01  0.00000000E+00
  9.00000000E+01  4.00000000E+01  0.00000000E+00
  9.00000000E+01  3.80000000E+01  0.00000000E+00
  9.00000000E+01  3.60000000E+01  0.00000000E+00
  9.00000000E+01  3.40000000E+01  0.00000000E+00
  9.00000000E+01  3.20000000E+01  0.00000000E+00
  9.00000000E+01  3.00000000E+01  0.00000000E+00
  9.00000000E+01  2.80000000E+01  0.00000000E+00
  9.00000000E+01  2.60000000E+01  0.00000000E+00
  9.00000000E+01  2.40000000E+01  0.00000000E+00
  9.00000000E+01  2.20000000E+01  0.00000000E+00
  9.00000000E+01  2.00000000E+01  0.00000000E+00
  9.00000000E+01  1.80000000E+01  0.00000000E+00
  9.00000000E+01  1.60000000E+01  0.00000000E+00
  9.00000000E+01  1.40000000E+01  0.00000000E+00
  9.00000000E+01  1.20000000E+01  0.00000000E+00
  9.00000000E+01  1.00000000E+01  0.00000000E+00
  9.00000000E+01  8.00000000E+00  0.00000000E+00
  9.00000000E+01  6.00000000E+00  0.00000000E+00
  9.00000000E+01  4.00000000E+00  0.00000000E+00
  9.00000000E+01  2.00000000E+00  0.00000000E+00
  9.00000000E+01 -3.33066907E-14  0.00000000E+00
  1.00000000E+02  1.00000000E+02  0.00000000E+00
  1.00000000E+02  9.80000000E+01  0.00000000E+00
  1.00000000E+02  9.60000000E+01  0.00000000E+00
  1.00000000E+02  9.40000000E+01  0.00000000E+00
  1.00000000E+02  9.20000000E+01  0.00000000E+00
  1.00000000E+02  9.00000000E+01  0.00000000E+00
  1.00000000E+02  8.80000000E+01  0.00000000E+00
  1.00000000E+02  8.60000000E+01  0.00000000E+00
  1.00000000E+02  8.40000000E+01  0.00000000E+00
  1.00000000E+02  8.20000000E+01  0.00000000E+00
  1.00000000E+02  8.00000000E+01  0.00000000E+00
  1.00000000E+02  7.80000000E+01  0.00000000E+00
  1.00000000E+02  7.60000000E+01  0.00000000E+00
  1.00000000E+02  7.40000000E+01  0.00000000E+00
  1.00000000E+02  7.20000000E+01  0.00000000E+00
  1.00000000E+02  7.00000000E+01  0.00000000E+00
  1.00000000E+02  6.80000000E+01  0.00000000E+00
  1.00000000E+02  6.60000000E+01  0.00000000E+00
  1.00000000E+02  6.40000000E+01  0.00000000E+00
  1.00000000E+02  6.20000000E+01  0.00000000E+00
  1.00000000E+02  6.00000000E+01  0.00000000E+00
  1.00000000E+02  5.80000000E+01  0.00000000E+00
  1.00000000E+02  5.60000000E+01  0.00000000E+00
  1.00000000E+02  5.40000000E+01  0.00000000E+00
  1.00000000E+02  5.20000000E+01  0.00000000E+00
  1.00000000E+02  5.00000000E+01  0.00000000E+00
  1.00000000E+02  4.80000000E+01  0.00000000E+00
  1.00000000E+02  4.60000000E+01  0.00000000E+00
  1.00000000E+02  4.40000000E+01  0.00000000E+00
  1.00000000E+02  4.20000000E+01  0.00000000E+00
  1.00000000E+02  4.00000000E+01  0.00000000E+00
  1.00000000E+02  3.80000000E+01  0.00000000E+00
  1.00000000E+02  3.60000000E+01  0.00000000E+00
  1.00000000E+02  3.40000000E+01  0.00000000E+00
  1.00000000E+02  3.20000000E+01  0.00000000E+00
  1.00000000E+02  3.00000000E+01  0.00000000E+00
  1.00000000E+02  2.80000000E+01  0.00000000E+00
  1.00000000E+02  2.60000000E+01  0.00000000E+00
  1.00000000E+02  2.40000000E+01  0.00000000E+00
  1.00000000E+02  2.20000000E+01  0.00000000E+00
  1.00000000E+02  2.00000000E+01  0.00000000E+00
  1.00000000E+02  1.80000000E+01  0.00000000E+00
  1.00000000E+02  1.60000000E+01  0.00000000E+00
  1.00000000E+02  1.40000000E+01  0.00000000E+00
  1.00000000E+02  1.20000000E+01  0.00000000E+00
  1.00000000E+02  1.00000000E+01  0.00000000E+00
  1.00000000E+02  8.00000000E+00  0.00000000E+00
  1.00000000E+02  6.00000000E+00  0.00000000E+00
  1.00000000E+02  4.00000000E+00  0.00000000E+00
  1.00000000E+02  2.00000000E+00  0.00000000E+00
  1.00000000E+02 -3.33066907E-14  0.00000000E+00
  1.10000000E+02  1.00000000E+02  0.00000000E+00
  1.10000000E+02  9.80000000E+01  0.00000000E+00
  1.10000000E+02  9.60000000E+01  0.00000000E+00
  1.10000000E+02  9.40000000E+01  0.00000000E+00
  1.10000000E+02  9.20000000E+01  0.00000000E+00
  1.10000000E+02  9.00000000E+01  0.00000000E+00
  1.10000000E+02  8.80000000E+01  0.00000000E+00
  1.10000000E+02  8.60000000E+01  0.00000000E+00
  1.10000000E+02  8.40000000E+01  0.00000000E+00
  1.10000000E+02  8.20000000E+01  0.00000000E+00
  1.10000000E+02  8.00000000E+01  0.00000000E+00
  1.10000000E+02  7.80000000E+01  0.00000000E+00
  1.10000000E+02  7.60000000E+01  0.00000000E+00
  1.10000000E+02  7.40000000E+01  0.00000000E+00
  1.10000000E+02  7.20000000E+01  0.00000000E+00
  1.10000000E+02  7.00000000E+01  0.00000000E+00
  1.10000000E+02  6.80000000E+01  0.00000000E+00
  1.10000000E+02  6.60000000E+01  0.00000000E+00
  1.10000000E+02  6.40000000E+01  0.00000000E+00
  1.10000000E+02  6.20000000E+01  0.00000000E+00
  1.10000000E+02  6.00000000E+01  0.00000000E+00
  1.10000000E+02  5.80000000E+01  0.00000000E+00
  1.10000000E+02  5.60000000E+01  0.00000000E+00
  1.10000000E+02  5.40000000E+01  0.00000000E+00
  1.10000000E+02  5.20000000E+01  0.00000000E+00
  1.10000000E+02  5.00000000E+01  0.00000000E+00
  1.10000000E+02  4.80000000E+01  0.00000000E+00
  1.10000000E+02  4.60000000E+01  0.00000000E+00
  1.10000000E+02  4.40000000E+01  0.00000000E+00
  1.10000000E+02  4.20000000E+01  0.00000000E+00
  1.10000000E+02  4.00000000E+01  0.00000000E+00
  1.10000000E+02  3.80000000E+01  0.00000000E+00
  1.10000000E+02  3.60000000E+01  0.00000000E+00
  1.10000000E+02  3.40000000E+01  0.00000000E+00
  1.10000000E+02  3.20000000E+01  0.00000000E+00
  1.10000000E+02  3.00000000E+01  0.00000000E+00
  1.10000000E+02  2.80000000E+01  0.00000000E+00
  1.10000000E+02  2.60000000E+01  0.00000000E+00
  1.10000000E+02  2.40000000E+01  0.00000000E+00
  1.10000000E+02  2.20000000E+01  0.00000000E+00
  1.10000000E+02  2.00000000E+01  0.00000000E+00
  1.10000000E+02  1.80000000E+01  0.00000000E+00
  1.10000000E+02  1.60000000E+01  0.00000000E+00
  1.10000000E+02  1.40000000E+01  0.00000000E+00
  1.10000000E+02  1.20000000E+01  0.00000000E+00
  1.10000000E+02  1.00000000E+01  0.00000000E+00
  1.10000000E+02  8.00000000E+00  0.00000000E+00
  1.10000000E+02  6.00000000E+00  0.00000000E+00
  1.10000000E+02  4.00000000E+00  0.00000000E+00
  1.10000000E+02  2.00000000E+00  0.00000000E+00
  1.10000000E+02 -3.33066907E-14  0.00000000E+00
  1.20000000E+02  1.00000000E+02  0.00000000E+00
  1.20000000E+02  9.80000000E+01  0.00000000E+00
  1.20000000E+02  9.60000000E+01  0.00000000E+00
  1.20000000E+02  9.40000000E+01  0.00000000E+00
  1.20000000E+02  9.20000000E+01  0.00000000E+00
  1.20000000E+02  9.00000000E+01  0.00000000E+00
  1.20000000E+02  8.80000000E+01  0.00000000E+00
  1.20000000E+02  8.60000000E+01  0.00000000E+00
  1.20000000E+02  8.40000000E+01  0.00000000E+00
  1.20000000E+02  8.20000000E+01  0.00000000E+00
  1.20000000E+02  8.00000000E+01  0.00000000E+00
  1.20000000E+02  7.80000000E+01  0.00000000E+00
  1.20000000E+02  7.60000000E+01  0.00000000E+00
  1.20000000E+02  7.40000000E+01  0.00000000E+00
  1.20000000E+02  7.20000000E+01  0.00000000E+00
  1.20000000E+02  7.00000000E+01  0.00000000E+00
  1.20000000E+02  6.80000000E+01  0.00000000E+00
  1.20000000E+02  6.60000000E+01  0.00000000E+00
  1.20000000E+02  6.40000000E+01  0.00000000E+00
  1.20000000E+02  6.20000000E+01  0.00000000E+00
  1.20000000E+02  6.00000000E+01  0.00000000E+00
  1.20000000E+02  5.80000000E+01  0.00000000E+00
  1.20000000E+02  5.60000000E+01  0.00000000E+00
  1.20000000E+02  5.40000000E+01  0.00000000E+00
  1.20000000E+02  5.20000000E+01  0.00000000E+00
  1.20000000E+02  5.00000000E+01  0.00000000E+00
  1.20000000E+02  4.80000000E+01  0.00000000E+00
  1.20000000E+02  4.60000000E+01  0.00000000E+00
  1.20000000E+02  4.40000000E+01  0.00000000E+00
  1.20000000E+02  4.20000000E+01  0.00000000E+00
  1.20000000E+02  4.00000000E+01  0.00000000E+00
  1.20000000E+02  3.80000000E+01  0.00000000E+00
  1.20000000E+02  3.60000000E+01  0.00000000E+00
  1.20000000E+02  3.40000000E+01  0.00000000E+00
  1.20000000E+02  3.20000000E+01  0.00000000E+00
  1.20000000E+02  3.00000000E+01  0.00000000E+00
  1.20000000E+02  2.80000000E+01  0.00000000E+00
  1.20000000E+02  2.60000000E+01  0.00000000E+00
  1.20000000E+02  2.40000000E+01  0.00000000E+00
  1.20000000E+02  2.20000000E+01  0.00000000E+00
  1.20000000E+02  2.00000000E+01  0.00000000E+00
  1.20000000E+02  1.80000000E+01  0.00000000E+00
  1.20000000E+02  1.60000000E+01  0.00000000E+00
  1.20000000E+02  1.40000000E+01  0.00000000E+00
  1.20000000E+02  1.20000000E+01  0.00000000E+00
  1.20000000E+02  1.00000000E+01  0.00000000E+00
  1.20000000E+02  8.00000000E+00  0.00000000E+00
  1.20000000E+02  6.00000000E+00  0.00000000E+00
  1.20000000E+02  4.00000000E+00  0.00000000E+00
  1.20000000E+02  2.00000000E+00  0.00000000E+00
  1.20000000E+02 -3.33066907E-14  0.00000000E+00
  1.30000000E+02  1.00000000E+02  0.00000000E+00
  1.30000000E+02  9.80000000E+01  0.00000000E+00
  1.30000000E+02  9.60000000E+01  0.00000000E+00
  1.30000000E+02  9.40000000E+01  0.00000000E+00
  1.30000000E+02  9.20000000E+01  0.00000000E+00
  1.30000000E+02  9.00000000E+01  0.00000000E+00
  1.30000000E+02  8.80000000E+01  0.00000000E+00
  1.30000000E+02  8.60000000E+01  0.00000000E+00
  1.30000000E+02  8.40000000E+01  0.00000000E+00
  1.30000000E+02  8.20000000E+01  0.00000000E+00
  1.30000000E+02  8.00000000E+01  0.00000000E+00
  1.30000000E+02  7.80000000E+01  0.00000000E+00
  1.30000000E+02  7.60000000E+01  0.00000000E+00
  1.30000000E+02  7.40000000E+01  0.00000000E+00
  1.30000000E+02  7.20000000E+01  0.00000000E+00
  1.30000000E+02  7.00000000E+01  0.00000000E+00
  1.30000000E+02  6.80000000E+01  0.00000000E+00
  1.30000000E+02  6.60000000E+01  0.00000000E+00
  1.30000000E+02  6.40000000E+01  0.00000000E+00
  1.30000000E+02  6.20000000E+01  0.00000000E+00
  1.30000000E+02  6.00000000E+01  0.00000000E+00
  1.30000000E+02  5.80000000E+01  0.00000000E+00
  1.30000000E+02  5.60000000E+01  0.00000000E+00
  1.30000000E+02  5.40000000E+01  0.00000000E+00
  1.30000000E+02  5.20000000E+01  0.00000000E+00
  1.30000000E+02  5.00000000E+01  0.00000000E+00
  1.30000000E+02  4.80000000E+01  0.00000000E+00
  1.30000000E+02  4.60000000E+01  0.00000000E+00
  1.30000000E+02  4.40000000E+01  0.00000000E+00
  1.30000000E+02  4.20000000E+01  0.00000000E+00
  1.30000000E+02  4.00000000E+01  0.00000000E+00
  1.30000000E+02  3.80000000E+01  0.00000000E+00
  1.30000000E+02  3.60000000E+01  0.00000000E+00
  1.30000000E+02  3.40000000E+01  0.00000000E+00
  1.30000000E+02  3.20000000E+01  0.00000000E+00
  1.30000000E+02  3.00000000E+01  0.00000000E+00
  1.30000000E+02  2.80000000E+01  0.00000000E+00
  1.30000000E+02  2.60000000E+01  0.00000000E+00
  1.30000000E+02  2.40000000E+01  0.00000000E+00
  1.30000000E+02  2.20000000E+01  0.00000000E+00
  1.30000000E+02  2.00000000E+01  0.00000000E+00
  1.30000000E+02  1.80000000E+01  0.00000000E+00
  1.30000000E+02  1.60000000E+01  0.00000000E+00
  1.30000000E+02  1.40000000E+01  0.00000000E+00
  1.30000000E+02  1.20000000E+01  0.00000000E+00
  1.30000000E+02  1.00000000E+01  0.00000000E+00
  1.30000000E+02  8.00000000E+00  0.00000000E+00
  1.30000000E+02  6.00000000E+00  0.00000000E+00
  1.30000000E+02  4.00000000E+00  0.00000000E+00
  1.30000000E+02  2.00000000E+00  0.00000000E+00
  1.30000000E+02 -3.33066907E-14  0.00000000E+00
  1.40000000E+02  1.00000000E+02  0.00000000E+00
  1.40000000E+02  9.80000000E+01  0.00000000E+00
  1.40000000E+02  9.60000000E+01  0.00000000E+00
  1.40000000E+02  9.40000000E+01  0.00000000E+00
  1.40000000E+02  9.20000000E+01  0.00000000E+00
  1.40000000E+02  9.00000000E+01  0.00000000E+00
  1.40000000E+02  8.80000000E+01  0.00000000E+00
  1.40000000E+02  8.60000000E+01  0.00000000E+00
  1.40000000E+02  8.40000000E+01  0.00000000E+00
  1.40000000E+02  8.20000000E+01  0.00000000E+00
  1.40000000E+02  8.00000000E+01  0.00000000E+00
  1.40000000E+02  7.80000000E+01  0.00000000E+00
  1.40000000E+02  7.60000000E+01  0.00000000E+00
  1.40000000E+02  7.40000000E+01  0.00000000E+00
  1.40000000E+02  7.20000000E+01  0.00000000E+00
  1.40000000E+02  7.00000000E+01  0.00000000E+00
  1.40000000E+02  6.80000000E+01  0.00000000E+00
  1.40000000E+02  6.60000000E+01  0.00000000E+00
  1.40000000E+02  6.40000000E+01  0.00000000E+00
  1.40000000E+02  6.20000000E+01  0.00000000E+00
  1.40000000E+02  6.00000000E+01  0.00000000E+00
  1.40000000E+02  5.80000000E+01  0.00000000E+00
  1.40000000E+02  5.60000000E+01  0.00000000E+00
  1.40000000E+02  5.40000000E+01  0.00000000E+00
  1.40000000E+02  5.20000000E+01  0.00000000E+00
  1.40000000E+02  5.00000000E+01  0.00000000E+00
  1.40000000E+02  4.80000000E+01  0.00000000E+00
  1.40000000E+02  4.60000000E+01  0.00000000E+00
  1.40000000E+02  4.40000000E+01  0.00000000E+00
  1.40000000E+02  4.20000000E+01  0.00000000E+00
  1.40000000E+02  4.00000000E+01  0.00000000E+00
  1.40000000E+02  3.80000000E+01  0.00000000E+00
  1.40000000E+02  3.60000000E+01  0.00000000E+00
  1.40000000E+02  3.40000000E+01  0.00000000E+00
  1.40000000E+02  3.20000000E+01  0.00000000E+00
  1.40000000E+02  3.00000000E+01  0.00000000E+00
  1.40000000E+02  2.80000000E+01  0.00000000E+00
  1.40000000E+02  2.60000000E+01  0.00000000E+00
  1.40000000E+02  2.40000000E+01  0.00000000E+00
  1.40000000E+02  2.20000000E+01  0.00000000E+00
  1.40000000E+02  2.00000000E+01  0.00000000E+00
  1.40000000E+02  1.80000000E+01  0.00000000E+00
  1.40000000E+02  1.60000000E+01  0.00000000E+00
  1.40000000E+02  1.40000000E+01  0.00000000E+00
  1.40000000E+02  1.20000000E+01  0.00000000E+00
  1.40000000E+02  1.00000000E+01  0.00000000E+00
  1.40000000E+02  8.00000000E+00  0.00000000E+00
  1.40000000E+02  6.00000000E+00  0.00000000E+00
  1.40000000E+02  4.00000000E+00  0.00000000E+00
  1.40000000E+02  2.00000000E+00  0.00000000E+00
  1.40000000E+02 -3.33066907E-14  0.00000000E+00
  1.50000000E+02  1.00000000E+02  0.00000000E+00
  1.50000000E+02  9.80000000E+01  0.00000000E+00
  1.50000000E+02  9.60000000E+01  0.00000000E+00
  1.50000000E+02  9.40000000E+01  0.00000000E+00
  1.50000000E+02  9.20000000E+01  0.00000000E+00
  1.50000000E+02  9.00000000E+01  0.00000000E+00
  1.50000000E+02  8.80000000E+01  0.00000000E+00
  1.50000000E+02  8.60000000E+01  0.00000000E+00
  1.50000000E+02  8.40000000E+01  0.00000000E+00
  1.50000000E+02  8.20000000E+01  0.00000000E+00
  1.50000000E+02  8.00000000E+01  0.00000000E+00
  1.50000000E+02  7.80000000E+01  0.00000000E+00
  1.50000000E+02  7.60000000E+01  0.00000000E+00
  1.50000000E+02  7.40000000E+01  0.00000000E+00
  1.50000000E+02  7.20000000E+01  0.00000000E+00
  1.50000000E+02  7.00000000E+01  0.00000000E+00
  1.50000000E+02  6.80000000E+01  0.00000000E+00
  1.50000000E+02  6.60000000E+01  0.00000000E+00
  1.50000000E+02  6.40000000E+01  0.00000000E+00
  1.50000000E+02  6.20000000E+01  0.00000000E+00
  1.50000000E+02  6.00000000E+01  0.00000000E+00
  1.50000000E+02  5.80000000E+01  0.00000000E+00
  1.50000000E+02  5.60000000E+01  0.00000000E+00
  1.50000000E+02  5.40000000E+01  0.00000000E+00
  1.50000000E+02  5.20000000E+01  0.00000000E+00
  1.50000000E+02  5.00000000E+01  0.00000000E+00
  1.50000000E+02  4.80000000E+01  0.00000000E+00
  1.50000000E+02  4.60000000E+01  0.00000000E+00
  1.50000000E+02  4.40000000E+01  0.00000000E+00
  1.50000000E+02  4.20000000E+01  0.00000000E+00
  1.50000000E+02  4.00000000E+01  0.00000000E+00
  1.50000000E+02  3.80000000E+01  0.00000000E+00
  1.50000000E+02  3.60000000E+01  0.00000000E+00
  1.50000000E+02  3.40000000E+01  0.00000000E+00
  1.50000000E+02  3.20000000E+01  0.00000000E+00
  1.50000000E+02  3.00000000E+01  0.00000000E+00
  1.50000000E+02  2.80000000E+01  0.00000000E+00
  1.50000000E+02  2.60000000E+01  0.00000000E+00
  1.50000000E+02  2.40000000E+01  0.00000000E+00
  1.50000000E+02  2.20000000E+01  0.00000000E+00
  1.50000000E+02  2.00000000E+01  0.00000000E+00
  1.50000000E+02  1.80000000E+01  0.00000000E+00
  1.50000000E+02  1.60000000E+01  0.00000000E+00
  1.50000000E+02  1.40000000E+01  0.00000000E+00
  1.50000000E+02  1.20000000E+01  0.00000000E+00
  1.50000000E+02  1.00000000E+01  0.00000000E+00
  1.50000000E+02  8.00000000E+00  0.00000000E+00
  1.50000000E+02  6.00000000E+00  0.00000000E+00
  1.50000000E+02  4.00000000E+00  0.00000000E+00
  1.50000000E+02  2.00000000E+00  0.00000000E+00
  1.50000000E+02 -3.33066907E-14  0.00000000E+00
  1.60000000E+02  1.00000000E+02  0.00000000E+00
  1.60000000E+02  9.80000000E+01  0.00000000E+00
  1.60000000E+02  9.60000000E+01  0.00000000E+00
  1.60000000E+02  9.40000000E+01  0.00000000E+00
  1.60000000E+02  9.20000000E+01  0.00000000E+00
  1.60000000E+02  9.00000000E+01  0.00000000E+00
  1.60000000E+02  8.80000000E+01  0.00000000E+00
  1.60000000E+02  8.60000000E+01  0.00000000E+00
  1.60000000E+02  8.40000000E+01  0.00000000E+00
  1.60000000E+02  8.20000000E+01  0.00000000E+00
  1.60000000E+02  8.00000000E+01  0.00000000E+00
  1.60000000E+02  7.80000000E+01  0.00000000E+00
  1.60000000E+02  7.60000000E+01  0.00000000E+00
  1.60000000E+02  7.40000000E+01  0.00000000E+00
  1.60000000E+02  7.20000000E+01  0.00000000E+00
  1.60000000E+02  7.00000000E+01  0.00000000E+00
  1.60000000E+02  6.80000000E+01  0.00000000E+00
  1.60000000E+02  6.60000000E+01  0.00000000E+00
  1.60000000E+02  6.40000000E+01  0.00000000E+00
  1.60000000E+02  6.20000000E+01  0.00000000E+00
  1.60000000E+02  6.00000000E+01  0.00000000E+00
  1.60000000E+02  5.80000000E+01  0.00000000E+00
  1.60000000E+02  5.60000000E+01  0.00000000E+00
  1.60000000E+02  5.40000000E+01  0.00000000E+00
  1.60000000E+02  5.20000000E+01  0.00000000E+00
  1.60000000E+02  5.00000000E+01  0.00000000E+00
  1.60000000E+02  4.80000000E+01  0.00000000E+00
  1.60000000E+02  4.60000000E+01  0.00000000E+00
  1.60000000E+02  4.40000000E+01  0.00000000E+00
  1.60000000E+02  4.20000000E+01  0.00000000E+00
  1.60000000E+02  4.00000000E+01  0.00000000E+00
  1.60000000E+02  3.80000000E+01  0.00000000E+00
  1.60000000E+02  3.60000000E+01  0.00000000E+00
  1.60000000E+02  3.40000000E+01  0.00000000E+00
  1.60000000E+02  3.20000000E+01  0.00000000E+00
  1.60000000E+02  3.00000000E+01  0.00000000E+00
  1.60000000E+02  2.80000000E+01  0.00000000E+00
  1.60000000E+02  2.60000000E+01  0.00000000E+00
  1.60000000E+02  2.40000000E+01  0.00000000E+00
  1.60000000E+02  2.20000000E+01  0.00000000E+00
  1.60000000E+02  2.00000000E+01  0.00000000E+00
  1.60000000E+02  1.80000000E+01  0.00000000E+00
  1.60000000E+02  1.60000000E+01  0.00000000E+00
  1.60000000E+02  1.40000000E+01  0.00000000E+00
  1.60000000E+02  1.20000000E+01  0.00000000E+00
  1.60000000E+02  1.00000000E+01  0.00000000E+00
  1.60000000E+02  8.00000000E+00  0.00000000E+00
  1.60000000E+02  6.00000000E+00  0.00000000E+00
  1.60000000E+02  4.00000000E+00  0.00000000E+00
  1.60000000E+02  2.00000000E+00  0.00000000E+00
  1.60000000E+02 -3.33066907E-14  0.00000000E+00
  1.70000000E+02  1.00000000E+02  0.00000000E+00
  1.70000000E+02  9.80000000E+01  0.00000000E+00
  1.70000000E+02  9.60000000E+01  0.00000000E+00
  1.70000000E+02  9.40000000E+01  0.00000000E+00
  1.70000000E+02  9.20000000E+01  0.00000000E+00
  1.70000000E+02  9.00000000E+01  0.00000000E+00
  1.70000000E+02  8.80000000E+01  0.00000000E+00
  1.70000000E+02  8.60000000E+01  0.00000000E+00
  1.70000000E+02  8.40000000E+01  0.00000000E+00
  1.70000000E+02  8.20000000E+01  0.00000000E+00
  1.70000000E+02  8.00000000E+01  0.00000000E+00
  1.70000000E+02  7.80000000E+01  0.00000000E+00
  1.70000000E+02  7.60000000E+01  0.00000000E+00
  1.70000000E+02  7.40000000E+01  0.00000000E+00
  1.70000000E+02  7.20000000E+01  0.00000000E+00
  1.70000000E+02  7.00000000E+01  0.00000000E+00
  1.70000000E+02  6.80000000E+01  0.00000000E+00
  1.70000000E+02  6.60000000E+01  0.00000000E+00
  1.70000000E+02  6.40000000E+01  0.00000000E+00
  1.70000000E+02  6.20000000E+01  0.00000000E+00
  1.70000000E+02  6.00000000E+01  0.00000000E+00
  1.70000000E+02  5.80000000E+01  0.00000000E+00
  1.70000000E+02  5.60000000E+01  0.00000000E+00
  1.70000000E+02  5.40000000E+01  0.00000000E+00
  1.70000000E+02  5.20000000E+01  0.00000000E+00
  1.70000000E+02  5.00000000E+01  0.00000000E+00
  1.70000000E+02  4.80000000E+01  0.00000000E+00
  1.70000000E+02  4.60000000E+01  0.00000000E+00
  1.70000000E+02  4.40000000E+01  0.00000000E+00
  1.70000000E+02  4.20000000E+01  0.00000000E+00
  1.70000000E+02  4.00000000E+01  0.00000000E+00
  1.70000000E+02  3.80000000E+01  0.00000000E+00
  1.70000000E+02  3.60000000E+01  0.00000000E+00
  1.70000000E+02  3.40000000E+01  0.00000000E+00
  1.70000000E+02  3.20000000E+01  0.00000000E+00
  1.70000000E+02  3.00000000E+01  0.00000000E+00
  1.70000000E+02  2.80000000E+01  0.00000000E+00
  1.70000000E+02  2.60000000E+01  0.00000000E+00
  1.70000000E+02  2.40000000E+01  0.00000000E+00
  1.70000000E+02  2.20000000E+01  0.00000000E+00
  1.70000000E+02  2.00000000E+01  0.00000000E+00
  1.70000000E+02  1.80000000E+01  0.00000000E+00
  1.70000000E+02  1.60000000E+01  0.00000000E+00
  1.70000000E+02  1.40000000E+01  0.00000000E+00
  1.70000000E+02  1.20000000E+01  0.00000000E+00
  1.70000000E+02  1.00000000E+01  0.00000000E+00
  1.70000000E+02  8.00000000E+00  0.00000000E+00
  1.70000000E+02  6.00000000E+00  0.00000000E+00
  1.70000000E+02  4.00000000E+00  0.00000000E+00
  1.70000000E+02  2.00000000E+00  0.00000000E+00
  1.70000000E+02 -3.33066907E-14  0.00000000E+00
  1.80000000E+02  1.00000000E+02  0.00000000E+00
  1.80000000E+02  9.80000000E+01  0.00000000E+00
  1.80000000E+02  9.60000000E+01  0.00000000E+00
  1.80000000E+02  9.40000000E+01  0.00000000E+00
  1.80000000E+02  9.20000000E+01  0.00000000E+00
  1.80000000E+02  9.00000000E+01  0.00000000E+00
  1.80000000E+02  8.80000000E+01  0.00000000E+00
  1.80000000E+02  8.60000000E+01  0.00000000E+00
  1.80000000E+02  8.40000000E+01  0.00000000E+00
  1.80000000E+02  8.20000000E+01  0.00000000E+00
  1.80000000E+02  8.00000000E+01  0.00000000E+00
  1.80000000E+02  7.80000000E+01  0.00000000E+00
  1.80000000E+02  7.60000000E+01  0.00000000E+00
  1.80000000E+02  7.40000000E+01  0.00000000E+00
  1.80000000E+02  7.20000000E+01  0.00000000E+00
  1.80000000E+02  7.00000000E+01  0.00000000E+00
  1.80000000E+02  6.80000000E+01  0.00000000E+00
  1.80000000E+02  6.60000000E+01  0.00000000E+00
  1.80000000E+02  6.40000000E+01  0.00000000E+00
  1.80000000E+02  6.20000000E+01  0.00000000E+00
  1.80000000E+02  6.00000000E+01  0.00000000E+00
  1.80000000E+02  5.80000000E+01  0.00000000E+00
  1.80000000E+02  5.60000000E+01  0.00000000E+00
  1.80000000E+02  5.40000000E+01  0.00000000E+00
  1.80000000E+02  5.20000000E+01  0.00000000E+00
  1.80000000E+02  5.00000000E+01  0.00000000E+00
  1.80000000E+02  4.80000000E+01  0.00000000E+00
  1.80000000E+02  4.60000000E+01  0.00000000E+00
  1.80000000E+02  4.40000000E+01  0.00000000E+00
  1.80000000E+02  4.20000000E+01  0.00000000E+00
  1.80000000E+02  4.00000000E+01  0.00000000E+00
  1.80000000E+02  3.80000000E+01  0.00000000E+00
  1.80000000E+02  3.60000000E+01  0.00000000E+00
  1.80000000E+02  3.40000000E+01  0.00000000E+00
  1.80000000E+02  3.20000000E+01  0.00000000E+00
  1.80000000E+02  3.00000000E+01  0.00000000E+00
  1.80000000E+02  2.80000000E+01  0.00000000E+00
  1.80000000E+02  2.60000000E+01  0.00000000E+00
  1.80000000E+02  2.40000000E+01  0.00000000E+00
  1.80000000E+02  2.20000000E+01  0.00000000E+00
  1.80000000E+02  2.00000000E+01  0.00000000E+00
  1.80000000E+02  1.80000000E+01  0.00000000E+00
  1.80000000E+02  1.60000000E+01  0.00000000E+00
  1.80000000E+02  1.40000000E+01  0.00000000E+00
  1.80000000E+02  1.20000000E+01  0.00000000E+00
  1.80000000E+02  1.00000000E+01  0.00000000E+00
  1.80000000E+02  8.00000000E+00  0.00000000E+00
  1.80000000E+02  6.00000000E+00  0.00000000E+00
  1.80000000E+02  4.00000000E+00  0.00000000E+00
  1.80000000E+02  2.00000000E+00  0.00000000E+00
  1.80000000E+02 -3.33066907E-14  0.00000000E+00
  1.90000000E+02  1.00000000E+02  0.00000000E+00
  1.90000000E+02  9.80000000E+01  0.00000000E+00
  1.90000000E+02  9.60000000E+01  0.00000000E+00
  1.90000000E+02  9.40000000E+01  0.00000000E+00
  1.90000000E+02  9.20000000E+01  0.00000000E+00
  1.90000000E+02  9.00000000E+01  0.00000000E+00
  1.90000000E+02  8.80000000E+01  0.00000000E+00
  1.90000000E+02  8.60000000E+01  0.00000000E+00
  1.90000000E+02  8.40000000E+01  0.00000000E+00
  1.90000000E+02  8.20000000E+01  0.00000000E+00
  1.90000000E+02  8.00000000E+01  0.00000000E+00
  1.90000000E+02  7.80000000E+01  0.00000000E+00
  1.90000000E+02  7.60000000E+01  0.00000000E+00
  1.90000000E+02  7.40000000E+01  0.00000000E+00
  1.90000000E+02  7.20000000E+01  0.00000000E+00
  1.90000000E+02  7.00000000E+01  0.00000000E+00
  1.90000000E+02  6.80000000E+01  0.00000000E+00
  1.90000000E+02  6.60000000E+01  0.00000000E+00
  1.90000000E+02  6.40000000E+01  0.00000000E+00
  1.90000000E+02  6.20000000E+01  0.00000000E+00
  1.90000000E+02  6.00000000E+01  0.00000000E+00
  1.90000000E+02  5.80000000E+01  0.00000000E+00
  1.90000000E+02  5.60000000E+01  0.00000000E+00
  1.90000000E+02  5.40000000E+01  0.00000000E+00
  1.90000000E+02  5.20000000E+01  0.00000000E+00
  1.90000000E+02  5.00000000E+01  0.00000000E+00
  1.90000000E+02  4.80000000E+01  0.00000000E+00
  1.90000000E+02  4.60000000E+01  0.00000000E+00
  1.90000000E+02  4.40000000E+01  0.00000000E+00
  1.90000000E+02  4.20000000E+01  0.00000000E+00
  1.90000000E+02  4.00000000E+01  0.00000000E+00
  1.90000000E+02  3.80000000E+01  0.00000000E+00
  1.90000000E+02  3.60000000E+01  0.00000000E+00
  1.90000000E+02  3.40000000E+01  0.00000000E+00
  1.90000000E+02  3.20000000E+01  0.00000000E+00
  1.90000000E+02  3.00000000E+01  0.00000000E+00
  1.90000000E+02  2.80000000E+01  0.00000000E+00
  1.90000000E+02  2.60000000E+01  0.00000000E+00
  1.90000000E+02  2.40000000E+01  0.00000000E+00
  1.90000000E+02  2.20000000E+01  0.00000000E+00
  1.90000000E+02  2.00000000E+01  0.00000000E+00
  1.90000000E+02  1.80000000E+01  0.00000000E+00
  1.90000000E+02  1.60000000E+01  0.00000000E+00
  1.90000000E+02  1.40000000E+01  0.00000000E+00
  1.90000000E+02  1.20000000E+01  0.00000000E+00
  1.90000000E+02  1.00000000E+01  0.00000000E+00
  1.90000000E+02  8.00000000E+00  0.00000000E+00
  1.90000000E+02  6.00000000E+00  0.00000000E+00
  1.90000000E+02  4.00000000E+00  0.00000000E+00
  1.90000000E+02  2.00000000E+00  0.00000000E+00
  1.90000000E+02 -3.33066907E-14  0.00000000E+00
  2.00000000E+02  1.00000000E+02  0.00000000E+00
  2.00000000E+02  9.80000000E+01  0.00000000E+00
  2.00000000E+02  9.60000000E+01  0.00000000E+00
  2.00000000E+02  9.40000000E+01  0.00000000E+00
  2.00000000E+02  9.20000000E+01  0.00000000E+00
  2.00000000E+02  9.00000000E+01  0.00000000E+00
  2.00000000E+02  8.80000000E+01  0.00000000E+00
  2.00000000E+02  8.60000000E+01  0.00000000E+00
  2.00000000E+02  8.40000000E+01  0.00000000E+00
  2.00000000E+02  8.20000000E+01  0.00000000E+00
  2.00000000E+02  8.00000000E+01  0.00000000E+00
  2.00000000E+02  7.80000000E+01  0.00000000E+00
  2.00000000E+02  7.60000000E+01  0.00000000E+00
  2.00000000E+02  7.40000000E+01  0.00000000E+00
  2.00000000E+02  7.20000000E+01  0.00000000E+00
  2.00000000E+02  7.00000000E+01  0.00000000E+00
  2.00000000E+02  6.80000000E+01  0.00000000E+00
  2.00000000E+02  6.60000000E+01  0.00000000E+00
  2.00000000E+02  6.40000000E+01  0.00000000E+00
  2.00000000E+02  6.20000000E+01  0.00000000E+00
  2.00000000E+02  6.00000000E+01  0.00000000E+00
  2.00000000E+02  5.80000000E+01  0.00000000E+00
  2.00000000E+02  5.60000000E+01  0.00000000E+00
  2.00000000E+02  5.40000000E+01  0.00000000E+00
  2.00000000E+02  5.20000000E+01  0.00000000E+00
  2.00000000E+02  5.00000000E+01  0.00000000E+00
  2.00000000E+02  4.80000000E+01  0.00000000E+00
  2.00000000E+02  4.60000000E+01  0.00000000E+00
  2.00000000E+02  4.40000000E+01  0.00000000E+00
  2.00000000E+02  4.20000000E+01  0.00000000E+00
  2.00000000E+02  4.00000000E+01  0.00000000E+00
  2.00000000E+02  3.80000000E+01  0.00000000E+00
  2.00000000E+02  3.60000000E+01  0.00000000E+00
  2.00000000E+02  3.40000000E+01  0.00000000E+00
  2.00000000E+02  3.20000000E+01  0.00000000E+00
  2.00000000E+02  3.00000000E+01  0.00000000E+00
  2.00000000E+02  2.80000000E+01  0.00000000E+00
  2.00000000E+02  2.60000000E+01  0.00000000E+00
  2.00000000E+02  2.40000000E+01  0.00000000E+00
  2.00000000E+02  2.20000000E+01  0.00000000E+00
  2.00000000E+02  2.00000000E+01  0.00000000E+00
  2.00000000E+02  1.80000000E+01  0.00000000E+00
  2.00000000E+02  1.60000000E+01  0.00000000E+00
  2.00000000E+02  1.40000000E+01  0.00000000E+00
  2.00000000E+02  1.20000000E+01  0.00000000E+00
  2.00000000E+02  1.00000000E+01  0.00000000E+00
  2.00000000E+02  8.00000000E+00  0.00000000E+00
  2.00000000E+02  6.00000000E+00  0.00000000E+00
  2.00000000E+02  4.00000000E+00  0.00000000E+00
  2.00000000E+02  2.00000000E+00  0.00000000E+00
  2.00000000E+02 -3.33066907E-14  0.00000000E+00
  2.10000000E+02  1.00000000E+02  0.00000000E+00
  2.10000000E+02  9.80000000E+01  0.00000000E+00
  2.10000000E+02  9.60000000E+01  0.00000000E+00
  2.10000000E+02  9.40000000E+01  0.00000000E+00
  2.10000000E+02  9.20000000E+01  0.00000000E+00
  2.10000000E+02  9.00000000E+01  0.00000000E+00
  2.10000000E+02  8.80000000E+01  0.00000000E+00
  2.10000000E+02  8.60000000E+01  0.00000000E+00
  2.10000000E+02  8.40000000E+01  0.00000000E+00
  2.10000000E+02  8.20000000E+01  0.00000000E+00
  2.10000000E+02  8.00000000E+01  0.00000000E+00
  2.10000000E+02  7.80000000E+01  0.00000000E+00
  2.10000000E+02  7.60000000E+01  0.00000000E+00
  2.10000000E+02  7.40000000E+01  0.00000000E+00
  2.10000000E+02  7.20000000E+01  0.00000000E+00
  2.10000000E+02  7.00000000E+01  0.00000000E+00
  2.10000000E+02  6.80000000E+01  0.00000000E+00
  2.10000000E+02  6.60000000E+01  0.00000000E+00
  2.10000000E+02  6.40000000E+01  0.00000000E+00
  2.10000000E+02  6.20000000E+01  0.00000000E+00
  2.10000000E+02  6.00000000E+01  0.00000000E+00
  2.10000000E+02  5.80000000E+01  0.00000000E+00
  2.10000000E+02  5.60000000E+01  0.00000000E+00
  2.10000000E+02  5.40000000E+01  0.00000000E+00
  2.10000000E+02  5.20000000E+01  0.00000000E+00
  2.10000000E+02  5.00000000E+01  0.00000000E+00
  2.10000000E+02  4.80000000E+01  0.00000000E+00
  2.10000000E+02  4.60000000E+01  0.00000000E+00
  2.10000000E+02  4.40000000E+01  0.00000000E+00
  2.10000000E+02  4.20000000E+01  0.00000000E+00
  2.10000000E+02  4.00000000E+01  0.00000000E+00
  2.10000000E+02  3.80000000E+01  0.00000000E+00
  2.10000000E+02  3.60000000E+01  0.00000000E+00
  2.10000000E+02  3.40000000E+01  0.00000000E+00
  2.10000000E+02  3.20000000E+01  0.00000000E+00
  2.10000000E+02  3.00000000E+01  0.00000000E+00
  2.10000000E+02  2.80000000E+01  0.00000000E+00
  2.10000000E+02  2.60000000E+01  0.00000000E+00
  2.10000000E+02  2.40000000E+01  0.00000000E+00
  2.10000000E+02  2.20000000E+01  0.00000000E+00
  2.10000000E+02  2.00000000E+01  0.00000000E+00
  2.10000000E+02  1.80000000E+01  0.00000000E+00
  2.10000000E+02  1.60000000E+01  0.00000000E+00
  2.10000000E+02  1.40000000E+01  0.00000000E+00
  2.10000000E+02  1.20000000E+01  0.00000000E+00
  2.10000000E+02  1.00000000E+01  0.00000000E+00
  2.10000000E+02  8.00000000E+00  0.00000000E+00
  2.10000000E+02  6.00000000E+00  0.00000000E+00
  2.10000000E+02  4.00000000E+00  0.00000000E+00
  2.10000000E+02  2.00000000E+00  0.00000000E+00
  2.10000000E+02 -3.33066907E-14  0.00000000E+00
  2.20000000E+02  1.00000000E+02  0.00000000E+00
  2.20000000E+02  9.80000000E+01  0.00000000E+00
  2.20000000E+02  9.60000000E+01  0.00000000E+00
  2.20000000E+02  9.40000000E+01  0.00000000E+00
  2.20000000E+02  9.20000000E+01  0.00000000E+00
  2.20000000E+02  9.00000000E+01  0.00000000E+00
  2.20000000E+02  8.80000000E+01  0.00000000E+00
  2.20000000E+02  8.60000000E+01  0.00000000E+00
  2.20000000E+02  8.40000000E+01  0.00000000E+00
  2.20000000E+02  8.20000000E+01  0.00000000E+00
  2.20000000E+02  8.00000000E+01  0.00000000E+00
  2.20000000E+02  7.80000000E+01  0.00000000E+00
  2.20000000E+02  7.60000000E+01  0.00000000E+00
  2.20000000E+02  7.40000000E+01  0.00000000E+00
  2.20000000E+02  7.20000000E+01  0.00000000E+00
  2.20000000E+02  7.00000000E+01  0.00000000E+00
  2.20000000E+02  6.80000000E+01  0.00000000E+00
  2.20000000E+02  6.60000000E+01  0.00000000E+00
  2.20000000E+02  6.40000000E+01  0.00000000E+00
  2.20000000E+02  6.20000000E+01  0.00000000E+00
  2.20000000E+02  6.00000000E+01  0.00000000E+00
  2.20000000E+02  5.80000000E+01  0.00000000E+00
  2.20000000E+02  5.60000000E+01  0.00000000E+00
  2.20000000E+02  5.40000000E+01  0.00000000E+00
  2.20000000E+02  5.20000000E+01  0.00000000E+00
  2.20000000E+02  5.00000000E+01  0.00000000E+00
  2.20000000E+02  4.80000000E+01  0.00000000E+00
  2.20000000E+02  4.60000000E+01  0.00000000E+00
  2.20000000E+02  4.40000000E+01  0.00000000E+00
  2.20000000E+02  4.20000000E+01  0.00000000E+00
  2.20000000E+02  4.00000000E+01  0.00000000E+00
  2.20000000E+02  3.80000000E+01  0.00000000E+00
  2.20000000E+02  3.60000000E+01  0.00000000E+00
  2.20000000E+02  3.40000000E+01  0.00000000E+00
  2.20000000E+02  3.20000000E+01  0.00000000E+00
  2.20000000E+02  3.00000000E+01  0.00000000E+00
  2.20000000E+02  2.80000000E+01  0.00000000E+00
  2.20000000E+02  2.60000000E+01  0.00000000E+00
  2.20000000E+02  2.40000000E+01  0.00000000E+00
  2.20000000E+02  2.20000000E+01  0.00000000E+00
  2.20000000E+02  2.00000000E+01  0.00000000E+00
  2.20000000E+02  1.80000000E+01  0.00000000E+00
  2.20000000E+02  1.60000000E+01  0.00000000E+00
  2.20000000E+02  1.40000000E+01  0.00000000E+00
  2.20000000E+02  1.20000000E+01  0.00000000E+00
  2.20000000E+02  1.00000000E+01  0.00000000E+00
  2.20000000E+02  8.00000000E+00  0.00000000E+00
  2.20000000E+02  6.00000000E+00  0.00000000E+00
  2.20000000E+02  4.00000000E+00  0.00000000E+00
  2.20000000E+02  2.00000000E+00  0.00000000E+00
  2.20000000E+02 -3.33066907E-14  0.00000000E+00
  2.30000000E+02  1.00000000E+02  0.00000000E+00
  2.30000000E+02  9.80000000E+01  0.00000000E+00
  2.30000000E+02  9.60000000E+01  0.00000000E+00
  2.30000000E+02  9.40000000E+01  0.00000000E+00
  2.30000000E+02  9.20000000E+01  0.00000000E+00
  2.30000000E+02  9.00000000E+01  0.00000000E+00
  2.30000000E+02  8.80000000E+01  0.00000000E+00
  2.30000000E+02  8.60000000E+01  0.00000000E+00
  2.30000000E+02  8.40000000E+01  0.00000000E+00
  2.30000000E+02  8.20000000E+01  0.00000000E+00
  2.30000000E+02  8.00000000E+01  0.00000000E+00
  2.30000000E+02  7.80000000E+01  0.00000000E+00
  2.30000000E+02  7.60000000E+01  0.00000000E+00
  2.30000000E+02  7.40000000E+01  0.00000000E+00
  2.30000000E+02  7.20000000E+01  0.00000000E+00
  2.30000000E+02  7.00000000E+01  0.00000000E+00
  2.30000000E+02  6.80000000E+01  0.00000000E+00
  2.30000000E+02  6.60000000E+01  0.00000000E+00
  2.30000000E+02  6.40000000E+01  0.00000000E+00
  2.30000000E+02  6.20000000E+01  0.00000000E+00
  2.30000000E+02  6.00000000E+01  0.00000000E+00
  2.30000000E+02  5.80000000E+01  0.00000000E+00
  2.30000000E+02  5.60000000E+01  0.00000000E+00
  2.30000000E+02  5.40000000E+01  0.00000000E+00
  2.30000000E+02  5.20000000E+01  0.00000000E+00
  2.30000000E+02  5.00000000E+01  0.00000000E+00
  2.30000000E+02  4.80000000E+01  0.00000000E+00
  2.30000000E+02  4.60000000E+01  0.00000000E+00
  2.30000000E+02  4.40000000E+01  0.00000000E+00
  2.30000000E+02  4.20000000E+01  0.00000000E+00
  2.30000000E+02  4.00000000E+01  0.00000000E+00
  2.30000000E+02  3.80000000E+01  0.00000000E+00
  2.30000000E+02  3.60000000E+01  0.00000000E+00
  2.30000000E+02  3.40000000E+01  0.00000000E+00
  2.30000000E+02  3.20000000E+01  0.00000000E+00
  2.30000000E+02  3.00000000E+01  0.00000000E+00
  2.30000000E+02  2.80000000E+01  0.00000000E+00
  2.30000000E+02  2.60000000E+01  0.00000000E+00
  2.30000000E+02  2.40000000E+01  0.00000000E+00
  2.30000000E+02  2.20000000E+01  0.00000000E+00
  2.30000000E+02  2.00000000E+01  0.00000000E+00
  2.30000000E+02  1.80000000E+01  0.00000000E+00
  2.30000000E+02  1.60000000E+01  0.00000000E+00
  2.30000000E+02  1.40000000E+01  0.00000000E+00
  2.30000000E+02  1.20000000E+01  0.00000000E+00
  2.30000000E+02  1.00000000E+01  0.00000000E+00
  2.30000000E+02  8.00000000E+00  0.00000000E+00
  2.30000000E+02  6.00000000E+00  0.00000000E+00
  2.30000000E+02  4.00000000E+00  0.00000000E+00
  2.30000000E+02  2.00000000E+00  0.00000000E+00
  2.30000000E+02 -3.33066907E-14  0.00000000E+00
  2.40000000E+02  1.00000000E+02  0.00000000E+00
  2.40000000E+02  9.80000000E+01  0.00000000E+00
  2.40000000E+02  9.60000000E+01  0.00000000E+00
  2.40000000E+02  9.40000000E+01  0.00000000E+00
  2.40000000E+02  9.20000000E+01  0.00000000E+00
  2.40000000E+02  9.00000000E+01  0.00000000E+00
  2.40000000E+02  8.80000000E+01  0.00000000E+00
  2.40000000E+02  8.60000000E+01  0.00000000E+00
  2.40000000E+02  8.40000000E+01  0.00000000E+00
  2.40000000E+02  8.20000000E+01  0.00000000E+00
  2.40000000E+02  8.00000000E+01  0.00000000E+00
  2.40000000E+02  7.80000000E+01  0.00000000E+00
  2.40000000E+02  7.60000000E+01  0.00000000E+00
  2.40000000E+02  7.40000000E+01  0.00000000E+00
  2.40000000E+02  7.20000000E+01  0.00000000E+00
  2.40000000E+02  7.00000000E+01  0.00000000E+00
  2.40000000E+02  6.80000000E+01  0.00000000E+00
  2.40000000E+02  6.60000000E+01  0.00000000E+00
  2.40000000E+02  6.40000000E+01  0.00000000E+00
  2.40000000E+02  6.20000000E+01  0.00000000E+00
  2.40000000E+02  6.00000000E+01  0.00000000E+00
  2.40000000E+02  5.80000000E+01  0.00000000E+00
  2.40000000E+02  5.60000000E+01  0.00000000E+00
  2.40000000E+02  5.40000000E+01  0.00000000E+00
  2.40000000E+02  5.20000000E+01  0.00000000E+00
  2.40000000E+02  5.00000000E+01  0.00000000E+00
  2.40000000E+02  4.80000000E+01  0.00000000E+00
  2.40000000E+02  4.60000000E+01  0.00000000E+00
  2.40000000E+02  4.40000000E+01  0.00000000E+00
  2.40000000E+02  4.20000000E+01  0.00000000E+00
  2.40000000E+02  4.00000000E+01  0.00000000E+00
  2.40000000E+02  3.80000000E+01  0.00000000E+00
  2.40000000E+02  3.60000000E+01  0.00000000E+00
  2.40000000E+02  3.40000000E+01  0.00000000E+00
  2.40000000E+02  3.20000000E+01  0.00000000E+00
  2.40000000E+02  3.00000000E+01  0.00000000E+00
  2.40000000E+02  2.80000000E+01  0.00000000E+00
  2.40000000E+02  2.60000000E+01  0.00000000E+00
  2.40000000E+02  2.40000000E+01  0.00000000E+00
  2.40000000E+02  2.20000000E+01  0.00000000E+00
  2.40000000E+02  2.00000000E+01  0.00000000E+00
  2.40000000E+02  1.80000000E+01  0.00000000E+00
  2.40000000E+02  1.60000000E+01  0.00000000E+00
  2.40000000E+02  1.40000000E+01  0.00000000E+00
  2.40000000E+02  1.20000000E+01  0.00000000E+00
  2.40000000E+02  1.00000000E+01  0.00000000E+00
  2.40000000E+02  8.00000000E+00  0.00000000E+00
  2.40000000E+02  6.00000000E+00  0.00000000E+00
  2.40000000E+02  4.00000000E+00  0.00000000E+00
  2.40000000E+02  2.00000000E+00  0.00000000E+00
  2.40000000E+02 -3.33066907E-14  0.00000000E+00
  2.50000000E+02  1.00000000E+02  0.00000000E+00
  2.50000000E+02  9.80000000E+01  0.00000000E+00
  2.50000000E+02  9.60000000E+01  0.00000000E+00
  2.50000000E+02  9.40000000E+01  0.00000000E+00
  2.50000000E+02  9.20000000E+01  0.00000000E+00
  2.50000000E+02  9.00000000E+01  0.00000000E+00
  2.50000000E+02  8.80000000E+01  0.00000000E+00
  2.50000000E+02  8.60000000E+01  0.00000000E+00
  2.50000000E+02  8.40000000E+01  0.00000000E+00
  2.50000000E+02  8.20000000E+01  0.00000000E+00
  2.50000000E+02  8.00000000E+01  0.00000000E+00
  2.50000000E+02  7.80000000E+01  0.00000000E+00
  2.50000000E+02  7.60000000E+01  0.00000000E+00
  2.50000000E+02  7.40000000E+01  0.00000000E+00
  2.50000000E+02  7.20000000E+01  0.00000000E+00
  2.50000000E+02  7.00000000E+01  0.00000000E+00
  2.50000000E+02  6.80000000E+01  0.00000000E+00
  2.50000000E+02  6.60000000E+01  0.00000000E+00
  2.50000000E+02  6.40000000E+01  0.00000000E+00
  2.50000000E+02  6.20000000E+01  0.00000000E+00
  2.50000000E+02  6.00000000E+01  0.00000000E+00
  2.50000000E+02  5.80000000E+01  0.00000000E+00
  2.50000000E+02  5.60000000E+01  0.00000000E+00
  2.50000000E+02  5.40000000E+01  0.00000000E+00
  2.50000000E+02  5.20000000E+01  0.00000000E+00
  2.50000000E+02  5.00000000E+01  0.00000000E+00
  2.50000000E+02  4.80000000E+01  0.00000000E+00
  2.50000000E+02  4.60000000E+01  0.00000000E+00
  2.50000000E+02  4.40000000E+01  0.00000000E+00
  2.50000000E+02  4.20000000E+01  0.00000000E+00
  2.50000000E+02  4.00000000E+01  0.00000000E+00
  2.50000000E+02  3.80000000E+01  0.00000000E+00
  2.50000000E+02  3.60000000E+01  0.00000000E+00
  2.50000000E+02  3.40000000E+01  0.00000000E+00
  2.50000000E+02  3.20000000E+01  0.00000000E+00
  2.50000000E+02  3.00000000E+01  0.00000000E+00
  2.50000000E+02  2.80000000E+01  0.00000000E+00
  2.50000000E+02  2.60000000E+01  0.00000000E+00
  2.50000000E+02  2.40000000E+01  0.00000000E+00
  2.50000000E+02  2.20000000E+01  0.00000000E+00
  2.50000000E+02  2.00000000E+01  0.00000000E+00
  2.50000000E+02  1.80000000E+01  0.00000000E+00
  2.50000000E+02  1.60000000E+01  0.00000000E+00
  2.50000000E+02  1.40000000E+01  0.00000000E+00
  2.50000000E+02  1.20000000E+01  0.00000000E+00
  2.50000000E+02  1.00000000E+01  0.00000000E+00
  2.50000000E+02  8.00000000E+00  0.00000000E+00
  2.50000000E+02  6.00000000E+00  0.00000000E+00
  2.50000000E+02  4.00000000E+00  0.00000000E+00
  2.50000000E+02  2.00000000E+00  0.00000000E+00
  2.50000000E+02 -3.33066907E-14  0.00000000E+00
  2.60000000E+02  1.00000000E+02  0.00000000E+00
  2.60000000E+02  9.80000000E+01  0.00000000E+00
  2.60000000E+02  9.60000000E+01  0.00000000E+00
  2.60000000E+02  9.40000000E+01  0.00000000E+00
  2.60000000E+02  9.20000000E+01  0.00000000E+00
  2.60000000E+02  9.00000000E+01  0.00000000E+00
  2.60000000E+02  8.80000000E+01  0.00000000E+00
  2.60000000E+02  8.60000000E+01  0.00000000E+00
  2.60000000E+02  8.40000000E+01  0.00000000E+00
  2.60000000E+02  8.20000000E+01  0.00000000E+00
  2.60000000E+02  8.00000000E+01  0.00000000E+00
  2.60000000E+02  7.80000000E+01  0.00000000E+00
  2.60000000E+02  7.60000000E+01  0.00000000E+00
  2.60000000E+02  7.40000000E+01  0.00000000E+00
  2.60000000E+02  7.20000000E+01  0.00000000E+00
  2.60000000E+02  7.00000000E+01  0.00000000E+00
  2.60000000E+02  6.80000000E+01  0.00000000E+00
  2.60000000E+02  6.60000000E+01  0.00000000E+00
  2.60000000E+02  6.40000000E+01  0.00000000E+00
  2.60000000E+02  6.20000000E+01  0.00000000E+00
  2.60000000E+02  6.00000000E+01  0.00000000E+00
  2.60000000E+02  5.80000000E+01  0.00000000E+00
  2.60000000E+02  5.60000000E+01  0.00000000E+00
  2.60000000E+02  5.40000000E+01  0.00000000E+00
  2.60000000E+02  5.20000000E+01  0.00000000E+00
  2.60000000E+02  5.00000000E+01  0.00000000E+00
  2.60000000E+02  4.80000000E+01  0.00000000E+00
  2.60000000E+02  4.60000000E+01  0.00000000E+00
  2.60000000E+02  4.40000000E+01  0.00000000E+00
  2.60000000E+02  4.20000000E+01  0.00000000E+00
  2.60000000E+02  4.00000000E+01  0.00000000E+00
  2.60000000E+02  3.80000000E+01  0.00000000E+00
  2.60000000E+02  3.60000000E+01  0.00000000E+00
  2.60000000E+02  3.40000000E+01  0.00000000E+00
  2.60000000E+02  3.20000000E+01  0.00000000E+00
  2.60000000E+02  3.00000000E+01  0.00000000E+00
  2.60000000E+02  2.80000000E+01  0.00000000E+00
  2.60000000E+02  2.60000000E+01  0.00000000E+00
  2.60000000E+02  2.40000000E+01  0.00000000E+00
  2.60000000E+02  2.20000000E+01  0.00000000E+00
  2.60000000E+02  2.00000000E+01  0.00000000E+00
  2.60000000E+02  1.80000000E+01  0.00000000E+00
  2.60000000E+02  1.60000000E+01  0.00000000E+00
  2.60000000E+02  1.40000000E+01  0.00000000E+00
  2.60000000E+02  1.20000000E+01  0.00000000E+00
  2.60000000E+02  1.00000000E+01  0.00000000E+00
  2.60000000E+02  8.00000000E+00  0.00000000E+00
  2.60000000E+02  6.00000000E+00  0.00000000E+00
  2.60000000E+02  4.00000000E+00  0.00000000E+00
  2.60000000E+02  2.00000000E+00  0.00000000E+00
  2.60000000E+02 -3.33066907E-14  0.00000000E+00
  2.70000000E+02  1.00000000E+02  0.00000000E+00
  2.70000000E+02  9.80000000E+01  0.00000000E+00
  2.70000000E+02  9.60000000E+01  0.00000000E+00
  2.70000000E+02  9.40000000E+01  0.00000000E+00
  2.70000000E+02  9.20000000E+01  0.00000000E+00
  2.70000000E+02  9.00000000E+01  0.00000000E+00
  2.70000000E+02  8.80000000E+01  0.00000000E+00
  2.70000000E+02  8.60000000E+01  0.00000000E+00
  2.70000000E+02  8.40000000E+01  0.00000000E+00
  2.70000000E+02  8.20000000E+01  0.00000000E+00
  2.70000000E+02  8.00000000E+01  0.00000000E+00
  2.70000000E+02  7.80000000E+01  0.00000000E+00
  2.70000000E+02  7.60000000E+01  0.00000000E+00
  2.70000000E+02  7.40000000E+01  0.00000000E+00
  2.70000000E+02  7.20000000E+01  0.00000000E+00
  2.70000000E+02  7.00000000E+01  0.00000000E+00
  2.70000000E+02  6.80000000E+01  0.00000000E+00
  2.70000000E+02  6.60000000E+01  0.00000000E+00
  2.70000000E+02  6.40000000E+01  0.00000000E+00
  2.70000000E+02  6.20000000E+01  0.00000000E+00
  2.70000000E+02  6.00000000E+01  0.00000000E+00
  2.70000000E+02  5.80000000E+01  0.00000000E+00
  2.70000000E+02  5.60000000E+01  0.00000000E+00
  2.70000000E+02  5.40000000E+01  0.00000000E+00
  2.70000000E+02  5.20000000E+01  0.00000000E+00
  2.70000000E+02  5.00000000E+01  0.00000000E+00
  2.70000000E+02  4.80000000E+01  0.00000000E+00
  2.70000000E+02  4.60000000E+01  0.00000000E+00
  2.70000000E+02  4.40000000E+01  0.00000000E+00
  2.70000000E+02  4.20000000E+01  0.00000000E+00
  2.70000000E+02  4.00000000E+01  0.00000000E+00
  2.70000000E+02  3.80000000E+01  0.00000000E+00
  2.70000000E+02  3.60000000E+01  0.00000000E+00
  2.70000000E+02  3.40000000E+01  0.00000000E+00
  2.70000000E+02  3.20000000E+01  0.00000000E+00
  2.70000000E+02  3.00000000E+01  0.00000000E+00
  2.70000000E+02  2.80000000E+01  0.00000000E+00
  2.70000000E+02  2.60000000E+01  0.00000000E+00
  2.70000000E+02  2.40000000E+01  0.00000000E+00
  2.70000000E+02  2.20000000E+01  0.00000000E+00
  2.70000000E+02  2.00000000E+01  0.00000000E+00
  2.70000000E+02  1.80000000E+01  0.00000000E+00
  2.70000000E+02  1.60000000E+01  0.00000000E+00
  2.70000000E+02  1.40000000E+01  0.00000000E+00
  2.70000000E+02  1.20000000E+01  0.00000000E+00
  2.70000000E+02  1.00000000E+01  0.00000000E+00
  2.70000000E+02  8.00000000E+00  0.00000000E+00
  2.70000000E+02  6.00000000E+00  0.00000000E+00
  2.70000000E+02  4.00000000E+00  0.00000000E+00
  2.70000000E+02  2.00000000E+00  0.00000000E+00
  2.70000000E+02 -3.33066907E-14  0.00000000E+00
  2.80000000E+02  1.00000000E+02  0.00000000E+00
  2.80000000E+02  9.80000000E+01  0.00000000E+00
  2.80000000E+02  9.60000000E+01  0.00000000E+00
  2.80000000E+02  9.40000000E+01  0.00000000E+00
  2.80000000E+02  9.20000000E+01  0.00000000E+00
  2.80000000E+02  9.00000000E+01  0.00000000E+00
  2.80000000E+02  8.80000000E+01  0.00000000E+00
  2.80000000E+02  8.60000000E+01  0.00000000E+00
  2.80000000E+02  8.40000000E+01  0.00000000E+00
  2.80000000E+02  8.20000000E+01  0.00000000E+00
  2.80000000E+02  8.00000000E+01  0.00000000E+00
  2.80000000E+02  7.80000000E+01  0.00000000E+00
  2.80000000E+02  7.60000000E+01  0.00000000E+00
  2.80000000E+02  7.40000000E+01  0.00000000E+00
  2.80000000E+02  7.20000000E+01  0.00000000E+00
  2.80000000E+02  7.00000000E+01  0.00000000E+00
  2.80000000E+02  6.80000000E+01  0.00000000E+00
  2.80000000E+02  6.60000000E+01  0.00000000E+00
  2.80000000E+02  6.40000000E+01  0.00000000E+00
  2.80000000E+02  6.20000000E+01  0.00000000E+00
  2.80000000E+02  6.00000000E+01  0.00000000E+00
  2.80000000E+02  5.80000000E+01  0.00000000E+00
  2.80000000E+02  5.60000000E+01  0.00000000E+00
  2.80000000E+02  5.40000000E+01  0.00000000E+00
  2.80000000E+02  5.20000000E+01  0.00000000E+00
  2.80000000E+02  5.00000000E+01  0.00000000E+00
  2.80000000E+02  4.80000000E+01  0.00000000E+00
  2.80000000E+02  4.60000000E+01  0.00000000E+00
  2.80000000E+02  4.40000000E+01  0.00000000E+00
  2.80000000E+02  4.20000000E+01  0.00000000E+00
  2.80000000E+02  4.00000000E+01  0.00000000E+00
  2.80000000E+02  3.80000000E+01  0.00000000E+00
  2.80000000E+02  3.60000000E+01  0.00000000E+00
  2.80000000E+02  3.40000000E+01  0.00000000E+00
  2.80000000E+02  3.20000000E+01  0.00000000E+00
  2.80000000E+02  3.00000000E+01  0.00000000E+00
  2.80000000E+02  2.80000000E+01  0.00000000E+00
  2.80000000E+02  2.60000000E+01  0.00000000E+00
  2.80000000E+02  2.40000000E+01  0.00000000E+00
  2.80000000E+02  2.20000000E+01  0.00000000E+00
  2.80000000E+02  2.00000000E+01  0.00000000E+00
  2.80000000E+02  1.80000000E+01  0.00000000E+00
  2.80000000E+02  1.60000000E+01  0.00000000E+00
  2.80000000E+02  1.40000000E+01  0.00000000E+00
  2.80000000E+02  1.20000000E+01  0.00000000E+00
  2.80000000E+02  1.00000000E+01  0.00000000E+00
  2.80000000E+02  8.00000000E+00  0.00000000E+00
  2.80000000E+02  6.00000000E+00  0.00000000E+00
  2.80000000E+02  4.00000000E+00  0.00000000E+00
  2.80000000E+02  2.00000000E+00  0.00000000E+00
  2.80000000E+02 -3.33066907E-14  0.00000000E+00
  2.90000000E+02  1.00000000E+02  0.00000000E+00
  2.90000000E+02  9.80000000E+01  0.00000000E+00
  2.90000000E+02  9.60000000E+01  0.00000000E+00
  2.90000000E+02  9.40000000E+01  0.00000000E+00
  2.90000000E+02  9.20000000E+01  0.00000000E+00
  2.90000000E+02  9.00000000E+01  0.00000000E+00
  2.90000000E+02  8.80000000E+01  0.00000000E+00
  2.90000000E+02  8.60000000E+01  0.00000000E+00
  2.90000000E+02  8.40000000E+01  0.00000000E+00
  2.90000000E+02  8.20000000E+01  0.00000000E+00
  2.90000000E+02  8.00000000E+01  0.00000000E+00
  2.90000000E+02  7.80000000E+01  0.00000000E+00
  2.90000000E+02  7.60000000E+01  0.00000000E+00
  2.90000000E+02  7.40000000E+01  0.00000000E+00
  2.90000000E+02  7.20000000E+01  0.00000000E+00
  2.90000000E+02  7.00000000E+01  0.00000000E+00
  2.90000000E+02  6.80000000E+01  0.00000000E+00
  2.90000000E+02  6.60000000E+01  0.00000000E+00
  2.90000000E+02  6.40000000E+01  0.00000000E+00
  2.90000000E+02  6.20000000E+01  0.00000000E+00
  2.90000000E+02  6.00000000E+01  0.00000000E+00
  2.90000000E+02  5.80000000E+01  0.00000000E+00
  2.90000000E+02  5.60000000E+01  0.00000000E+00
  2.90000000E+02  5.40000000E+01  0.00000000E+00
  2.90000000E+02  5.20000000E+01  0.00000000E+00
  2.90000000E+02  5.00000000E+01  0.00000000E+00
  2.90000000E+02  4.80000000E+01  0.00000000E+00
  2.90000000E+02  4.60000000E+01  0.00000000E+00
  2.90000000E+02  4.40000000E+01  0.00000000E+00
  2.90000000E+02  4.20000000E+01  0.00000000E+00
  2.90000000E+02  4.00000000E+01  0.00000000E+00
  2.90000000E+02  3.80000000E+01  0.00000000E+00
  2.90000000E+02  3.60000000E+01  0.00000000E+00
  2.90000000E+02  3.40000000E+01  0.00000000E+00
  2.90000000E+02  3.20000000E+01  0.00000000E+00
  2.90000000E+02  3.00000000E+01  0.00000000E+00
  2.90000000E+02  2.80000000E+01  0.00000000E+00
  2.90000000E+02  2.60000000E+01  0.00000000E+00
  2.90000000E+02  2.40000000E+01  0.00000000E+00
  2.90000000E+02  2.20000000E+01  0.00000000E+00
  2.90000000E+02  2.00000000E+01  0.00000000E+00
  2.90000000E+02  1.80000000E+01  0.00000000E+00
  2.90000000E+02  1.60000000E+01  0.00000000E+00
  2.90000000E+02  1.40000000E+01  0.00000000E+00
  2.90000000E+02  1.20000000E+01  0.00000000E+00
  2.90000000E+02  1.00000000E+01  0.00000000E+00
  2.90000000E+02  8.00000000E+00  0.00000000E+00
  2.90000000E+02  6.00000000E+00  0.00000000E+00
  2.90000000E+02  4.00000000E+00  0.00000000E+00
  2.90000000E+02  2.00000000E+00  0.00000000E+00
  2.90000000E+02 -3.33066907E-14  0.00000000E+00
  3.00000000E+02  1.00000000E+02  0.00000000E+00
  3.00000000E+02  9.80000000E+01  0.00000000E+00
  3.00000000E+02  9.60000000E+01  0.00000000E+00
  3.00000000E+02  9.40000000E+01  0.00000000E+00
  3.00000000E+02  9.20000000E+01  0.00000000E+00
  3.00000000E+02  9.00000000E+01  0.00000000E+00
  3.00000000E+02  8.80000000E+01  0.00000000E+00
  3.00000000E+02  8.60000000E+01  0.00000000E+00
  3.00000000E+02  8.40000000E+01  0.00000000E+00
  3.00000000E+02  8.20000000E+01  0.00000000E+00
  3.00000000E+02  8.00000000E+01  0.00000000E+00
  3.00000000E+02  7.80000000E+01  0.00000000E+00
  3.00000000E+02  7.60000000E+01  0.00000000E+00
  3.00000000E+02  7.40000000E+01  0.00000000E+00
  3.00000000E+02  7.20000000E+01  0.00000000E+00
  3.00000000E+02  7.00000000E+01  0.00000000E+00
  3.00000000E+02  6.80000000E+01  0.00000000E+00
  3.00000000E+02  6.60000000E+01  0.00000000E+00
  3.00000000E+02  6.40000000E+01  0.00000000E+00
  3.00000000E+02  6.20000000E+01  0.00000000E+00
  3.00000000E+02  6.00000000E+01  0.00000000E+00
  3.00000000E+02  5.80000000E+01  0.00000000E+00
  3.00000000E+02  5.60000000E+01  0.00000000E+00
  3.00000000E+02  5.40000000E+01  0.00000000E+00
  3.00000000E+02  5.20000000E+01  0.00000000E+00
  3.00000000E+02  5.00000000E+01  0.00000000E+00
  3.00000000E+02  4.80000000E+01  0.00000000E+00
  3.00000000E+02  4.60000000E+01  0.00000000E+00
  3.00000000E+02  4.40000000E+01  0.00000000E+00
  3.00000000E+02  4.20000000E+01  0.00000000E+00
  3.00000000E+02  4.00000000E+01  0.00000000E+00
  3.00000000E+02  3.80000000E+01  0.00000000E+00
  3.00000000E+02  3.60000000E+01  0.00000000E+00
  3.00000000E+02  3.40000000E+01  0.00000000E+00
  3.00000000E+02  3.20000000E+01  0.00000000E+00
  3.00000000E+02  3.00000000E+01  0.00000000E+00
  3.00000000E+02  2.80000000E+01  0.00000000E+00
  3.00000000E+02  2.60000000E+01  0.00000000E+00
  3.00000000E+02  2.40000000E+01  0.00000000E+00
  3.00000000E+02  2.20000000E+01  0.00000000E+00
  3.00000000E+02  2.00000000E+01  0.00000000E+00
  3.00000000E+02  1.80000000E+01  0.00000000E+00
  3.00000000E+02  1.60000000E+01  0.00000000E+00
  3.00000000E+02  1.40000000E+01  0.00000000E+00
  3.00000000E+02  1.20000000E+01  0.00000000E+00
  3.00000000E+02  1.00000000E+01  0.00000000E+00
  3.00000000E+02  8.00000000E+00  0.00000000E+00
  3.00000000E+02  6.00000000E+00  0.00000000E+00
  3.00000000E+02  4.00000000E+00  0.00000000E+00
  3.00000000E+02  2.00000000E+00  0.00000000E+00
  3.00000000E+02 -3.33066907E-14  0.00000000E+00
  3.10000000E+02  1.00000000E+02  0.00000000E+00
  3.10000000E+02  9.80000000E+01  0.00000000E+00
  3.10000000E+02  9.60000000E+01  0.00000000E+00
  3.10000000E+02  9.40000000E+01  0.00000000E+00
  3.10000000E+02  9.20000000E+01  0.00000000E+00
  3.10000000E+02  9.00000000E+01  0.00000000E+00
  3.10000000E+02  8.80000000E+01  0.00000000E+00
  3.10000000E+02  8.60000000E+01  0.00000000E+00
  3.10000000E+02  8.40000000E+01  0.00000000E+00
  3.10000000E+02  8.20000000E+01  0.00000000E+00
  3.10000000E+02  8.00000000E+01  0.00000000E+00
  3.10000000E+02  7.80000000E+01  0.00000000E+00
  3.10000000E+02  7.60000000E+01  0.00000000E+00
  3.10000000E+02  7.40000000E+01  0.00000000E+00
  3.10000000E+02  7.20000000E+01  0.00000000E+00
  3.10000000E+02  7.00000000E+01  0.00000000E+00
  3.10000000E+02  6.80000000E+01  0.00000000E+00
  3.10000000E+02  6.60000000E+01  0.00000000E+00
  3.10000000E+02  6.40000000E+01  0.00000000E+00
  3.10000000E+02  6.20000000E+01  0.00000000E+00
  3.10000000E+02  6.00000000E+01  0.00000000E+00
  3.10000000E+02  5.80000000E+01  0.00000000E+00
  3.10000000E+02  5.60000000E+01  0.00000000E+00
  3.10000000E+02  5.40000000E+01  0.00000000E+00
  3.10000000E+02  5.20000000E+01  0.00000000E+00
  3.10000000E+02  5.00000000E+01  0.00000000E+00
  3.10000000E+02  4.80000000E+01  0.00000000E+00
  3.10000000E+02  4.60000000E+01  0.00000000E+00
  3.10000000E+02  4.40000000E+01  0.00000000E+00
  3.10000000E+02  4.20000000E+01  0.00000000E+00
  3.10000000E+02  4.00000000E+01  0.00000000E+00
  3.10000000E+02  3.80000000E+01  0.00000000E+00
  3.10000000E+02  3.60000000E+01  0.00000000E+00
  3.10000000E+02  3.40000000E+01  0.00000000E+00
  3.10000000E+02  3.20000000E+01  0.00000000E+00
  3.10000000E+02  3.00000000E+01  0.00000000E+00
  3.10000000E+02  2.80000000E+01  0.00000000E+00
  3.10000000E+02  2.60000000E+01  0.00000000E+00
  3.10000000E+02  2.40000000E+01  0.00000000E+00
  3.10000000E+02  2.20000000E+01  0.00000000E+00
  3.10000000E+02  2.00000000E+01  0.00000000E+00
  3.10000000E+02  1.80000000E+01  0.00000000E+00
  3.10000000E+02  1.60000000E+01  0.00000000E+00
  3.10000000E+02  1.40000000E+01  0.00000000E+00
  3.10000000E+02  1.20000000E+01  0.00000000E+00
  3.10000000E+02  1.00000000E+01  0.00000000E+00
  3.10000000E+02  8.00000000E+00  0.00000000E+00
  3.10000000E+02  6.00000000E+00  0.00000000E+00
  3.10000000E+02  4.00000000E+00  0.00000000E+00
  3.10000000E+02  2.00000000E+00  0.00000000E+00
  3.10000000E+02 -3.33066907E-14  0.00000000E+00
  3.20000000E+02  1.00000000E+02  0.00000000E+00
  3.20000000E+02  9.80000000E+01  0.00000000E+00
  3.20000000E+02  9.60000000E+01  0.00000000E+00
  3.20000000E+02  9.40000000E+01  0.00000000E+00
  3.20000000E+02  9.20000000E+01  0.00000000E+00
  3.20000000E+02  9.00000000E+01  0.00000000E+00
  3.20000000E+02  8.80000000E+01  0.00000000E+00
  3.20000000E+02  8.60000000E+01  0.00000000E+00
  3.20000000E+02  8.40000000E+01  0.00000000E+00
  3.20000000E+02  8.20000000E+01  0.00000000E+00
  3.20000000E+02  8.00000000E+01  0.00000000E+00
  3.20000000E+02  7.80000000E+01  0.00000000E+00
  3.20000000E+02  7.60000000E+01  0.00000000E+00
  3.20000000E+02  7.40000000E+01  0.00000000E+00
  3.20000000E+02  7.20000000E+01  0.00000000E+00
  3.20000000E+02  7.00000000E+01  0.00000000E+00
  3.20000000E+02  6.80000000E+01  0.00000000E+00
  3.20000000E+02  6.60000000E+01  0.00000000E+00
  3.20000000E+02  6.40000000E+01  0.00000000E+00
  3.20000000E+02  6.20000000E+01  0.00000000E+00
  3.20000000E+02  6.00000000E+01  0.00000000E+00
  3.20000000E+02  5.80000000E+01  0.00000000E+00
  3.20000000E+02  5.60000000E+01  0.00000000E+00
  3.20000000E+02  5.40000000E+01  0.00000000E+00
  3.20000000E+02  5.20000000E+01  0.00000000E+00
  3.20000000E+02  5.00000000E+01  0.00000000E+00
  3.20000000E+02  4.80000000E+01  0.00000000E+00
  3.20000000E+02  4.60000000E+01  0.00000000E+00
  3.20000000E+02  4.40000000E+01  0.00000000E+00
  3.20000000E+02  4.20000000E+01  0.00000000E+00
  3.20000000E+02  4.00000000E+01  0.00000000E+00
  3.20000000E+02  3.80000000E+01  0.00000000E+00
  3.20000000E+02  3.60000000E+01  0.00000000E+00
  3.20000000E+02  3.40000000E+01  0.00000000E+00
  3.20000000E+02  3.20000000E+01  0.00000000E+00
  3.20000000E+02  3.00000000E+01  0.00000000E+00
  3.20000000E+02  2.80000000E+01  0.00000000E+00
  3.20000000E+02  2.60000000E+01  0.00000000E+00
  3.20000000E+02  2.40000000E+01  0.00000000E+00
  3.20000000E+02  2.20000000E+01  0.00000000E+00
  3.20000000E+02  2.00000000E+01  0.00000000E+00
  3.20000000E+02  1.80000000E+01  0.00000000E+00
  3.20000000E+02  1.60000000E+01  0.00000000E+00
  3.20000000E+02  1.40000000E+01  0.00000000E+00
  3.20000000E+02  1.20000000E+01  0.00000000E+00
  3.20000000E+02  1.00000000E+01  0.00000000E+00
  3.20000000E+02  8.00000000E+00  0.00000000E+00
  3.20000000E+02  6.00000000E+00  0.00000000E+00
  3.20000000E+02  4.00000000E+00  0.00000000E+00
  3.20000000E+02  2.00000000E+00  0.00000000E+00
  3.20000000E+02 -3.33066907E-14  0.00000000E+00
  3.30000000E+02  1.00000000E+02  0.00000000E+00
  3.30000000E+02  9.80000000E+01  0.00000000E+00
  3.30000000E+02  9.60000000E+01  0.00000000E+00
  3.30000000E+02  9.40000000E+01  0.00000000E+00
  3.30000000E+02  9.20000000E+01  0.00000000E+00
  3.30000000E+02  9.00000000E+01  0.00000000E+00
  3.30000000E+02  8.80000000E+01  0.00000000E+00
  3.30000000E+02  8.60000000E+01  0.00000000E+00
  3.30000000E+02  8.40000000E+01  0.00000000E+00
  3.30000000E+02  8.20000000E+01  0.00000000E+00
  3.30000000E+02  8.00000000E+01  0.00000000E+00
  3.30000000E+02  7.80000000E+01  0.00000000E+00
  3.30000000E+02  7.60000000E+01  0.00000000E+00
  3.30000000E+02  7.40000000E+01  0.00000000E+00
  3.30000000E+02  7.20000000E+01  0.00000000E+00
  3.30000000E+02  7.00000000E+01  0.00000000E+00
  3.30000000E+02  6.80000000E+01  0.00000000E+00
  3.30000000E+02  6.60000000E+01  0.00000000E+00
  3.30000000E+02  6.40000000E+01  0.00000000E+00
  3.30000000E+02  6.20000000E+01  0.00000000E+00
  3.30000000E+02  6.00000000E+01  0.00000000E+00
  3.30000000E+02  5.80000000E+01  0.00000000E+00
  3.30000000E+02  5.60000000E+01  0.00000000E+00
  3.30000000E+02  5.40000000E+01  0.00000000E+00
  3.30000000E+02  5.20000000E+01  0.00000000E+00
  3.30000000E+02  5.00000000E+01  0.00000000E+00
  3.30000000E+02  4.80000000E+01  0.00000000E+00
  3.30000000E+02  4.60000000E+01  0.00000000E+00
  3.30000000E+02  4.40000000E+01  0.00000000E+00
  3.30000000E+02  4.20000000E+01  0.00000000E+00
  3.30000000E+02  4.00000000E+01  0.00000000E+00
  3.30000000E+02  3.80000000E+01  0.00000000E+00
  3.30000000E+02  3.60000000E+01  0.00000000E+00
  3.30000000E+02  3.40000000E+01  0.00000000E+00
  3.30000000E+02  3.20000000E+01  0.00000000E+00
  3.30000000E+02  3.00000000E+01  0.00000000E+00
  3.30000000E+02  2.80000000E+01  0.00000000E+00
  3.30000000E+02  2.60000000E+01  0.00000000E+00
  3.30000000E+02  2.40000000E+01  0.00000000E+00
  3.30000000E+02  2.20000000E+01  0.00000000E+00
  3.30000000E+02  2.00000000E+01  0.00000000E+00
  3.30000000E+02  1.80000000E+01  0.00000000E+00
  3.30000000E+02  1.60000000E+01  0.00000000E+00
  3.30000000E+02  1.40000000E+01  0.00000000E+00
  3.30000000E+02  1.20000000E+01  0.00000000E+00
  3.30000000E+02  1.00000000E+01  0.00000000E+00
  3.30000000E+02  8.00000000E+00  0.00000000E+00
  3.30000000E+02  6.00000000E+00  0.00000000E+00
  3.30000000E+02  4.00000000E+00  0.00000000E+00
  3.30000000E+02  2.00000000E+00  0.00000000E+00
  3.30000000E+02 -3.33066907E-14  0.00000000E+00
  3.40000000E+02  1.00000000E+02  0.00000000E+00
  3.40000000E+02  9.80000000E+01  0.00000000E+00
  3.40000000E+02  9.60000000E+01  0.00000000E+00
  3.40000000E+02  9.40000000E+01  0.00000000E+00
  3.40000000E+02  9.20000000E+01  0.00000000E+00
  3.40000000E+02  9.00000000E+01  0.00000000E+00
  3.40000000E+02  8.80000000E+01  0.00000000E+00
  3.40000000E+02  8.60000000E+01  0.00000000E+00
  3.40000000E+02  8.40000000E+01  0.00000000E+00
  3.40000000E+02  8.20000000E+01  0.00000000E+00
  3.40000000E+02  8.00000000E+01  0.00000000E+00
  3.40000000E+02  7.80000000E+01  0.00000000E+00
  3.40000000E+02  7.60000000E+01  0.00000000E+00
  3.40000000E+02  7.40000000E+01  0.00000000E+00
  3.40000000E+02  7.20000000E+01  0.00000000E+00
  3.40000000E+02  7.00000000E+01  0.00000000E+00
  3.40000000E+02  6.80000000E+01  0.00000000E+00
  3.40000000E+02  6.60000000E+01  0.00000000E+00
  3.40000000E+02  6.40000000E+01  0.00000000E+00
  3.40000000E+02  6.20000000E+01  0.00000000E+00
  3.40000000E+02  6.00000000E+01  0.00000000E+00
  3.40000000E+02  5.80000000E+01  0.00000000E+00
  3.40000000E+02  5.60000000E+01  0.00000000E+00
  3.40000000E+02  5.40000000E+01  0.00000000E+00
  3.40000000E+02  5.20000000E+01  0.00000000E+00
  3.40000000E+02  5.00000000E+01  0.00000000E+00
  3.40000000E+02  4.80000000E+01  0.00000000E+00
  3.40000000E+02  4.60000000E+01  0.00000000E+00
  3.40000000E+02  4.40000000E+01  0.00000000E+00
  3.40000000E+02  4.20000000E+01  0.00000000E+00
  3.40000000E+02  4.00000000E+01  0.00000000E+00
  3.40000000E+02  3.80000000E+01  0.00000000E+00
  3.40000000E+02  3.60000000E+01  0.00000000E+00
  3.40000000E+02  3.40000000E+01  0.00000000E+00
  3.40000000E+02  3.20000000E+01  0.00000000E+00
  3.40000000E+02  3.00000000E+01  0.00000000E+00
  3.40000000E+02  2.80000000E+01  0.00000000E+00
  3.40000000E+02  2.60000000E+01  0.00000000E+00
  3.40000000E+02  2.40000000E+01  0.00000000E+00
  3.40000000E+02  2.20000000E+01  0.00000000E+00
  3.40000000E+02  2.00000000E+01  0.00000000E+00
  3.40000000E+02  1.80000000E+01  0.00000000E+00
  3.40000000E+02  1.60000000E+01  0.00000000E+00
  3.40000000E+02  1.40000000E+01  0.00000000E+00
  3.40000000E+02  1.20000000E+01  0.00000000E+00
  3.40000000E+02  1.00000000E+01  0.00000000E+00
  3.40000000E+02  8.00000000E+00  0.00000000E+00
  3.40000000E+02  6.00000000E+00  0.00000000E+00
  3.40000000E+02  4.00000000E+00  0.00000000E+00
  3.40000000E+02  2.00000000E+00  0.00000000E+00
  3.40000000E+02 -3.33066907E-14  0.00000000E+00
  3.50000000E+02  1.00000000E+02  0.00000000E+00
  3.50000000E+02  9.80000000E+01  0.00000000E+00
  3.50000000E+02  9.60000000E+01  0.00000000E+00
  3.50000000E+02  9.40000000E+01  0.00000000E+00
  3.50000000E+02  9.20000000E+01  0.00000000E+00
  3.50000000E+02  9.00000000E+01  0.00000000E+00
  3.50000000E+02  8.80000000E+01  0.00000000E+00
  3.50000000E+02  8.60000000E+01  0.00000000E+00
  3.50000000E+02  8.40000000E+01  0.00000000E+00
  3.50000000E+02  8.20000000E+01  0.00000000E+00
  3.50000000E+02  8.00000000E+01  0.00000000E+00
  3.50000000E+02  7.80000000E+01  0.00000000E+00
  3.50000000E+02  7.60000000E+01  0.00000000E+00
  3.50000000E+02  7.40000000E+01  0.00000000E+00
  3.50000000E+02  7.20000000E+01  0.00000000E+00
  3.50000000E+02  7.00000000E+01  0.00000000E+00
  3.50000000E+02  6.80000000E+01  0.00000000E+00
  3.50000000E+02  6.60000000E+01  0.00000000E+00
  3.50000000E+02  6.40000000E+01  0.00000000E+00
  3.50000000E+02  6.20000000E+01  0.00000000E+00
  3.50000000E+02  6.00000000E+01  0.00000000E+00
  3.50000000E+02  5.80000000E+01  0.00000000E+00
  3.50000000E+02  5.60000000E+01  0.00000000E+00
  3.50000000E+02  5.40000000E+01  0.00000000E+00
  3.50000000E+02  5.20000000E+01  0.00000000E+00
  3.50000000E+02  5.00000000E+01  0.00000000E+00
  3.50000000E+02  4.80000000E+01  0.00000000E+00
  3.50000000E+02  4.60000000E+01  0.00000000E+00
  3.50000000E+02  4.40000000E+01  0.00000000E+00
  3.50000000E+02  4.20000000E+01  0.00000000E+00
  3.50000000E+02  4.00000000E+01  0.00000000E+00
  3.50000000E+02  3.80000000E+01  0.00000000E+00
  3.50000000E+02  3.60000000E+01  0.00000000E+00
  3.50000000E+02  3.40000000E+01  0.00000000E+00
  3.50000000E+02  3.20000000E+01  0.00000000E+00
  3.50000000E+02  3.00000000E+01  0.00000000E+00
  3.50000000E+02  2.80000000E+01  0.00000000E+00
  3.50000000E+02  2.60000000E+01  0.00000000E+00
  3.50000000E+02  2.40000000E+01  0.00000000E+00
  3.50000000E+02  2.20000000E+01  0.00000000E+00
  3.50000000E+02  2.00000000E+01  0.00000000E+00
  3.50000000E+02  1.80000000E+01  0.00000000E+00
  3.50000000E+02  1.60000000E+01  0.00000000E+00
  3.50000000E+02  1.40000000E+01  0.00000000E+00
  3.50000000E+02  1.20000000E+01  0.00000000E+00
  3.50000000E+02  1.00000000E+01  0.00000000E+00
  3.50000000E+02  8.00000000E+00  0.00000000E+00
  3.50000000E+02  6.00000000E+00  0.00000000E+00
  3.50000000E+02  4.00000000E+00  0.00000000E+00
  3.50000000E+02  2.00000000E+00  0.00000000E+00
  3.50000000E+02 -3.33066907E-14  0.00000000E+00
  3.60000000E+02  1.00000000E+02  0.00000000E+00
  3.60000000E+02  9.80000000E+01  0.00000000E+00
  3.60000000E+02  9.60000000E+01  0.00000000E+00
  3.60000000E+02  9.40000000E+01  0.00000000E+00
  3.60000000E+02  9.20000000E+01  0.00000000E+00
  3.60000000E+02  9.00000000E+01  0.00000000E+00
  3.60000000E+02  8.80000000E+01  0.00000000E+00
  3.60000000E+02  8.60000000E+01  0.00000000E+00
  3.60000000E+02  8.40000000E+01  0.00000000E+00
  3.60000000E+02  8.20000000E+01  0.00000000E+00
  3.60000000E+02  8.00000000E+01  0.00000000E+00
  3.60000000E+02  7.80000000E+01  0.00000000E+00
  3.60000000E+02  7.60000000E+01  0.00000000E+00
  3.60000000E+02  7.40000000E+01  0.00000000E+00
  3.60000000E+02  7.20000000E+01  0.00000000E+00
  3.60000000E+02  7.00000000E+01  0.00000000E+00
  3.60000000E+02  6.80000000E+01  0.00000000E+00
  3.60000000E+02  6.60000000E+01  0.00000000E+00
  3.60000000E+02  6.40000000E+01  0.00000000E+00
  3.60000000E+02  6.20000000E+01  0.00000000E+00
  3.60000000E+02  6.00000000E+01  0.00000000E+00
  3.60000000E+02  5.80000000E+01  0.00000000E+00
  3.60000000E+02  5.60000000E+01  0.00000000E+00
  3.60000000E+02  5.40000000E+01  0.00000000E+00
  3.60000000E+02  5.20000000E+01  0.00000000E+00
  3.60000000E+02  5.00000000E+01  0.00000000E+00
  3.60000000E+02  4.80000000E+01  0.00000000E+00
  3.60000000E+02  4.60000000E+01  0.00000000E+00
  3.60000000E+02  4.40000000E+01  0.00000000E+00
  3.60000000E+02  4.20000000E+01  0.00000000E+00
  3.60000000E+02  4.00000000E+01  0.00000000E+00
  3.60000000E+02  3.80000000E+01  0.00000000E+00
  3.60000000E+02  3.60000000E+01  0.00000000E+00
  3.60000000E+02  3.40000000E+01  0.00000000E+00
  3.60000000E+02  3.20000000E+01  0.00000000E+00
  3.60000000E+02  3.00000000E+01  0.00000000E+00
  3.60000000E+02  2.80000000E+01  0.00000000E+00
  3.60000000E+02  2.60000000E+01  0.00000000E+00
  3.60000000E+02  2.40000000E+01  0.00000000E+00
  3.60000000E+02  2.20000000E+01  0.00000000E+00
  3.60000000E+02  2.00000000E+01  0.00000000E+00
  3.60000000E+02  1.80000000E+01  0.00000000E+00
  3.60000000E+02  1.60000000E+01  0.00000000E+00
  3.60000000E+02  1.40000000E+01  0.00000000E+00
  3.60000000E+02  1.20000000E+01  0.00000000E+00
  3.60000000E+02  1.00000000E+01  0.00000000E+00
  3.60000000E+02  8.00000000E+00  0.00000000E+00
  3.60000000E+02  6.00000000E+00  0.00000000E+00
  3.60000000E+02  4.00000000E+00  0.00000000E+00
  3.60000000E+02  2.00000000E+00  0.00000000E+00
  3.60000000E+02 -3.33066907E-14  0.00000000E+00
  3.70000000E+02  1.00000000E+02  0.00000000E+00
  3.70000000E+02  9.80000000E+01  0.00000000E+00
  3.70000000E+02  9.60000000E+01  0.00000000E+00
  3.70000000E+02  9.40000000E+01  0.00000000E+00
  3.70000000E+02  9.20000000E+01  0.00000000E+00
  3.70000000E+02  9.00000000E+01  0.00000000E+00
  3.70000000E+02  8.80000000E+01  0.00000000E+00
  3.70000000E+02  8.60000000E+01  0.00000000E+00
  3.70000000E+02  8.40000000E+01  0.00000000E+00
  3.70000000E+02  8.20000000E+01  0.00000000E+00
  3.70000000E+02  8.00000000E+01  0.00000000E+00
  3.70000000E+02  7.80000000E+01  0.00000000E+00
  3.70000000E+02  7.60000000E+01  0.00000000E+00
  3.70000000E+02  7.40000000E+01  0.00000000E+00
  3.70000000E+02  7.20000000E+01  0.00000000E+00
  3.70000000E+02  7.00000000E+01  0.00000000E+00
  3.70000000E+02  6.80000000E+01  0.00000000E+00
  3.70000000E+02  6.60000000E+01  0.00000000E+00
  3.70000000E+02  6.40000000E+01  0.00000000E+00
  3.70000000E+02  6.20000000E+01  0.00000000E+00
  3.70000000E+02  6.00000000E+01  0.00000000E+00
  3.70000000E+02  5.80000000E+01  0.00000000E+00
  3.70000000E+02  5.60000000E+01  0.00000000E+00
  3.70000000E+02  5.40000000E+01  0.00000000E+00
  3.70000000E+02  5.20000000E+01  0.00000000E+00
  3.70000000E+02  5.00000000E+01  0.00000000E+00
  3.70000000E+02  4.80000000E+01  0.00000000E+00
  3.70000000E+02  4.60000000E+01  0.00000000E+00
  3.70000000E+02  4.40000000E+01  0.00000000E+00
  3.70000000E+02  4.20000000E+01  0.00000000E+00
  3.70000000E+02  4.00000000E+01  0.00000000E+00
  3.70000000E+02  3.80000000E+01  0.00000000E+00
  3.70000000E+02  3.60000000E+01  0.00000000E+00
  3.70000000E+02  3.40000000E+01  0.00000000E+00
  3.70000000E+02  3.20000000E+01  0.00000000E+00
  3.70000000E+02  3.00000000E+01  0.00000000E+00
  3.70000000E+02  2.80000000E+01  0.00000000E+00
  3.70000000E+02  2.60000000E+01  0.00000000E+00
  3.70000000E+02  2.40000000E+01  0.00000000E+00
  3.70000000E+02  2.20000000E+01  0.00000000E+00
  3.70000000E+02  2.00000000E+01  0.00000000E+00
  3.70000000E+02  1.80000000E+01  0.00000000E+00
  3.70000000E+02  1.60000000E+01  0.00000000E+00
  3.70000000E+02  1.40000000E+01  0.00000000E+00
  3.70000000E+02  1.20000000E+01  0.00000000E+00
  3.70000000E+02  1.00000000E+01  0.00000000E+00
  3.70000000E+02  8.00000000E+00  0.00000000E+00
  3.70000000E+02  6.00000000E+00  0.00000000E+00
  3.70000000E+02  4.00000000E+00  0.00000000E+00
  3.70000000E+02  2.00000000E+00  0.00000000E+00
  3.70000000E+02 -3.33066907E-14  0.00000000E+00
  3.80000000E+02  1.00000000E+02  0.00000000E+00
  3.80000000E+02  9.80000000E+01  0.00000000E+00
  3.80000000E+02  9.60000000E+01  0.00000000E+00
  3.80000000E+02  9.40000000E+01  0.00000000E+00
  3.80000000E+02  9.20000000E+01  0.00000000E+00
  3.80000000E+02  9.00000000E+01  0.00000000E+00
  3.80000000E+02  8.80000000E+01  0.00000000E+00
  3.80000000E+02  8.60000000E+01  0.00000000E+00
  3.80000000E+02  8.40000000E+01  0.00000000E+00
  3.80000000E+02  8.20000000E+01  0.00000000E+00
  3.80000000E+02  8.00000000E+01  0.00000000E+00
  3.80000000E+02  7.80000000E+01  0.00000000E+00
  3.80000000E+02  7.60000000E+01  0.00000000E+00
  3.80000000E+02  7.40000000E+01  0.00000000E+00
  3.80000000E+02  7.20000000E+01  0.00000000E+00
  3.80000000E+02  7.00000000E+01  0.00000000E+00
  3.80000000E+02  6.80000000E+01  0.00000000E+00
  3.80000000E+02  6.60000000E+01  0.00000000E+00
  3.80000000E+02  6.40000000E+01  0.00000000E+00
  3.80000000E+02  6.20000000E+01  0.00000000E+00
  3.80000000E+02  6.00000000E+01  0.00000000E+00
  3.80000000E+02  5.80000000E+01  0.00000000E+00
  3.80000000E+02  5.60000000E+01  0.00000000E+00
  3.80000000E+02  5.40000000E+01  0.00000000E+00
  3.80000000E+02  5.20000000E+01  0.00000000E+00
  3.80000000E+02  5.00000000E+01  0.00000000E+00
  3.80000000E+02  4.80000000E+01  0.00000000E+00
  3.80000000E+02  4.60000000E+01  0.00000000E+00
  3.80000000E+02  4.40000000E+01  0.00000000E+00
  3.80000000E+02  4.20000000E+01  0.00000000E+00
  3.80000000E+02  4.00000000E+01  0.00000000E+00
  3.80000000E+02  3.80000000E+01  0.00000000E+00
  3.80000000E+02  3.60000000E+01  0.00000000E+00
  3.80000000E+02  3.40000000E+01  0.00000000E+00
  3.80000000E+02  3.20000000E+01  0.00000000E+00
  3.80000000E+02  3.00000000E+01  0.00000000E+00
  3.80000000E+02  2.80000000E+01  0.00000000E+00
  3.80000000E+02  2.60000000E+01  0.00000000E+00
  3.80000000E+02  2.40000000E+01  0.00000000E+00
  3.80000000E+02  2.20000000E+01  0.00000000E+00
  3.80000000E+02  2.00000000E+01  0.00000000E+00
  3.80000000E+02  1.80000000E+01  0.00000000E+00
  3.80000000E+02  1.60000000E+01  0.00000000E+00
  3.80000000E+02  1.40000000E+01  0.00000000E+00
  3.80000000E+02  1.20000000E+01  0.00000000E+00
  3.80000000E+02  1.00000000E+01  0.00000000E+00
  3.80000000E+02  8.00000000E+00  0.00000000E+00
  3.80000000E+02  6.00000000E+00  0.00000000E+00
  3.80000000E+02  4.00000000E+00  0.00000000E+00
  3.80000000E+02  2.00000000E+00  0.00000000E+00
  3.80000000E+02 -3.33066907E-14  0.00000000E+00
  3.90000000E+02  1.00000000E+02  0.00000000E+00
  3.90000000E+02  9.80000000E+01  0.00000000E+00
  3.90000000E+02  9.60000000E+01  0.00000000E+00
  3.90000000E+02  9.40000000E+01  0.00000000E+00
  3.90000000E+02  9.20000000E+01  0.00000000E+00
  3.90000000E+02  9.00000000E+01  0.00000000E+00
  3.90000000E+02  8.80000000E+01  0.00000000E+00
  3.90000000E+02  8.60000000E+01  0.00000000E+00
  3.90000000E+02  8.40000000E+01  0.00000000E+00
  3.90000000E+02  8.20000000E+01  0.00000000E+00
  3.90000000E+02  8.00000000E+01  0.00000000E+00
  3.90000000E+02  7.80000000E+01  0.00000000E+00
  3.90000000E+02  7.60000000E+01  0.00000000E+00
  3.90000000E+02  7.40000000E+01  0.00000000E+00
  3.90000000E+02  7.20000000E+01  0.00000000E+00
  3.90000000E+02  7.00000000E+01  0.00000000E+00
  3.90000000E+02  6.80000000E+01  0.00000000E+00
  3.90000000E+02  6.60000000E+01  0.00000000E+00
  3.90000000E+02  6.40000000E+01  0.00000000E+00
  3.90000000E+02  6.20000000E+01  0.00000000E+00
  3.90000000E+02  6.00000000E+01  0.00000000E+00
  3.90000000E+02  5.80000000E+01  0.00000000E+00
  3.90000000E+02  5.60000000E+01  0.00000000E+00
  3.90000000E+02  5.40000000E+01  0.00000000E+00
  3.90000000E+02  5.20000000E+01  0.00000000E+00
  3.90000000E+02  5.00000000E+01  0.00000000E+00
  3.90000000E+02  4.80000000E+01  0.00000000E+00
  3.90000000E+02  4.60000000E+01  0.00000000E+00
  3.90000000E+02  4.40000000E+01  0.00000000E+00
  3.90000000E+02  4.20000000E+01  0.00000000E+00
  3.90000000E+02  4.00000000E+01  0.00000000E+00
  3.90000000E+02  3.80000000E+01  0.00000000E+00
  3.90000000E+02  3.60000000E+01  0.00000000E+00
  3.90000000E+02  3.40000000E+01  0.00000000E+00
  3.90000000E+02  3.20000000E+01  0.00000000E+00
  3.90000000E+02  3.00000000E+01  0.00000000E+00
  3.90000000E+02  2.80000000E+01  0.00000000E+00
  3.90000000E+02  2.60000000E+01  0.00000000E+00
  3.90000000E+02  2.40000000E+01  0.00000000E+00
  3.90000000E+02  2.20000000E+01  0.00000000E+00
  3.90000000E+02  2.00000000E+01  0.00000000E+00
  3.90000000E+02  1.80000000E+01  0.00000000E+00
  3.90000000E+02  1.60000000E+01  0.00000000E+00
  3.90000000E+02  1.40000000E+01  0.00000000E+00
  3.90000000E+02  1.20000000E+01  0.00000000E+00
  3.90000000E+02  1.00000000E+01  0.00000000E+00
  3.90000000E+02  8.00000000E+00  0.00000000E+00
  3.90000000E+02  6.00000000E+00  0.00000000E+00
  3.90000000E+02  4.00000000E+00  0.00000000E+00
  3.90000000E+02  2.00000000E+00  0.00000000E+00
  3.90000000E+02 -3.33066907E-14  0.00000000E+00
  4.00000000E+02  1.00000000E+02  0.00000000E+00
  4.00000000E+02  9.80000000E+01  0.00000000E+00
  4.00000000E+02  9.60000000E+01  0.00000000E+00
  4.00000000E+02  9.40000000E+01  0.00000000E+00
  4.00000000E+02  9.20000000E+01  0.00000000E+00
  4.00000000E+02  9.00000000E+01  0.00000000E+00
  4.00000000E+02  8.80000000E+01  0.00000000E+00
  4.00000000E+02  8.60000000E+01  0.00000000E+00
  4.00000000E+02  8.40000000E+01  0.00000000E+00
  4.00000000E+02  8.20000000E+01  0.00000000E+00
  4.00000000E+02  8.00000000E+01  0.00000000E+00
  4.00000000E+02  7.80000000E+01  0.00000000E+00
  4.00000000E+02  7.60000000E+01  0.00000000E+00
  4.00000000E+02  7.40000000E+01  0.00000000E+00
  4.00000000E+02  7.20000000E+01  0.00000000E+00
  4.00000000E+02  7.00000000E+01  0.00000000E+00
  4.00000000E+02  6.80000000E+01  0.00000000E+00
  4.00000000E+02  6.60000000E+01  0.00000000E+00
  4.00000000E+02  6.40000000E+01  0.00000000E+00
  4.00000000E+02  6.20000000E+01  0.00000000E+00
  4.00000000E+02  6.00000000E+01  0.00000000E+00
  4.00000000E+02  5.80000000E+01  0.00000000E+00
  4.00000000E+02  5.60000000E+01  0.00000000E+00
  4.00000000E+02  5.40000000E+01  0.00000000E+00
  4.00000000E+02  5.20000000E+01  0.00000000E+00
  4.00000000E+02  5.00000000E+01  0.00000000E+00
  4.00000000E+02  4.80000000E+01  0.00000000E+00
  4.00000000E+02  4.60000000E+01  0.00000000E+00
  4.00000000E+02  4.40000000E+01  0.00000000E+00
  4.00000000E+02  4.20000000E+01  0.00000000E+00
  4.00000000E+02  4.00000000E+01  0.00000000E+00
  4.00000000E+02  3.80000000E+01  0.00000000E+00
  4.00000000E+02  3.60000000E+01  0.00000000E+00
  4.00000000E+02  3.40000000E+01  0.00000000E+00
  4.00000000E+02  3.20000000E+01  0.00000000E+00
  4.00000000E+02  3.00000000E+01  0.00000000E+00
  4.00000000E+02  2.80000000E+01  0.00000000E+00
  4.00000000E+02  2.60000000E+01  0.00000000E+00
  4.00000000E+02  2.40000000E+01  0.00000000E+00
  4.00000000E+02  2.20000000E+01  0.00000000E+00
  4.00000000E+02  2.00000000E+01  0.00000000E+00
  4.00000000E+02  1.80000000E+01  0.00000000E+00
  4.00000000E+02  1.60000000E+01  0.00000000E+00
  4.00000000E+02  1.40000000E+01  0.00000000E+00
  4.00000000E+02  1.20000000E+01  0.00000000E+00
  4.00000000E+02  1.00000000E+01  0.00000000E+00
  4.00000000E+02  8.00000000E+00  0.00000000E+00
  4.00000000E+02  6.00000000E+00  0.00000000E+00
  4.00000000E+02  4.00000000E+00  0.00000000E+00
  4.00000000E+02  2.00000000E+00  0.00000000E+00
  4.00000000E+02 -3.33066907E-14  0.00000000E+00
  4.10000000E+02  1.00000000E+02  0.00000000E+00
  4.10000000E+02  9.80000000E+01  0.00000000E+00
  4.10000000E+02  9.60000000E+01  0.00000000E+00
  4.10000000E+02  9.40000000E+01  0.00000000E+00
  4.10000000E+02  9.20000000E+01  0.00000000E+00
  4.10000000E+02  9.00000000E+01  0.00000000E+00
  4.10000000E+02  8.80000000E+01  0.00000000E+00
  4.10000000E+02  8.60000000E+01  0.00000000E+00
  4.10000000E+02  8.40000000E+01  0.00000000E+00
  4.10000000E+02  8.20000000E+01  0.00000000E+00
  4.10000000E+02  8.00000000E+01  0.00000000E+00
  4.10000000E+02  7.80000000E+01  0.00000000E+00
  4.10000000E+02  7.60000000E+01  0.00000000E+00
  4.10000000E+02  7.40000000E+01  0.00000000E+00
  4.10000000E+02  7.20000000E+01  0.00000000E+00
  4.10000000E+02  7.00000000E+01  0.00000000E+00
  4.10000000E+02  6.80000000E+01  0.00000000E+00
  4.10000000E+02  6.60000000E+01  0.00000000E+00
  4.10000000E+02  6.40000000E+01  0.00000000E+00
  4.10000000E+02  6.20000000E+01  0.00000000E+00
  4.10000000E+02  6.00000000E+01  0.00000000E+00
  4.10000000E+02  5.80000000E+01  0.00000000E+00
  4.10000000E+02  5.60000000E+01  0.00000000E+00
  4.10000000E+02  5.40000000E+01  0.00000000E+00
  4.10000000E+02  5.20000000E+01  0.00000000E+00
  4.10000000E+02  5.00000000E+01  0.00000000E+00
  4.10000000E+02  4.80000000E+01  0.00000000E+00
  4.10000000E+02  4.60000000E+01  0.00000000E+00
  4.10000000E+02  4.40000000E+01  0.00000000E+00
  4.10000000E+02  4.20000000E+01  0.00000000E+00
  4.10000000E+02  4.00000000E+01  0.00000000E+00
  4.10000000E+02  3.80000000E+01  0.00000000E+00
  4.10000000E+02  3.60000000E+01  0.00000000E+00
  4.10000000E+02  3.40000000E+01  0.00000000E+00
  4.10000000E+02  3.20000000E+01  0.00000000E+00
  4.10000000E+02  3.00000000E+01  0.00000000E+00
  4.10000000E+02  2.80000000E+01  0.00000000E+00
  4.10000000E+02  2.60000000E+01  0.00000000E+00
  4.10000000E+02  2.40000000E+01  0.00000000E+00
  4.10000000E+02  2.20000000E+01  0.00000000E+00
  4.10000000E+02  2.00000000E+01  0.00000000E+00
  4.10000000E+02  1.80000000E+01  0.00000000E+00
  4.10000000E+02  1.60000000E+01  0.00000000E+00
  4.10000000E+02  1.40000000E+01  0.00000000E+00
  4.10000000E+02  1.20000000E+01  0.00000000E+00
  4.10000000E+02  1.00000000E+01  0.00000000E+00
  4.10000000E+02  8.00000000E+00  0.00000000E+00
  4.10000000E+02  6.00000000E+00  0.00000000E+00
  4.10000000E+02  4.00000000E+00  0.00000000E+00
  4.10000000E+02  2.00000000E+00  0.00000000E+00
  4.10000000E+02 -3.33066907E-14  0.00000000E+00
  4.20000000E+02  1.00000000E+02  0.00000000E+00
  4.20000000E+02  9.80000000E+01  0.00000000E+00
  4.20000000E+02  9.60000000E+01  0.00000000E+00
  4.20000000E+02  9.40000000E+01  0.00000000E+00
  4.20000000E+02  9.20000000E+01  0.00000000E+00
  4.20000000E+02  9.00000000E+01  0.00000000E+00
  4.20000000E+02  8.80000000E+01  0.00000000E+00
  4.20000000E+02  8.60000000E+01  0.00000000E+00
  4.20000000E+02  8.40000000E+01  0.00000000E+00
  4.20000000E+02  8.20000000E+01  0.00000000E+00
  4.20000000E+02  8.00000000E+01  0.00000000E+00
  4.20000000E+02  7.80000000E+01  0.00000000E+00
  4.20000000E+02  7.60000000E+01  0.00000000E+00
  4.20000000E+02  7.40000000E+01  0.00000000E+00
  4.20000000E+02  7.20000000E+01  0.00000000E+00
  4.20000000E+02  7.00000000E+01  0.00000000E+00
  4.20000000E+02  6.80000000E+01  0.00000000E+00
  4.20000000E+02  6.60000000E+01  0.00000000E+00
  4.20000000E+02  6.40000000E+01  0.00000000E+00
  4.20000000E+02  6.20000000E+01  0.00000000E+00
  4.20000000E+02  6.00000000E+01  0.00000000E+00
  4.20000000E+02  5.80000000E+01  0.00000000E+00
  4.20000000E+02  5.60000000E+01  0.00000000E+00
  4.20000000E+02  5.40000000E+01  0.00000000E+00
  4.20000000E+02  5.20000000E+01  0.00000000E+00
  4.20000000E+02  5.00000000E+01  0.00000000E+00
  4.20000000E+02  4.80000000E+01  0.00000000E+00
  4.20000000E+02  4.60000000E+01  0.00000000E+00
  4.20000000E+02  4.40000000E+01  0.00000000E+00
  4.20000000E+02  4.20000000E+01  0.00000000E+00
  4.20000000E+02  4.00000000E+01  0.00000000E+00
  4.20000000E+02  3.80000000E+01  0.00000000E+00
  4.20000000E+02  3.60000000E+01  0.00000000E+00
  4.20000000E+02  3.40000000E+01  0.00000000E+00
  4.20000000E+02  3.20000000E+01  0.00000000E+00
  4.20000000E+02  3.00000000E+01  0.00000000E+00
  4.20000000E+02  2.80000000E+01  0.00000000E+00
  4.20000000E+02  2.60000000E+01  0.00000000E+00
  4.20000000E+02  2.40000000E+01  0.00000000E+00
  4.20000000E+02  2.20000000E+01  0.00000000E+00
  4.20000000E+02  2.00000000E+01  0.00000000E+00
  4.20000000E+02  1.80000000E+01  0.00000000E+00
  4.20000000E+02  1.60000000E+01  0.00000000E+00
  4.20000000E+02  1.40000000E+01  0.00000000E+00
  4.20000000E+02  1.20000000E+01  0.00000000E+00
  4.20000000E+02  1.00000000E+01  0.00000000E+00
  4.20000000E+02  8.00000000E+00  0.00000000E+00
  4.20000000E+02  6.00000000E+00  0.00000000E+00
  4.20000000E+02  4.00000000E+00  0.00000000E+00
  4.20000000E+02  2.00000000E+00  0.00000000E+00
  4.20000000E+02 -3.33066907E-14  0.00000000E+00
  4.30000000E+02  1.00000000E+02  0.00000000E+00
  4.30000000E+02  9.80000000E+01  0.00000000E+00
  4.30000000E+02  9.60000000E+01  0.00000000E+00
  4.30000000E+02  9.40000000E+01  0.00000000E+00
  4.30000000E+02  9.20000000E+01  0.00000000E+00
  4.30000000E+02  9.00000000E+01  0.00000000E+00
  4.30000000E+02  8.80000000E+01  0.00000000E+00
  4.30000000E+02  8.60000000E+01  0.00000000E+00
  4.30000000E+02  8.40000000E+01  0.00000000E+00
  4.30000000E+02  8.20000000E+01  0.00000000E+00
  4.30000000E+02  8.00000000E+01  0.00000000E+00
  4.30000000E+02  7.80000000E+01  0.00000000E+00
  4.30000000E+02  7.60000000E+01  0.00000000E+00
  4.30000000E+02  7.40000000E+01  0.00000000E+00
  4.30000000E+02  7.20000000E+01  0.00000000E+00
  4.30000000E+02  7.00000000E+01  0.00000000E+00
  4.30000000E+02  6.80000000E+01  0.00000000E+00
  4.30000000E+02  6.60000000E+01  0.00000000E+00
  4.30000000E+02  6.40000000E+01  0.00000000E+00
  4.30000000E+02  6.20000000E+01  0.00000000E+00
  4.30000000E+02  6.00000000E+01  0.00000000E+00
  4.30000000E+02  5.80000000E+01  0.00000000E+00
  4.30000000E+02  5.60000000E+01  0.00000000E+00
  4.30000000E+02  5.40000000E+01  0.00000000E+00
  4.30000000E+02  5.20000000E+01  0.00000000E+00
  4.30000000E+02  5.00000000E+01  0.00000000E+00
  4.30000000E+02  4.80000000E+01  0.00000000E+00
  4.30000000E+02  4.60000000E+01  0.00000000E+00
  4.30000000E+02  4.40000000E+01  0.00000000E+00
  4.30000000E+02  4.20000000E+01  0.00000000E+00
  4.30000000E+02  4.00000000E+01  0.00000000E+00
  4.30000000E+02  3.80000000E+01  0.00000000E+00
  4.30000000E+02  3.60000000E+01  0.00000000E+00
  4.30000000E+02  3.40000000E+01  0.00000000E+00
  4.30000000E+02  3.20000000E+01  0.00000000E+00
  4.30000000E+02  3.00000000E+01  0.00000000E+00
  4.30000000E+02  2.80000000E+01  0.00000000E+00
  4.30000000E+02  2.60000000E+01  0.00000000E+00
  4.30000000E+02  2.40000000E+01  0.00000000E+00
  4.30000000E+02  2.20000000E+01  0.00000000E+00
  4.30000000E+02  2.00000000E+01  0.00000000E+00
  4.30000000E+02  1.80000000E+01  0.00000000E+00
  4.30000000E+02  1.60000000E+01  0.00000000E+00
  4.30000000E+02  1.40000000E+01  0.00000000E+00
  4.30000000E+02  1.20000000E+01  0.00000000E+00
  4.30000000E+02  1.00000000E+01  0.00000000E+00
  4.30000000E+02  8.00000000E+00  0.00000000E+00
  4.30000000E+02  6.00000000E+00  0.00000000E+00
  4.30000000E+02  4.00000000E+00  0.00000000E+00
  4.30000000E+02  2.00000000E+00  0.00000000E+00
  4.30000000E+02 -3.33066907E-14  0.00000000E+00
  4.40000000E+02  1.00000000E+02  0.00000000E+00
  4.40000000E+02  9.80000000E+01  0.00000000E+00
  4.40000000E+02  9.60000000E+01  0.00000000E+00
  4.40000000E+02  9.40000000E+01  0.00000000E+00
  4.40000000E+02  9.20000000E+01  0.00000000E+00
  4.40000000E+02  9.00000000E+01  0.00000000E+00
  4.40000000E+02  8.80000000E+01  0.00000000E+00
  4.40000000E+02  8.60000000E+01  0.00000000E+00
  4.40000000E+02  8.40000000E+01  0.00000000E+00
  4.40000000E+02  8.20000000E+01  0.00000000E+00
  4.40000000E+02  8.00000000E+01  0.00000000E+00
  4.40000000E+02  7.80000000E+01  0.00000000E+00
  4.40000000E+02  7.60000000E+01  0.00000000E+00
  4.40000000E+02  7.40000000E+01  0.00000000E+00
  4.40000000E+02  7.20000000E+01  0.00000000E+00
  4.40000000E+02  7.00000000E+01  0.00000000E+00
  4.40000000E+02  6.80000000E+01  0.00000000E+00
  4.40000000E+02  6.60000000E+01  0.00000000E+00
  4.40000000E+02  6.40000000E+01  0.00000000E+00
  4.40000000E+02  6.20000000E+01  0.00000000E+00
  4.40000000E+02  6.00000000E+01  0.00000000E+00
  4.40000000E+02  5.80000000E+01  0.00000000E+00
  4.40000000E+02  5.60000000E+01  0.00000000E+00
  4.40000000E+02  5.40000000E+01  0.00000000E+00
  4.40000000E+02  5.20000000E+01  0.00000000E+00
  4.40000000E+02  5.00000000E+01  0.00000000E+00
  4.40000000E+02  4.80000000E+01  0.00000000E+00
  4.40000000E+02  4.60000000E+01  0.00000000E+00
  4.40000000E+02  4.40000000E+01  0.00000000E+00
  4.40000000E+02  4.20000000E+01  0.00000000E+00
  4.40000000E+02  4.00000000E+01  0.00000000E+00
  4.40000000E+02  3.80000000E+01  0.00000000E+00
  4.40000000E+02  3.60000000E+01  0.00000000E+00
  4.40000000E+02  3.40000000E+01  0.00000000E+00
  4.40000000E+02  3.20000000E+01  0.00000000E+00
  4.40000000E+02  3.00000000E+01  0.00000000E+00
  4.40000000E+02  2.80000000E+01  0.00000000E+00
  4.40000000E+02  2.60000000E+01  0.00000000E+00
  4.40000000E+02  2.40000000E+01  0.00000000E+00
  4.40000000E+02  2.20000000E+01  0.00000000E+00
  4.40000000E+02  2.00000000E+01  0.00000000E+00
  4.40000000E+02  1.80000000E+01  0.00000000E+00
  4.40000000E+02  1.60000000E+01  0.00000000E+00
  4.40000000E+02  1.40000000E+01  0.00000000E+00
  4.40000000E+02  1.20000000E+01  0.00000000E+00
  4.40000000E+02  1.00000000E+01  0.00000000E+00
  4.40000000E+02  8.00000000E+00  0.00000000E+00
  4.40000000E+02  6.00000000E+00  0.00000000E+00
  4.40000000E+02  4.00000000E+00  0.00000000E+00
  4.40000000E+02  2.00000000E+00  0.00000000E+00
  4.40000000E+02 -3.33066907E-14  0.00000000E+00
  4.50000000E+02  1.00000000E+02  0.00000000E+00
  4.50000000E+02  9.80000000E+01  0.00000000E+00
  4.50000000E+02  9.60000000E+01  0.00000000E+00
  4.50000000E+02  9.40000000E+01  0.00000000E+00
  4.50000000E+02  9.20000000E+01  0.00000000E+00
  4.50000000E+02  9.00000000E+01  0.00000000E+00
  4.50000000E+02  8.80000000E+01  0.00000000E+00
  4.50000000E+02  8.60000000E+01  0.00000000E+00
  4.50000000E+02  8.40000000E+01  0.00000000E+00
  4.50000000E+02  8.20000000E+01  0.00000000E+00
  4.50000000E+02  8.00000000E+01  0.00000000E+00
  4.50000000E+02  7.80000000E+01  0.00000000E+00
  4.50000000E+02  7.60000000E+01  0.00000000E+00
  4.50000000E+02  7.40000000E+01  0.00000000E+00
  4.50000000E+02  7.20000000E+01  0.00000000E+00
  4.50000000E+02  7.00000000E+01  0.00000000E+00
  4.50000000E+02  6.80000000E+01  0.00000000E+00
  4.50000000E+02  6.60000000E+01  0.00000000E+00
  4.50000000E+02  6.40000000E+01  0.00000000E+00
  4.50000000E+02  6.20000000E+01  0.00000000E+00
  4.50000000E+02  6.00000000E+01  0.00000000E+00
  4.50000000E+02  5.80000000E+01  0.00000000E+00
  4.50000000E+02  5.60000000E+01  0.00000000E+00
  4.50000000E+02  5.40000000E+01  0.00000000E+00
  4.50000000E+02  5.20000000E+01  0.00000000E+00
  4.50000000E+02  5.00000000E+01  0.00000000E+00
  4.50000000E+02  4.80000000E+01  0.00000000E+00
  4.50000000E+02  4.60000000E+01  0.00000000E+00
  4.50000000E+02  4.40000000E+01  0.00000000E+00
  4.50000000E+02  4.20000000E+01  0.00000000E+00
  4.50000000E+02  4.00000000E+01  0.00000000E+00
  4.50000000E+02  3.80000000E+01  0.00000000E+00
  4.50000000E+02  3.60000000E+01  0.00000000E+00
  4.50000000E+02  3.40000000E+01  0.00000000E+00
  4.50000000E+02  3.20000000E+01  0.00000000E+00
  4.50000000E+02  3.00000000E+01  0.00000000E+00
  4.50000000E+02  2.80000000E+01  0.00000000E+00
  4.50000000E+02  2.60000000E+01  0.00000000E+00
  4.50000000E+02  2.40000000E+01  0.00000000E+00
  4.50000000E+02  2.20000000E+01  0.00000000E+00
  4.50000000E+02  2.00000000E+01  0.00000000E+00
  4.50000000E+02  1.80000000E+01  0.00000000E+00
  4.50000000E+02  1.60000000E+01  0.00000000E+00
  4.50000000E+02  1.40000000E+01  0.00000000E+00
  4.50000000E+02  1.20000000E+01  0.00000000E+00
  4.50000000E+02  1.00000000E+01  0.00000000E+00
  4.50000000E+02  8.00000000E+00  0.00000000E+00
  4.50000000E+02  6.00000000E+00  0.00000000E+00
  4.50000000E+02  4.00000000E+00  0.00000000E+00
  4.50000000E+02  2.00000000E+00  0.00000000E+00
  4.50000000E+02 -3.33066907E-14  0.00000000E+00
  4.60000000E+02  1.00000000E+02  0.00000000E+00
  4.60000000E+02  9.80000000E+01  0.00000000E+00
  4.60000000E+02  9.60000000E+01  0.00000000E+00
  4.60000000E+02  9.40000000E+01  0.00000000E+00
  4.60000000E+02  9.20000000E+01  0.00000000E+00
  4.60000000E+02  9.00000000E+01  0.00000000E+00
  4.60000000E+02  8.80000000E+01  0.00000000E+00
  4.60000000E+02  8.60000000E+01  0.00000000E+00
  4.60000000E+02  8.40000000E+01  0.00000000E+00
  4.60000000E+02  8.20000000E+01  0.00000000E+00
  4.60000000E+02  8.00000000E+01  0.00000000E+00
  4.60000000E+02  7.80000000E+01  0.00000000E+00
  4.60000000E+02  7.60000000E+01  0.00000000E+00
  4.60000000E+02  7.40000000E+01  0.00000000E+00
  4.60000000E+02  7.20000000E+01  0.00000000E+00
  4.60000000E+02  7.00000000E+01  0.00000000E+00
  4.60000000E+02  6.80000000E+01  0.00000000E+00
  4.60000000E+02  6.60000000E+01  0.00000000E+00
  4.60000000E+02  6.40000000E+01  0.00000000E+00
  4.60000000E+02  6.20000000E+01  0.00000000E+00
  4.60000000E+02  6.00000000E+01  0.00000000E+00
  4.60000000E+02  5.80000000E+01  0.00000000E+00
  4.60000000E+02  5.60000000E+01  0.00000000E+00
  4.60000000E+02  5.40000000E+01  0.00000000E+00
  4.60000000E+02  5.20000000E+01  0.00000000E+00
  4.60000000E+02  5.00000000E+01  0.00000000E+00
  4.60000000E+02  4.80000000E+01  0.00000000E+00
  4.60000000E+02  4.60000000E+01  0.00000000E+00
  4.60000000E+02  4.40000000E+01  0.00000000E+00
  4.60000000E+02  4.20000000E+01  0.00000000E+00
  4.60000000E+02  4.00000000E+01  0.00000000E+00
  4.60000000E+02  3.80000000E+01  0.00000000E+00
  4.60000000E+02  3.60000000E+01  0.00000000E+00
  4.60000000E+02  3.40000000E+01  0.00000000E+00
  4.60000000E+02  3.20000000E+01  0.00000000E+00
  4.60000000E+02  3.00000000E+01  0.00000000E+00
  4.60000000E+02  2.80000000E+01  0.00000000E+00
  4.60000000E+02  2.60000000E+01  0.00000000E+00
  4.60000000E+02  2.40000000E+01  0.00000000E+00
  4.60000000E+02  2.20000000E+01  0.00000000E+00
  4.60000000E+02  2.00000000E+01  0.00000000E+00
  4.60000000E+02  1.80000000E+01  0.00000000E+00
  4.60000000E+02  1.60000000E+01  0.00000000E+00
  4.60000000E+02  1.40000000E+01  0.00000000E+00
  4.60000000E+02  1.20000000E+01  0.00000000E+00
  4.60000000E+02  1.00000000E+01  0.00000000E+00
  4.60000000E+02  8.00000000E+00  0.00000000E+00
  4.60000000E+02  6.00000000E+00  0.00000000E+00
  4.60000000E+02  4.00000000E+00  0.00000000E+00
  4.60000000E+02  2.00000000E+00  0.00000000E+00
  4.60000000E+02 -3.33066907E-14  0.00000000E+00
  4.70000000E+02  1.00000000E+02  0.00000000E+00
  4.70000000E+02  9.80000000E+01  0.00000000E+00
  4.70000000E+02  9.60000000E+01  0.00000000E+00
  4.70000000E+02  9.40000000E+01  0.00000000E+00
  4.70000000E+02  9.20000000E+01  0.00000000E+00
  4.70000000E+02  9.00000000E+01  0.00000000E+00
  4.70000000E+02  8.80000000E+01  0.00000000E+00
  4.70000000E+02  8.60000000E+01  0.00000000E+00
  4.70000000E+02  8.40000000E+01  0.00000000E+00
  4.70000000E+02  8.20000000E+01  0.00000000E+00
  4.70000000E+02  8.00000000E+01  0.00000000E+00
  4.70000000E+02  7.80000000E+01  0.00000000E+00
  4.70000000E+02  7.60000000E+01  0.00000000E+00
  4.70000000E+02  7.40000000E+01  0.00000000E+00
  4.70000000E+02  7.20000000E+01  0.00000000E+00
  4.70000000E+02  7.00000000E+01  0.00000000E+00
  4.70000000E+02  6.80000000E+01  0.00000000E+00
  4.70000000E+02  6.60000000E+01  0.00000000E+00
  4.70000000E+02  6.40000000E+01  0.00000000E+00
  4.70000000E+02  6.20000000E+01  0.00000000E+00
  4.70000000E+02  6.00000000E+01  0.00000000E+00
  4.70000000E+02  5.80000000E+01  0.00000000E+00
  4.70000000E+02  5.60000000E+01  0.00000000E+00
  4.70000000E+02  5.40000000E+01  0.00000000E+00
  4.70000000E+02  5.20000000E+01  0.00000000E+00
  4.70000000E+02  5.00000000E+01  0.00000000E+00
  4.70000000E+02  4.80000000E+01  0.00000000E+00
  4.70000000E+02  4.60000000E+01  0.00000000E+00
  4.70000000E+02  4.40000000E+01  0.00000000E+00
  4.70000000E+02  4.20000000E+01  0.00000000E+00
  4.70000000E+02  4.00000000E+01  0.00000000E+00
  4.70000000E+02  3.80000000E+01  0.00000000E+00
  4.70000000E+02  3.60000000E+01  0.00000000E+00
  4.70000000E+02  3.40000000E+01  0.00000000E+00
  4.70000000E+02  3.20000000E+01  0.00000000E+00
  4.70000000E+02  3.00000000E+01  0.00000000E+00
  4.70000000E+02  2.80000000E+01  0.00000000E+00
  4.70000000E+02  2.60000000E+01  0.00000000E+00
  4.70000000E+02  2.40000000E+01  0.00000000E+00
  4.70000000E+02  2.20000000E+01  0.00000000E+00
  4.70000000E+02  2.00000000E+01  0.00000000E+00
  4.70000000E+02  1.80000000E+01  0.00000000E+00
  4.70000000E+02  1.60000000E+01  0.00000000E+00
  4.70000000E+02  1.40000000E+01  0.00000000E+00
  4.70000000E+02  1.20000000E+01  0.00000000E+00
  4.70000000E+02  1.00000000E+01  0.00000000E+00
  4.70000000E+02  8.00000000E+00  0.00000000E+00
  4.70000000E+02  6.00000000E+00  0.00000000E+00
  4.70000000E+02  4.00000000E+00  0.00000000E+00
  4.70000000E+02  2.00000000E+00  0.00000000E+00
  4.70000000E+02 -3.33066907E-14  0.00000000E+00
  4.80000000E+02  1.00000000E+02  0.00000000E+00
  4.80000000E+02  9.80000000E+01  0.00000000E+00
  4.80000000E+02  9.60000000E+01  0.00000000E+00
  4.80000000E+02  9.40000000E+01  0.00000000E+00
  4.80000000E+02  9.20000000E+01  0.00000000E+00
  4.80000000E+02  9.00000000E+01  0.00000000E+00
  4.80000000E+02  8.80000000E+01  0.00000000E+00
  4.80000000E+02  8.60000000E+01  0.00000000E+00
  4.80000000E+02  8.40000000E+01  0.00000000E+00
  4.80000000E+02  8.20000000E+01  0.00000000E+00
  4.80000000E+02  8.00000000E+01  0.00000000E+00
  4.80000000E+02  7.80000000E+01  0.00000000E+00
  4.80000000E+02  7.60000000E+01  0.00000000E+00
  4.80000000E+02  7.40000000E+01  0.00000000E+00
  4.80000000E+02  7.20000000E+01  0.00000000E+00
  4.80000000E+02  7.00000000E+01  0.00000000E+00
  4.80000000E+02  6.80000000E+01  0.00000000E+00
  4.80000000E+02  6.60000000E+01  0.00000000E+00
  4.80000000E+02  6.40000000E+01  0.00000000E+00
  4.80000000E+02  6.20000000E+01  0.00000000E+00
  4.80000000E+02  6.00000000E+01  0.00000000E+00
  4.80000000E+02  5.80000000E+01  0.00000000E+00
  4.80000000E+02  5.60000000E+01  0.00000000E+00
  4.80000000E+02  5.40000000E+01  0.00000000E+00
  4.80000000E+02  5.20000000E+01  0.00000000E+00
  4.80000000E+02  5.00000000E+01  0.00000000E+00
  4.80000000E+02  4.80000000E+01  0.00000000E+00
  4.80000000E+02  4.60000000E+01  0.00000000E+00
  4.80000000E+02  4.40000000E+01  0.00000000E+00
  4.80000000E+02  4.20000000E+01  0.00000000E+00
  4.80000000E+02  4.00000000E+01  0.00000000E+00
  4.80000000E+02  3.80000000E+01  0.00000000E+00
  4.80000000E+02  3.60000000E+01  0.00000000E+00
  4.80000000E+02  3.40000000E+01  0.00000000E+00
  4.80000000E+02  3.20000000E+01  0.00000000E+00
  4.80000000E+02  3.00000000E+01  0.00000000E+00
  4.80000000E+02  2.80000000E+01  0.00000000E+00
  4.80000000E+02  2.60000000E+01  0.00000000E+00
  4.80000000E+02  2.40000000E+01  0.00000000E+00
  4.80000000E+02  2.20000000E+01  0.00000000E+00
  4.80000000E+02  2.00000000E+01  0.00000000E+00
  4.80000000E+02  1.80000000E+01  0.00000000E+00
  4.80000000E+02  1.60000000E+01  0.00000000E+00
  4.80000000E+02  1.40000000E+01  0.00000000E+00
  4.80000000E+02  1.20000000E+01  0.00000000E+00
  4.80000000E+02  1.00000000E+01  0.00000000E+00
  4.80000000E+02  8.00000000E+00  0.00000000E+00
  4.80000000E+02  6.00000000E+00  0.00000000E+00
  4.80000000E+02  4.00000000E+00  0.00000000E+00
  4.80000000E+02  2.00000000E+00  0.00000000E+00
  4.80000000E+02 -3.33066907E-14  0.00000000E+00
  4.90000000E+02  1.00000000E+02  0.00000000E+00
  4.90000000E+02  9.80000000E+01  0.00000000E+00
  4.90000000E+02  9.60000000E+01  0.00000000E+00
  4.90000000E+02  9.40000000E+01  0.00000000E+00
  4.90000000E+02  9.20000000E+01  0.00000000E+00
  4.90000000E+02  9.00000000E+01  0.00000000E+00
  4.90000000E+02  8.80000000E+01  0.00000000E+00
  4.90000000E+02  8.60000000E+01  0.00000000E+00
  4.90000000E+02  8.40000000E+01  0.00000000E+00
  4.90000000E+02  8.20000000E+01  0.00000000E+00
  4.90000000E+02  8.00000000E+01  0.00000000E+00
  4.90000000E+02  7.80000000E+01  0.00000000E+00
  4.90000000E+02  7.60000000E+01  0.00000000E+00
  4.90000000E+02  7.40000000E+01  0.00000000E+00
  4.90000000E+02  7.20000000E+01  0.00000000E+00
  4.90000000E+02  7.00000000E+01  0.00000000E+00
  4.90000000E+02  6.80000000E+01  0.00000000E+00
  4.90000000E+02  6.60000000E+01  0.00000000E+00
  4.90000000E+02  6.40000000E+01  0.00000000E+00
  4.90000000E+02  6.20000000E+01  0.00000000E+00
  4.90000000E+02  6.00000000E+01  0.00000000E+00
  4.90000000E+02  5.80000000E+01  0.00000000E+00
  4.90000000E+02  5.60000000E+01  0.00000000E+00
  4.90000000E+02  5.40000000E+01  0.00000000E+00
  4.90000000E+02  5.20000000E+01  0.00000000E+00
  4.90000000E+02  5.00000000E+01  0.00000000E+00
  4.90000000E+02  4.80000000E+01  0.00000000E+00
  4.90000000E+02  4.60000000E+01  0.00000000E+00
  4.90000000E+02  4.40000000E+01  0.00000000E+00
  4.90000000E+02  4.20000000E+01  0.00000000E+00
  4.90000000E+02  4.00000000E+01  0.00000000E+00
  4.90000000E+02  3.80000000E+01  0.00000000E+00
  4.90000000E+02  3.60000000E+01  0.00000000E+00
  4.90000000E+02  3.40000000E+01  0.00000000E+00
  4.90000000E+02  3.20000000E+01  0.00000000E+00
  4.90000000E+02  3.00000000E+01  0.00000000E+00
  4.90000000E+02  2.80000000E+01  0.00000000E+00
  4.90000000E+02  2.60000000E+01  0.00000000E+00
  4.90000000E+02  2.40000000E+01  0.00000000E+00
  4.90000000E+02  2.20000000E+01  0.00000000E+00
  4.90000000E+02  2.00000000E+01  0.00000000E+00
  4.90000000E+02  1.80000000E+01  0.00000000E+00
  4.90000000E+02  1.60000000E+01  0.00000000E+00
  4.90000000E+02  1.40000000E+01  0.00000000E+00
  4.90000000E+02  1.20000000E+01  0.00000000E+00
  4.90000000E+02  1.00000000E+01  0.00000000E+00
  4.90000000E+02  8.00000000E+00  0.00000000E+00
  4.90000000E+02  6.00000000E+00  0.00000000E+00
  4.90000000E+02  4.00000000E+00  0.00000000E+00
  4.90000000E+02  2.00000000E+00  0.00000000E+00
  4.90000000E+02 -3.33066907E-14  0.00000000E+00
  5.00000000E+02  1.00000000E+02  0.00000000E+00
  5.00000000E+02  9.80000000E+01  0.00000000E+00
  5.00000000E+02  9.60000000E+01  0.00000000E+00
  5.00000000E+02  9.40000000E+01  0.00000000E+00
  5.00000000E+02  9.20000000E+01  0.00000000E+00
  5.00000000E+02  9.00000000E+01  0.00000000E+00
  5.00000000E+02  8.80000000E+01  0.00000000E+00
  5.00000000E+02  8.60000000E+01  0.00000000E+00
  5.00000000E+02  8.40000000E+01  0.00000000E+00
  5.00000000E+02  8.20000000E+01  0.00000000E+00
  5.00000000E+02  8.00000000E+01  0.00000000E+00
  5.00000000E+02  7.80000000E+01  0.00000000E+00
  5.00000000E+02  7.60000000E+01  0.00000000E+00
  5.00000000E+02  7.40000000E+01  0.00000000E+00
  5.00000000E+02  7.20000000E+01  0.00000000E+00
  5.00000000E+02  7.00000000E+01  0.00000000E+00
  5.00000000E+02  6.80000000E+01  0.00000000E+00
  5.00000000E+02  6.60000000E+01  0.00000000E+00
  5.00000000E+02  6.40000000E+01  0.00000000E+00
  5.00000000E+02  6.20000000E+01  0.00000000E+00
  5.00000000E+02  6.00000000E+01  0.00000000E+00
  5.00000000E+02  5.80000000E+01  0.00000000E+00
  5.00000000E+02  5.60000000E+01  0.00000000E+00
  5.00000000E+02  5.40000000E+01  0.00000000E+00
  5.00000000E+02  5.20000000E+01  0.00000000E+00
  5.00000000E+02  5.00000000E+01  0.00000000E+00
  5.00000000E+02  4.80000000E+01  0.00000000E+00
  5.00000000E+02  4.60000000E+01  0.00000000E+00
  5.00000000E+02  4.40000000E+01  0.00000000E+00
  5.00000000E+02  4.20000000E+01  0.00000000E+00
  5.00000000E+02  4.00000000E+01  0.00000000E+00
  5.00000000E+02  3.80000000E+01  0.00000000E+00
  5.00000000E+02  3.60000000E+01  0.00000000E+00
  5.00000000E+02  3.40000000E+01  0.00000000E+00
  5.00000000E+02  3.20000000E+01  0.00000000E+00
  5.00000000E+02  3.00000000E+01  0.00000000E+00
  5.00000000E+02  2.80000000E+01  0.00000000E+00
  5.00000000E+02  2.60000000E+01  0.00000000E+00
  5.00000000E+02  2.40000000E+01  0.00000000E+00
  5.00000000E+02  2.20000000E+01  0.00000000E+00
  5.00000000E+02  2.00000000E+01  0.00000000E+00
  5.00000000E+02  1.80000000E+01  0.00000000E+00
  5.00000000E+02  1.60000000E+01  0.00000000E+00
  5.00000000E+02  1.40000000E+01  0.00000000E+00
  5.00000000E+02  1.20000000E+01  0.00000000E+00
  5.00000000E+02  1.00000000E+01  0.00000000E+00
  5.00000000E+02  8.00000000E+00  0.00000000E+00
  5.00000000E+02  6.00000000E+00  0.00000000E+00
  5.00000000E+02  4.00000000E+00  0.00000000E+00
  5.00000000E+02  2.00000000E+00  0.00000000E+00
  5.00000000E+02 -3.33066907E-14  0.00000000E+00
  5.10000000E+02  1.00000000E+02  0.00000000E+00
  5.10000000E+02  9.80000000E+01  0.00000000E+00
  5.10000000E+02  9.60000000E+01  0.00000000E+00
  5.10000000E+02  9.40000000E+01  0.00000000E+00
  5.10000000E+02  9.20000000E+01  0.00000000E+00
  5.10000000E+02  9.00000000E+01  0.00000000E+00
  5.10000000E+02  8.80000000E+01  0.00000000E+00
  5.10000000E+02  8.60000000E+01  0.00000000E+00
  5.10000000E+02  8.40000000E+01  0.00000000E+00
  5.10000000E+02  8.20000000E+01  0.00000000E+00
  5.10000000E+02  8.00000000E+01  0.00000000E+00
  5.10000000E+02  7.80000000E+01  0.00000000E+00
  5.10000000E+02  7.60000000E+01  0.00000000E+00
  5.10000000E+02  7.40000000E+01  0.00000000E+00
  5.10000000E+02  7.20000000E+01  0.00000000E+00
  5.10000000E+02  7.00000000E+01  0.00000000E+00
  5.10000000E+02  6.80000000E+01  0.00000000E+00
  5.10000000E+02  6.60000000E+01  0.00000000E+00
  5.10000000E+02  6.40000000E+01  0.00000000E+00
  5.10000000E+02  6.20000000E+01  0.00000000E+00
  5.10000000E+02  6.00000000E+01  0.00000000E+00
  5.10000000E+02  5.80000000E+01  0.00000000E+00
  5.10000000E+02  5.60000000E+01  0.00000000E+00
  5.10000000E+02  5.40000000E+01  0.00000000E+00
  5.10000000E+02  5.20000000E+01  0.00000000E+00
  5.10000000E+02  5.00000000E+01  0.00000000E+00
  5.10000000E+02  4.80000000E+01  0.00000000E+00
  5.10000000E+02  4.60000000E+01  0.00000000E+00
  5.10000000E+02  4.40000000E+01  0.00000000E+00
  5.10000000E+02  4.20000000E+01  0.00000000E+00
  5.10000000E+02  4.00000000E+01  0.00000000E+00
  5.10000000E+02  3.80000000E+01  0.00000000E+00
  5.10000000E+02  3.60000000E+01  0.00000000E+00
  5.10000000E+02  3.40000000E+01  0.00000000E+00
  5.10000000E+02  3.20000000E+01  0.00000000E+00
  5.10000000E+02  3.00000000E+01  0.00000000E+00
  5.10000000E+02  2.80000000E+01  0.00000000E+00
  5.10000000E+02  2.60000000E+01  0.00000000E+00
  5.10000000E+02  2.40000000E+01  0.00000000E+00
  5.10000000E+02  2.20000000E+01  0.00000000E+00
  5.10000000E+02  2.00000000E+01  0.00000000E+00
  5.10000000E+02  1.80000000E+01  0.00000000E+00
  5.10000000E+02  1.60000000E+01  0.00000000E+00
  5.10000000E+02  1.40000000E+01  0.00000000E+00
  5.10000000E+02  1.20000000E+01  0.00000000E+00
  5.10000000E+02  1.00000000E+01  0.00000000E+00
  5.10000000E+02  8.00000000E+00  0.00000000E+00
  5.10000000E+02  6.00000000E+00  0.00000000E+00
  5.10000000E+02  4.00000000E+00  0.00000000E+00
  5.10000000E+02  2.00000000E+00  0.00000000E+00
  5.10000000E+02 -3.33066907E-14  0.00000000E+00
  5.20000000E+02  1.00000000E+02  0.00000000E+00
  5.20000000E+02  9.80000000E+01  0.00000000E+00
  5.20000000E+02  9.60000000E+01  0.00000000E+00
  5.20000000E+02  9.40000000E+01  0.00000000E+00
  5.20000000E+02  9.20000000E+01  0.00000000E+00
  5.20000000E+02  9.00000000E+01  0.00000000E+00
  5.20000000E+02  8.80000000E+01  0.00000000E+00
  5.20000000E+02  8.60000000E+01  0.00000000E+00
  5.20000000E+02  8.40000000E+01  0.00000000E+00
  5.20000000E+02  8.20000000E+01  0.00000000E+00
  5.20000000E+02  8.00000000E+01  0.00000000E+00
  5.20000000E+02  7.80000000E+01  0.00000000E+00
  5.20000000E+02  7.60000000E+01  0.00000000E+00
  5.20000000E+02  7.40000000E+01  0.00000000E+00
  5.20000000E+02  7.20000000E+01  0.00000000E+00
  5.20000000E+02  7.00000000E+01  0.00000000E+00
  5.20000000E+02  6.80000000E+01  0.00000000E+00
  5.20000000E+02  6.60000000E+01  0.00000000E+00
  5.20000000E+02  6.40000000E+01  0.00000000E+00
  5.20000000E+02  6.20000000E+01  0.00000000E+00
  5.20000000E+02  6.00000000E+01  0.00000000E+00
  5.20000000E+02  5.80000000E+01  0.00000000E+00
  5.20000000E+02  5.60000000E+01  0.00000000E+00
  5.20000000E+02  5.40000000E+01  0.00000000E+00
  5.20000000E+02  5.20000000E+01  0.00000000E+00
  5.20000000E+02  5.00000000E+01  0.00000000E+00
  5.20000000E+02  4.80000000E+01  0.00000000E+00
  5.20000000E+02  4.60000000E+01  0.00000000E+00
  5.20000000E+02  4.40000000E+01  0.00000000E+00
  5.20000000E+02  4.20000000E+01  0.00000000E+00
  5.20000000E+02  4.00000000E+01  0.00000000E+00
  5.20000000E+02  3.80000000E+01  0.00000000E+00
  5.20000000E+02  3.60000000E+01  0.00000000E+00
  5.20000000E+02  3.40000000E+01  0.00000000E+00
  5.20000000E+02  3.20000000E+01  0.00000000E+00
  5.20000000E+02  3.00000000E+01  0.00000000E+00
  5.20000000E+02  2.80000000E+01  0.00000000E+00
  5.20000000E+02  2.60000000E+01  0.00000000E+00
  5.20000000E+02  2.40000000E+01  0.00000000E+00
  5.20000000E+02  2.20000000E+01  0.00000000E+00
  5.20000000E+02  2.00000000E+01  0.00000000E+00
  5.20000000E+02  1.80000000E+01  0.00000000E+00
  5.20000000E+02  1.60000000E+01  0.00000000E+00
  5.20000000E+02  1.40000000E+01  0.00000000E+00
  5.20000000E+02  1.20000000E+01  0.00000000E+00
  5.20000000E+02  1.00000000E+01  0.00000000E+00
  5.20000000E+02  8.00000000E+00  0.00000000E+00
  5.20000000E+02  6.00000000E+00  0.00000000E+00
  5.20000000E+02  4.00000000E+00  0.00000000E+00
  5.20000000E+02  2.00000000E+00  0.00000000E+00
  5.20000000E+02 -3.33066907E-14  0.00000000E+00
  5.30000000E+02  1.00000000E+02  0.00000000E+00
  5.30000000E+02  9.80000000E+01  0.00000000E+00
  5.30000000E+02  9.60000000E+01  0.00000000E+00
  5.30000000E+02  9.40000000E+01  0.00000000E+00
  5.30000000E+02  9.20000000E+01  0.00000000E+00
  5.30000000E+02  9.00000000E+01  0.00000000E+00
  5.30000000E+02  8.80000000E+01  0.00000000E+00
  5.30000000E+02  8.60000000E+01  0.00000000E+00
  5.30000000E+02  8.40000000E+01  0.00000000E+00
  5.30000000E+02  8.20000000E+01  0.00000000E+00
  5.30000000E+02  8.00000000E+01  0.00000000E+00
  5.30000000E+02  7.80000000E+01  0.00000000E+00
  5.30000000E+02  7.60000000E+01  0.00000000E+00
  5.30000000E+02  7.40000000E+01  0.00000000E+00
  5.30000000E+02  7.20000000E+01  0.00000000E+00
  5.30000000E+02  7.00000000E+01  0.00000000E+00
  5.30000000E+02  6.80000000E+01  0.00000000E+00
  5.30000000E+02  6.60000000E+01  0.00000000E+00
  5.30000000E+02  6.40000000E+01  0.00000000E+00
  5.30000000E+02  6.20000000E+01  0.00000000E+00
  5.30000000E+02  6.00000000E+01  0.00000000E+00
  5.30000000E+02  5.80000000E+01  0.00000000E+00
  5.30000000E+02  5.60000000E+01  0.00000000E+00
  5.30000000E+02  5.40000000E+01  0.00000000E+00
  5.30000000E+02  5.20000000E+01  0.00000000E+00
  5.30000000E+02  5.00000000E+01  0.00000000E+00
  5.30000000E+02  4.80000000E+01  0.00000000E+00
  5.30000000E+02  4.60000000E+01  0.00000000E+00
  5.30000000E+02  4.40000000E+01  0.00000000E+00
  5.30000000E+02  4.20000000E+01  0.00000000E+00
  5.30000000E+02  4.00000000E+01  0.00000000E+00
  5.30000000E+02  3.80000000E+01  0.00000000E+00
  5.30000000E+02  3.60000000E+01  0.00000000E+00
  5.30000000E+02  3.40000000E+01  0.00000000E+00
  5.30000000E+02  3.20000000E+01  0.00000000E+00
  5.30000000E+02  3.00000000E+01  0.00000000E+00
  5.30000000E+02  2.80000000E+01  0.00000000E+00
  5.30000000E+02  2.60000000E+01  0.00000000E+00
  5.30000000E+02  2.40000000E+01  0.00000000E+00
  5.30000000E+02  2.20000000E+01  0.00000000E+00
  5.30000000E+02  2.00000000E+01  0.00000000E+00
  5.30000000E+02  1.80000000E+01  0.00000000E+00
  5.30000000E+02  1.60000000E+01  0.00000000E+00
  5.30000000E+02  1.40000000E+01  0.00000000E+00
  5.30000000E+02  1.20000000E+01  0.00000000E+00
  5.30000000E+02  1.00000000E+01  0.00000000E+00
  5.30000000E+02  8.00000000E+00  0.00000000E+00
  5.30000000E+02  6.00000000E+00  0.00000000E+00
  5.30000000E+02  4.00000000E+00  0.00000000E+00
  5.30000000E+02  2.00000000E+00  0.00000000E+00
  5.30000000E+02 -3.33066907E-14  0.00000000E+00
  5.40000000E+02  1.00000000E+02  0.00000000E+00
  5.40000000E+02  9.80000000E+01  0.00000000E+00
  5.40000000E+02  9.60000000E+01  0.00000000E+00
  5.40000000E+02  9.40000000E+01  0.00000000E+00
  5.40000000E+02  9.20000000E+01  0.00000000E+00
  5.40000000E+02  9.00000000E+01  0.00000000E+00
  5.40000000E+02  8.80000000E+01  0.00000000E+00
  5.40000000E+02  8.60000000E+01  0.00000000E+00
  5.40000000E+02  8.40000000E+01  0.00000000E+00
  5.40000000E+02  8.20000000E+01  0.00000000E+00
  5.40000000E+02  8.00000000E+01  0.00000000E+00
  5.40000000E+02  7.80000000E+01  0.00000000E+00
  5.40000000E+02  7.60000000E+01  0.00000000E+00
  5.40000000E+02  7.40000000E+01  0.00000000E+00
  5.40000000E+02  7.20000000E+01  0.00000000E+00
  5.40000000E+02  7.00000000E+01  0.00000000E+00
  5.40000000E+02  6.80000000E+01  0.00000000E+00
  5.40000000E+02  6.60000000E+01  0.00000000E+00
  5.40000000E+02  6.40000000E+01  0.00000000E+00
  5.40000000E+02  6.20000000E+01  0.00000000E+00
  5.40000000E+02  6.00000000E+01  0.00000000E+00
  5.40000000E+02  5.80000000E+01  0.00000000E+00
  5.40000000E+02  5.60000000E+01  0.00000000E+00
  5.40000000E+02  5.40000000E+01  0.00000000E+00
  5.40000000E+02  5.20000000E+01  0.00000000E+00
  5.40000000E+02  5.00000000E+01  0.00000000E+00
  5.40000000E+02  4.80000000E+01  0.00000000E+00
  5.40000000E+02  4.60000000E+01  0.00000000E+00
  5.40000000E+02  4.40000000E+01  0.00000000E+00
  5.40000000E+02  4.20000000E+01  0.00000000E+00
  5.40000000E+02  4.00000000E+01  0.00000000E+00
  5.40000000E+02  3.80000000E+01  0.00000000E+00
  5.40000000E+02  3.60000000E+01  0.00000000E+00
  5.40000000E+02  3.40000000E+01  0.00000000E+00
  5.40000000E+02  3.20000000E+01  0.00000000E+00
  5.40000000E+02  3.00000000E+01  0.00000000E+00
  5.40000000E+02  2.80000000E+01  0.00000000E+00
  5.40000000E+02  2.60000000E+01  0.00000000E+00
  5.40000000E+02  2.40000000E+01  0.00000000E+00
  5.40000000E+02  2.20000000E+01  0.00000000E+00
  5.40000000E+02  2.00000000E+01  0.00000000E+00
  5.40000000E+02  1.80000000E+01  0.00000000E+00
  5.40000000E+02  1.60000000E+01  0.00000000E+00
  5.40000000E+02  1.40000000E+01  0.00000000E+00
  5.40000000E+02  1.20000000E+01  0.00000000E+00
  5.40000000E+02  1.00000000E+01  0.00000000E+00
  5.40000000E+02  8.00000000E+00  0.00000000E+00
  5.40000000E+02  6.00000000E+00  0.00000000E+00
  5.40000000E+02  4.00000000E+00  0.00000000E+00
  5.40000000E+02  2.00000000E+00  0.00000000E+00
  5.40000000E+02 -3.33066907E-14  0.00000000E+00
  5.50000000E+02  1.00000000E+02  0.00000000E+00
  5.50000000E+02  9.80000000E+01  0.00000000E+00
  5.50000000E+02  9.60000000E+01  0.00000000E+00
  5.50000000E+02  9.40000000E+01  0.00000000E+00
  5.50000000E+02  9.20000000E+01  0.00000000E+00
  5.50000000E+02  9.00000000E+01  0.00000000E+00
  5.50000000E+02  8.80000000E+01  0.00000000E+00
  5.50000000E+02  8.60000000E+01  0.00000000E+00
  5.50000000E+02  8.40000000E+01  0.00000000E+00
  5.50000000E+02  8.20000000E+01  0.00000000E+00
  5.50000000E+02  8.00000000E+01  0.00000000E+00
  5.50000000E+02  7.80000000E+01  0.00000000E+00
  5.50000000E+02  7.60000000E+01  0.00000000E+00
  5.50000000E+02  7.40000000E+01  0.00000000E+00
  5.50000000E+02  7.20000000E+01  0.00000000E+00
  5.50000000E+02  7.00000000E+01  0.00000000E+00
  5.50000000E+02  6.80000000E+01  0.00000000E+00
  5.50000000E+02  6.60000000E+01  0.00000000E+00
  5.50000000E+02  6.40000000E+01  0.00000000E+00
  5.50000000E+02  6.20000000E+01  0.00000000E+00
  5.50000000E+02  6.00000000E+01  0.00000000E+00
  5.50000000E+02  5.80000000E+01  0.00000000E+00
  5.50000000E+02  5.60000000E+01  0.00000000E+00
  5.50000000E+02  5.40000000E+01  0.00000000E+00
  5.50000000E+02  5.20000000E+01  0.00000000E+00
  5.50000000E+02  5.00000000E+01  0.00000000E+00
  5.50000000E+02  4.80000000E+01  0.00000000E+00
  5.50000000E+02  4.60000000E+01  0.00000000E+00
  5.50000000E+02  4.40000000E+01  0.00000000E+00
  5.50000000E+02  4.20000000E+01  0.00000000E+00
  5.50000000E+02  4.00000000E+01  0.00000000E+00
  5.50000000E+02  3.80000000E+01  0.00000000E+00
  5.50000000E+02  3.60000000E+01  0.00000000E+00
  5.50000000E+02  3.40000000E+01  0.00000000E+00
  5.50000000E+02  3.20000000E+01  0.00000000E+00
  5.50000000E+02  3.00000000E+01  0.00000000E+00
  5.50000000E+02  2.80000000E+01  0.00000000E+00
  5.50000000E+02  2.60000000E+01  0.00000000E+00
  5.50000000E+02  2.40000000E+01  0.00000000E+00
  5.50000000E+02  2.20000000E+01  0.00000000E+00
  5.50000000E+02  2.00000000E+01  0.00000000E+00
  5.50000000E+02  1.80000000E+01  0.00000000E+00
  5.50000000E+02  1.60000000E+01  0.00000000E+00
  5.50000000E+02  1.40000000E+01  0.00000000E+00
  5.50000000E+02  1.20000000E+01  0.00000000E+00
  5.50000000E+02  1.00000000E+01  0.00000000E+00
  5.50000000E+02  8.00000000E+00  0.00000000E+00
  5.50000000E+02  6.00000000E+00  0.00000000E+00
  5.50000000E+02  4.00000000E+00  0.00000000E+00
  5.50000000E+02  2.00000000E+00  0.00000000E+00
  5.50000000E+02 -3.33066907E-14  0.00000000E+00
  5.60000000E+02  1.00000000E+02  0.00000000E+00
  5.60000000E+02  9.80000000E+01  0.00000000E+00
  5.60000000E+02  9.60000000E+01  0.00000000E+00
  5.60000000E+02  9.40000000E+01  0.00000000E+00
  5.60000000E+02  9.20000000E+01  0.00000000E+00
  5.60000000E+02  9.00000000E+01  0.00000000E+00
  5.60000000E+02  8.80000000E+01  0.00000000E+00
  5.60000000E+02  8.60000000E+01  0.00000000E+00
  5.60000000E+02  8.40000000E+01  0.00000000E+00
  5.60000000E+02  8.20000000E+01  0.00000000E+00
  5.60000000E+02  8.00000000E+01  0.00000000E+00
  5.60000000E+02  7.80000000E+01  0.00000000E+00
  5.60000000E+02  7.60000000E+01  0.00000000E+00
  5.60000000E+02  7.40000000E+01  0.00000000E+00
  5.60000000E+02  7.20000000E+01  0.00000000E+00
  5.60000000E+02  7.00000000E+01  0.00000000E+00
  5.60000000E+02  6.80000000E+01  0.00000000E+00
  5.60000000E+02  6.60000000E+01  0.00000000E+00
  5.60000000E+02  6.40000000E+01  0.00000000E+00
  5.60000000E+02  6.20000000E+01  0.00000000E+00
  5.60000000E+02  6.00000000E+01  0.00000000E+00
  5.60000000E+02  5.80000000E+01  0.00000000E+00
  5.60000000E+02  5.60000000E+01  0.00000000E+00
  5.60000000E+02  5.40000000E+01  0.00000000E+00
  5.60000000E+02  5.20000000E+01  0.00000000E+00
  5.60000000E+02  5.00000000E+01  0.00000000E+00
  5.60000000E+02  4.80000000E+01  0.00000000E+00
  5.60000000E+02  4.60000000E+01  0.00000000E+00
  5.60000000E+02  4.40000000E+01  0.00000000E+00
  5.60000000E+02  4.20000000E+01  0.00000000E+00
  5.60000000E+02  4.00000000E+01  0.00000000E+00
  5.60000000E+02  3.80000000E+01  0.00000000E+00
  5.60000000E+02  3.60000000E+01  0.00000000E+00
  5.60000000E+02  3.40000000E+01  0.00000000E+00
  5.60000000E+02  3.20000000E+01  0.00000000E+00
  5.60000000E+02  3.00000000E+01  0.00000000E+00
  5.60000000E+02  2.80000000E+01  0.00000000E+00
  5.60000000E+02  2.60000000E+01  0.00000000E+00
  5.60000000E+02  2.40000000E+01  0.00000000E+00
  5.60000000E+02  2.20000000E+01  0.00000000E+00
  5.60000000E+02  2.00000000E+01  0.00000000E+00
  5.60000000E+02  1.80000000E+01  0.00000000E+00
  5.60000000E+02  1.60000000E+01  0.00000000E+00
  5.60000000E+02  1.40000000E+01  0.00000000E+00
  5.60000000E+02  1.20000000E+01  0.00000000E+00
  5.60000000E+02  1.00000000E+01  0.00000000E+00
  5.60000000E+02  8.00000000E+00  0.00000000E+00
  5.60000000E+02  6.00000000E+00  0.00000000E+00
  5.60000000E+02  4.00000000E+00  0.00000000E+00
  5.60000000E+02  2.00000000E+00  0.00000000E+00
  5.60000000E+02 -3.33066907E-14  0.00000000E+00
  5.70000000E+02  1.00000000E+02  0.00000000E+00
  5.70000000E+02  9.80000000E+01  0.00000000E+00
  5.70000000E+02  9.60000000E+01  0.00000000E+00
  5.70000000E+02  9.40000000E+01  0.00000000E+00
  5.70000000E+02  9.20000000E+01  0.00000000E+00
  5.70000000E+02  9.00000000E+01  0.00000000E+00
  5.70000000E+02  8.80000000E+01  0.00000000E+00
  5.70000000E+02  8.60000000E+01  0.00000000E+00
  5.70000000E+02  8.40000000E+01  0.00000000E+00
  5.70000000E+02  8.20000000E+01  0.00000000E+00
  5.70000000E+02  8.00000000E+01  0.00000000E+00
  5.70000000E+02  7.80000000E+01  0.00000000E+00
  5.70000000E+02  7.60000000E+01  0.00000000E+00
  5.70000000E+02  7.40000000E+01  0.00000000E+00
  5.70000000E+02  7.20000000E+01  0.00000000E+00
  5.70000000E+02  7.00000000E+01  0.00000000E+00
  5.70000000E+02  6.80000000E+01  0.00000000E+00
  5.70000000E+02  6.60000000E+01  0.00000000E+00
  5.70000000E+02  6.40000000E+01  0.00000000E+00
  5.70000000E+02  6.20000000E+01  0.00000000E+00
  5.70000000E+02  6.00000000E+01  0.00000000E+00
  5.70000000E+02  5.80000000E+01  0.00000000E+00
  5.70000000E+02  5.60000000E+01  0.00000000E+00
  5.70000000E+02  5.40000000E+01  0.00000000E+00
  5.70000000E+02  5.20000000E+01  0.00000000E+00
  5.70000000E+02  5.00000000E+01  0.00000000E+00
  5.70000000E+02  4.80000000E+01  0.00000000E+00
  5.70000000E+02  4.60000000E+01  0.00000000E+00
  5.70000000E+02  4.40000000E+01  0.00000000E+00
  5.70000000E+02  4.20000000E+01  0.00000000E+00
  5.70000000E+02  4.00000000E+01  0.00000000E+00
  5.70000000E+02  3.80000000E+01  0.00000000E+00
  5.70000000E+02  3.60000000E+01  0.00000000E+00
  5.70000000E+02  3.40000000E+01  0.00000000E+00
  5.70000000E+02  3.20000000E+01  0.00000000E+00
  5.70000000E+02  3.00000000E+01  0.00000000E+00
  5.70000000E+02  2.80000000E+01  0.00000000E+00
  5.70000000E+02  2.60000000E+01  0.00000000E+00
  5.70000000E+02  2.40000000E+01  0.00000000E+00
  5.70000000E+02  2.20000000E+01  0.00000000E+00
  5.70000000E+02  2.00000000E+01  0.00000000E+00
  5.70000000E+02  1.80000000E+01  0.00000000E+00
  5.70000000E+02  1.60000000E+01  0.00000000E+00
  5.70000000E+02  1.40000000E+01  0.00000000E+00
  5.70000000E+02  1.20000000E+01  0.00000000E+00
  5.70000000E+02  1.00000000E+01  0.00000000E+00
  5.70000000E+02  8.00000000E+00  0.00000000E+00
  5.70000000E+02  6.00000000E+00  0.00000000E+00
  5.70000000E+02  4.00000000E+00  0.00000000E+00
  5.70000000E+02  2.00000000E+00  0.00000000E+00
  5.70000000E+02 -3.33066907E-14  0.00000000E+00
  5.80000000E+02  1.00000000E+02  0.00000000E+00
  5.80000000E+02  9.80000000E+01  0.00000000E+00
  5.80000000E+02  9.60000000E+01  0.00000000E+00
  5.80000000E+02  9.40000000E+01  0.00000000E+00
  5.80000000E+02  9.20000000E+01  0.00000000E+00
  5.80000000E+02  9.00000000E+01  0.00000000E+00
  5.80000000E+02  8.80000000E+01  0.00000000E+00
  5.80000000E+02  8.60000000E+01  0.00000000E+00
  5.80000000E+02  8.40000000E+01  0.00000000E+00
  5.80000000E+02  8.20000000E+01  0.00000000E+00
  5.80000000E+02  8.00000000E+01  0.00000000E+00
  5.80000000E+02  7.80000000E+01  0.00000000E+00
  5.80000000E+02  7.60000000E+01  0.00000000E+00
  5.80000000E+02  7.40000000E+01  0.00000000E+00
  5.80000000E+02  7.20000000E+01  0.00000000E+00
  5.80000000E+02  7.00000000E+01  0.00000000E+00
  5.80000000E+02  6.80000000E+01  0.00000000E+00
  5.80000000E+02  6.60000000E+01  0.00000000E+00
  5.80000000E+02  6.40000000E+01  0.00000000E+00
  5.80000000E+02  6.20000000E+01  0.00000000E+00
  5.80000000E+02  6.00000000E+01  0.00000000E+00
  5.80000000E+02  5.80000000E+01  0.00000000E+00
  5.80000000E+02  5.60000000E+01  0.00000000E+00
  5.80000000E+02  5.40000000E+01  0.00000000E+00
  5.80000000E+02  5.20000000E+01  0.00000000E+00
  5.80000000E+02  5.00000000E+01  0.00000000E+00
  5.80000000E+02  4.80000000E+01  0.00000000E+00
  5.80000000E+02  4.60000000E+01  0.00000000E+00
  5.80000000E+02  4.40000000E+01  0.00000000E+00
  5.80000000E+02  4.20000000E+01  0.00000000E+00
  5.80000000E+02  4.00000000E+01  0.00000000E+00
  5.80000000E+02  3.80000000E+01  0.00000000E+00
  5.80000000E+02  3.60000000E+01  0.00000000E+00
  5.80000000E+02  3.40000000E+01  0.00000000E+00
  5.80000000E+02  3.20000000E+01  0.00000000E+00
  5.80000000E+02  3.00000000E+01  0.00000000E+00
  5.80000000E+02  2.80000000E+01  0.00000000E+00
  5.80000000E+02  2.60000000E+01  0.00000000E+00
  5.80000000E+02  2.40000000E+01  0.00000000E+00
  5.80000000E+02  2.20000000E+01  0.00000000E+00
  5.80000000E+02  2.00000000E+01  0.00000000E+00
  5.80000000E+02  1.80000000E+01  0.00000000E+00
  5.80000000E+02  1.60000000E+01  0.00000000E+00
  5.80000000E+02  1.40000000E+01  0.00000000E+00
  5.80000000E+02  1.20000000E+01  0.00000000E+00
  5.80000000E+02  1.00000000E+01  0.00000000E+00
  5.80000000E+02  8.00000000E+00  0.00000000E+00
  5.80000000E+02  6.00000000E+00  0.00000000E+00
  5.80000000E+02  4.00000000E+00  0.00000000E+00
  5.80000000E+02  2.00000000E+00  0.00000000E+00
  5.80000000E+02 -3.33066907E-14  0.00000000E+00
  5.90000000E+02  1.00000000E+02  0.00000000E+00
  5.90000000E+02  9.80000000E+01  0.00000000E+00
  5.90000000E+02  9.60000000E+01  0.00000000E+00
  5.90000000E+02  9.40000000E+01  0.00000000E+00
  5.90000000E+02  9.20000000E+01  0.00000000E+00
  5.90000000E+02  9.00000000E+01  0.00000000E+00
  5.90000000E+02  8.80000000E+01  0.00000000E+00
  5.90000000E+02  8.60000000E+01  0.00000000E+00
  5.90000000E+02  8.40000000E+01  0.00000000E+00
  5.90000000E+02  8.20000000E+01  0.00000000E+00
  5.90000000E+02  8.00000000E+01  0.00000000E+00
  5.90000000E+02  7.80000000E+01  0.00000000E+00
  5.90000000E+02  7.60000000E+01  0.00000000E+00
  5.90000000E+02  7.40000000E+01  0.00000000E+00
  5.90000000E+02  7.20000000E+01  0.00000000E+00
  5.90000000E+02  7.00000000E+01  0.00000000E+00
  5.90000000E+02  6.80000000E+01  0.00000000E+00
  5.90000000E+02  6.60000000E+01  0.00000000E+00
  5.90000000E+02  6.40000000E+01  0.00000000E+00
  5.90000000E+02  6.20000000E+01  0.00000000E+00
  5.90000000E+02  6.00000000E+01  0.00000000E+00
  5.90000000E+02  5.80000000E+01  0.00000000E+00
  5.90000000E+02  5.60000000E+01  0.00000000E+00
  5.90000000E+02  5.40000000E+01  0.00000000E+00
  5.90000000E+02  5.20000000E+01  0.00000000E+00
  5.90000000E+02  5.00000000E+01  0.00000000E+00
  5.90000000E+02  4.80000000E+01  0.00000000E+00
  5.90000000E+02  4.60000000E+01  0.00000000E+00
  5.90000000E+02  4.40000000E+01  0.00000000E+00
  5.90000000E+02  4.20000000E+01  0.00000000E+00
  5.90000000E+02  4.00000000E+01  0.00000000E+00
  5.90000000E+02  3.80000000E+01  0.00000000E+00
  5.90000000E+02  3.60000000E+01  0.00000000E+00
  5.90000000E+02  3.40000000E+01  0.00000000E+00
  5.90000000E+02  3.20000000E+01  0.00000000E+00
  5.90000000E+02  3.00000000E+01  0.00000000E+00
  5.90000000E+02  2.80000000E+01  0.00000000E+00
  5.90000000E+02  2.60000000E+01  0.00000000E+00
  5.90000000E+02  2.40000000E+01  0.00000000E+00
  5.90000000E+02  2.20000000E+01  0.00000000E+00
  5.90000000E+02  2.00000000E+01  0.00000000E+00
  5.90000000E+02  1.80000000E+01  0.00000000E+00
  5.90000000E+02  1.60000000E+01  0.00000000E+00
  5.90000000E+02  1.40000000E+01  0.00000000E+00
  5.90000000E+02  1.20000000E+01  0.00000000E+00
  5.90000000E+02  1.00000000E+01  0.00000000E+00
  5.90000000E+02  8.00000000E+00  0.00000000E+00
  5.90000000E+02  6.00000000E+00  0.00000000E+00
  5.90000000E+02  4.00000000E+00  0.00000000E+00
  5.90000000E+02  2.00000000E+00  0.00000000E+00
  5.90000000E+02 -3.33066907E-14  0.00000000E+00
  6.00000000E+02  1.00000000E+02  0.00000000E+00
  6.00000000E+02  9.80000000E+01  0.00000000E+00
  6.00000000E+02  9.60000000E+01  0.00000000E+00
  6.00000000E+02  9.40000000E+01  0.00000000E+00
  6.00000000E+02  9.20000000E+01  0.00000000E+00
  6.00000000E+02  9.00000000E+01  0.00000000E+00
  6.00000000E+02  8.80000000E+01  0.00000000E+00
  6.00000000E+02  8.60000000E+01  0.00000000E+00
  6.00000000E+02  8.40000000E+01  0.00000000E+00
  6.00000000E+02  8.20000000E+01  0.00000000E+00
  6.00000000E+02  8.00000000E+01  0.00000000E+00
  6.00000000E+02  7.80000000E+01  0.00000000E+00
  6.00000000E+02  7.60000000E+01  0.00000000E+00
  6.00000000E+02  7.40000000E+01  0.00000000E+00
  6.00000000E+02  7.20000000E+01  0.00000000E+00
  6.00000000E+02  7.00000000E+01  0.00000000E+00
  6.00000000E+02  6.80000000E+01  0.00000000E+00
  6.00000000E+02  6.60000000E+01  0.00000000E+00
  6.00000000E+02  6.40000000E+01  0.00000000E+00
  6.00000000E+02  6.20000000E+01  0.00000000E+00
  6.00000000E+02  6.00000000E+01  0.00000000E+00
  6.00000000E+02  5.80000000E+01  0.00000000E+00
  6.00000000E+02  5.60000000E+01  0.00000000E+00
  6.00000000E+02  5.40000000E+01  0.00000000E+00
  6.00000000E+02  5.20000000E+01  0.00000000E+00
  6.00000000E+02  5.00000000E+01  0.00000000E+00
  6.00000000E+02  4.80000000E+01  0.00000000E+00
  6.00000000E+02  4.60000000E+01  0.00000000E+00
  6.00000000E+02  4.40000000E+01  0.00000000E+00
  6.00000000E+02  4.20000000E+01  0.00000000E+00
  6.00000000E+02  4.00000000E+01  0.00000000E+00
  6.00000000E+02  3.80000000E+01  0.00000000E+00
  6.00000000E+02  3.60000000E+01  0.00000000E+00
  6.00000000E+02  3.40000000E+01  0.00000000E+00
  6.00000000E+02  3.20000000E+01  0.00000000E+00
  6.00000000E+02  3.00000000E+01  0.00000000E+00
  6.00000000E+02  2.80000000E+01  0.00000000E+00
  6.00000000E+02  2.60000000E+01  0.00000000E+00
  6.00000000E+02  2.40000000E+01  0.00000000E+00
  6.00000000E+02  2.20000000E+01  0.00000000E+00
  6.00000000E+02  2.00000000E+01  0.00000000E+00
  6.00000000E+02  1.80000000E+01  0.00000000E+00
  6.00000000E+02  1.60000000E+01  0.00000000E+00
  6.00000000E+02  1.40000000E+01  0.00000000E+00
  6.00000000E+02  1.20000000E+01  0.00000000E+00
  6.00000000E+02  1.00000000E+01  0.00000000E+00
  6.00000000E+02  8.00000000E+00  0.00000000E+00
  6.00000000E+02  6.00000000E+00  0.00000000E+00
  6.00000000E+02  4.00000000E+00  0.00000000E+00
  6.00000000E+02  2.00000000E+00  0.00000000E+00
  6.00000000E+02 -3.33066907E-14  0.00000000E+00
  6.10000000E+02  1.00000000E+02  0.00000000E+00
  6.10000000E+02  9.80000000E+01  0.00000000E+00
  6.10000000E+02  9.60000000E+01  0.00000000E+00
  6.10000000E+02  9.40000000E+01  0.00000000E+00
  6.10000000E+02  9.20000000E+01  0.00000000E+00
  6.10000000E+02  9.00000000E+01  0.00000000E+00
  6.10000000E+02  8.80000000E+01  0.00000000E+00
  6.10000000E+02  8.60000000E+01  0.00000000E+00
  6.10000000E+02  8.40000000E+01  0.00000000E+00
  6.10000000E+02  8.20000000E+01  0.00000000E+00
  6.10000000E+02  8.00000000E+01  0.00000000E+00
  6.10000000E+02  7.80000000E+01  0.00000000E+00
  6.10000000E+02  7.60000000E+01  0.00000000E+00
  6.10000000E+02  7.40000000E+01  0.00000000E+00
  6.10000000E+02  7.20000000E+01  0.00000000E+00
  6.10000000E+02  7.00000000E+01  0.00000000E+00
  6.10000000E+02  6.80000000E+01  0.00000000E+00
  6.10000000E+02  6.60000000E+01  0.00000000E+00
  6.10000000E+02  6.40000000E+01  0.00000000E+00
  6.10000000E+02  6.20000000E+01  0.00000000E+00
  6.10000000E+02  6.00000000E+01  0.00000000E+00
  6.10000000E+02  5.80000000E+01  0.00000000E+00
  6.10000000E+02  5.60000000E+01  0.00000000E+00
  6.10000000E+02  5.40000000E+01  0.00000000E+00
  6.10000000E+02  5.20000000E+01  0.00000000E+00
  6.10000000E+02  5.00000000E+01  0.00000000E+00
  6.10000000E+02  4.80000000E+01  0.00000000E+00
  6.10000000E+02  4.60000000E+01  0.00000000E+00
  6.10000000E+02  4.40000000E+01  0.00000000E+00
  6.10000000E+02  4.20000000E+01  0.00000000E+00
  6.10000000E+02  4.00000000E+01  0.00000000E+00
  6.10000000E+02  3.80000000E+01  0.00000000E+00
  6.10000000E+02  3.60000000E+01  0.00000000E+00
  6.10000000E+02  3.40000000E+01  0.00000000E+00
  6.10000000E+02  3.20000000E+01  0.00000000E+00
  6.10000000E+02  3.00000000E+01  0.00000000E+00
  6.10000000E+02  2.80000000E+01  0.00000000E+00
  6.10000000E+02  2.60000000E+01  0.00000000E+00
  6.10000000E+02  2.40000000E+01  0.00000000E+00
  6.10000000E+02  2.20000000E+01  0.00000000E+00
  6.10000000E+02  2.00000000E+01  0.00000000E+00
  6.10000000E+02  1.80000000E+01  0.00000000E+00
  6.10000000E+02  1.60000000E+01  0.00000000E+00
  6.10000000E+02  1.40000000E+01  0.00000000E+00
  6.10000000E+02  1.20000000E+01  0.00000000E+00
  6.10000000E+02  1.00000000E+01  0.00000000E+00
  6.10000000E+02  8.00000000E+00  0.00000000E+00
  6.10000000E+02  6.00000000E+00  0.00000000E+00
  6.10000000E+02  4.00000000E+00  0.00000000E+00
  6.10000000E+02  2.00000000E+00  0.00000000E+00
  6.10000000E+02 -3.33066907E-14  0.00000000E+00
  6.20000000E+02  1.00000000E+02  0.00000000E+00
  6.20000000E+02  9.80000000E+01  0.00000000E+00
  6.20000000E+02  9.60000000E+01  0.00000000E+00
  6.20000000E+02  9.40000000E+01  0.00000000E+00
  6.20000000E+02  9.20000000E+01  0.00000000E+00
  6.20000000E+02  9.00000000E+01  0.00000000E+00
  6.20000000E+02  8.80000000E+01  0.00000000E+00
  6.20000000E+02  8.60000000E+01  0.00000000E+00
  6.20000000E+02  8.40000000E+01  0.00000000E+00
  6.20000000E+02  8.20000000E+01  0.00000000E+00
  6.20000000E+02  8.00000000E+01  0.00000000E+00
  6.20000000E+02  7.80000000E+01  0.00000000E+00
  6.20000000E+02  7.60000000E+01  0.00000000E+00
  6.20000000E+02  7.40000000E+01  0.00000000E+00
  6.20000000E+02  7.20000000E+01  0.00000000E+00
  6.20000000E+02  7.00000000E+01  0.00000000E+00
  6.20000000E+02  6.80000000E+01  0.00000000E+00
  6.20000000E+02  6.60000000E+01  0.00000000E+00
  6.20000000E+02  6.40000000E+01  0.00000000E+00
  6.20000000E+02  6.20000000E+01  0.00000000E+00
  6.20000000E+02  6.00000000E+01  0.00000000E+00
  6.20000000E+02  5.80000000E+01  0.00000000E+00
  6.20000000E+02  5.60000000E+01  0.00000000E+00
  6.20000000E+02  5.40000000E+01  0.00000000E+00
  6.20000000E+02  5.20000000E+01  0.00000000E+00
  6.20000000E+02  5.00000000E+01  0.00000000E+00
  6.20000000E+02  4.80000000E+01  0.00000000E+00
  6.20000000E+02  4.60000000E+01  0.00000000E+00
  6.20000000E+02  4.40000000E+01  0.00000000E+00
  6.20000000E+02  4.20000000E+01  0.00000000E+00
  6.20000000E+02  4.00000000E+01  0.00000000E+00
  6.20000000E+02  3.80000000E+01  0.00000000E+00
  6.20000000E+02  3.60000000E+01  0.00000000E+00
  6.20000000E+02  3.40000000E+01  0.00000000E+00
  6.20000000E+02  3.20000000E+01  0.00000000E+00
  6.20000000E+02  3.00000000E+01  0.00000000E+00
  6.20000000E+02  2.80000000E+01  0.00000000E+00
  6.20000000E+02  2.60000000E+01  0.00000000E+00
  6.20000000E+02  2.40000000E+01  0.00000000E+00
  6.20000000E+02  2.20000000E+01  0.00000000E+00
  6.20000000E+02  2.00000000E+01  0.00000000E+00
  6.20000000E+02  1.80000000E+01  0.00000000E+00
  6.20000000E+02  1.60000000E+01  0.00000000E+00
  6.20000000E+02  1.40000000E+01  0.00000000E+00
  6.20000000E+02  1.20000000E+01  0.00000000E+00
  6.20000000E+02  1.00000000E+01  0.00000000E+00
  6.20000000E+02  8.00000000E+00  0.00000000E+00
  6.20000000E+02  6.00000000E+00  0.00000000E+00
  6.20000000E+02  4.00000000E+00  0.00000000E+00
  6.20000000E+02  2.00000000E+00  0.00000000E+00
  6.20000000E+02 -3.33066907E-14  0.00000000E+00
  6.30000000E+02  1.00000000E+02  0.00000000E+00
  6.30000000E+02  9.80000000E+01  0.00000000E+00
  6.30000000E+02  9.60000000E+01  0.00000000E+00
  6.30000000E+02  9.40000000E+01  0.00000000E+00
  6.30000000E+02  9.20000000E+01  0.00000000E+00
  6.30000000E+02  9.00000000E+01  0.00000000E+00
  6.30000000E+02  8.80000000E+01  0.00000000E+00
  6.30000000E+02  8.60000000E+01  0.00000000E+00
  6.30000000E+02  8.40000000E+01  0.00000000E+00
  6.30000000E+02  8.20000000E+01  0.00000000E+00
  6.30000000E+02  8.00000000E+01  0.00000000E+00
  6.30000000E+02  7.80000000E+01  0.00000000E+00
  6.30000000E+02  7.60000000E+01  0.00000000E+00
  6.30000000E+02  7.40000000E+01  0.00000000E+00
  6.30000000E+02  7.20000000E+01  0.00000000E+00
  6.30000000E+02  7.00000000E+01  0.00000000E+00
  6.30000000E+02  6.80000000E+01  0.00000000E+00
  6.30000000E+02  6.60000000E+01  0.00000000E+00
  6.30000000E+02  6.40000000E+01  0.00000000E+00
  6.30000000E+02  6.20000000E+01  0.00000000E+00
  6.30000000E+02  6.00000000E+01  0.00000000E+00
  6.30000000E+02  5.80000000E+01  0.00000000E+00
  6.30000000E+02  5.60000000E+01  0.00000000E+00
  6.30000000E+02  5.40000000E+01  0.00000000E+00
  6.30000000E+02  5.20000000E+01  0.00000000E+00
  6.30000000E+02  5.00000000E+01  0.00000000E+00
  6.30000000E+02  4.80000000E+01  0.00000000E+00
  6.30000000E+02  4.60000000E+01  0.00000000E+00
  6.30000000E+02  4.40000000E+01  0.00000000E+00
  6.30000000E+02  4.20000000E+01  0.00000000E+00
  6.30000000E+02  4.00000000E+01  0.00000000E+00
  6.30000000E+02  3.80000000E+01  0.00000000E+00
  6.30000000E+02  3.60000000E+01  0.00000000E+00
  6.30000000E+02  3.40000000E+01  0.00000000E+00
  6.30000000E+02  3.20000000E+01  0.00000000E+00
  6.30000000E+02  3.00000000E+01  0.00000000E+00
  6.30000000E+02  2.80000000E+01  0.00000000E+00
  6.30000000E+02  2.60000000E+01  0.00000000E+00
  6.30000000E+02  2.40000000E+01  0.00000000E+00
  6.30000000E+02  2.20000000E+01  0.00000000E+00
  6.30000000E+02  2.00000000E+01  0.00000000E+00
  6.30000000E+02  1.80000000E+01  0.00000000E+00
  6.30000000E+02  1.60000000E+01  0.00000000E+00
  6.30000000E+02  1.40000000E+01  0.00000000E+00
  6.30000000E+02  1.20000000E+01  0.00000000E+00
  6.30000000E+02  1.00000000E+01  0.00000000E+00
  6.30000000E+02  8.00000000E+00  0.00000000E+00
  6.30000000E+02  6.00000000E+00  0.00000000E+00
  6.30000000E+02  4.00000000E+00  0.00000000E+00
  6.30000000E+02  2.00000000E+00  0.00000000E+00
  6.30000000E+02 -3.33066907E-14  0.00000000E+00
  6.40000000E+02  1.00000000E+02  0.00000000E+00
  6.40000000E+02  9.80000000E+01  0.00000000E+00
  6.40000000E+02  9.60000000E+01  0.00000000E+00
  6.40000000E+02  9.40000000E+01  0.00000000E+00
  6.40000000E+02  9.20000000E+01  0.00000000E+00
  6.40000000E+02  9.00000000E+01  0.00000000E+00
  6.40000000E+02  8.80000000E+01  0.00000000E+00
  6.40000000E+02  8.60000000E+01  0.00000000E+00
  6.40000000E+02  8.40000000E+01  0.00000000E+00
  6.40000000E+02  8.20000000E+01  0.00000000E+00
  6.40000000E+02  8.00000000E+01  0.00000000E+00
  6.40000000E+02  7.80000000E+01  0.00000000E+00
  6.40000000E+02  7.60000000E+01  0.00000000E+00
  6.40000000E+02  7.40000000E+01  0.00000000E+00
  6.40000000E+02  7.20000000E+01  0.00000000E+00
  6.40000000E+02  7.00000000E+01  0.00000000E+00
  6.40000000E+02  6.80000000E+01  0.00000000E+00
  6.40000000E+02  6.60000000E+01  0.00000000E+00
  6.40000000E+02  6.40000000E+01  0.00000000E+00
  6.40000000E+02  6.20000000E+01  0.00000000E+00
  6.40000000E+02  6.00000000E+01  0.00000000E+00
  6.40000000E+02  5.80000000E+01  0.00000000E+00
  6.40000000E+02  5.60000000E+01  0.00000000E+00
  6.40000000E+02  5.40000000E+01  0.00000000E+00
  6.40000000E+02  5.20000000E+01  0.00000000E+00
  6.40000000E+02  5.00000000E+01  0.00000000E+00
  6.40000000E+02  4.80000000E+01  0.00000000E+00
  6.40000000E+02  4.60000000E+01  0.00000000E+00
  6.40000000E+02  4.40000000E+01  0.00000000E+00
  6.40000000E+02  4.20000000E+01  0.00000000E+00
  6.40000000E+02  4.00000000E+01  0.00000000E+00
  6.40000000E+02  3.80000000E+01  0.00000000E+00
  6.40000000E+02  3.60000000E+01  0.00000000E+00
  6.40000000E+02  3.40000000E+01  0.00000000E+00
  6.40000000E+02  3.20000000E+01  0.00000000E+00
  6.40000000E+02  3.00000000E+01  0.00000000E+00
  6.40000000E+02  2.80000000E+01  0.00000000E+00
  6.40000000E+02  2.60000000E+01  0.00000000E+00
  6.40000000E+02  2.40000000E+01  0.00000000E+00
  6.40000000E+02  2.20000000E+01  0.00000000E+00
  6.40000000E+02  2.00000000E+01  0.00000000E+00
  6.40000000E+02  1.80000000E+01  0.00000000E+00
  6.40000000E+02  1.60000000E+01  0.00000000E+00
  6.40000000E+02  1.40000000E+01  0.00000000E+00
  6.40000000E+02  1.20000000E+01  0.00000000E+00
  6.40000000E+02  1.00000000E+01  0.00000000E+00
  6.40000000E+02  8.00000000E+00  0.00000000E+00
  6.40000000E+02  6.00000000E+00  0.00000000E+00
  6.40000000E+02  4.00000000E+00  0.00000000E+00
  6.40000000E+02  2.00000000E+00  0.00000000E+00
  6.40000000E+02 -3.33066907E-14  0.00000000E+00
  6.50000000E+02  1.00000000E+02  0.00000000E+00
  6.50000000E+02  9.80000000E+01  0.00000000E+00
  6.50000000E+02  9.60000000E+01  0.00000000E+00
  6.50000000E+02  9.40000000E+01  0.00000000E+00
  6.50000000E+02  9.20000000E+01  0.00000000E+00
  6.50000000E+02  9.00000000E+01  0.00000000E+00
  6.50000000E+02  8.80000000E+01  0.00000000E+00
  6.50000000E+02  8.60000000E+01  0.00000000E+00
  6.50000000E+02  8.40000000E+01  0.00000000E+00
  6.50000000E+02  8.20000000E+01  0.00000000E+00
  6.50000000E+02  8.00000000E+01  0.00000000E+00
  6.50000000E+02  7.80000000E+01  0.00000000E+00
  6.50000000E+02  7.60000000E+01  0.00000000E+00
  6.50000000E+02  7.40000000E+01  0.00000000E+00
  6.50000000E+02  7.20000000E+01  0.00000000E+00
  6.50000000E+02  7.00000000E+01  0.00000000E+00
  6.50000000E+02  6.80000000E+01  0.00000000E+00
  6.50000000E+02  6.60000000E+01  0.00000000E+00
  6.50000000E+02  6.40000000E+01  0.00000000E+00
  6.50000000E+02  6.20000000E+01  0.00000000E+00
  6.50000000E+02  6.00000000E+01  0.00000000E+00
  6.50000000E+02  5.80000000E+01  0.00000000E+00
  6.50000000E+02  5.60000000E+01  0.00000000E+00
  6.50000000E+02  5.40000000E+01  0.00000000E+00
  6.50000000E+02  5.20000000E+01  0.00000000E+00
  6.50000000E+02  5.00000000E+01  0.00000000E+00
  6.50000000E+02  4.80000000E+01  0.00000000E+00
  6.50000000E+02  4.60000000E+01  0.00000000E+00
  6.50000000E+02  4.40000000E+01  0.00000000E+00
  6.50000000E+02  4.20000000E+01  0.00000000E+00
  6.50000000E+02  4.00000000E+01  0.00000000E+00
  6.50000000E+02  3.80000000E+01  0.00000000E+00
  6.50000000E+02  3.60000000E+01  0.00000000E+00
  6.50000000E+02  3.40000000E+01  0.00000000E+00
  6.50000000E+02  3.20000000E+01  0.00000000E+00
  6.50000000E+02  3.00000000E+01  0.00000000E+00
  6.50000000E+02  2.80000000E+01  0.00000000E+00
  6.50000000E+02  2.60000000E+01  0.00000000E+00
  6.50000000E+02  2.40000000E+01  0.00000000E+00
  6.50000000E+02  2.20000000E+01  0.00000000E+00
  6.50000000E+02  2.00000000E+01  0.00000000E+00
  6.50000000E+02  1.80000000E+01  0.00000000E+00
  6.50000000E+02  1.60000000E+01  0.00000000E+00
  6.50000000E+02  1.40000000E+01  0.00000000E+00
  6.50000000E+02  1.20000000E+01  0.00000000E+00
  6.50000000E+02  1.00000000E+01  0.00000000E+00
  6.50000000E+02  8.00000000E+00  0.00000000E+00
  6.50000000E+02  6.00000000E+00  0.00000000E+00
  6.50000000E+02  4.00000000E+00  0.00000000E+00
  6.50000000E+02  2.00000000E+00  0.00000000E+00
  6.50000000E+02 -3.33066907E-14  0.00000000E+00
  6.60000000E+02  1.00000000E+02  0.00000000E+00
  6.60000000E+02  9.80000000E+01  0.00000000E+00
  6.60000000E+02  9.60000000E+01  0.00000000E+00
  6.60000000E+02  9.40000000E+01  0.00000000E+00
  6.60000000E+02  9.20000000E+01  0.00000000E+00
  6.60000000E+02  9.00000000E+01  0.00000000E+00
  6.60000000E+02  8.80000000E+01  0.00000000E+00
  6.60000000E+02  8.60000000E+01  0.00000000E+00
  6.60000000E+02  8.40000000E+01  0.00000000E+00
  6.60000000E+02  8.20000000E+01  0.00000000E+00
  6.60000000E+02  8.00000000E+01  0.00000000E+00
  6.60000000E+02  7.80000000E+01  0.00000000E+00
  6.60000000E+02  7.60000000E+01  0.00000000E+00
  6.60000000E+02  7.40000000E+01  0.00000000E+00
  6.60000000E+02  7.20000000E+01  0.00000000E+00
  6.60000000E+02  7.00000000E+01  0.00000000E+00
  6.60000000E+02  6.80000000E+01  0.00000000E+00
  6.60000000E+02  6.60000000E+01  0.00000000E+00
  6.60000000E+02  6.40000000E+01  0.00000000E+00
  6.60000000E+02  6.20000000E+01  0.00000000E+00
  6.60000000E+02  6.00000000E+01  0.00000000E+00
  6.60000000E+02  5.80000000E+01  0.00000000E+00
  6.60000000E+02  5.60000000E+01  0.00000000E+00
  6.60000000E+02  5.40000000E+01  0.00000000E+00
  6.60000000E+02  5.20000000E+01  0.00000000E+00
  6.60000000E+02  5.00000000E+01  0.00000000E+00
  6.60000000E+02  4.80000000E+01  0.00000000E+00
  6.60000000E+02  4.60000000E+01  0.00000000E+00
  6.60000000E+02  4.40000000E+01  0.00000000E+00
  6.60000000E+02  4.20000000E+01  0.00000000E+00
  6.60000000E+02  4.00000000E+01  0.00000000E+00
  6.60000000E+02  3.80000000E+01  0.00000000E+00
  6.60000000E+02  3.60000000E+01  0.00000000E+00
  6.60000000E+02  3.40000000E+01  0.00000000E+00
  6.60000000E+02  3.20000000E+01  0.00000000E+00
  6.60000000E+02  3.00000000E+01  0.00000000E+00
  6.60000000E+02  2.80000000E+01  0.00000000E+00
  6.60000000E+02  2.60000000E+01  0.00000000E+00
  6.60000000E+02  2.40000000E+01  0.00000000E+00
  6.60000000E+02  2.20000000E+01  0.00000000E+00
  6.60000000E+02  2.00000000E+01  0.00000000E+00
  6.60000000E+02  1.80000000E+01  0.00000000E+00
  6.60000000E+02  1.60000000E+01  0.00000000E+00
  6.60000000E+02  1.40000000E+01  0.00000000E+00
  6.60000000E+02  1.20000000E+01  0.00000000E+00
  6.60000000E+02  1.00000000E+01  0.00000000E+00
  6.60000000E+02  8.00000000E+00  0.00000000E+00
  6.60000000E+02  6.00000000E+00  0.00000000E+00
  6.60000000E+02  4.00000000E+00  0.00000000E+00
  6.60000000E+02  2.00000000E+00  0.00000000E+00
  6.60000000E+02 -3.33066907E-14  0.00000000E+00
  6.70000000E+02  1.00000000E+02  0.00000000E+00
  6.70000000E+02  9.80000000E+01  0.00000000E+00
  6.70000000E+02  9.60000000E+01  0.00000000E+00
  6.70000000E+02  9.40000000E+01  0.00000000E+00
  6.70000000E+02  9.20000000E+01  0.00000000E+00
  6.70000000E+02  9.00000000E+01  0.00000000E+00
  6.70000000E+02  8.80000000E+01  0.00000000E+00
  6.70000000E+02  8.60000000E+01  0.00000000E+00
  6.70000000E+02  8.40000000E+01  0.00000000E+00
  6.70000000E+02  8.20000000E+01  0.00000000E+00
  6.70000000E+02  8.00000000E+01  0.00000000E+00
  6.70000000E+02  7.80000000E+01  0.00000000E+00
  6.70000000E+02  7.60000000E+01  0.00000000E+00
  6.70000000E+02  7.40000000E+01  0.00000000E+00
  6.70000000E+02  7.20000000E+01  0.00000000E+00
  6.70000000E+02  7.00000000E+01  0.00000000E+00
  6.70000000E+02  6.80000000E+01  0.00000000E+00
  6.70000000E+02  6.60000000E+01  0.00000000E+00
  6.70000000E+02  6.40000000E+01  0.00000000E+00
  6.70000000E+02  6.20000000E+01  0.00000000E+00
  6.70000000E+02  6.00000000E+01  0.00000000E+00
  6.70000000E+02  5.80000000E+01  0.00000000E+00
  6.70000000E+02  5.60000000E+01  0.00000000E+00
  6.70000000E+02  5.40000000E+01  0.00000000E+00
  6.70000000E+02  5.20000000E+01  0.00000000E+00
  6.70000000E+02  5.00000000E+01  0.00000000E+00
  6.70000000E+02  4.80000000E+01  0.00000000E+00
  6.70000000E+02  4.60000000E+01  0.00000000E+00
  6.70000000E+02  4.40000000E+01  0.00000000E+00
  6.70000000E+02  4.20000000E+01  0.00000000E+00
  6.70000000E+02  4.00000000E+01  0.00000000E+00
  6.70000000E+02  3.80000000E+01  0.00000000E+00
  6.70000000E+02  3.60000000E+01  0.00000000E+00
  6.70000000E+02  3.40000000E+01  0.00000000E+00
  6.70000000E+02  3.20000000E+01  0.00000000E+00
  6.70000000E+02  3.00000000E+01  0.00000000E+00
  6.70000000E+02  2.80000000E+01  0.00000000E+00
  6.70000000E+02  2.60000000E+01  0.00000000E+00
  6.70000000E+02  2.40000000E+01  0.00000000E+00
  6.70000000E+02  2.20000000E+01  0.00000000E+00
  6.70000000E+02  2.00000000E+01  0.00000000E+00
  6.70000000E+02  1.80000000E+01  0.00000000E+00
  6.70000000E+02  1.60000000E+01  0.00000000E+00
  6.70000000E+02  1.40000000E+01  0.00000000E+00
  6.70000000E+02  1.20000000E+01  0.00000000E+00
  6.70000000E+02  1.00000000E+01  0.00000000E+00
  6.70000000E+02  8.00000000E+00  0.00000000E+00
  6.70000000E+02  6.00000000E+00  0.00000000E+00
  6.70000000E+02  4.00000000E+00  0.00000000E+00
  6.70000000E+02  2.00000000E+00  0.00000000E+00
  6.70000000E+02 -3.33066907E-14  0.00000000E+00
  6.80000000E+02  1.00000000E+02  0.00000000E+00
  6.80000000E+02  9.80000000E+01  0.00000000E+00
  6.80000000E+02  9.60000000E+01  0.00000000E+00
  6.80000000E+02  9.40000000E+01  0.00000000E+00
  6.80000000E+02  9.20000000E+01  0.00000000E+00
  6.80000000E+02  9.00000000E+01  0.00000000E+00
  6.80000000E+02  8.80000000E+01  0.00000000E+00
  6.80000000E+02  8.60000000E+01  0.00000000E+00
  6.80000000E+02  8.40000000E+01  0.00000000E+00
  6.80000000E+02  8.20000000E+01  0.00000000E+00
  6.80000000E+02  8.00000000E+01  0.00000000E+00
  6.80000000E+02  7.80000000E+01  0.00000000E+00
  6.80000000E+02  7.60000000E+01  0.00000000E+00
  6.80000000E+02  7.40000000E+01  0.00000000E+00
  6.80000000E+02  7.20000000E+01  0.00000000E+00
  6.80000000E+02  7.00000000E+01  0.00000000E+00
  6.80000000E+02  6.80000000E+01  0.00000000E+00
  6.80000000E+02  6.60000000E+01  0.00000000E+00
  6.80000000E+02  6.40000000E+01  0.00000000E+00
  6.80000000E+02  6.20000000E+01  0.00000000E+00
  6.80000000E+02  6.00000000E+01  0.00000000E+00
  6.80000000E+02  5.80000000E+01  0.00000000E+00
  6.80000000E+02  5.60000000E+01  0.00000000E+00
  6.80000000E+02  5.40000000E+01  0.00000000E+00
  6.80000000E+02  5.20000000E+01  0.00000000E+00
  6.80000000E+02  5.00000000E+01  0.00000000E+00
  6.80000000E+02  4.80000000E+01  0.00000000E+00
  6.80000000E+02  4.60000000E+01  0.00000000E+00
  6.80000000E+02  4.40000000E+01  0.00000000E+00
  6.80000000E+02  4.20000000E+01  0.00000000E+00
  6.80000000E+02  4.00000000E+01  0.00000000E+00
  6.80000000E+02  3.80000000E+01  0.00000000E+00
  6.80000000E+02  3.60000000E+01  0.00000000E+00
  6.80000000E+02  3.40000000E+01  0.00000000E+00
  6.80000000E+02  3.20000000E+01  0.00000000E+00
  6.80000000E+02  3.00000000E+01  0.00000000E+00
  6.80000000E+02  2.80000000E+01  0.00000000E+00
  6.80000000E+02  2.60000000E+01  0.00000000E+00
  6.80000000E+02  2.40000000E+01  0.00000000E+00
  6.80000000E+02  2.20000000E+01  0.00000000E+00
  6.80000000E+02  2.00000000E+01  0.00000000E+00
  6.80000000E+02  1.80000000E+01  0.00000000E+00
  6.80000000E+02  1.60000000E+01  0.00000000E+00
  6.80000000E+02  1.40000000E+01  0.00000000E+00
  6.80000000E+02  1.20000000E+01  0.00000000E+00
  6.80000000E+02  1.00000000E+01  0.00000000E+00
  6.80000000E+02  8.00000000E+00  0.00000000E+00
  6.80000000E+02  6.00000000E+00  0.00000000E+00
  6.80000000E+02  4.00000000E+00  0.00000000E+00
  6.80000000E+02  2.00000000E+00  0.00000000E+00
  6.80000000E+02 -3.33066907E-14  0.00000000E+00
  6.90000000E+02  1.00000000E+02  0.00000000E+00
  6.90000000E+02  9.80000000E+01  0.00000000E+00
  6.90000000E+02  9.60000000E+01  0.00000000E+00
  6.90000000E+02  9.40000000E+01  0.00000000E+00
  6.90000000E+02  9.20000000E+01  0.00000000E+00
  6.90000000E+02  9.00000000E+01  0.00000000E+00
  6.90000000E+02  8.80000000E+01  0.00000000E+00
  6.90000000E+02  8.60000000E+01  0.00000000E+00
  6.90000000E+02  8.40000000E+01  0.00000000E+00
  6.90000000E+02  8.20000000E+01  0.00000000E+00
  6.90000000E+02  8.00000000E+01  0.00000000E+00
  6.90000000E+02  7.80000000E+01  0.00000000E+00
  6.90000000E+02  7.60000000E+01  0.00000000E+00
  6.90000000E+02  7.40000000E+01  0.00000000E+00
  6.90000000E+02  7.20000000E+01  0.00000000E+00
  6.90000000E+02  7.00000000E+01  0.00000000E+00
  6.90000000E+02  6.80000000E+01  0.00000000E+00
  6.90000000E+02  6.60000000E+01  0.00000000E+00
  6.90000000E+02  6.40000000E+01  0.00000000E+00
  6.90000000E+02  6.20000000E+01  0.00000000E+00
  6.90000000E+02  6.00000000E+01  0.00000000E+00
  6.90000000E+02  5.80000000E+01  0.00000000E+00
  6.90000000E+02  5.60000000E+01  0.00000000E+00
  6.90000000E+02  5.40000000E+01  0.00000000E+00
  6.90000000E+02  5.20000000E+01  0.00000000E+00
  6.90000000E+02  5.00000000E+01  0.00000000E+00
  6.90000000E+02  4.80000000E+01  0.00000000E+00
  6.90000000E+02  4.60000000E+01  0.00000000E+00
  6.90000000E+02  4.40000000E+01  0.00000000E+00
  6.90000000E+02  4.20000000E+01  0.00000000E+00
  6.90000000E+02  4.00000000E+01  0.00000000E+00
  6.90000000E+02  3.80000000E+01  0.00000000E+00
  6.90000000E+02  3.60000000E+01  0.00000000E+00
  6.90000000E+02  3.40000000E+01  0.00000000E+00
  6.90000000E+02  3.20000000E+01  0.00000000E+00
  6.90000000E+02  3.00000000E+01  0.00000000E+00
  6.90000000E+02  2.80000000E+01  0.00000000E+00
  6.90000000E+02  2.60000000E+01  0.00000000E+00
  6.90000000E+02  2.40000000E+01  0.00000000E+00
  6.90000000E+02  2.20000000E+01  0.00000000E+00
  6.90000000E+02  2.00000000E+01  0.00000000E+00
  6.90000000E+02  1.80000000E+01  0.00000000E+00
  6.90000000E+02  1.60000000E+01  0.00000000E+00
  6.90000000E+02  1.40000000E+01  0.00000000E+00
  6.90000000E+02  1.20000000E+01  0.00000000E+00
  6.90000000E+02  1.00000000E+01  0.00000000E+00
  6.90000000E+02  8.00000000E+00  0.00000000E+00
  6.90000000E+02  6.00000000E+00  0.00000000E+00
  6.90000000E+02  4.00000000E+00  0.00000000E+00
  6.90000000E+02  2.00000000E+00  0.00000000E+00
  6.90000000E+02 -3.33066907E-14  0.00000000E+00
  7.00000000E+02  1.00000000E+02  0.00000000E+00
  7.00000000E+02  9.80000000E+01  0.00000000E+00
  7.00000000E+02  9.60000000E+01  0.00000000E+00
  7.00000000E+02  9.40000000E+01  0.00000000E+00
  7.00000000E+02  9.20000000E+01  0.00000000E+00
  7.00000000E+02  9.00000000E+01  0.00000000E+00
  7.00000000E+02  8.80000000E+01  0.00000000E+00
  7.00000000E+02  8.60000000E+01  0.00000000E+00
  7.00000000E+02  8.40000000E+01  0.00000000E+00
  7.00000000E+02  8.20000000E+01  0.00000000E+00
  7.00000000E+02  8.00000000E+01  0.00000000E+00
  7.00000000E+02  7.80000000E+01  0.00000000E+00
  7.00000000E+02  7.60000000E+01  0.00000000E+00
  7.00000000E+02  7.40000000E+01  0.00000000E+00
  7.00000000E+02  7.20000000E+01  0.00000000E+00
  7.00000000E+02  7.00000000E+01  0.00000000E+00
  7.00000000E+02  6.80000000E+01  0.00000000E+00
  7.00000000E+02  6.60000000E+01  0.00000000E+00
  7.00000000E+02  6.40000000E+01  0.00000000E+00
  7.00000000E+02  6.20000000E+01  0.00000000E+00
  7.00000000E+02  6.00000000E+01  0.00000000E+00
  7.00000000E+02  5.80000000E+01  0.00000000E+00
  7.00000000E+02  5.60000000E+01  0.00000000E+00
  7.00000000E+02  5.40000000E+01  0.00000000E+00
  7.00000000E+02  5.20000000E+01  0.00000000E+00
  7.00000000E+02  5.00000000E+01  0.00000000E+00
  7.00000000E+02  4.80000000E+01  0.00000000E+00
  7.00000000E+02  4.60000000E+01  0.00000000E+00
  7.00000000E+02  4.40000000E+01  0.00000000E+00
  7.00000000E+02  4.20000000E+01  0.00000000E+00
  7.00000000E+02  4.00000000E+01  0.00000000E+00
  7.00000000E+02  3.80000000E+01  0.00000000E+00
  7.00000000E+02  3.60000000E+01  0.00000000E+00
  7.00000000E+02  3.40000000E+01  0.00000000E+00
  7.00000000E+02  3.20000000E+01  0.00000000E+00
  7.00000000E+02  3.00000000E+01  0.00000000E+00
  7.00000000E+02  2.80000000E+01  0.00000000E+00
  7.00000000E+02  2.60000000E+01  0.00000000E+00
  7.00000000E+02  2.40000000E+01  0.00000000E+00
  7.00000000E+02  2.20000000E+01  0.00000000E+00
  7.00000000E+02  2.00000000E+01  0.00000000E+00
  7.00000000E+02  1.80000000E+01  0.00000000E+00
  7.00000000E+02  1.60000000E+01  0.00000000E+00
  7.00000000E+02  1.40000000E+01  0.00000000E+00
  7.00000000E+02  1.20000000E+01  0.00000000E+00
  7.00000000E+02  1.00000000E+01  0.00000000E+00
  7.00000000E+02  8.00000000E+00  0.00000000E+00
  7.00000000E+02  6.00000000E+00  0.00000000E+00
  7.00000000E+02  4.00000000E+00  0.00000000E+00
  7.00000000E+02  2.00000000E+00  0.00000000E+00
  7.00000000E+02 -3.33066907E-14  0.00000000E+00
  7.10000000E+02  1.00000000E+02  0.00000000E+00
  7.10000000E+02  9.80000000E+01  0.00000000E+00
  7.10000000E+02  9.60000000E+01  0.00000000E+00
  7.10000000E+02  9.40000000E+01  0.00000000E+00
  7.10000000E+02  9.20000000E+01  0.00000000E+00
  7.10000000E+02  9.00000000E+01  0.00000000E+00
  7.10000000E+02  8.80000000E+01  0.00000000E+00
  7.10000000E+02  8.60000000E+01  0.00000000E+00
  7.10000000E+02  8.40000000E+01  0.00000000E+00
  7.10000000E+02  8.20000000E+01  0.00000000E+00
  7.10000000E+02  8.00000000E+01  0.00000000E+00
  7.10000000E+02  7.80000000E+01  0.00000000E+00
  7.10000000E+02  7.60000000E+01  0.00000000E+00
  7.10000000E+02  7.40000000E+01  0.00000000E+00
  7.10000000E+02  7.20000000E+01  0.00000000E+00
  7.10000000E+02  7.00000000E+01  0.00000000E+00
  7.10000000E+02  6.80000000E+01  0.00000000E+00
  7.10000000E+02  6.60000000E+01  0.00000000E+00
  7.10000000E+02  6.40000000E+01  0.00000000E+00
  7.10000000E+02  6.20000000E+01  0.00000000E+00
  7.10000000E+02  6.00000000E+01  0.00000000E+00
  7.10000000E+02  5.80000000E+01  0.00000000E+00
  7.10000000E+02  5.60000000E+01  0.00000000E+00
  7.10000000E+02  5.40000000E+01  0.00000000E+00
  7.10000000E+02  5.20000000E+01  0.00000000E+00
  7.10000000E+02  5.00000000E+01  0.00000000E+00
  7.10000000E+02  4.80000000E+01  0.00000000E+00
  7.10000000E+02  4.60000000E+01  0.00000000E+00
  7.10000000E+02  4.40000000E+01  0.00000000E+00
  7.10000000E+02  4.20000000E+01  0.00000000E+00
  7.10000000E+02  4.00000000E+01  0.00000000E+00
  7.10000000E+02  3.80000000E+01  0.00000000E+00
  7.10000000E+02  3.60000000E+01  0.00000000E+00
  7.10000000E+02  3.40000000E+01  0.00000000E+00
  7.10000000E+02  3.20000000E+01  0.00000000E+00
  7.10000000E+02  3.00000000E+01  0.00000000E+00
  7.10000000E+02  2.80000000E+01  0.00000000E+00
  7.10000000E+02  2.60000000E+01  0.00000000E+00
  7.10000000E+02  2.40000000E+01  0.00000000E+00
  7.10000000E+02  2.20000000E+01  0.00000000E+00
  7.10000000E+02  2.00000000E+01  0.00000000E+00
  7.10000000E+02  1.80000000E+01  0.00000000E+00
  7.10000000E+02  1.60000000E+01  0.00000000E+00
  7.10000000E+02  1.40000000E+01  0.00000000E+00
  7.10000000E+02  1.20000000E+01  0.00000000E+00
  7.10000000E+02  1.00000000E+01  0.00000000E+00
  7.10000000E+02  8.00000000E+00  0.00000000E+00
  7.10000000E+02  6.00000000E+00  0.00000000E+00
  7.10000000E+02  4.00000000E+00  0.00000000E+00
  7.10000000E+02  2.00000000E+00  0.00000000E+00
  7.10000000E+02 -3.33066907E-14  0.00000000E+00
  7.20000000E+02  1.00000000E+02  0.00000000E+00
  7.20000000E+02  9.80000000E+01  0.00000000E+00
  7.20000000E+02  9.60000000E+01  0.00000000E+00
  7.20000000E+02  9.40000000E+01  0.00000000E+00
  7.20000000E+02  9.20000000E+01  0.00000000E+00
  7.20000000E+02  9.00000000E+01  0.00000000E+00
  7.20000000E+02  8.80000000E+01  0.00000000E+00
  7.20000000E+02  8.60000000E+01  0.00000000E+00
  7.20000000E+02  8.40000000E+01  0.00000000E+00
  7.20000000E+02  8.20000000E+01  0.00000000E+00
  7.20000000E+02  8.00000000E+01  0.00000000E+00
  7.20000000E+02  7.80000000E+01  0.00000000E+00
  7.20000000E+02  7.60000000E+01  0.00000000E+00
  7.20000000E+02  7.40000000E+01  0.00000000E+00
  7.20000000E+02  7.20000000E+01  0.00000000E+00
  7.20000000E+02  7.00000000E+01  0.00000000E+00
  7.20000000E+02  6.80000000E+01  0.00000000E+00
  7.20000000E+02  6.60000000E+01  0.00000000E+00
  7.20000000E+02  6.40000000E+01  0.00000000E+00
  7.20000000E+02  6.20000000E+01  0.00000000E+00
  7.20000000E+02  6.00000000E+01  0.00000000E+00
  7.20000000E+02  5.80000000E+01  0.00000000E+00
  7.20000000E+02  5.60000000E+01  0.00000000E+00
  7.20000000E+02  5.40000000E+01  0.00000000E+00
  7.20000000E+02  5.20000000E+01  0.00000000E+00
  7.20000000E+02  5.00000000E+01  0.00000000E+00
  7.20000000E+02  4.80000000E+01  0.00000000E+00
  7.20000000E+02  4.60000000E+01  0.00000000E+00
  7.20000000E+02  4.40000000E+01  0.00000000E+00
  7.20000000E+02  4.20000000E+01  0.00000000E+00
  7.20000000E+02  4.00000000E+01  0.00000000E+00
  7.20000000E+02  3.80000000E+01  0.00000000E+00
  7.20000000E+02  3.60000000E+01  0.00000000E+00
  7.20000000E+02  3.40000000E+01  0.00000000E+00
  7.20000000E+02  3.20000000E+01  0.00000000E+00
  7.20000000E+02  3.00000000E+01  0.00000000E+00
  7.20000000E+02  2.80000000E+01  0.00000000E+00
  7.20000000E+02  2.60000000E+01  0.00000000E+00
  7.20000000E+02  2.40000000E+01  0.00000000E+00
  7.20000000E+02  2.20000000E+01  0.00000000E+00
  7.20000000E+02  2.00000000E+01  0.00000000E+00
  7.20000000E+02  1.80000000E+01  0.00000000E+00
  7.20000000E+02  1.60000000E+01  0.00000000E+00
  7.20000000E+02  1.40000000E+01  0.00000000E+00
  7.20000000E+02  1.20000000E+01  0.00000000E+00
  7.20000000E+02  1.00000000E+01  0.00000000E+00
  7.20000000E+02  8.00000000E+00  0.00000000E+00
  7.20000000E+02  6.00000000E+00  0.00000000E+00
  7.20000000E+02  4.00000000E+00  0.00000000E+00
  7.20000000E+02  2.00000000E+00  0.00000000E+00
  7.20000000E+02 -3.33066907E-14  0.00000000E+00
  7.30000000E+02  1.00000000E+02  0.00000000E+00
  7.30000000E+02  9.80000000E+01  0.00000000E+00
  7.30000000E+02  9.60000000E+01  0.00000000E+00
  7.30000000E+02  9.40000000E+01  0.00000000E+00
  7.30000000E+02  9.20000000E+01  0.00000000E+00
  7.30000000E+02  9.00000000E+01  0.00000000E+00
  7.30000000E+02  8.80000000E+01  0.00000000E+00
  7.30000000E+02  8.60000000E+01  0.00000000E+00
  7.30000000E+02  8.40000000E+01  0.00000000E+00
  7.30000000E+02  8.20000000E+01  0.00000000E+00
  7.30000000E+02  8.00000000E+01  0.00000000E+00
  7.30000000E+02  7.80000000E+01  0.00000000E+00
  7.30000000E+02  7.60000000E+01  0.00000000E+00
  7.30000000E+02  7.40000000E+01  0.00000000E+00
  7.30000000E+02  7.20000000E+01  0.00000000E+00
  7.30000000E+02  7.00000000E+01  0.00000000E+00
  7.30000000E+02  6.80000000E+01  0.00000000E+00
  7.30000000E+02  6.60000000E+01  0.00000000E+00
  7.30000000E+02  6.40000000E+01  0.00000000E+00
  7.30000000E+02  6.20000000E+01  0.00000000E+00
  7.30000000E+02  6.00000000E+01  0.00000000E+00
  7.30000000E+02  5.80000000E+01  0.00000000E+00
  7.30000000E+02  5.60000000E+01  0.00000000E+00
  7.30000000E+02  5.40000000E+01  0.00000000E+00
  7.30000000E+02  5.20000000E+01  0.00000000E+00
  7.30000000E+02  5.00000000E+01  0.00000000E+00
  7.30000000E+02  4.80000000E+01  0.00000000E+00
  7.30000000E+02  4.60000000E+01  0.00000000E+00
  7.30000000E+02  4.40000000E+01  0.00000000E+00
  7.30000000E+02  4.20000000E+01  0.00000000E+00
  7.30000000E+02  4.00000000E+01  0.00000000E+00
  7.30000000E+02  3.80000000E+01  0.00000000E+00
  7.30000000E+02  3.60000000E+01  0.00000000E+00
  7.30000000E+02  3.40000000E+01  0.00000000E+00
  7.30000000E+02  3.20000000E+01  0.00000000E+00
  7.30000000E+02  3.00000000E+01  0.00000000E+00
  7.30000000E+02  2.80000000E+01  0.00000000E+00
  7.30000000E+02  2.60000000E+01  0.00000000E+00
  7.30000000E+02  2.40000000E+01  0.00000000E+00
  7.30000000E+02  2.20000000E+01  0.00000000E+00
  7.30000000E+02  2.00000000E+01  0.00000000E+00
  7.30000000E+02  1.80000000E+01  0.00000000E+00
  7.30000000E+02  1.60000000E+01  0.00000000E+00
  7.30000000E+02  1.40000000E+01  0.00000000E+00
  7.30000000E+02  1.20000000E+01  0.00000000E+00
  7.30000000E+02  1.00000000E+01  0.00000000E+00
  7.30000000E+02  8.00000000E+00  0.00000000E+00
  7.30000000E+02  6.00000000E+00  0.00000000E+00
  7.30000000E+02  4.00000000E+00  0.00000000E+00
  7.30000000E+02  2.00000000E+00  0.00000000E+00
  7.30000000E+02 -3.33066907E-14  0.00000000E+00
  7.40000000E+02  1.00000000E+02  0.00000000E+00
  7.40000000E+02  9.80000000E+01  0.00000000E+00
  7.40000000E+02  9.60000000E+01  0.00000000E+00
  7.40000000E+02  9.40000000E+01  0.00000000E+00
  7.40000000E+02  9.20000000E+01  0.00000000E+00
  7.40000000E+02  9.00000000E+01  0.00000000E+00
  7.40000000E+02  8.80000000E+01  0.00000000E+00
  7.40000000E+02  8.60000000E+01  0.00000000E+00
  7.40000000E+02  8.40000000E+01  0.00000000E+00
  7.40000000E+02  8.20000000E+01  0.00000000E+00
  7.40000000E+02  8.00000000E+01  0.00000000E+00
  7.40000000E+02  7.80000000E+01  0.00000000E+00
  7.40000000E+02  7.60000000E+01  0.00000000E+00
  7.40000000E+02  7.40000000E+01  0.00000000E+00
  7.40000000E+02  7.20000000E+01  0.00000000E+00
  7.40000000E+02  7.00000000E+01  0.00000000E+00
  7.40000000E+02  6.80000000E+01  0.00000000E+00
  7.40000000E+02  6.60000000E+01  0.00000000E+00
  7.40000000E+02  6.40000000E+01  0.00000000E+00
  7.40000000E+02  6.20000000E+01  0.00000000E+00
  7.40000000E+02  6.00000000E+01  0.00000000E+00
  7.40000000E+02  5.80000000E+01  0.00000000E+00
  7.40000000E+02  5.60000000E+01  0.00000000E+00
  7.40000000E+02  5.40000000E+01  0.00000000E+00
  7.40000000E+02  5.20000000E+01  0.00000000E+00
  7.40000000E+02  5.00000000E+01  0.00000000E+00
  7.40000000E+02  4.80000000E+01  0.00000000E+00
  7.40000000E+02  4.60000000E+01  0.00000000E+00
  7.40000000E+02  4.40000000E+01  0.00000000E+00
  7.40000000E+02  4.20000000E+01  0.00000000E+00
  7.40000000E+02  4.00000000E+01  0.00000000E+00
  7.40000000E+02  3.80000000E+01  0.00000000E+00
  7.40000000E+02  3.60000000E+01  0.00000000E+00
  7.40000000E+02  3.40000000E+01  0.00000000E+00
  7.40000000E+02  3.20000000E+01  0.00000000E+00
  7.40000000E+02  3.00000000E+01  0.00000000E+00
  7.40000000E+02  2.80000000E+01  0.00000000E+00
  7.40000000E+02  2.60000000E+01  0.00000000E+00
  7.40000000E+02  2.40000000E+01  0.00000000E+00
  7.40000000E+02  2.20000000E+01  0.00000000E+00
  7.40000000E+02  2.00000000E+01  0.00000000E+00
  7.40000000E+02  1.80000000E+01  0.00000000E+00
  7.40000000E+02  1.60000000E+01  0.00000000E+00
  7.40000000E+02  1.40000000E+01  0.00000000E+00
  7.40000000E+02  1.20000000E+01  0.00000000E+00
  7.40000000E+02  1.00000000E+01  0.00000000E+00
  7.40000000E+02  8.00000000E+00  0.00000000E+00
  7.40000000E+02  6.00000000E+00  0.00000000E+00
  7.40000000E+02  4.00000000E+00  0.00000000E+00
  7.40000000E+02  2.00000000E+00  0.00000000E+00
  7.40000000E+02 -3.33066907E-14  0.00000000E+00
  7.50000000E+02  1.00000000E+02  0.00000000E+00
  7.50000000E+02  9.80000000E+01  0.00000000E+00
  7.50000000E+02  9.60000000E+01  0.00000000E+00
  7.50000000E+02  9.40000000E+01  0.00000000E+00
  7.50000000E+02  9.20000000E+01  0.00000000E+00
  7.50000000E+02  9.00000000E+01  0.00000000E+00
  7.50000000E+02  8.80000000E+01  0.00000000E+00
  7.50000000E+02  8.60000000E+01  0.00000000E+00
  7.50000000E+02  8.40000000E+01  0.00000000E+00
  7.50000000E+02  8.20000000E+01  0.00000000E+00
  7.50000000E+02  8.00000000E+01  0.00000000E+00
  7.50000000E+02  7.80000000E+01  0.00000000E+00
  7.50000000E+02  7.60000000E+01  0.00000000E+00
  7.50000000E+02  7.40000000E+01  0.00000000E+00
  7.50000000E+02  7.20000000E+01  0.00000000E+00
  7.50000000E+02  7.00000000E+01  0.00000000E+00
  7.50000000E+02  6.80000000E+01  0.00000000E+00
  7.50000000E+02  6.60000000E+01  0.00000000E+00
  7.50000000E+02  6.40000000E+01  0.00000000E+00
  7.50000000E+02  6.20000000E+01  0.00000000E+00
  7.50000000E+02  6.00000000E+01  0.00000000E+00
  7.50000000E+02  5.80000000E+01  0.00000000E+00
  7.50000000E+02  5.60000000E+01  0.00000000E+00
  7.50000000E+02  5.40000000E+01  0.00000000E+00
  7.50000000E+02  5.20000000E+01  0.00000000E+00
  7.50000000E+02  5.00000000E+01  0.00000000E+00
  7.50000000E+02  4.80000000E+01  0.00000000E+00
  7.50000000E+02  4.60000000E+01  0.00000000E+00
  7.50000000E+02  4.40000000E+01  0.00000000E+00
  7.50000000E+02  4.20000000E+01  0.00000000E+00
  7.50000000E+02  4.00000000E+01  0.00000000E+00
  7.50000000E+02  3.80000000E+01  0.00000000E+00
  7.50000000E+02  3.60000000E+01  0.00000000E+00
  7.50000000E+02  3.40000000E+01  0.00000000E+00
  7.50000000E+02  3.20000000E+01  0.00000000E+00
  7.50000000E+02  3.00000000E+01  0.00000000E+00
  7.50000000E+02  2.80000000E+01  0.00000000E+00
  7.50000000E+02  2.60000000E+01  0.00000000E+00
  7.50000000E+02  2.40000000E+01  0.00000000E+00
  7.50000000E+02  2.20000000E+01  0.00000000E+00
  7.50000000E+02  2.00000000E+01  0.00000000E+00
  7.50000000E+02  1.80000000E+01  0.00000000E+00
  7.50000000E+02  1.60000000E+01  0.00000000E+00
  7.50000000E+02  1.40000000E+01  0.00000000E+00
  7.50000000E+02  1.20000000E+01  0.00000000E+00
  7.50000000E+02  1.00000000E+01  0.00000000E+00
  7.50000000E+02  8.00000000E+00  0.00000000E+00
  7.50000000E+02  6.00000000E+00  0.00000000E+00
  7.50000000E+02  4.00000000E+00  0.00000000E+00
  7.50000000E+02  2.00000000E+00  0.00000000E+00
  7.50000000E+02 -3.33066907E-14  0.00000000E+00
  7.60000000E+02  1.00000000E+02  0.00000000E+00
  7.60000000E+02  9.80000000E+01  0.00000000E+00
  7.60000000E+02  9.60000000E+01  0.00000000E+00
  7.60000000E+02  9.40000000E+01  0.00000000E+00
  7.60000000E+02  9.20000000E+01  0.00000000E+00
  7.60000000E+02  9.00000000E+01  0.00000000E+00
  7.60000000E+02  8.80000000E+01  0.00000000E+00
  7.60000000E+02  8.60000000E+01  0.00000000E+00
  7.60000000E+02  8.40000000E+01  0.00000000E+00
  7.60000000E+02  8.20000000E+01  0.00000000E+00
  7.60000000E+02  8.00000000E+01  0.00000000E+00
  7.60000000E+02  7.80000000E+01  0.00000000E+00
  7.60000000E+02  7.60000000E+01  0.00000000E+00
  7.60000000E+02  7.40000000E+01  0.00000000E+00
  7.60000000E+02  7.20000000E+01  0.00000000E+00
  7.60000000E+02  7.00000000E+01  0.00000000E+00
  7.60000000E+02  6.80000000E+01  0.00000000E+00
  7.60000000E+02  6.60000000E+01  0.00000000E+00
  7.60000000E+02  6.40000000E+01  0.00000000E+00
  7.60000000E+02  6.20000000E+01  0.00000000E+00
  7.60000000E+02  6.00000000E+01  0.00000000E+00
  7.60000000E+02  5.80000000E+01  0.00000000E+00
  7.60000000E+02  5.60000000E+01  0.00000000E+00
  7.60000000E+02  5.40000000E+01  0.00000000E+00
  7.60000000E+02  5.20000000E+01  0.00000000E+00
  7.60000000E+02  5.00000000E+01  0.00000000E+00
  7.60000000E+02  4.80000000E+01  0.00000000E+00
  7.60000000E+02  4.60000000E+01  0.00000000E+00
  7.60000000E+02  4.40000000E+01  0.00000000E+00
  7.60000000E+02  4.20000000E+01  0.00000000E+00
  7.60000000E+02  4.00000000E+01  0.00000000E+00
  7.60000000E+02  3.80000000E+01  0.00000000E+00
  7.60000000E+02  3.60000000E+01  0.00000000E+00
  7.60000000E+02  3.40000000E+01  0.00000000E+00
  7.60000000E+02  3.20000000E+01  0.00000000E+00
  7.60000000E+02  3.00000000E+01  0.00000000E+00
  7.60000000E+02  2.80000000E+01  0.00000000E+00
  7.60000000E+02  2.60000000E+01  0.00000000E+00
  7.60000000E+02  2.40000000E+01  0.00000000E+00
  7.60000000E+02  2.20000000E+01  0.00000000E+00
  7.60000000E+02  2.00000000E+01  0.00000000E+00
  7.60000000E+02  1.80000000E+01  0.00000000E+00
  7.60000000E+02  1.60000000E+01  0.00000000E+00
  7.60000000E+02  1.40000000E+01  0.00000000E+00
  7.60000000E+02  1.20000000E+01  0.00000000E+00
  7.60000000E+02  1.00000000E+01  0.00000000E+00
  7.60000000E+02  8.00000000E+00  0.00000000E+00
  7.60000000E+02  6.00000000E+00  0.00000000E+00
  7.60000000E+02  4.00000000E+00  0.00000000E+00
  7.60000000E+02  2.00000000E+00  0.00000000E+00
  7.60000000E+02 -3.33066907E-14  0.00000000E+00
  7.70000000E+02  1.00000000E+02  0.00000000E+00
  7.70000000E+02  9.80000000E+01  0.00000000E+00
  7.70000000E+02  9.60000000E+01  0.00000000E+00
  7.70000000E+02  9.40000000E+01  0.00000000E+00
  7.70000000E+02  9.20000000E+01  0.00000000E+00
  7.70000000E+02  9.00000000E+01  0.00000000E+00
  7.70000000E+02  8.80000000E+01  0.00000000E+00
  7.70000000E+02  8.60000000E+01  0.00000000E+00
  7.70000000E+02  8.40000000E+01  0.00000000E+00
  7.70000000E+02  8.20000000E+01  0.00000000E+00
  7.70000000E+02  8.00000000E+01  0.00000000E+00
  7.70000000E+02  7.80000000E+01  0.00000000E+00
  7.70000000E+02  7.60000000E+01  0.00000000E+00
  7.70000000E+02  7.40000000E+01  0.00000000E+00
  7.70000000E+02  7.20000000E+01  0.00000000E+00
  7.70000000E+02  7.00000000E+01  0.00000000E+00
  7.70000000E+02  6.80000000E+01  0.00000000E+00
  7.70000000E+02  6.60000000E+01  0.00000000E+00
  7.70000000E+02  6.40000000E+01  0.00000000E+00
  7.70000000E+02  6.20000000E+01  0.00000000E+00
  7.70000000E+02  6.00000000E+01  0.00000000E+00
  7.70000000E+02  5.80000000E+01  0.00000000E+00
  7.70000000E+02  5.60000000E+01  0.00000000E+00
  7.70000000E+02  5.40000000E+01  0.00000000E+00
  7.70000000E+02  5.20000000E+01  0.00000000E+00
  7.70000000E+02  5.00000000E+01  0.00000000E+00
  7.70000000E+02  4.80000000E+01  0.00000000E+00
  7.70000000E+02  4.60000000E+01  0.00000000E+00
  7.70000000E+02  4.40000000E+01  0.00000000E+00
  7.70000000E+02  4.20000000E+01  0.00000000E+00
  7.70000000E+02  4.00000000E+01  0.00000000E+00
  7.70000000E+02  3.80000000E+01  0.00000000E+00
  7.70000000E+02  3.60000000E+01  0.00000000E+00
  7.70000000E+02  3.40000000E+01  0.00000000E+00
  7.70000000E+02  3.20000000E+01  0.00000000E+00
  7.70000000E+02  3.00000000E+01  0.00000000E+00
  7.70000000E+02  2.80000000E+01  0.00000000E+00
  7.70000000E+02  2.60000000E+01  0.00000000E+00
  7.70000000E+02  2.40000000E+01  0.00000000E+00
  7.70000000E+02  2.20000000E+01  0.00000000E+00
  7.70000000E+02  2.00000000E+01  0.00000000E+00
  7.70000000E+02  1.80000000E+01  0.00000000E+00
  7.70000000E+02  1.60000000E+01  0.00000000E+00
  7.70000000E+02  1.40000000E+01  0.00000000E+00
  7.70000000E+02  1.20000000E+01  0.00000000E+00
  7.70000000E+02  1.00000000E+01  0.00000000E+00
  7.70000000E+02  8.00000000E+00  0.00000000E+00
  7.70000000E+02  6.00000000E+00  0.00000000E+00
  7.70000000E+02  4.00000000E+00  0.00000000E+00
  7.70000000E+02  2.00000000E+00  0.00000000E+00
  7.70000000E+02 -3.33066907E-14  0.00000000E+00
  7.80000000E+02  1.00000000E+02  0.00000000E+00
  7.80000000E+02  9.80000000E+01  0.00000000E+00
  7.80000000E+02  9.60000000E+01  0.00000000E+00
  7.80000000E+02  9.40000000E+01  0.00000000E+00
  7.80000000E+02  9.20000000E+01  0.00000000E+00
  7.80000000E+02  9.00000000E+01  0.00000000E+00
  7.80000000E+02  8.80000000E+01  0.00000000E+00
  7.80000000E+02  8.60000000E+01  0.00000000E+00
  7.80000000E+02  8.40000000E+01  0.00000000E+00
  7.80000000E+02  8.20000000E+01  0.00000000E+00
  7.80000000E+02  8.00000000E+01  0.00000000E+00
  7.80000000E+02  7.80000000E+01  0.00000000E+00
  7.80000000E+02  7.60000000E+01  0.00000000E+00
  7.80000000E+02  7.40000000E+01  0.00000000E+00
  7.80000000E+02  7.20000000E+01  0.00000000E+00
  7.80000000E+02  7.00000000E+01  0.00000000E+00
  7.80000000E+02  6.80000000E+01  0.00000000E+00
  7.80000000E+02  6.60000000E+01  0.00000000E+00
  7.80000000E+02  6.40000000E+01  0.00000000E+00
  7.80000000E+02  6.20000000E+01  0.00000000E+00
  7.80000000E+02  6.00000000E+01  0.00000000E+00
  7.80000000E+02  5.80000000E+01  0.00000000E+00
  7.80000000E+02  5.60000000E+01  0.00000000E+00
  7.80000000E+02  5.40000000E+01  0.00000000E+00
  7.80000000E+02  5.20000000E+01  0.00000000E+00
  7.80000000E+02  5.00000000E+01  0.00000000E+00
  7.80000000E+02  4.80000000E+01  0.00000000E+00
  7.80000000E+02  4.60000000E+01  0.00000000E+00
  7.80000000E+02  4.40000000E+01  0.00000000E+00
  7.80000000E+02  4.20000000E+01  0.00000000E+00
  7.80000000E+02  4.00000000E+01  0.00000000E+00
  7.80000000E+02  3.80000000E+01  0.00000000E+00
  7.80000000E+02  3.60000000E+01  0.00000000E+00
  7.80000000E+02  3.40000000E+01  0.00000000E+00
  7.80000000E+02  3.20000000E+01  0.00000000E+00
  7.80000000E+02  3.00000000E+01  0.00000000E+00
  7.80000000E+02  2.80000000E+01  0.00000000E+00
  7.80000000E+02  2.60000000E+01  0.00000000E+00
  7.80000000E+02  2.40000000E+01  0.00000000E+00
  7.80000000E+02  2.20000000E+01  0.00000000E+00
  7.80000000E+02  2.00000000E+01  0.00000000E+00
  7.80000000E+02  1.80000000E+01  0.00000000E+00
  7.80000000E+02  1.60000000E+01  0.00000000E+00
  7.80000000E+02  1.40000000E+01  0.00000000E+00
  7.80000000E+02  1.20000000E+01  0.00000000E+00
  7.80000000E+02  1.00000000E+01  0.00000000E+00
  7.80000000E+02  8.00000000E+00  0.00000000E+00
  7.80000000E+02  6.00000000E+00  0.00000000E+00
  7.80000000E+02  4.00000000E+00  0.00000000E+00
  7.80000000E+02  2.00000000E+00  0.00000000E+00
  7.80000000E+02 -3.33066907E-14  0.00000000E+00
  7.90000000E+02  1.00000000E+02  0.00000000E+00
  7.90000000E+02  9.80000000E+01  0.00000000E+00
  7.90000000E+02  9.60000000E+01  0.00000000E+00
  7.90000000E+02  9.40000000E+01  0.00000000E+00
  7.90000000E+02  9.20000000E+01  0.00000000E+00
  7.90000000E+02  9.00000000E+01  0.00000000E+00
  7.90000000E+02  8.80000000E+01  0.00000000E+00
  7.90000000E+02  8.60000000E+01  0.00000000E+00
  7.90000000E+02  8.40000000E+01  0.00000000E+00
  7.90000000E+02  8.20000000E+01  0.00000000E+00
  7.90000000E+02  8.00000000E+01  0.00000000E+00
  7.90000000E+02  7.80000000E+01  0.00000000E+00
  7.90000000E+02  7.60000000E+01  0.00000000E+00
  7.90000000E+02  7.40000000E+01  0.00000000E+00
  7.90000000E+02  7.20000000E+01  0.00000000E+00
  7.90000000E+02  7.00000000E+01  0.00000000E+00
  7.90000000E+02  6.80000000E+01  0.00000000E+00
  7.90000000E+02  6.60000000E+01  0.00000000E+00
  7.90000000E+02  6.40000000E+01  0.00000000E+00
  7.90000000E+02  6.20000000E+01  0.00000000E+00
  7.90000000E+02  6.00000000E+01  0.00000000E+00
  7.90000000E+02  5.80000000E+01  0.00000000E+00
  7.90000000E+02  5.60000000E+01  0.00000000E+00
  7.90000000E+02  5.40000000E+01  0.00000000E+00
  7.90000000E+02  5.20000000E+01  0.00000000E+00
  7.90000000E+02  5.00000000E+01  0.00000000E+00
  7.90000000E+02  4.80000000E+01  0.00000000E+00
  7.90000000E+02  4.60000000E+01  0.00000000E+00
  7.90000000E+02  4.40000000E+01  0.00000000E+00
  7.90000000E+02  4.20000000E+01  0.00000000E+00
  7.90000000E+02  4.00000000E+01  0.00000000E+00
  7.90000000E+02  3.80000000E+01  0.00000000E+00
  7.90000000E+02  3.60000000E+01  0.00000000E+00
  7.90000000E+02  3.40000000E+01  0.00000000E+00
  7.90000000E+02  3.20000000E+01  0.00000000E+00
  7.90000000E+02  3.00000000E+01  0.00000000E+00
  7.90000000E+02  2.80000000E+01  0.00000000E+00
  7.90000000E+02  2.60000000E+01  0.00000000E+00
  7.90000000E+02  2.40000000E+01  0.00000000E+00
  7.90000000E+02  2.20000000E+01  0.00000000E+00
  7.90000000E+02  2.00000000E+01  0.00000000E+00
  7.90000000E+02  1.80000000E+01  0.00000000E+00
  7.90000000E+02  1.60000000E+01  0.00000000E+00
  7.90000000E+02  1.40000000E+01  0.00000000E+00
  7.90000000E+02  1.20000000E+01  0.00000000E+00
  7.90000000E+02  1.00000000E+01  0.00000000E+00
  7.90000000E+02  8.00000000E+00  0.00000000E+00
  7.90000000E+02  6.00000000E+00  0.00000000E+00
  7.90000000E+02  4.00000000E+00  0.00000000E+00
  7.90000000E+02  2.00000000E+00  0.00000000E+00
  7.90000000E+02 -3.33066907E-14  0.00000000E+00
  8.00000000E+02  1.00000000E+02  0.00000000E+00
  8.00000000E+02  9.80000000E+01  0.00000000E+00
  8.00000000E+02  9.60000000E+01  0.00000000E+00
  8.00000000E+02  9.40000000E+01  0.00000000E+00
  8.00000000E+02  9.20000000E+01  0.00000000E+00
  8.00000000E+02  9.00000000E+01  0.00000000E+00
  8.00000000E+02  8.80000000E+01  0.00000000E+00
  8.00000000E+02  8.60000000E+01  0.00000000E+00
  8.00000000E+02  8.40000000E+01  0.00000000E+00
  8.00000000E+02  8.20000000E+01  0.00000000E+00
  8.00000000E+02  8.00000000E+01  0.00000000E+00
  8.00000000E+02  7.80000000E+01  0.00000000E+00
  8.00000000E+02  7.60000000E+01  0.00000000E+00
  8.00000000E+02  7.40000000E+01  0.00000000E+00
  8.00000000E+02  7.20000000E+01  0.00000000E+00
  8.00000000E+02  7.00000000E+01  0.00000000E+00
  8.00000000E+02  6.80000000E+01  0.00000000E+00
  8.00000000E+02  6.60000000E+01  0.00000000E+00
  8.00000000E+02  6.40000000E+01  0.00000000E+00
  8.00000000E+02  6.20000000E+01  0.00000000E+00
  8.00000000E+02  6.00000000E+01  0.00000000E+00
  8.00000000E+02  5.80000000E+01  0.00000000E+00
  8.00000000E+02  5.60000000E+01  0.00000000E+00
  8.00000000E+02  5.40000000E+01  0.00000000E+00
  8.00000000E+02  5.20000000E+01  0.00000000E+00
  8.00000000E+02  5.00000000E+01  0.00000000E+00
  8.00000000E+02  4.80000000E+01  0.00000000E+00
  8.00000000E+02  4.60000000E+01  0.00000000E+00
  8.00000000E+02  4.40000000E+01  0.00000000E+00
  8.00000000E+02  4.20000000E+01  0.00000000E+00
  8.00000000E+02  4.00000000E+01  0.00000000E+00
  8.00000000E+02  3.80000000E+01  0.00000000E+00
  8.00000000E+02  3.60000000E+01  0.00000000E+00
  8.00000000E+02  3.40000000E+01  0.00000000E+00
  8.00000000E+02  3.20000000E+01  0.00000000E+00
  8.00000000E+02  3.00000000E+01  0.00000000E+00
  8.00000000E+02  2.80000000E+01  0.00000000E+00
  8.00000000E+02  2.60000000E+01  0.00000000E+00
  8.00000000E+02  2.40000000E+01  0.00000000E+00
  8.00000000E+02  2.20000000E+01  0.00000000E+00
  8.00000000E+02  2.00000000E+01  0.00000000E+00
  8.00000000E+02  1.80000000E+01  0.00000000E+00
  8.00000000E+02  1.60000000E+01  0.00000000E+00
  8.00000000E+02  1.40000000E+01  0.00000000E+00
  8.00000000E+02  1.20000000E+01  0.00000000E+00
  8.00000000E+02  1.00000000E+01  0.00000000E+00
  8.00000000E+02  8.00000000E+00  0.00000000E+00
  8.00000000E+02  6.00000000E+00  0.00000000E+00
  8.00000000E+02  4.00000000E+00  0.00000000E+00
  8.00000000E+02  2.00000000E+00  0.00000000E+00
  8.00000000E+02 -3.33066907E-14  0.00000000E+00
  8.10000000E+02  1.00000000E+02  0.00000000E+00
  8.10000000E+02  9.80000000E+01  0.00000000E+00
  8.10000000E+02  9.60000000E+01  0.00000000E+00
  8.10000000E+02  9.40000000E+01  0.00000000E+00
  8.10000000E+02  9.20000000E+01  0.00000000E+00
  8.10000000E+02  9.00000000E+01  0.00000000E+00
  8.10000000E+02  8.80000000E+01  0.00000000E+00
  8.10000000E+02  8.60000000E+01  0.00000000E+00
  8.10000000E+02  8.40000000E+01  0.00000000E+00
  8.10000000E+02  8.20000000E+01  0.00000000E+00
  8.10000000E+02  8.00000000E+01  0.00000000E+00
  8.10000000E+02  7.80000000E+01  0.00000000E+00
  8.10000000E+02  7.60000000E+01  0.00000000E+00
  8.10000000E+02  7.40000000E+01  0.00000000E+00
  8.10000000E+02  7.20000000E+01  0.00000000E+00
  8.10000000E+02  7.00000000E+01  0.00000000E+00
  8.10000000E+02  6.80000000E+01  0.00000000E+00
  8.10000000E+02  6.60000000E+01  0.00000000E+00
  8.10000000E+02  6.40000000E+01  0.00000000E+00
  8.10000000E+02  6.20000000E+01  0.00000000E+00
  8.10000000E+02  6.00000000E+01  0.00000000E+00
  8.10000000E+02  5.80000000E+01  0.00000000E+00
  8.10000000E+02  5.60000000E+01  0.00000000E+00
  8.10000000E+02  5.40000000E+01  0.00000000E+00
  8.10000000E+02  5.20000000E+01  0.00000000E+00
  8.10000000E+02  5.00000000E+01  0.00000000E+00
  8.10000000E+02  4.80000000E+01  0.00000000E+00
  8.10000000E+02  4.60000000E+01  0.00000000E+00
  8.10000000E+02  4.40000000E+01  0.00000000E+00
  8.10000000E+02  4.20000000E+01  0.00000000E+00
  8.10000000E+02  4.00000000E+01  0.00000000E+00
  8.10000000E+02  3.80000000E+01  0.00000000E+00
  8.10000000E+02  3.60000000E+01  0.00000000E+00
  8.10000000E+02  3.40000000E+01  0.00000000E+00
  8.10000000E+02  3.20000000E+01  0.00000000E+00
  8.10000000E+02  3.00000000E+01  0.00000000E+00
  8.10000000E+02  2.80000000E+01  0.00000000E+00
  8.10000000E+02  2.60000000E+01  0.00000000E+00
  8.10000000E+02  2.40000000E+01  0.00000000E+00
  8.10000000E+02  2.20000000E+01  0.00000000E+00
  8.10000000E+02  2.00000000E+01  0.00000000E+00
  8.10000000E+02  1.80000000E+01  0.00000000E+00
  8.10000000E+02  1.60000000E+01  0.00000000E+00
  8.10000000E+02  1.40000000E+01  0.00000000E+00
  8.10000000E+02  1.20000000E+01  0.00000000E+00
  8.10000000E+02  1.00000000E+01  0.00000000E+00
  8.10000000E+02  8.00000000E+00  0.00000000E+00
  8.10000000E+02  6.00000000E+00  0.00000000E+00
  8.10000000E+02  4.00000000E+00  0.00000000E+00
  8.10000000E+02  2.00000000E+00  0.00000000E+00
  8.10000000E+02 -3.33066907E-14  0.00000000E+00
  8.20000000E+02  1.00000000E+02  0.00000000E+00
  8.20000000E+02  9.80000000E+01  0.00000000E+00
  8.20000000E+02  9.60000000E+01  0.00000000E+00
  8.20000000E+02  9.40000000E+01  0.00000000E+00
  8.20000000E+02  9.20000000E+01  0.00000000E+00
  8.20000000E+02  9.00000000E+01  0.00000000E+00
  8.20000000E+02  8.80000000E+01  0.00000000E+00
  8.20000000E+02  8.60000000E+01  0.00000000E+00
  8.20000000E+02  8.40000000E+01  0.00000000E+00
  8.20000000E+02  8.20000000E+01  0.00000000E+00
  8.20000000E+02  8.00000000E+01  0.00000000E+00
  8.20000000E+02  7.80000000E+01  0.00000000E+00
  8.20000000E+02  7.60000000E+01  0.00000000E+00
  8.20000000E+02  7.40000000E+01  0.00000000E+00
  8.20000000E+02  7.20000000E+01  0.00000000E+00
  8.20000000E+02  7.00000000E+01  0.00000000E+00
  8.20000000E+02  6.80000000E+01  0.00000000E+00
  8.20000000E+02  6.60000000E+01  0.00000000E+00
  8.20000000E+02  6.40000000E+01  0.00000000E+00
  8.20000000E+02  6.20000000E+01  0.00000000E+00
  8.20000000E+02  6.00000000E+01  0.00000000E+00
  8.20000000E+02  5.80000000E+01  0.00000000E+00
  8.20000000E+02  5.60000000E+01  0.00000000E+00
  8.20000000E+02  5.40000000E+01  0.00000000E+00
  8.20000000E+02  5.20000000E+01  0.00000000E+00
  8.20000000E+02  5.00000000E+01  0.00000000E+00
  8.20000000E+02  4.80000000E+01  0.00000000E+00
  8.20000000E+02  4.60000000E+01  0.00000000E+00
  8.20000000E+02  4.40000000E+01  0.00000000E+00
  8.20000000E+02  4.20000000E+01  0.00000000E+00
  8.20000000E+02  4.00000000E+01  0.00000000E+00
  8.20000000E+02  3.80000000E+01  0.00000000E+00
  8.20000000E+02  3.60000000E+01  0.00000000E+00
  8.20000000E+02  3.40000000E+01  0.00000000E+00
  8.20000000E+02  3.20000000E+01  0.00000000E+00
  8.20000000E+02  3.00000000E+01  0.00000000E+00
  8.20000000E+02  2.80000000E+01  0.00000000E+00
  8.20000000E+02  2.60000000E+01  0.00000000E+00
  8.20000000E+02  2.40000000E+01  0.00000000E+00
  8.20000000E+02  2.20000000E+01  0.00000000E+00
  8.20000000E+02  2.00000000E+01  0.00000000E+00
  8.20000000E+02  1.80000000E+01  0.00000000E+00
  8.20000000E+02  1.60000000E+01  0.00000000E+00
  8.20000000E+02  1.40000000E+01  0.00000000E+00
  8.20000000E+02  1.20000000E+01  0.00000000E+00
  8.20000000E+02  1.00000000E+01  0.00000000E+00
  8.20000000E+02  8.00000000E+00  0.00000000E+00
  8.20000000E+02  6.00000000E+00  0.00000000E+00
  8.20000000E+02  4.00000000E+00  0.00000000E+00
  8.20000000E+02  2.00000000E+00  0.00000000E+00
  8.20000000E+02 -3.33066907E-14  0.00000000E+00
  8.30000000E+02  1.00000000E+02  0.00000000E+00
  8.30000000E+02  9.80000000E+01  0.00000000E+00
  8.30000000E+02  9.60000000E+01  0.00000000E+00
  8.30000000E+02  9.40000000E+01  0.00000000E+00
  8.30000000E+02  9.20000000E+01  0.00000000E+00
  8.30000000E+02  9.00000000E+01  0.00000000E+00
  8.30000000E+02  8.80000000E+01  0.00000000E+00
  8.30000000E+02  8.60000000E+01  0.00000000E+00
  8.30000000E+02  8.40000000E+01  0.00000000E+00
  8.30000000E+02  8.20000000E+01  0.00000000E+00
  8.30000000E+02  8.00000000E+01  0.00000000E+00
  8.30000000E+02  7.80000000E+01  0.00000000E+00
  8.30000000E+02  7.60000000E+01  0.00000000E+00
  8.30000000E+02  7.40000000E+01  0.00000000E+00
  8.30000000E+02  7.20000000E+01  0.00000000E+00
  8.30000000E+02  7.00000000E+01  0.00000000E+00
  8.30000000E+02  6.80000000E+01  0.00000000E+00
  8.30000000E+02  6.60000000E+01  0.00000000E+00
  8.30000000E+02  6.40000000E+01  0.00000000E+00
  8.30000000E+02  6.20000000E+01  0.00000000E+00
  8.30000000E+02  6.00000000E+01  0.00000000E+00
  8.30000000E+02  5.80000000E+01  0.00000000E+00
  8.30000000E+02  5.60000000E+01  0.00000000E+00
  8.30000000E+02  5.40000000E+01  0.00000000E+00
  8.30000000E+02  5.20000000E+01  0.00000000E+00
  8.30000000E+02  5.00000000E+01  0.00000000E+00
  8.30000000E+02  4.80000000E+01  0.00000000E+00
  8.30000000E+02  4.60000000E+01  0.00000000E+00
  8.30000000E+02  4.40000000E+01  0.00000000E+00
  8.30000000E+02  4.20000000E+01  0.00000000E+00
  8.30000000E+02  4.00000000E+01  0.00000000E+00
  8.30000000E+02  3.80000000E+01  0.00000000E+00
  8.30000000E+02  3.60000000E+01  0.00000000E+00
  8.30000000E+02  3.40000000E+01  0.00000000E+00
  8.30000000E+02  3.20000000E+01  0.00000000E+00
  8.30000000E+02  3.00000000E+01  0.00000000E+00
  8.30000000E+02  2.80000000E+01  0.00000000E+00
  8.30000000E+02  2.60000000E+01  0.00000000E+00
  8.30000000E+02  2.40000000E+01  0.00000000E+00
  8.30000000E+02  2.20000000E+01  0.00000000E+00
  8.30000000E+02  2.00000000E+01  0.00000000E+00
  8.30000000E+02  1.80000000E+01  0.00000000E+00
  8.30000000E+02  1.60000000E+01  0.00000000E+00
  8.30000000E+02  1.40000000E+01  0.00000000E+00
  8.30000000E+02  1.20000000E+01  0.00000000E+00
  8.30000000E+02  1.00000000E+01  0.00000000E+00
  8.30000000E+02  8.00000000E+00  0.00000000E+00
  8.30000000E+02  6.00000000E+00  0.00000000E+00
  8.30000000E+02  4.00000000E+00  0.00000000E+00
  8.30000000E+02  2.00000000E+00  0.00000000E+00
  8.30000000E+02 -3.33066907E-14  0.00000000E+00
  8.40000000E+02  1.00000000E+02  0.00000000E+00
  8.40000000E+02  9.80000000E+01  0.00000000E+00
  8.40000000E+02  9.60000000E+01  0.00000000E+00
  8.40000000E+02  9.40000000E+01  0.00000000E+00
  8.40000000E+02  9.20000000E+01  0.00000000E+00
  8.40000000E+02  9.00000000E+01  0.00000000E+00
  8.40000000E+02  8.80000000E+01  0.00000000E+00
  8.40000000E+02  8.60000000E+01  0.00000000E+00
  8.40000000E+02  8.40000000E+01  0.00000000E+00
  8.40000000E+02  8.20000000E+01  0.00000000E+00
  8.40000000E+02  8.00000000E+01  0.00000000E+00
  8.40000000E+02  7.80000000E+01  0.00000000E+00
  8.40000000E+02  7.60000000E+01  0.00000000E+00
  8.40000000E+02  7.40000000E+01  0.00000000E+00
  8.40000000E+02  7.20000000E+01  0.00000000E+00
  8.40000000E+02  7.00000000E+01  0.00000000E+00
  8.40000000E+02  6.80000000E+01  0.00000000E+00
  8.40000000E+02  6.60000000E+01  0.00000000E+00
  8.40000000E+02  6.40000000E+01  0.00000000E+00
  8.40000000E+02  6.20000000E+01  0.00000000E+00
  8.40000000E+02  6.00000000E+01  0.00000000E+00
  8.40000000E+02  5.80000000E+01  0.00000000E+00
  8.40000000E+02  5.60000000E+01  0.00000000E+00
  8.40000000E+02  5.40000000E+01  0.00000000E+00
  8.40000000E+02  5.20000000E+01  0.00000000E+00
  8.40000000E+02  5.00000000E+01  0.00000000E+00
  8.40000000E+02  4.80000000E+01  0.00000000E+00
  8.40000000E+02  4.60000000E+01  0.00000000E+00
  8.40000000E+02  4.40000000E+01  0.00000000E+00
  8.40000000E+02  4.20000000E+01  0.00000000E+00
  8.40000000E+02  4.00000000E+01  0.00000000E+00
  8.40000000E+02  3.80000000E+01  0.00000000E+00
  8.40000000E+02  3.60000000E+01  0.00000000E+00
  8.40000000E+02  3.40000000E+01  0.00000000E+00
  8.40000000E+02  3.20000000E+01  0.00000000E+00
  8.40000000E+02  3.00000000E+01  0.00000000E+00
  8.40000000E+02  2.80000000E+01  0.00000000E+00
  8.40000000E+02  2.60000000E+01  0.00000000E+00
  8.40000000E+02  2.40000000E+01  0.00000000E+00
  8.40000000E+02  2.20000000E+01  0.00000000E+00
  8.40000000E+02  2.00000000E+01  0.00000000E+00
  8.40000000E+02  1.80000000E+01  0.00000000E+00
  8.40000000E+02  1.60000000E+01  0.00000000E+00
  8.40000000E+02  1.40000000E+01  0.00000000E+00
  8.40000000E+02  1.20000000E+01  0.00000000E+00
  8.40000000E+02  1.00000000E+01  0.00000000E+00
  8.40000000E+02  8.00000000E+00  0.00000000E+00
  8.40000000E+02  6.00000000E+00  0.00000000E+00
  8.40000000E+02  4.00000000E+00  0.00000000E+00
  8.40000000E+02  2.00000000E+00  0.00000000E+00
  8.40000000E+02 -3.33066907E-14  0.00000000E+00
  8.50000000E+02  1.00000000E+02  0.00000000E+00
  8.50000000E+02  9.80000000E+01  0.00000000E+00
  8.50000000E+02  9.60000000E+01  0.00000000E+00
  8.50000000E+02  9.40000000E+01  0.00000000E+00
  8.50000000E+02  9.20000000E+01  0.00000000E+00
  8.50000000E+02  9.00000000E+01  0.00000000E+00
  8.50000000E+02  8.80000000E+01  0.00000000E+00
  8.50000000E+02  8.60000000E+01  0.00000000E+00
  8.50000000E+02  8.40000000E+01  0.00000000E+00
  8.50000000E+02  8.20000000E+01  0.00000000E+00
  8.50000000E+02  8.00000000E+01  0.00000000E+00
  8.50000000E+02  7.80000000E+01  0.00000000E+00
  8.50000000E+02  7.60000000E+01  0.00000000E+00
  8.50000000E+02  7.40000000E+01  0.00000000E+00
  8.50000000E+02  7.20000000E+01  0.00000000E+00
  8.50000000E+02  7.00000000E+01  0.00000000E+00
  8.50000000E+02  6.80000000E+01  0.00000000E+00
  8.50000000E+02  6.60000000E+01  0.00000000E+00
  8.50000000E+02  6.40000000E+01  0.00000000E+00
  8.50000000E+02  6.20000000E+01  0.00000000E+00
  8.50000000E+02  6.00000000E+01  0.00000000E+00
  8.50000000E+02  5.80000000E+01  0.00000000E+00
  8.50000000E+02  5.60000000E+01  0.00000000E+00
  8.50000000E+02  5.40000000E+01  0.00000000E+00
  8.50000000E+02  5.20000000E+01  0.00000000E+00
  8.50000000E+02  5.00000000E+01  0.00000000E+00
  8.50000000E+02  4.80000000E+01  0.00000000E+00
  8.50000000E+02  4.60000000E+01  0.00000000E+00
  8.50000000E+02  4.40000000E+01  0.00000000E+00
  8.50000000E+02  4.20000000E+01  0.00000000E+00
  8.50000000E+02  4.00000000E+01  0.00000000E+00
  8.50000000E+02  3.80000000E+01  0.00000000E+00
  8.50000000E+02  3.60000000E+01  0.00000000E+00
  8.50000000E+02  3.40000000E+01  0.00000000E+00
  8.50000000E+02  3.20000000E+01  0.00000000E+00
  8.50000000E+02  3.00000000E+01  0.00000000E+00
  8.50000000E+02  2.80000000E+01  0.00000000E+00
  8.50000000E+02  2.60000000E+01  0.00000000E+00
  8.50000000E+02  2.40000000E+01  0.00000000E+00
  8.50000000E+02  2.20000000E+01  0.00000000E+00
  8.50000000E+02  2.00000000E+01  0.00000000E+00
  8.50000000E+02  1.80000000E+01  0.00000000E+00
  8.50000000E+02  1.60000000E+01  0.00000000E+00
  8.50000000E+02  1.40000000E+01  0.00000000E+00
  8.50000000E+02  1.20000000E+01  0.00000000E+00
  8.50000000E+02  1.00000000E+01  0.00000000E+00
  8.50000000E+02  8.00000000E+00  0.00000000E+00
  8.50000000E+02  6.00000000E+00  0.00000000E+00
  8.50000000E+02  4.00000000E+00  0.00000000E+00
  8.50000000E+02  2.00000000E+00  0.00000000E+00
  8.50000000E+02 -3.33066907E-14  0.00000000E+00
  8.60000000E+02  1.00000000E+02  0.00000000E+00
  8.60000000E+02  9.80000000E+01  0.00000000E+00
  8.60000000E+02  9.60000000E+01  0.00000000E+00
  8.60000000E+02  9.40000000E+01  0.00000000E+00
  8.60000000E+02  9.20000000E+01  0.00000000E+00
  8.60000000E+02  9.00000000E+01  0.00000000E+00
  8.60000000E+02  8.80000000E+01  0.00000000E+00
  8.60000000E+02  8.60000000E+01  0.00000000E+00
  8.60000000E+02  8.40000000E+01  0.00000000E+00
  8.60000000E+02  8.20000000E+01  0.00000000E+00
  8.60000000E+02  8.00000000E+01  0.00000000E+00
  8.60000000E+02  7.80000000E+01  0.00000000E+00
  8.60000000E+02  7.60000000E+01  0.00000000E+00
  8.60000000E+02  7.40000000E+01  0.00000000E+00
  8.60000000E+02  7.20000000E+01  0.00000000E+00
  8.60000000E+02  7.00000000E+01  0.00000000E+00
  8.60000000E+02  6.80000000E+01  0.00000000E+00
  8.60000000E+02  6.60000000E+01  0.00000000E+00
  8.60000000E+02  6.40000000E+01  0.00000000E+00
  8.60000000E+02  6.20000000E+01  0.00000000E+00
  8.60000000E+02  6.00000000E+01  0.00000000E+00
  8.60000000E+02  5.80000000E+01  0.00000000E+00
  8.60000000E+02  5.60000000E+01  0.00000000E+00
  8.60000000E+02  5.40000000E+01  0.00000000E+00
  8.60000000E+02  5.20000000E+01  0.00000000E+00
  8.60000000E+02  5.00000000E+01  0.00000000E+00
  8.60000000E+02  4.80000000E+01  0.00000000E+00
  8.60000000E+02  4.60000000E+01  0.00000000E+00
  8.60000000E+02  4.40000000E+01  0.00000000E+00
  8.60000000E+02  4.20000000E+01  0.00000000E+00
  8.60000000E+02  4.00000000E+01  0.00000000E+00
  8.60000000E+02  3.80000000E+01  0.00000000E+00
  8.60000000E+02  3.60000000E+01  0.00000000E+00
  8.60000000E+02  3.40000000E+01  0.00000000E+00
  8.60000000E+02  3.20000000E+01  0.00000000E+00
  8.60000000E+02  3.00000000E+01  0.00000000E+00
  8.60000000E+02  2.80000000E+01  0.00000000E+00
  8.60000000E+02  2.60000000E+01  0.00000000E+00
  8.60000000E+02  2.40000000E+01  0.00000000E+00
  8.60000000E+02  2.20000000E+01  0.00000000E+00
  8.60000000E+02  2.00000000E+01  0.00000000E+00
  8.60000000E+02  1.80000000E+01  0.00000000E+00
  8.60000000E+02  1.60000000E+01  0.00000000E+00
  8.60000000E+02  1.40000000E+01  0.00000000E+00
  8.60000000E+02  1.20000000E+01  0.00000000E+00
  8.60000000E+02  1.00000000E+01  0.00000000E+00
  8.60000000E+02  8.00000000E+00  0.00000000E+00
  8.60000000E+02  6.00000000E+00  0.00000000E+00
  8.60000000E+02  4.00000000E+00  0.00000000E+00
  8.60000000E+02  2.00000000E+00  0.00000000E+00
  8.60000000E+02 -3.33066907E-14  0.00000000E+00
  8.70000000E+02  1.00000000E+02  0.00000000E+00
  8.70000000E+02  9.80000000E+01  0.00000000E+00
  8.70000000E+02  9.60000000E+01  0.00000000E+00
  8.70000000E+02  9.40000000E+01  0.00000000E+00
  8.70000000E+02  9.20000000E+01  0.00000000E+00
  8.70000000E+02  9.00000000E+01  0.00000000E+00
  8.70000000E+02  8.80000000E+01  0.00000000E+00
  8.70000000E+02  8.60000000E+01  0.00000000E+00
  8.70000000E+02  8.40000000E+01  0.00000000E+00
  8.70000000E+02  8.20000000E+01  0.00000000E+00
  8.70000000E+02  8.00000000E+01  0.00000000E+00
  8.70000000E+02  7.80000000E+01  0.00000000E+00
  8.70000000E+02  7.60000000E+01  0.00000000E+00
  8.70000000E+02  7.40000000E+01  0.00000000E+00
  8.70000000E+02  7.20000000E+01  0.00000000E+00
  8.70000000E+02  7.00000000E+01  0.00000000E+00
  8.70000000E+02  6.80000000E+01  0.00000000E+00
  8.70000000E+02  6.60000000E+01  0.00000000E+00
  8.70000000E+02  6.40000000E+01  0.00000000E+00
  8.70000000E+02  6.20000000E+01  0.00000000E+00
  8.70000000E+02  6.00000000E+01  0.00000000E+00
  8.70000000E+02  5.80000000E+01  0.00000000E+00
  8.70000000E+02  5.60000000E+01  0.00000000E+00
  8.70000000E+02  5.40000000E+01  0.00000000E+00
  8.70000000E+02  5.20000000E+01  0.00000000E+00
  8.70000000E+02  5.00000000E+01  0.00000000E+00
  8.70000000E+02  4.80000000E+01  0.00000000E+00
  8.70000000E+02  4.60000000E+01  0.00000000E+00
  8.70000000E+02  4.40000000E+01  0.00000000E+00
  8.70000000E+02  4.20000000E+01  0.00000000E+00
  8.70000000E+02  4.00000000E+01  0.00000000E+00
  8.70000000E+02  3.80000000E+01  0.00000000E+00
  8.70000000E+02  3.60000000E+01  0.00000000E+00
  8.70000000E+02  3.40000000E+01  0.00000000E+00
  8.70000000E+02  3.20000000E+01  0.00000000E+00
  8.70000000E+02  3.00000000E+01  0.00000000E+00
  8.70000000E+02  2.80000000E+01  0.00000000E+00
  8.70000000E+02  2.60000000E+01  0.00000000E+00
  8.70000000E+02  2.40000000E+01  0.00000000E+00
  8.70000000E+02  2.20000000E+01  0.00000000E+00
  8.70000000E+02  2.00000000E+01  0.00000000E+00
  8.70000000E+02  1.80000000E+01  0.00000000E+00
  8.70000000E+02  1.60000000E+01  0.00000000E+00
  8.70000000E+02  1.40000000E+01  0.00000000E+00
  8.70000000E+02  1.20000000E+01  0.00000000E+00
  8.70000000E+02  1.00000000E+01  0.00000000E+00
  8.70000000E+02  8.00000000E+00  0.00000000E+00
  8.70000000E+02  6.00000000E+00  0.00000000E+00
  8.70000000E+02  4.00000000E+00  0.00000000E+00
  8.70000000E+02  2.00000000E+00  0.00000000E+00
  8.70000000E+02 -3.33066907E-14  0.00000000E+00
  8.80000000E+02  1.00000000E+02  0.00000000E+00
  8.80000000E+02  9.80000000E+01  0.00000000E+00
  8.80000000E+02  9.60000000E+01  0.00000000E+00
  8.80000000E+02  9.40000000E+01  0.00000000E+00
  8.80000000E+02  9.20000000E+01  0.00000000E+00
  8.80000000E+02  9.00000000E+01  0.00000000E+00
  8.80000000E+02  8.80000000E+01  0.00000000E+00
  8.80000000E+02  8.60000000E+01  0.00000000E+00
  8.80000000E+02  8.40000000E+01  0.00000000E+00
  8.80000000E+02  8.20000000E+01  0.00000000E+00
  8.80000000E+02  8.00000000E+01  0.00000000E+00
  8.80000000E+02  7.80000000E+01  0.00000000E+00
  8.80000000E+02  7.60000000E+01  0.00000000E+00
  8.80000000E+02  7.40000000E+01  0.00000000E+00
  8.80000000E+02  7.20000000E+01  0.00000000E+00
  8.80000000E+02  7.00000000E+01  0.00000000E+00
  8.80000000E+02  6.80000000E+01  0.00000000E+00
  8.80000000E+02  6.60000000E+01  0.00000000E+00
  8.80000000E+02  6.40000000E+01  0.00000000E+00
  8.80000000E+02  6.20000000E+01  0.00000000E+00
  8.80000000E+02  6.00000000E+01  0.00000000E+00
  8.80000000E+02  5.80000000E+01  0.00000000E+00
  8.80000000E+02  5.60000000E+01  0.00000000E+00
  8.80000000E+02  5.40000000E+01  0.00000000E+00
  8.80000000E+02  5.20000000E+01  0.00000000E+00
  8.80000000E+02  5.00000000E+01  0.00000000E+00
  8.80000000E+02  4.80000000E+01  0.00000000E+00
  8.80000000E+02  4.60000000E+01  0.00000000E+00
  8.80000000E+02  4.40000000E+01  0.00000000E+00
  8.80000000E+02  4.20000000E+01  0.00000000E+00
  8.80000000E+02  4.00000000E+01  0.00000000E+00
  8.80000000E+02  3.80000000E+01  0.00000000E+00
  8.80000000E+02  3.60000000E+01  0.00000000E+00
  8.80000000E+02  3.40000000E+01  0.00000000E+00
  8.80000000E+02  3.20000000E+01  0.00000000E+00
  8.80000000E+02  3.00000000E+01  0.00000000E+00
  8.80000000E+02  2.80000000E+01  0.00000000E+00
  8.80000000E+02  2.60000000E+01  0.00000000E+00
  8.80000000E+02  2.40000000E+01  0.00000000E+00
  8.80000000E+02  2.20000000E+01  0.00000000E+00
  8.80000000E+02  2.00000000E+01  0.00000000E+00
  8.80000000E+02  1.80000000E+01  0.00000000E+00
  8.80000000E+02  1.60000000E+01  0.00000000E+00
  8.80000000E+02  1.40000000E+01  0.00000000E+00
  8.80000000E+02  1.20000000E+01  0.00000000E+00
  8.80000000E+02  1.00000000E+01  0.00000000E+00
  8.80000000E+02  8.00000000E+00  0.00000000E+00
  8.80000000E+02  6.00000000E+00  0.00000000E+00
  8.80000000E+02  4.00000000E+00  0.00000000E+00
  8.80000000E+02  2.00000000E+00  0.00000000E+00
  8.80000000E+02 -3.33066907E-14  0.00000000E+00
  8.90000000E+02  1.00000000E+02  0.00000000E+00
  8.90000000E+02  9.80000000E+01  0.00000000E+00
  8.90000000E+02  9.60000000E+01  0.00000000E+00
  8.90000000E+02  9.40000000E+01  0.00000000E+00
  8.90000000E+02  9.20000000E+01  0.00000000E+00
  8.90000000E+02  9.00000000E+01  0.00000000E+00
  8.90000000E+02  8.80000000E+01  0.00000000E+00
  8.90000000E+02  8.60000000E+01  0.00000000E+00
  8.90000000E+02  8.40000000E+01  0.00000000E+00
  8.90000000E+02  8.20000000E+01  0.00000000E+00
  8.90000000E+02  8.00000000E+01  0.00000000E+00
  8.90000000E+02  7.80000000E+01  0.00000000E+00
  8.90000000E+02  7.60000000E+01  0.00000000E+00
  8.90000000E+02  7.40000000E+01  0.00000000E+00
  8.90000000E+02  7.20000000E+01  0.00000000E+00
  8.90000000E+02  7.00000000E+01  0.00000000E+00
  8.90000000E+02  6.80000000E+01  0.00000000E+00
  8.90000000E+02  6.60000000E+01  0.00000000E+00
  8.90000000E+02  6.40000000E+01  0.00000000E+00
  8.90000000E+02  6.20000000E+01  0.00000000E+00
  8.90000000E+02  6.00000000E+01  0.00000000E+00
  8.90000000E+02  5.80000000E+01  0.00000000E+00
  8.90000000E+02  5.60000000E+01  0.00000000E+00
  8.90000000E+02  5.40000000E+01  0.00000000E+00
  8.90000000E+02  5.20000000E+01  0.00000000E+00
  8.90000000E+02  5.00000000E+01  0.00000000E+00
  8.90000000E+02  4.80000000E+01  0.00000000E+00
  8.90000000E+02  4.60000000E+01  0.00000000E+00
  8.90000000E+02  4.40000000E+01  0.00000000E+00
  8.90000000E+02  4.20000000E+01  0.00000000E+00
  8.90000000E+02  4.00000000E+01  0.00000000E+00
  8.90000000E+02  3.80000000E+01  0.00000000E+00
  8.90000000E+02  3.60000000E+01  0.00000000E+00
  8.90000000E+02  3.40000000E+01  0.00000000E+00
  8.90000000E+02  3.20000000E+01  0.00000000E+00
  8.90000000E+02  3.00000000E+01  0.00000000E+00
  8.90000000E+02  2.80000000E+01  0.00000000E+00
  8.90000000E+02  2.60000000E+01  0.00000000E+00
  8.90000000E+02  2.40000000E+01  0.00000000E+00
  8.90000000E+02  2.20000000E+01  0.00000000E+00
  8.90000000E+02  2.00000000E+01  0.00000000E+00
  8.90000000E+02  1.80000000E+01  0.00000000E+00
  8.90000000E+02  1.60000000E+01  0.00000000E+00
  8.90000000E+02  1.40000000E+01  0.00000000E+00
  8.90000000E+02  1.20000000E+01  0.00000000E+00
  8.90000000E+02  1.00000000E+01  0.00000000E+00
  8.90000000E+02  8.00000000E+00  0.00000000E+00
  8.90000000E+02  6.00000000E+00  0.00000000E+00
  8.90000000E+02  4.00000000E+00  0.00000000E+00
  8.90000000E+02  2.00000000E+00  0.00000000E+00
  8.90000000E+02 -3.33066907E-14  0.00000000E+00
  9.00000000E+02  1.00000000E+02  0.00000000E+00
  9.00000000E+02  9.80000000E+01  0.00000000E+00
  9.00000000E+02  9.60000000E+01  0.00000000E+00
  9.00000000E+02  9.40000000E+01  0.00000000E+00
  9.00000000E+02  9.20000000E+01  0.00000000E+00
  9.00000000E+02  9.00000000E+01  0.00000000E+00
  9.00000000E+02  8.80000000E+01  0.00000000E+00
  9.00000000E+02  8.60000000E+01  0.00000000E+00
  9.00000000E+02  8.40000000E+01  0.00000000E+00
  9.00000000E+02  8.20000000E+01  0.00000000E+00
  9.00000000E+02  8.00000000E+01  0.00000000E+00
  9.00000000E+02  7.80000000E+01  0.00000000E+00
  9.00000000E+02  7.60000000E+01  0.00000000E+00
  9.00000000E+02  7.40000000E+01  0.00000000E+00
  9.00000000E+02  7.20000000E+01  0.00000000E+00
  9.00000000E+02  7.00000000E+01  0.00000000E+00
  9.00000000E+02  6.80000000E+01  0.00000000E+00
  9.00000000E+02  6.60000000E+01  0.00000000E+00
  9.00000000E+02  6.40000000E+01  0.00000000E+00
  9.00000000E+02  6.20000000E+01  0.00000000E+00
  9.00000000E+02  6.00000000E+01  0.00000000E+00
  9.00000000E+02  5.80000000E+01  0.00000000E+00
  9.00000000E+02  5.60000000E+01  0.00000000E+00
  9.00000000E+02  5.40000000E+01  0.00000000E+00
  9.00000000E+02  5.20000000E+01  0.00000000E+00
  9.00000000E+02  5.00000000E+01  0.00000000E+00
  9.00000000E+02  4.80000000E+01  0.00000000E+00
  9.00000000E+02  4.60000000E+01  0.00000000E+00
  9.00000000E+02  4.40000000E+01  0.00000000E+00
  9.00000000E+02  4.20000000E+01  0.00000000E+00
  9.00000000E+02  4.00000000E+01  0.00000000E+00
  9.00000000E+02  3.80000000E+01  0.00000000E+00
  9.00000000E+02  3.60000000E+01  0.00000000E+00
  9.00000000E+02  3.40000000E+01  0.00000000E+00
  9.00000000E+02  3.20000000E+01  0.00000000E+00
  9.00000000E+02  3.00000000E+01  0.00000000E+00
  9.00000000E+02  2.80000000E+01  0.00000000E+00
  9.00000000E+02  2.60000000E+01  0.00000000E+00
  9.00000000E+02  2.40000000E+01  0.00000000E+00
  9.00000000E+02  2.20000000E+01  0.00000000E+00
  9.00000000E+02  2.00000000E+01  0.00000000E+00
  9.00000000E+02  1.80000000E+01  0.00000000E+00
  9.00000000E+02  1.60000000E+01  0.00000000E+00
  9.00000000E+02  1.40000000E+01  0.00000000E+00
  9.00000000E+02  1.20000000E+01  0.00000000E+00
  9.00000000E+02  1.00000000E+01  0.00000000E+00
  9.00000000E+02  8.00000000E+00  0.00000000E+00
  9.00000000E+02  6.00000000E+00  0.00000000E+00
  9.00000000E+02  4.00000000E+00  0.00000000E+00
  9.00000000E+02  2.00000000E+00  0.00000000E+00
  9.00000000E+02 -3.33066907E-14  0.00000000E+00
  9.10000000E+02  1.00000000E+02  0.00000000E+00
  9.10000000E+02  9.80000000E+01  0.00000000E+00
  9.10000000E+02  9.60000000E+01  0.00000000E+00
  9.10000000E+02  9.40000000E+01  0.00000000E+00
  9.10000000E+02  9.20000000E+01  0.00000000E+00
  9.10000000E+02  9.00000000E+01  0.00000000E+00
  9.10000000E+02  8.80000000E+01  0.00000000E+00
  9.10000000E+02  8.60000000E+01  0.00000000E+00
  9.10000000E+02  8.40000000E+01  0.00000000E+00
  9.10000000E+02  8.20000000E+01  0.00000000E+00
  9.10000000E+02  8.00000000E+01  0.00000000E+00
  9.10000000E+02  7.80000000E+01  0.00000000E+00
  9.10000000E+02  7.60000000E+01  0.00000000E+00
  9.10000000E+02  7.40000000E+01  0.00000000E+00
  9.10000000E+02  7.20000000E+01  0.00000000E+00
  9.10000000E+02  7.00000000E+01  0.00000000E+00
  9.10000000E+02  6.80000000E+01  0.00000000E+00
  9.10000000E+02  6.60000000E+01  0.00000000E+00
  9.10000000E+02  6.40000000E+01  0.00000000E+00
  9.10000000E+02  6.20000000E+01  0.00000000E+00
  9.10000000E+02  6.00000000E+01  0.00000000E+00
  9.10000000E+02  5.80000000E+01  0.00000000E+00
  9.10000000E+02  5.60000000E+01  0.00000000E+00
  9.10000000E+02  5.40000000E+01  0.00000000E+00
  9.10000000E+02  5.20000000E+01  0.00000000E+00
  9.10000000E+02  5.00000000E+01  0.00000000E+00
  9.10000000E+02  4.80000000E+01  0.00000000E+00
  9.10000000E+02  4.60000000E+01  0.00000000E+00
  9.10000000E+02  4.40000000E+01  0.00000000E+00
  9.10000000E+02  4.20000000E+01  0.00000000E+00
  9.10000000E+02  4.00000000E+01  0.00000000E+00
  9.10000000E+02  3.80000000E+01  0.00000000E+00
  9.10000000E+02  3.60000000E+01  0.00000000E+00
  9.10000000E+02  3.40000000E+01  0.00000000E+00
  9.10000000E+02  3.20000000E+01  0.00000000E+00
  9.10000000E+02  3.00000000E+01  0.00000000E+00
  9.10000000E+02  2.80000000E+01  0.00000000E+00
  9.10000000E+02  2.60000000E+01  0.00000000E+00
  9.10000000E+02  2.40000000E+01  0.00000000E+00
  9.10000000E+02  2.20000000E+01  0.00000000E+00
  9.10000000E+02  2.00000000E+01  0.00000000E+00
  9.10000000E+02  1.80000000E+01  0.00000000E+00
  9.10000000E+02  1.60000000E+01  0.00000000E+00
  9.10000000E+02  1.40000000E+01  0.00000000E+00
  9.10000000E+02  1.20000000E+01  0.00000000E+00
  9.10000000E+02  1.00000000E+01  0.00000000E+00
  9.10000000E+02  8.00000000E+00  0.00000000E+00
  9.10000000E+02  6.00000000E+00  0.00000000E+00
  9.10000000E+02  4.00000000E+00  0.00000000E+00
  9.10000000E+02  2.00000000E+00  0.00000000E+00
  9.10000000E+02 -3.33066907E-14  0.00000000E+00
  9.20000000E+02  1.00000000E+02  0.00000000E+00
  9.20000000E+02  9.80000000E+01  0.00000000E+00
  9.20000000E+02  9.60000000E+01  0.00000000E+00
  9.20000000E+02  9.40000000E+01  0.00000000E+00
  9.20000000E+02  9.20000000E+01  0.00000000E+00
  9.20000000E+02  9.00000000E+01  0.00000000E+00
  9.20000000E+02  8.80000000E+01  0.00000000E+00
  9.20000000E+02  8.60000000E+01  0.00000000E+00
  9.20000000E+02  8.40000000E+01  0.00000000E+00
  9.20000000E+02  8.20000000E+01  0.00000000E+00
  9.20000000E+02  8.00000000E+01  0.00000000E+00
  9.20000000E+02  7.80000000E+01  0.00000000E+00
  9.20000000E+02  7.60000000E+01  0.00000000E+00
  9.20000000E+02  7.40000000E+01  0.00000000E+00
  9.20000000E+02  7.20000000E+01  0.00000000E+00
  9.20000000E+02  7.00000000E+01  0.00000000E+00
  9.20000000E+02  6.80000000E+01  0.00000000E+00
  9.20000000E+02  6.60000000E+01  0.00000000E+00
  9.20000000E+02  6.40000000E+01  0.00000000E+00
  9.20000000E+02  6.20000000E+01  0.00000000E+00
  9.20000000E+02  6.00000000E+01  0.00000000E+00
  9.20000000E+02  5.80000000E+01  0.00000000E+00
  9.20000000E+02  5.60000000E+01  0.00000000E+00
  9.20000000E+02  5.40000000E+01  0.00000000E+00
  9.20000000E+02  5.20000000E+01  0.00000000E+00
  9.20000000E+02  5.00000000E+01  0.00000000E+00
  9.20000000E+02  4.80000000E+01  0.00000000E+00
  9.20000000E+02  4.60000000E+01  0.00000000E+00
  9.20000000E+02  4.40000000E+01  0.00000000E+00
  9.20000000E+02  4.20000000E+01  0.00000000E+00
  9.20000000E+02  4.00000000E+01  0.00000000E+00
  9.20000000E+02  3.80000000E+01  0.00000000E+00
  9.20000000E+02  3.60000000E+01  0.00000000E+00
  9.20000000E+02  3.40000000E+01  0.00000000E+00
  9.20000000E+02  3.20000000E+01  0.00000000E+00
  9.20000000E+02  3.00000000E+01  0.00000000E+00
  9.20000000E+02  2.80000000E+01  0.00000000E+00
  9.20000000E+02  2.60000000E+01  0.00000000E+00
  9.20000000E+02  2.40000000E+01  0.00000000E+00
  9.20000000E+02  2.20000000E+01  0.00000000E+00
  9.20000000E+02  2.00000000E+01  0.00000000E+00
  9.20000000E+02  1.80000000E+01  0.00000000E+00
  9.20000000E+02  1.60000000E+01  0.00000000E+00
  9.20000000E+02  1.40000000E+01  0.00000000E+00
  9.20000000E+02  1.20000000E+01  0.00000000E+00
  9.20000000E+02  1.00000000E+01  0.00000000E+00
  9.20000000E+02  8.00000000E+00  0.00000000E+00
  9.20000000E+02  6.00000000E+00  0.00000000E+00
  9.20000000E+02  4.00000000E+00  0.00000000E+00
  9.20000000E+02  2.00000000E+00  0.00000000E+00
  9.20000000E+02 -3.33066907E-14  0.00000000E+00
  9.30000000E+02  1.00000000E+02  0.00000000E+00
  9.30000000E+02  9.80000000E+01  0.00000000E+00
  9.30000000E+02  9.60000000E+01  0.00000000E+00
  9.30000000E+02  9.40000000E+01  0.00000000E+00
  9.30000000E+02  9.20000000E+01  0.00000000E+00
  9.30000000E+02  9.00000000E+01  0.00000000E+00
  9.30000000E+02  8.80000000E+01  0.00000000E+00
  9.30000000E+02  8.60000000E+01  0.00000000E+00
  9.30000000E+02  8.40000000E+01  0.00000000E+00
  9.30000000E+02  8.20000000E+01  0.00000000E+00
  9.30000000E+02  8.00000000E+01  0.00000000E+00
  9.30000000E+02  7.80000000E+01  0.00000000E+00
  9.30000000E+02  7.60000000E+01  0.00000000E+00
  9.30000000E+02  7.40000000E+01  0.00000000E+00
  9.30000000E+02  7.20000000E+01  0.00000000E+00
  9.30000000E+02  7.00000000E+01  0.00000000E+00
  9.30000000E+02  6.80000000E+01  0.00000000E+00
  9.30000000E+02  6.60000000E+01  0.00000000E+00
  9.30000000E+02  6.40000000E+01  0.00000000E+00
  9.30000000E+02  6.20000000E+01  0.00000000E+00
  9.30000000E+02  6.00000000E+01  0.00000000E+00
  9.30000000E+02  5.80000000E+01  0.00000000E+00
  9.30000000E+02  5.60000000E+01  0.00000000E+00
  9.30000000E+02  5.40000000E+01  0.00000000E+00
  9.30000000E+02  5.20000000E+01  0.00000000E+00
  9.30000000E+02  5.00000000E+01  0.00000000E+00
  9.30000000E+02  4.80000000E+01  0.00000000E+00
  9.30000000E+02  4.60000000E+01  0.00000000E+00
  9.30000000E+02  4.40000000E+01  0.00000000E+00
  9.30000000E+02  4.20000000E+01  0.00000000E+00
  9.30000000E+02  4.00000000E+01  0.00000000E+00
  9.30000000E+02  3.80000000E+01  0.00000000E+00
  9.30000000E+02  3.60000000E+01  0.00000000E+00
  9.30000000E+02  3.40000000E+01  0.00000000E+00
  9.30000000E+02  3.20000000E+01  0.00000000E+00
  9.30000000E+02  3.00000000E+01  0.00000000E+00
  9.30000000E+02  2.80000000E+01  0.00000000E+00
  9.30000000E+02  2.60000000E+01  0.00000000E+00
  9.30000000E+02  2.40000000E+01  0.00000000E+00
  9.30000000E+02  2.20000000E+01  0.00000000E+00
  9.30000000E+02  2.00000000E+01  0.00000000E+00
  9.30000000E+02  1.80000000E+01  0.00000000E+00
  9.30000000E+02  1.60000000E+01  0.00000000E+00
  9.30000000E+02  1.40000000E+01  0.00000000E+00
  9.30000000E+02  1.20000000E+01  0.00000000E+00
  9.30000000E+02  1.00000000E+01  0.00000000E+00
  9.30000000E+02  8.00000000E+00  0.00000000E+00
  9.30000000E+02  6.00000000E+00  0.00000000E+00
  9.30000000E+02  4.00000000E+00  0.00000000E+00
  9.30000000E+02  2.00000000E+00  0.00000000E+00
  9.30000000E+02 -3.33066907E-14  0.00000000E+00
  9.40000000E+02  1.00000000E+02  0.00000000E+00
  9.40000000E+02  9.80000000E+01  0.00000000E+00
  9.40000000E+02  9.60000000E+01  0.00000000E+00
  9.40000000E+02  9.40000000E+01  0.00000000E+00
  9.40000000E+02  9.20000000E+01  0.00000000E+00
  9.40000000E+02  9.00000000E+01  0.00000000E+00
  9.40000000E+02  8.80000000E+01  0.00000000E+00
  9.40000000E+02  8.60000000E+01  0.00000000E+00
  9.40000000E+02  8.40000000E+01  0.00000000E+00
  9.40000000E+02  8.20000000E+01  0.00000000E+00
  9.40000000E+02  8.00000000E+01  0.00000000E+00
  9.40000000E+02  7.80000000E+01  0.00000000E+00
  9.40000000E+02  7.60000000E+01  0.00000000E+00
  9.40000000E+02  7.40000000E+01  0.00000000E+00
  9.40000000E+02  7.20000000E+01  0.00000000E+00
  9.40000000E+02  7.00000000E+01  0.00000000E+00
  9.40000000E+02  6.80000000E+01  0.00000000E+00
  9.40000000E+02  6.60000000E+01  0.00000000E+00
  9.40000000E+02  6.40000000E+01  0.00000000E+00
  9.40000000E+02  6.20000000E+01  0.00000000E+00
  9.40000000E+02  6.00000000E+01  0.00000000E+00
  9.40000000E+02  5.80000000E+01  0.00000000E+00
  9.40000000E+02  5.60000000E+01  0.00000000E+00
  9.40000000E+02  5.40000000E+01  0.00000000E+00
  9.40000000E+02  5.20000000E+01  0.00000000E+00
  9.40000000E+02  5.00000000E+01  0.00000000E+00
  9.40000000E+02  4.80000000E+01  0.00000000E+00
  9.40000000E+02  4.60000000E+01  0.00000000E+00
  9.40000000E+02  4.40000000E+01  0.00000000E+00
  9.40000000E+02  4.20000000E+01  0.00000000E+00
  9.40000000E+02  4.00000000E+01  0.00000000E+00
  9.40000000E+02  3.80000000E+01  0.00000000E+00
  9.40000000E+02  3.60000000E+01  0.00000000E+00
  9.40000000E+02  3.40000000E+01  0.00000000E+00
  9.40000000E+02  3.20000000E+01  0.00000000E+00
  9.40000000E+02  3.00000000E+01  0.00000000E+00
  9.40000000E+02  2.80000000E+01  0.00000000E+00
  9.40000000E+02  2.60000000E+01  0.00000000E+00
  9.40000000E+02  2.40000000E+01  0.00000000E+00
  9.40000000E+02  2.20000000E+01  0.00000000E+00
  9.40000000E+02  2.00000000E+01  0.00000000E+00
  9.40000000E+02  1.80000000E+01  0.00000000E+00
  9.40000000E+02  1.60000000E+01  0.00000000E+00
  9.40000000E+02  1.40000000E+01  0.00000000E+00
  9.40000000E+02  1.20000000E+01  0.00000000E+00
  9.40000000E+02  1.00000000E+01  0.00000000E+00
  9.40000000E+02  8.00000000E+00  0.00000000E+00
  9.40000000E+02  6.00000000E+00  0.00000000E+00
  9.40000000E+02  4.00000000E+00  0.00000000E+00
  9.40000000E+02  2.00000000E+00  0.00000000E+00
  9.40000000E+02 -3.33066907E-14  0.00000000E+00
  9.50000000E+02  1.00000000E+02  0.00000000E+00
  9.50000000E+02  9.80000000E+01  0.00000000E+00
  9.50000000E+02  9.60000000E+01  0.00000000E+00
  9.50000000E+02  9.40000000E+01  0.00000000E+00
  9.50000000E+02  9.20000000E+01  0.00000000E+00
  9.50000000E+02  9.00000000E+01  0.00000000E+00
  9.50000000E+02  8.80000000E+01  0.00000000E+00
  9.50000000E+02  8.60000000E+01  0.00000000E+00
  9.50000000E+02  8.40000000E+01  0.00000000E+00
  9.50000000E+02  8.20000000E+01  0.00000000E+00
  9.50000000E+02  8.00000000E+01  0.00000000E+00
  9.50000000E+02  7.80000000E+01  0.00000000E+00
  9.50000000E+02  7.60000000E+01  0.00000000E+00
  9.50000000E+02  7.40000000E+01  0.00000000E+00
  9.50000000E+02  7.20000000E+01  0.00000000E+00
  9.50000000E+02  7.00000000E+01  0.00000000E+00
  9.50000000E+02  6.80000000E+01  0.00000000E+00
  9.50000000E+02  6.60000000E+01  0.00000000E+00
  9.50000000E+02  6.40000000E+01  0.00000000E+00
  9.50000000E+02  6.20000000E+01  0.00000000E+00
  9.50000000E+02  6.00000000E+01  0.00000000E+00
  9.50000000E+02  5.80000000E+01  0.00000000E+00
  9.50000000E+02  5.60000000E+01  0.00000000E+00
  9.50000000E+02  5.40000000E+01  0.00000000E+00
  9.50000000E+02  5.20000000E+01  0.00000000E+00
  9.50000000E+02  5.00000000E+01  0.00000000E+00
  9.50000000E+02  4.80000000E+01  0.00000000E+00
  9.50000000E+02  4.60000000E+01  0.00000000E+00
  9.50000000E+02  4.40000000E+01  0.00000000E+00
  9.50000000E+02  4.20000000E+01  0.00000000E+00
  9.50000000E+02  4.00000000E+01  0.00000000E+00
  9.50000000E+02  3.80000000E+01  0.00000000E+00
  9.50000000E+02  3.60000000E+01  0.00000000E+00
  9.50000000E+02  3.40000000E+01  0.00000000E+00
  9.50000000E+02  3.20000000E+01  0.00000000E+00
  9.50000000E+02  3.00000000E+01  0.00000000E+00
  9.50000000E+02  2.80000000E+01  0.00000000E+00
  9.50000000E+02  2.60000000E+01  0.00000000E+00
  9.50000000E+02  2.40000000E+01  0.00000000E+00
  9.50000000E+02  2.20000000E+01  0.00000000E+00
  9.50000000E+02  2.00000000E+01  0.00000000E+00
  9.50000000E+02  1.80000000E+01  0.00000000E+00
  9.50000000E+02  1.60000000E+01  0.00000000E+00
  9.50000000E+02  1.40000000E+01  0.00000000E+00
  9.50000000E+02  1.20000000E+01  0.00000000E+00
  9.50000000E+02  1.00000000E+01  0.00000000E+00
  9.50000000E+02  8.00000000E+00  0.00000000E+00
  9.50000000E+02  6.00000000E+00  0.00000000E+00
  9.50000000E+02  4.00000000E+00  0.00000000E+00
  9.50000000E+02  2.00000000E+00  0.00000000E+00
  9.50000000E+02 -3.33066907E-14  0.00000000E+00
  9.60000000E+02  1.00000000E+02  0.00000000E+00
  9.60000000E+02  9.80000000E+01  0.00000000E+00
  9.60000000E+02  9.60000000E+01  0.00000000E+00
  9.60000000E+02  9.40000000E+01  0.00000000E+00
  9.60000000E+02  9.20000000E+01  0.00000000E+00
  9.60000000E+02  9.00000000E+01  0.00000000E+00
  9.60000000E+02  8.80000000E+01  0.00000000E+00
  9.60000000E+02  8.60000000E+01  0.00000000E+00
  9.60000000E+02  8.40000000E+01  0.00000000E+00
  9.60000000E+02  8.20000000E+01  0.00000000E+00
  9.60000000E+02  8.00000000E+01  0.00000000E+00
  9.60000000E+02  7.80000000E+01  0.00000000E+00
  9.60000000E+02  7.60000000E+01  0.00000000E+00
  9.60000000E+02  7.40000000E+01  0.00000000E+00
  9.60000000E+02  7.20000000E+01  0.00000000E+00
  9.60000000E+02  7.00000000E+01  0.00000000E+00
  9.60000000E+02  6.80000000E+01  0.00000000E+00
  9.60000000E+02  6.60000000E+01  0.00000000E+00
  9.60000000E+02  6.40000000E+01  0.00000000E+00
  9.60000000E+02  6.20000000E+01  0.00000000E+00
  9.60000000E+02  6.00000000E+01  0.00000000E+00
  9.60000000E+02  5.80000000E+01  0.00000000E+00
  9.60000000E+02  5.60000000E+01  0.00000000E+00
  9.60000000E+02  5.40000000E+01  0.00000000E+00
  9.60000000E+02  5.20000000E+01  0.00000000E+00
  9.60000000E+02  5.00000000E+01  0.00000000E+00
  9.60000000E+02  4.80000000E+01  0.00000000E+00
  9.60000000E+02  4.60000000E+01  0.00000000E+00
  9.60000000E+02  4.40000000E+01  0.00000000E+00
  9.60000000E+02  4.20000000E+01  0.00000000E+00
  9.60000000E+02  4.00000000E+01  0.00000000E+00
  9.60000000E+02  3.80000000E+01  0.00000000E+00
  9.60000000E+02  3.60000000E+01  0.00000000E+00
  9.60000000E+02  3.40000000E+01  0.00000000E+00
  9.60000000E+02  3.20000000E+01  0.00000000E+00
  9.60000000E+02  3.00000000E+01  0.00000000E+00
  9.60000000E+02  2.80000000E+01  0.00000000E+00
  9.60000000E+02  2.60000000E+01  0.00000000E+00
  9.60000000E+02  2.40000000E+01  0.00000000E+00
  9.60000000E+02  2.20000000E+01  0.00000000E+00
  9.60000000E+02  2.00000000E+01  0.00000000E+00
  9.60000000E+02  1.80000000E+01  0.00000000E+00
  9.60000000E+02  1.60000000E+01  0.00000000E+00
  9.60000000E+02  1.40000000E+01  0.00000000E+00
  9.60000000E+02  1.20000000E+01  0.00000000E+00
  9.60000000E+02  1.00000000E+01  0.00000000E+00
  9.60000000E+02  8.00000000E+00  0.00000000E+00
  9.60000000E+02  6.00000000E+00  0.00000000E+00
  9.60000000E+02  4.00000000E+00  0.00000000E+00
  9.60000000E+02  2.00000000E+00  0.00000000E+00
  9.60000000E+02 -3.33066907E-14  0.00000000E+00
  9.70000000E+02  1.00000000E+02  0.00000000E+00
  9.70000000E+02  9.80000000E+01  0.00000000E+00
  9.70000000E+02  9.60000000E+01  0.00000000E+00
  9.70000000E+02  9.40000000E+01  0.00000000E+00
  9.70000000E+02  9.20000000E+01  0.00000000E+00
  9.70000000E+02  9.00000000E+01  0.00000000E+00
  9.70000000E+02  8.80000000E+01  0.00000000E+00
  9.70000000E+02  8.60000000E+01  0.00000000E+00
  9.70000000E+02  8.40000000E+01  0.00000000E+00
  9.70000000E+02  8.20000000E+01  0.00000000E+00
  9.70000000E+02  8.00000000E+01  0.00000000E+00
  9.70000000E+02  7.80000000E+01  0.00000000E+00
  9.70000000E+02  7.60000000E+01  0.00000000E+00
  9.70000000E+02  7.40000000E+01  0.00000000E+00
  9.70000000E+02  7.20000000E+01  0.00000000E+00
  9.70000000E+02  7.00000000E+01  0.00000000E+00
  9.70000000E+02  6.80000000E+01  0.00000000E+00
  9.70000000E+02  6.60000000E+01  0.00000000E+00
  9.70000000E+02  6.40000000E+01  0.00000000E+00
  9.70000000E+02  6.20000000E+01  0.00000000E+00
  9.70000000E+02  6.00000000E+01  0.00000000E+00
  9.70000000E+02  5.80000000E+01  0.00000000E+00
  9.70000000E+02  5.60000000E+01  0.00000000E+00
  9.70000000E+02  5.40000000E+01  0.00000000E+00
  9.70000000E+02  5.20000000E+01  0.00000000E+00
  9.70000000E+02  5.00000000E+01  0.00000000E+00
  9.70000000E+02  4.80000000E+01  0.00000000E+00
  9.70000000E+02  4.60000000E+01  0.00000000E+00
  9.70000000E+02  4.40000000E+01  0.00000000E+00
  9.70000000E+02  4.20000000E+01  0.00000000E+00
  9.70000000E+02  4.00000000E+01  0.00000000E+00
  9.70000000E+02  3.80000000E+01  0.00000000E+00
  9.70000000E+02  3.60000000E+01  0.00000000E+00
  9.70000000E+02  3.40000000E+01  0.00000000E+00
  9.70000000E+02  3.20000000E+01  0.00000000E+00
  9.70000000E+02  3.00000000E+01  0.00000000E+00
  9.70000000E+02  2.80000000E+01  0.00000000E+00
  9.70000000E+02  2.60000000E+01  0.00000000E+00
  9.70000000E+02  2.40000000E+01  0.00000000E+00
  9.70000000E+02  2.20000000E+01  0.00000000E+00
  9.70000000E+02  2.00000000E+01  0.00000000E+00
  9.70000000E+02  1.80000000E+01  0.00000000E+00
  9.70000000E+02  1.60000000E+01  0.00000000E+00
  9.70000000E+02  1.40000000E+01  0.00000000E+00
  9.70000000E+02  1.20000000E+01  0.00000000E+00
  9.70000000E+02  1.00000000E+01  0.00000000E+00
  9.70000000E+02  8.00000000E+00  0.00000000E+00
  9.70000000E+02  6.00000000E+00  0.00000000E+00
  9.70000000E+02  4.00000000E+00  0.00000000E+00
  9.70000000E+02  2.00000000E+00  0.00000000E+00
  9.70000000E+02 -3.33066907E-14  0.00000000E+00
  9.80000000E+02  1.00000000E+02  0.00000000E+00
  9.80000000E+02  9.80000000E+01  0.00000000E+00
  9.80000000E+02  9.60000000E+01  0.00000000E+00
  9.80000000E+02  9.40000000E+01  0.00000000E+00
  9.80000000E+02  9.20000000E+01  0.00000000E+00
  9.80000000E+02  9.00000000E+01  0.00000000E+00
  9.80000000E+02  8.80000000E+01  0.00000000E+00
  9.80000000E+02  8.60000000E+01  0.00000000E+00
  9.80000000E+02  8.40000000E+01  0.00000000E+00
  9.80000000E+02  8.20000000E+01  0.00000000E+00
  9.80000000E+02  8.00000000E+01  0.00000000E+00
  9.80000000E+02  7.80000000E+01  0.00000000E+00
  9.80000000E+02  7.60000000E+01  0.00000000E+00
  9.80000000E+02  7.40000000E+01  0.00000000E+00
  9.80000000E+02  7.20000000E+01  0.00000000E+00
  9.80000000E+02  7.00000000E+01  0.00000000E+00
  9.80000000E+02  6.80000000E+01  0.00000000E+00
  9.80000000E+02  6.60000000E+01  0.00000000E+00
  9.80000000E+02  6.40000000E+01  0.00000000E+00
  9.80000000E+02  6.20000000E+01  0.00000000E+00
  9.80000000E+02  6.00000000E+01  0.00000000E+00
  9.80000000E+02  5.80000000E+01  0.00000000E+00
  9.80000000E+02  5.60000000E+01  0.00000000E+00
  9.80000000E+02  5.40000000E+01  0.00000000E+00
  9.80000000E+02  5.20000000E+01  0.00000000E+00
  9.80000000E+02  5.00000000E+01  0.00000000E+00
  9.80000000E+02  4.80000000E+01  0.00000000E+00
  9.80000000E+02  4.60000000E+01  0.00000000E+00
  9.80000000E+02  4.40000000E+01  0.00000000E+00
  9.80000000E+02  4.20000000E+01  0.00000000E+00
  9.80000000E+02  4.00000000E+01  0.00000000E+00
  9.80000000E+02  3.80000000E+01  0.00000000E+00
  9.80000000E+02  3.60000000E+01  0.00000000E+00
  9.80000000E+02  3.40000000E+01  0.00000000E+00
  9.80000000E+02  3.20000000E+01  0.00000000E+00
  9.80000000E+02  3.00000000E+01  0.00000000E+00
  9.80000000E+02  2.80000000E+01  0.00000000E+00
  9.80000000E+02  2.60000000E+01  0.00000000E+00
  9.80000000E+02  2.40000000E+01  0.00000000E+00
  9.80000000E+02  2.20000000E+01  0.00000000E+00
  9.80000000E+02  2.00000000E+01  0.00000000E+00
  9.80000000E+02  1.80000000E+01  0.00000000E+00
  9.80000000E+02  1.60000000E+01  0.00000000E+00
  9.80000000E+02  1.40000000E+01  0.00000000E+00
  9.80000000E+02  1.20000000E+01  0.00000000E+00
  9.80000000E+02  1.00000000E+01  0.00000000E+00
  9.80000000E+02  8.00000000E+00  0.00000000E+00
  9.80000000E+02  6.00000000E+00  0.00000000E+00
  9.80000000E+02  4.00000000E+00  0.00000000E+00
  9.80000000E+02  2.00000000E+00  0.00000000E+00
  9.80000000E+02 -3.33066907E-14  0.00000000E+00
  9.90000000E+02  1.00000000E+02  0.00000000E+00
  9.90000000E+02  9.80000000E+01  0.00000000E+00
  9.90000000E+02  9.60000000E+01  0.00000000E+00
  9.90000000E+02  9.40000000E+01  0.00000000E+00
  9.90000000E+02  9.20000000E+01  0.00000000E+00
  9.90000000E+02  9.00000000E+01  0.00000000E+00
  9.90000000E+02  8.80000000E+01  0.00000000E+00
  9.90000000E+02  8.60000000E+01  0.00000000E+00
  9.90000000E+02  8.40000000E+01  0.00000000E+00
  9.90000000E+02  8.20000000E+01  0.00000000E+00
  9.90000000E+02  8.00000000E+01  0.00000000E+00
  9.90000000E+02  7.80000000E+01  0.00000000E+00
  9.90000000E+02  7.60000000E+01  0.00000000E+00
  9.90000000E+02  7.40000000E+01  0.00000000E+00
  9.90000000E+02  7.20000000E+01  0.00000000E+00
  9.90000000E+02  7.00000000E+01  0.00000000E+00
  9.90000000E+02  6.80000000E+01  0.00000000E+00
  9.90000000E+02  6.60000000E+01  0.00000000E+00
  9.90000000E+02  6.40000000E+01  0.00000000E+00
  9.90000000E+02  6.20000000E+01  0.00000000E+00
  9.90000000E+02  6.00000000E+01  0.00000000E+00
  9.90000000E+02  5.80000000E+01  0.00000000E+00
  9.90000000E+02  5.60000000E+01  0.00000000E+00
  9.90000000E+02  5.40000000E+01  0.00000000E+00
  9.90000000E+02  5.20000000E+01  0.00000000E+00
  9.90000000E+02  5.00000000E+01  0.00000000E+00
  9.90000000E+02  4.80000000E+01  0.00000000E+00
  9.90000000E+02  4.60000000E+01  0.00000000E+00
  9.90000000E+02  4.40000000E+01  0.00000000E+00
  9.90000000E+02  4.20000000E+01  0.00000000E+00
  9.90000000E+02  4.00000000E+01  0.00000000E+00
  9.90000000E+02  3.80000000E+01  0.00000000E+00
  9.90000000E+02  3.60000000E+01  0.00000000E+00
  9.90000000E+02  3.40000000E+01  0.00000000E+00
  9.90000000E+02  3.20000000E+01  0.00000000E+00
  9.90000000E+02  3.00000000E+01  0.00000000E+00
  9.90000000E+02  2.80000000E+01  0.00000000E+00
  9.90000000E+02  2.60000000E+01  0.00000000E+00
  9.90000000E+02  2.40000000E+01  0.00000000E+00
  9.90000000E+02  2.20000000E+01  0.00000000E+00
  9.90000000E+02  2.00000000E+01  0.00000000E+00
  9.90000000E+02  1.80000000E+01  0.00000000E+00
  9.90000000E+02  1.60000000E+01  0.00000000E+00
  9.90000000E+02  1.40000000E+01  0.00000000E+00
  9.90000000E+02  1.20000000E+01  0.00000000E+00
  9.90000000E+02  1.00000000E+01  0.00000000E+00
  9.90000000E+02  8.00000000E+00  0.00000000E+00
  9.90000000E+02  6.00000000E+00  0.00000000E+00
  9.90000000E+02  4.00000000E+00  0.00000000E+00
  9.90000000E+02  2.00000000E+00  0.00000000E+00
  9.90000000E+02 -3.33066907E-14  0.00000000E+00
  1.00000000E+03  1.00000000E+02  0.00000000E+00
  1.00000000E+03  9.80000000E+01  0.00000000E+00
  1.00000000E+03  9.60000000E+01  0.00000000E+00
  1.00000000E+03  9.40000000E+01  0.00000000E+00
  1.00000000E+03  9.20000000E+01  0.00000000E+00
  1.00000000E+03  9.00000000E+01  0.00000000E+00
  1.00000000E+03  8.80000000E+01  0.00000000E+00
  1.00000000E+03  8.60000000E+01  0.00000000E+00
  1.00000000E+03  8.40000000E+01  0.00000000E+00
  1.00000000E+03  8.20000000E+01  0.00000000E+00
  1.00000000E+03  8.00000000E+01  0.00000000E+00
  1.00000000E+03  7.80000000E+01  0.00000000E+00
  1.00000000E+03  7.60000000E+01  0.00000000E+00
  1.00000000E+03  7.40000000E+01  0.00000000E+00
  1.00000000E+03  7.20000000E+01  0.00000000E+00
  1.00000000E+03  7.00000000E+01  0.00000000E+00
  1.00000000E+03  6.80000000E+01  0.00000000E+00
  1.00000000E+03  6.60000000E+01  0.00000000E+00
  1.00000000E+03  6.40000000E+01  0.00000000E+00
  1.00000000E+03  6.20000000E+01  0.00000000E+00
  1.00000000E+03  6.00000000E+01  0.00000000E+00
  1.00000000E+03  5.80000000E+01  0.00000000E+00
  1.00000000E+03  5.60000000E+01  0.00000000E+00
  1.00000000E+03  5.40000000E+01  0.00000000E+00
  1.00000000E+03  5.20000000E+01  0.00000000E+00
  1.00000000E+03  5.00000000E+01  0.00000000E+00
  1.00000000E+03  4.80000000E+01  0.00000000E+00
  1.00000000E+03  4.60000000E+01  0.00000000E+00
  1.00000000E+03  4.40000000E+01  0.00000000E+00
  1.00000000E+03  4.20000000E+01  0.00000000E+00
  1.00000000E+03  4.00000000E+01  0.00000000E+00
  1.00000000E+03  3.80000000E+01  0.00000000E+00
  1.00000000E+03  3.60000000E+01  0.00000000E+00
  1.00000000E+03  3.40000000E+01  0.00000000E+00
  1.00000000E+03  3.20000000E+01  0.00000000E+00
  1.00000000E+03  3.00000000E+01  0.00000000E+00
  1.00000000E+03  2.80000000E+01  0.00000000E+00
  1.00000000E+03  2.60000000E+01  0.00000000E+00
  1.00000000E+03  2.40000000E+01  0.00000000E+00
  1.00000000E+03  2.20000000E+01  0.00000000E+00
  1.00000000E+03  2.00000000E+01  0.00000000E+00
  1.00000000E+03  1.80000000E+01  0.00000000E+00
  1.00000000E+03  1.60000000E+01  0.00000000E+00
  1.00000000E+03  1.40000000E+01  0.00000000E+00
  1.00000000E+03  1.20000000E+01  0.00000000E+00
  1.00000000E+03  1.00000000E+01  0.00000000E+00
  1.00000000E+03  8.00000000E+00  0.00000000E+00
  1.00000000E+03  6.00000000E+00  0.00000000E+00
  1.00000000E+03  4.00000000E+00  0.00000000E+00
  1.00000000E+03  2.00000000E+00  0.00000000E+00
  1.00000000E+03 -3.33066907E-14  0.00000000E+00
CELLS      5000     25000
         4           0           1          52          51
         4           1           2          53          52
         4           2           3          54          53
         4           3           4          55          54
         4           4           5          56          55
         4           5           6          57          56
         4           6           7          58          57
         4           7           8          59          58
         4           8           9          60          59
         4           9          10          61          60
         4          10          11          62          61
         4          11          12          63          62
         4          12          13          64          63
         4          13          14          65          64
         4          14          15          66          65
         4          15          16          67          66
         4          16          17          68          67
         4          17          18          69          68
         4          18          19          70          69
         4          19          20          71          70
         4          20          21          72          71
         4          21          22          73          72
         4          22          23          74          73
         4          23          24          75          74
         4          24          25          76          75
         4          25          26          77          76
         4          26          27          78          77
         4          27          28          79          78
         4          28          29          80          79
         4          29          30          81          80
         4          30          31          82          81
         4          31          32          83          82
         4          32          33          84          83
         4          33          34          85          84
         4          34          35          86          85
         4          35          36          87          86
         4          36          37          88          87
         4          37          38          89          88
         4          38          39          90          89
         4          39          40          91          90
         4          40          41          92          91
         4          41          42          93          92
         4          42          43          94          93
         4          43          44          95          94
         4          44          45          96          95
         4          45          46          97          96
         4          46          47          98          97
         4          47          48          99          98
         4          48          49         100          99
         4          49          50         101         100
         4          51          52         103         102
         4          52          53         104         103
         4          53          54         105         104
         4          54          55         106         105
         4          55          56         107         106
         4          56          57         108         107
         4          57          58         109         108
         4          58          59         110         109
         4          59          60         111         110
         4          60          61         112         111
         4          61          62         113         112
         4          62          63         114         113
         4          63          64         115         114
         4          64          65         116         115
         4          65          66         117         116
         4          66          67         118         117
         4          67          68         119         118
         4          68          69         120         119
         4          69          70         121         120
         4          70          71         122         121
         4          71          72         123         122
         4          72          73         124         123
         4          73          74         125         124
         4          74          75         126         125
         4          75          76         127         126
         4          76          77         128         127
         4          77          78         129         128
         4          78          79         130         129
         4          79          80         131         130
         4          80          81         132         131
         4          81          82         133         132
         4          82          83         134         133
         4          83          84         135         134
         4          84          85         136         135
         4          85          86         137         136
         4          86          87         138         137
         4          87          88         139         138
         4          88          89         140         139
         4          89          90         141         140
         4          90          91         142         141
         4          91          92         143         142
         4          92          93         144         143
         4          93          94         145         144
         4          94          95         146         145
         4          95          96         147         146
         4          96          97         148         147
         4          97          98         149         148
         4          98          99         150         149
         4          99         100         151         150
         4         100         101         152         151
         4         102         103         154         153
         4         103         104         155         154
         4         104         105         156         155
         4         105         106         157         156
         4         106         107         158         157
         4         107         108         159         158
         4         108         109         160         159
         4         109         110         161         160
         4         110         111         162         161
         4         111         112         163         162
         4         112         113         164         163
         4         113         114         165         164
         4         114         115         166         165
         4         115         116         167         166
         4         116         117         168         167
         4         117         118         169         168
         4         118         119         170         169
         4         119         120         171         170
         4         120         121         172         171
         4         121         122         173         172
         4         122         123         174         173
         4         123         124         175         174
         4         124         125         176         175
         4         125         126         177         176
         4         126         127         178         177
         4         127         128         179         178
         4         128         129         180         179
         4         129         130         181         180
         4         130         131         182         181
         4         131         132         183         182
         4         132         133         184         183
         4         133         134         185         184
         4         134         135         186         185
         4         135         136         187         186
         4         136         137         188         187
         4         137         138         189         188
         4         138         139         190         189
         4         139         140         191         190
         4         140         141         192         191
         4         141         142         193         192
         4         142         143         194         193
         4         143         144         195         194
         4         144         145         196         195
         4         145         146         197         196
         4         146         147         198         197
         4         147         148         199         198
         4         148         149         200         199
         4         149         150         201         200
         4         150         151         202         201
         4         151         152         203         202
         4         153         154         205         204
         4         154         155         206         205
         4         155         156         207         206
         4         156         157         208         207
         4         157         158         209         208
         4         158         159         210         209
         4         159         160         211         210
         4         160         161         212         211
         4         161         162         213         212
         4         162         163         214         213
         4         163         164         215         214
         4         164         165         216         215
         4         165         166         217         216
         4         166         167         218         217
         4         167         168         219         218
         4         168         169         220         219
         4         169         170         221         220
         4         170         171         222         221
         4         171         172         223         222
         4         172         173         224         223
         4         173         174         225         224
         4         174         175         226         225
         4         175         176         227         226
         4         176         177         228         227
         4         177         178         229         228
         4         178         179         230         229
         4         179         180         231         230
         4         180         181         232         231
         4         181         182         233         232
         4         182         183         234         233
         4         183         184         235         234
         4         184         185         236         235
         4         185         186         237         236
         4         186         187         238         237
         4         187         188         239         238
         4         188         189         240         239
         4         189         190         241         240
         4         190         191         242         241
         4         191         192         243         242
         4         192         193         244         243
         4         193         194         245         244
         4         194         195         246         245
         4         195         196         247         246
         4         196         197         248         247
         4         197         198         249         248
         4         198         199         250         249
         4         199         200         251         250
         4         200         201         252         251
         4         201         202         253         252
         4         202         203         254         253
         4         204         205         256         255
         4         205         206         257         256
         4         206         207         258         257
         4         207         208         259         258
         4         208         209         260         259
         4         209         210         261         260
         4         210         211         262         261
         4         211         212         263         262
         4         212         213         264         263
         4         213         214         265         264
         4         214         215         266         265
         4         215         216         267         266
         4         216         217         268         267
         4         217         218         269         268
         4         218         219         270         269
         4         219         220         271         270
         4         220         221         272         271
         4         221         222         273         272
         4         222         223         274         273
         4         223         224         275         274
         4         224         225         276         275
         4         225         226         277         276
         4         226         227         278         277
         4         227         228         279         278
         4         228         229         280         279
         4         229         230         281         280
         4         230         231         282         281
         4         231         232         283         282
         4         232         233         284         283
         4         233         234         285         284
         4         234         235         286         285
         4         235         236         287         286
         4         236         237         288         287
         4         237         238         289         288
         4         238         239         290         289
         4         239         240         291         290
         4         240         241         292         291
         4         241         242         293         292
         4         242         243         294         293
         4         243         244         295         294
         4         244         245         296         295
         4         245         246         297         296
         4         246         247         298         297
         4         247         248         299         298
         4         248         249         300         299
         4         249         250         301         300
         4         250         251         302         301
         4         251         252         303         302
         4         252         253         304         303
         4         253         254         305         304
         4         255         256         307         306
         4         256         257         308         307
         4         257         258         309         308
         4         258         259         310         309
         4         259         260         311         310
         4         260         261         312         311
         4         261         262         313         312
         4         262         263         314         313
         4         263         264         315         314
         4         264         265         316         315
         4         265         266         317         316
         4         266         267         318         317
         4         267         268         319         318
         4         268         269         320         319
         4         269         270         321         320
         4         270         271         322         321
         4         271         272         323         322
         4         272         273         324         323
         4         273         274         325         324
         4         274         275         326         325
         4         275         276         327         326
         4         276         277         328         327
         4         277         278         329         328
         4         278         279         330         329
         4         279         280         331         330
         4         280         281         332         331
         4         281         282         333         332
         4         282         283         334         333
         4         283         284         335         334
         4         284         285         336         335
         4         285         286         337         336
         4         286         287         338         337
         4         287         288         339         338
         4         288         289         340         339
         4         289         290         341         340
         4         290         291         342         341
         4         291         292         343         342
         4         292         293         344         343
         4         293         294         345         344
         4         294         295         346         345
         4         295         296         347         346
         4         296         297         348         347
         4         297         298         349         348
         4         298         299         350         349
         4         299         300         351         350
         4         300         301         352         351
         4         301         302         353         352
         4         302         303         354         353
         4         303         304         355         354
         4         304         305         356         355
         4         306         307         358         357
         4         307         308         359         358
         4         308         309         360         359
         4         309         310         361         360
         4         310         311         362         361
         4         311         312         363         362
         4         312         313         364         363
         4         313         314         365         364
         4         314         315         366         365
         4         315         316         367         366
         4         316         317         368         367
         4         317         318         369         368
         4         318         319         370         369
         4         319         320         371         370
         4         320         321         372         371
         4         321         322         373         372
         4         322         323         374         373
         4         323         324         375         374
         4         324         325         376         375
         4         325         326         377         376
         4         326         327         378         377
         4         327         328         379         378
         4         328         329         380         379
         4         329         330         381         380
         4         330         331         382         381
         4         331         332         383         382
         4         332         333         384         383
         4         333         334         385         384
         4         334         335         386         385
         4         335         336         387         386
         4         336         337         388         387
         4         337         338         389         388
         4         338         339         390         389
         4         339         340         391         390
         4         340         341         392         391
         4         341         342         393         392
         4         342         343         394         393
         4         343         344         395         394
         4         344         345         396         395
         4         345         346         397         396
         4         346         347         398         397
         4         347         348         399         398
         4         348         349         400         399
         4         349         350         401         400
         4         350         351         402         401
         4         351         352         403         402
         4         352         353         404         403
         4         353         354         405         404
         4         354         355         406         405
         4         355         356         407         406
         4         357         358         409         408
         4         358         359         410         409
         4         359         360         411         410
         4         360         361         412         411
         4         361         362         413         412
         4         362         363         414         413
         4         363         364         415         414
         4         364         365         416         415
         4         365         366         417         416
         4         366         367         418         417
         4         367         368         419         418
         4         368         369         420         419
         4         369         370         421         420
         4         370         371         422         421
         4         371         372         423         422
         4         372         373         424         423
         4         373         374         425         424
         4         374         375         426         425
         4         375         376         427         426
         4         376         377         428         427
         4         377         378         429         428
         4         378         379         430         429
         4         379         380         431         430
         4         380         381         432         431
         4         381         382         433         432
         4         382         383         434         433
         4         383         384         435         434
         4         384         385         436         435
         4         385         386         437         436
         4         386         387         438         437
         4         387         388         439         438
         4         388         389         440         439
         4         389         390         441         440
         4         390         391         442         441
         4         391         392         443         442
         4         392         393         444         443
         4         393         394         445         444
         4         394         395         446         445
         4         395         396         447         446
         4         396         397         448         447
         4         397         398         449         448
         4         398         399         450         449
         4         399         400         451         450
         4         400         401         452         451
         4         401         402         453         452
         4         402         403         454         453
         4         403         404         455         454
         4         404         405         456         455
         4         405         406         457         456
         4         406         407         458         457
         4         408         409         460         459
         4         409         410         461         460
         4         410         411         462         461
         4         411         412         463         462
         4         412         413         464         463
         4         413         414         465         464
         4         414         415         466         465
         4         415         416         467         466
         4         416         417         468         467
         4         417         418         469         468
         4         418         419         470         469
         4         419         420         471         470
         4         420         421         472         471
         4         421         422         473         472
         4         422         423         474         473
         4         423         424         475         474
         4         424         425         476         475
         4         425         426         477         476
         4         426         427         478         477
         4         427         428         479         478
         4         428         429         480         479
         4         429         430         481         480
         4         430         431         482         481
         4         431         432         483         482
         4         432         433         484         483
         4         433         434         485         484
         4         434         435         486         485
         4         435         436         487         486
         4         436         437         488         487
         4         437         438         489         488
         4         438         439         490         489
         4         439         440         491         490
         4         440         441         492         491
         4         441         442         493         492
         4         442         443         494         493
         4         443         444         495         494
         4         444         445         496         495
         4         445         446         497         496
         4         446         447         498         497
         4         447         448         499         498
         4         448         449         500         499
         4         449         450         501         500
         4         450         451         502         501
         4         451         452         503         502
         4         452         453         504         503
         4         453         454         505         504
         4         454         455         506         505
         4         455         456         507         506
         4         456         457         508         507
         4         457         458         509         508
         4         459         460         511         510
         4         460         461         512         511
         4         461         462         513         512
         4         462         463         514         513
         4         463         464         515         514
         4         464         465         516         515
         4         465         466         517         516
         4         466         467         518         517
         4         467         468         519         518
         4         468         469         520         519
         4         469         470         521         520
         4         470         471         522         521
         4         471         472         523         522
         4         472         473         524         523
         4         473         474         525         524
         4         474         475         526         525
         4         475         476         527         526
         4         476         477         528         527
         4         477         478         529         528
         4         478         479         530         529
         4         479         480         531         530
         4         480         481         532         531
         4         481         482         533         532
         4         482         483         534         533
         4         483         484         535         534
         4         484         485         536         535
         4         485         486         537         536
         4         486         487         538         537
         4         487         488         539         538
         4         488         489         540         539
         4         489         490         541         540
         4         490         491         542         541
         4         491         492         543         542
         4         492         493         544         543
         4         493         494         545         544
         4         494         495         546         545
         4         495         496         547         546
         4         496         497         548         547
         4         497         498         549         548
         4         498         499         550         549
         4         499         500         551         550
         4         500         501         552         551
         4         501         502         553         552
         4         502         503         554         553
         4         503         504         555         554
         4         504         505         556         555
         4         505         506         557         556
         4         506         507         558         557
         4         507         508         559         558
         4         508         509         560         559
         4         510         511         562         561
         4         511         512         563         562
         4         512         513         564         563
         4         513         514         565         564
         4         514         515         566         565
         4         515         516         567         566
         4         516         517         568         567
         4         517         518         569         568
         4         518         519         570         569
         4         519         520         571         570
         4         520         521         572         571
         4         521         522         573         572
         4         522         523         574         573
         4         523         524         575         574
         4         524         525         576         575
         4         525         526         577         576
         4         526         527         578         577
         4         527         528         579         578
         4         528         529         580         579
         4         529         530         581         580
         4         530         531         582         581
         4         531         532         583         582
         4         532         533         584         583
         4         533         534         585         584
         4         534         535         586         585
         4         535         536         587         586
         4         536         537         588         587
         4         537         538         589         588
         4         538         539         590         589
         4         539         540         591         590
         4         540         541         592         591
         4         541         542         593         592
         4         542         543         594         593
         4         543         544         595         594
         4         544         545         596         595
         4         545         546         597         596
         4         546         547         598         597
         4         547         548         599         598
         4         548         549         600         599
         4         549         550         601         600
         4         550         551         602         601
         4         551         552         603         602
         4         552         553         604         603
         4         553         554         605         604
         4         554         555         606         605
         4         555         556         607         606
         4         556         557         608         607
         4         557         558         609         608
         4         558         559         610         609
         4         559         560         611         610
         4         561         562         613         612
         4         562         563         614         613
         4         563         564         615         614
         4         564         565         616         615
         4         565         566         617         616
         4         566         567         618         617
         4         567         568         619         618
         4         568         569         620         619
         4         569         570         621         620
         4         570         571         622         621
         4         571         572         623         622
         4         572         573         624         623
         4         573         574         625         624
         4         574         575         626         625
         4         575         576         627         626
         4         576         577         628         627
         4         577         578         629         628
         4         578         579         630         629
         4         579         580         631         630
         4         580         581         632         631
         4         581         582         633         632
         4         582         583         634         633
         4         583         584         635         634
         4         584         585         636         635
         4         585         586         637         636
         4         586         587         638         637
         4         587         588         639         638
         4         588         589         640         639
         4         589         590         641         640
         4         590         591         642         641
         4         591         592         643         642
         4         592         593         644         643
         4         593         594         645         644
         4         594         595         646         645
         4         595         596         647         646
         4         596         597         648         647
         4         597         598         649         648
         4         598         599         650         649
         4         599         600         651         650
         4         600         601         652         651
         4         601         602         653         652
         4         602         603         654         653
         4         603         604         655         654
         4         604         605         656         655
         4         605         606         657         656
         4         606         607         658         657
         4         607         608         659         658
         4         608         609         660         659
         4         609         610         661         660
         4         610         611         662         661
         4         612         613         664         663
         4         613         614         665         664
         4         614         615         666         665
         4         615         616         667         666
         4         616         617         668         667
         4         617         618         669         668
         4         618         619         670         669
         4         619         620         671         670
         4         620         621         672         671
         4         621         622         673         672
         4         622         623         674         673
         4         623         624         675         674
         4         624         625         676         675
         4         625         626         677         676
         4         626         627         678         677
         4         627         628         679         678
         4         628         629         680         679
         4         629         630         681         680
         4         630         631         682         681
         4         631         632         683         682
         4         632         633         684         683
         4         633         634         685         684
         4         634         635         686         685
         4         635         636         687         686
         4         636         637         688         687
         4         637         638         689         688
         4         638         639         690         689
         4         639         640         691         690
         4         640         641         692         691
         4         641         642         693         692
         4         642         643         694         693
         4         643         644         695         694
         4         644         645         696         695
         4         645         646         697         696
         4         646         647         698         697
         4         647         648         699         698
         4         648         649         700         699
         4         649         650         701         700
         4         650         651         702         701
         4         651         652         703         702
         4         652         653         704         703
         4         653         654         705         704
         4         654         655         706         705
         4         655         656         707         706
         4         656         657         708         707
         4         657         658         709         708
         4         658         659         710         709
         4         659         660         711         710
         4         660         661         712         711
         4         661         662         713         712
         4         663         664         715         714
         4         664         665         716         715
         4         665         666         717         716
         4         666         667         718         717
         4         667         668         719         718
         4         668         669         720         719
         4         669         670         721         720
         4         670         671         722         721
         4         671         672         723         722
         4         672         673         724         723
         4         673         674         725         724
         4         674         675         726         725
         4         675         676         727         726
         4         676         677         728         727
         4         677         678         729         728
         4         678         679         730         729
         4         679         680         731         730
         4         680         681         732         731
         4         681         682         733         732
         4         682         683         734         733
         4         683         684         735         734
         4         684         685         736         735
         4         685         686         737         736
         4         686         687         738         737
         4         687         688         739         738
         4         688         689         740         739
         4         689         690         741         740
         4         690         691         742         741
         4         691         692         743         742
         4         692         693         744         743
         4         693         694         745         744
         4         694         695         746         745
         4         695         696         747         746
         4         696         697         748         747
         4         697         698         749         748
         4         698         699         750         749
         4         699         700         751         750
         4         700         701         752         751
         4         701         702         753         752
         4         702         703         754         753
         4         703         704         755         754
         4         704         705         756         755
         4         705         706         757         756
         4         706         707         758         757
         4         707         708         759         758
         4         708         709         760         759
         4         709         710         761         760
         4         710         711         762         761
         4         711         712         763         762
         4         712         713         764         763
         4         714         715         766         765
         4         715         716         767         766
         4         716         717         768         767
         4         717         718         769         768
         4         718         719         770         769
         4         719         720         771         770
         4         720         721         772         771
         4         721         722         773         772
         4         722         723         774         773
         4         723         724         775         774
         4         724         725         776         775
         4         725         726         777         776
         4         726         727         778         777
         4         727         728         779         778
         4         728         729         780         779
         4         729         730         781         780
         4         730         731         782         781
         4         731         732         783         782
         4         732         733         784         783
         4         733         734         785         784
         4         734         735         786         785
         4         735         736         787         786
         4         736         737         788         787
         4         737         738         789         788
         4         738         739         790         789
         4         739         740         791         790
         4         740         741         792         791
         4         741         742         793         792
         4         742         743         794         793
         4         743         744         795         794
         4         744         745         796         795
         4         745         746         797         796
         4         746         747         798         797
         4         747         748         799         798
         4         748         749         800         799
         4         749         750         801         800
         4         750         751         802         801
         4         751         752         803         802
         4         752         753         804         803
         4         753         754         805         804
         4         754         755         806         805
         4         755         756         807         806
         4         756         757         808         807
         4         757         758         809         808
         4         758         759         810         809
         4         759         760         811         810
         4         760         761         812         811
         4         761         762         813         812
         4         762         763         814         813
         4         763         764         815         814
         4         765         766         817         816
         4         766         767         818         817
         4         767         768         819         818
         4         768         769         820         819
         4         769         770         821         820
         4         770         771         822         821
         4         771         772         823         822
         4         772         773         824         823
         4         773         774         825         824
         4         774         775         826         825
         4         775         776         827         826
         4         776         777         828         827
         4         777         778         829         828
         4         778         779         830         829
         4         779         780         831         830
         4         780         781         832         831
         4         781         782         833         832
         4         782         783         834         833
         4         783         784         835         834
         4         784         785         836         835
         4         785         786         837         836
         4         786         787         838         837
         4         787         788         839         838
         4         788         789         840         839
         4         789         790         841         840
         4         790         791         842         841
         4         791         792         843         842
         4         792         793         844         843
         4         793         794         845         844
         4         794         795         846         845
         4         795         796         847         846
         4         796         797         848         847
         4         797         798         849         848
         4         798         799         850         849
         4         799         800         851         850
         4         800         801         852         851
         4         801         802         853         852
         4         802         803         854         853
         4         803         804         855         854
         4         804         805         856         855
         4         805         806         857         856
         4         806         807         858         857
         4         807         808         859         858
         4         808         809         860         859
         4         809         810         861         860
         4         810         811         862         861
         4         811         812         863         862
         4         812         813         864         863
         4         813         814         865         864
         4         814         815         866         865
         4         816         817         868         867
         4         817         818         869         868
         4         818         819         870         869
         4         819         820         871         870
         4         820         821         872         871
         4         821         822         873         872
         4         822         823         874         873
         4         823         824         875         874
         4         824         825         876         875
         4         825         826         877         876
         4         826         827         878         877
         4         827         828         879         878
         4         828         829         880         879
         4         829         830         881         880
         4         830         831         882         881
         4         831         832         883         882
         4         832         833         884         883
         4         833         834         885         884
         4         834         835         886         885
         4         835         836         887         886
         4         836         837         888         887
         4         837         838         889         888
         4         838         839         890         889
         4         839         840         891         890
         4         840         841         892         891
         4         841         842         893         892
         4         842         843         894         893
         4         843         844         895         894
         4         844         845         896         895
         4         845         846         897         896
         4         846         847         898         897
         4         847         848         899         898
         4         848         849         900         899
         4         849         850         901         900
         4         850         851         902         901
         4         851         852         903         902
         4         852         853         904         903
         4         853         854         905         904
         4         854         855         906         905
         4         855         856         907         906
         4         856         857         908         907
         4         857         858         909         908
         4         858         859         910         909
         4         859         860         911         910
         4         860         861         912         911
         4         861         862         913         912
         4         862         863         914         913
         4         863         864         915         914
         4         864         865         916         915
         4         865         866         917         916
         4         867         868         919         918
         4         868         869         920         919
         4         869         870         921         920
         4         870         871         922         921
         4         871         872         923         922
         4         872         873         924         923
         4         873         874         925         924
         4         874         875         926         925
         4         875         876         927         926
         4         876         877         928         927
         4         877         878         929         928
         4         878         879         930         929
         4         879         880         931         930
         4         880         881         932         931
         4         881         882         933         932
         4         882         883         934         933
         4         883         884         935         934
         4         884         885         936         935
         4         885         886         937         936
         4         886         887         938         937
         4         887         888         939         938
         4         888         889         940         939
         4         889         890         941         940
         4         890         891         942         941
         4         891         892         943         942
         4         892         893         944         943
         4         893         894         945         944
         4         894         895         946         945
         4         895         896         947         946
         4         896         897         948         947
         4         897         898         949         948
         4         898         899         950         949
         4         899         900         951         950
         4         900         901         952         951
         4         901         902         953         952
         4         902         903         954         953
         4         903         904         955         954
         4         904         905         956         955
         4         905         906         957         956
         4         906         907         958         957
         4         907         908         959         958
         4         908         909         960         959
         4         909         910         961         960
         4         910         911         962         961
         4         911         912         963         962
         4         912         913         964         963
         4         913         914         965         964
         4         914         915         966         965
         4         915         916         967         966
         4         916         917         968         967
         4         918         919         970         969
         4         919         920         971         970
         4         920         921         972         971
         4         921         922         973         972
         4         922         923         974         973
         4         923         924         975         974
         4         924         925         976         975
         4         925         926         977         976
         4         926         927         978         977
         4         927         928         979         978
         4         928         929         980         979
         4         929         930         981         980
         4         930         931         982         981
         4         931         932         983         982
         4         932         933         984         983
         4         933         934         985         984
         4         934         935         986         985
         4         935         936         987         986
         4         936         937         988         987
         4         937         938         989         988
         4         938         939         990         989
         4         939         940         991         990
         4         940         941         992         991
         4         941         942         993         992
         4         942         943         994         993
         4         943         944         995         994
         4         944         945         996         995
         4         945         946         997         996
         4         946         947         998         997
         4         947         948         999         998
         4         948         949        1000         999
         4         949         950        1001        1000
         4         950         951        1002        1001
         4         951         952        1003        1002
         4         952         953        1004        1003
         4         953         954        1005        1004
         4         954         955        1006        1005
         4         955         956        1007        1006
         4         956         957        1008        1007
         4         957         958        1009        1008
         4         958         959        1010        1009
         4         959         960        1011        1010
         4         960         961        1012        1011
         4         961         962        1013        1012
         4         962         963        1014        1013
         4         963         964        1015        1014
         4         964         965        1016        1015
         4         965         966        1017        1016
         4         966         967        1018        1017
         4         967         968        1019        1018
         4         969         970        1021        1020
         4         970         971        1022        1021
         4         971         972        1023        1022
         4         972         973        1024        1023
         4         973         974        1025        1024
         4         974         975        1026        1025
         4         975         976        1027        1026
         4         976         977        1028        1027
         4         977         978        1029        1028
         4         978         979        1030        1029
         4         979         980        1031        1030
         4         980         981        1032        1031
         4         981         982        1033        1032
         4         982         983        1034        1033
         4         983         984        1035        1034
         4         984         985        1036        1035
         4         985         986        1037        1036
         4         986         987        1038        1037
         4         987         988        1039        1038
         4         988         989        1040        1039
         4         989         990        1041        1040
         4         990         991        1042        1041
         4         991         992        1043        1042
         4         992         993        1044        1043
         4         993         994        1045        1044
         4         994         995        1046        1045
         4         995         996        1047        1046
         4         996         997        1048        1047
         4         997         998        1049        1048
         4         998         999        1050        1049
         4         999        1000        1051        1050
         4        1000        1001        1052        1051
         4        1001        1002        1053        1052
         4        1002        1003        1054        1053
         4        1003        1004        1055        1054
         4        1004        1005        1056        1055
         4        1005        1006        1057        1056
         4        1006        1007        1058        1057
         4        1007        1008        1059        1058
         4        1008        1009        1060        1059
         4        1009        1010        1061        1060
         4        1010        1011        1062        1061
         4        1011        1012        1063        1062
         4        1012        1013        1064        1063
         4        1013        1014        1065        1064
         4        1014        1015        1066        1065
         4        1015        1016        1067        1066
         4        1016        1017        1068        1067
         4        1017        1018        1069        1068
         4        1018        1019        1070        1069
         4        1020        1021        1072        1071
         4        1021        1022        1073        1072
         4        1022        1023        1074        1073
         4        1023        1024        1075        1074
         4        1024        1025        1076        1075
         4        1025        1026        1077        1076
         4        1026        1027        1078        1077
         4        1027        1028        1079        1078
         4        1028        1029        1080        1079
         4        1029        1030        1081        1080
         4        1030        1031        1082        1081
         4        1031        1032        1083        1082
         4        1032        1033        1084        1083
         4        1033        1034        1085        1084
         4        1034        1035        1086        1085
         4        1035        1036        1087        1086
         4        1036        1037        1088        1087
         4        1037        1038        1089        1088
         4        1038        1039        1090        1089
         4        1039        1040        1091        1090
         4        1040        1041        1092        1091
         4        1041        1042        1093        1092
         4        1042        1043        1094        1093
         4        1043        1044        1095        1094
         4        1044        1045        1096        1095
         4        1045        1046        1097        1096
         4        1046        1047        1098        1097
         4        1047        1048        1099        1098
         4        1048        1049        1100        1099
         4        1049        1050        1101        1100
         4        1050        1051        1102        1101
         4        1051        1052        1103        1102
         4        1052        1053        1104        1103
         4        1053        1054        1105        1104
         4        1054        1055        1106        1105
         4        1055        1056        1107        1106
         4        1056        1057        1108        1107
         4        1057        1058        1109        1108
         4        1058        1059        1110        1109
         4        1059        1060        1111        1110
         4        1060        1061        1112        1111
         4        1061        1062        1113        1112
         4        1062        1063        1114        1113
         4        1063        1064        1115        1114
         4        1064        1065        1116        1115
         4        1065        1066        1117        1116
         4        1066        1067        1118        1117
         4        1067        1068        1119        1118
         4        1068        1069        1120        1119
         4        1069        1070        1121        1120
         4        1071        1072        1123        1122
         4        1072        1073        1124        1123
         4        1073        1074        1125        1124
         4        1074        1075        1126        1125
         4        1075        1076        1127        1126
         4        1076        1077        1128        1127
         4        1077        1078        1129        1128
         4        1078        1079        1130        1129
         4        1079        1080        1131        1130
         4        1080        1081        1132        1131
         4        1081        1082        1133        1132
         4        1082        1083        1134        1133
         4        1083        1084        1135        1134
         4        1084        1085        1136        1135
         4        1085        1086        1137        1136
         4        1086        1087        1138        1137
         4        1087        1088        1139        1138
         4        1088        1089        1140        1139
         4        1089        1090        1141        1140
         4        1090        1091        1142        1141
         4        1091        1092        1143        1142
         4        1092        1093        1144        1143
         4        1093        1094        1145        1144
         4        1094        1095        1146        1145
         4        1095        1096        1147        1146
         4        1096        1097        1148        1147
         4        1097        1098        1149        1148
         4        1098        1099        1150        1149
         4        1099        1100        1151        1150
         4        1100        1101        1152        1151
         4        1101        1102        1153        1152
         4        1102        1103        1154        1153
         4        1103        1104        1155        1154
         4        1104        1105        1156        1155
         4        1105        1106        1157        1156
         4        1106        1107        1158        1157
         4        1107        1108        1159        1158
         4        1108        1109        1160        1159
         4        1109        1110        1161        1160
         4        1110        1111        1162        1161
         4        1111        1112        1163        1162
         4        1112        1113        1164        1163
         4        1113        1114        1165        1164
         4        1114        1115        1166        1165
         4        1115        1116        1167        1166
         4        1116        1117        1168        1167
         4        1117        1118        1169        1168
         4        1118        1119        1170        1169
         4        1119        1120        1171        1170
         4        1120        1121        1172        1171
         4        1122        1123        1174        1173
         4        1123        1124        1175        1174
         4        1124        1125        1176        1175
         4        1125        1126        1177        1176
         4        1126        1127        1178        1177
         4        1127        1128        1179        1178
         4        1128        1129        1180        1179
         4        1129        1130        1181        1180
         4        1130        1131        1182        1181
         4        1131        1132        1183        1182
         4        1132        1133        1184        1183
         4        1133        1134        1185        1184
         4        1134        1135        1186        1185
         4        1135        1136        1187        1186
         4        1136        1137        1188        1187
         4        1137        1138        1189        1188
         4        1138        1139        1190        1189
         4        1139        1140        1191        1190
         4        1140        1141        1192        1191
         4        1141        1142        1193        1192
         4        1142        1143        1194        1193
         4        1143        1144        1195        1194
         4        1144        1145        1196        1195
         4        1145        1146        1197        1196
         4        1146        1147        1198        1197
         4        1147        1148        1199        1198
         4        1148        1149        1200        1199
         4        1149        1150        1201        1200
         4        1150        1151        1202        1201
         4        1151        1152        1203        1202
         4        1152        1153        1204        1203
         4        1153        1154        1205        1204
         4        1154        1155        1206        1205
         4        1155        1156        1207        1206
         4        1156        1157        1208        1207
         4        1157        1158        1209        1208
         4        1158        1159        1210        1209
         4        1159        1160        1211        1210
         4        1160        1161        1212        1211
         4        1161        1162        1213        1212
         4        1162        1163        1214        1213
         4        1163        1164        1215        1214
         4        1164        1165        1216        1215
         4        1165        1166        1217        1216
         4        1166        1167        1218        1217
         4        1167        1168        1219        1218
         4        1168        1169        1220        1219
         4        1169        1170        1221        1220
         4        1170        1171        1222        1221
         4        1171        1172        1223        1222
         4        1173        1174        1225        1224
         4        1174        1175        1226        1225
         4        1175        1176        1227        1226
         4        1176        1177        1228        1227
         4        1177        1178        1229        1228
         4        1178        1179        1230        1229
         4        1179        1180        1231        1230
         4        1180        1181        1232        1231
         4        1181        1182        1233        1232
         4        1182        1183        1234        1233
         4        1183        1184        1235        1234
         4        1184        1185        1236        1235
         4        1185        1186        1237        1236
         4        1186        1187        1238        1237
         4        1187        1188        1239        1238
         4        1188        1189        1240        1239
         4        1189        1190        1241        1240
         4        1190        1191        1242        1241
         4        1191        1192        1243        1242
         4        1192        1193        1244        1243
         4        1193        1194        1245        1244
         4        1194        1195        1246        1245
         4        1195        1196        1247        1246
         4        1196        1197        1248        1247
         4        1197        1198        1249        1248
         4        1198        1199        1250        1249
         4        1199        1200        1251        1250
         4        1200        1201        1252        1251
         4        1201        1202        1253        1252
         4        1202        1203        1254        1253
         4        1203        1204        1255        1254
         4        1204        1205        1256        1255
         4        1205        1206        1257        1256
         4        1206        1207        1258        1257
         4        1207        1208        1259        1258
         4        1208        1209        1260        1259
         4        1209        1210        1261        1260
         4        1210        1211        1262        1261
         4        1211        1212        1263        1262
         4        1212        1213        1264        1263
         4        1213        1214        1265        1264
         4        1214        1215        1266        1265
         4        1215        1216        1267        1266
         4        1216        1217        1268        1267
         4        1217        1218        1269        1268
         4        1218        1219        1270        1269
         4        1219        1220        1271        1270
         4        1220        1221        1272        1271
         4        1221        1222        1273        1272
         4        1222        1223        1274        1273
         4        1224        1225        1276        1275
         4        1225        1226        1277        1276
         4        1226        1227        1278        1277
         4        1227        1228        1279        1278
         4        1228        1229        1280        1279
         4        1229        1230        1281        1280
         4        1230        1231        1282        1281
         4        1231        1232        1283        1282
         4        1232        1233        1284        1283
         4        1233        1234        1285        1284
         4        1234        1235        1286        1285
         4        1235        1236        1287        1286
         4        1236        1237        1288        1287
         4        1237        1238        1289        1288
         4        1238        1239        1290        1289
         4        1239        1240        1291        1290
         4        1240        1241        1292        1291
         4        1241        1242        1293        1292
         4        1242        1243        1294        1293
         4        1243        1244        1295        1294
         4        1244        1245        1296        1295
         4        1245        1246        1297        1296
         4        1246        1247        1298        1297
         4        1247        1248        1299        1298
         4        1248        1249        1300        1299
         4        1249        1250        1301        1300
         4        1250        1251        1302        1301
         4        1251        1252        1303        1302
         4        1252        1253        1304        1303
         4        1253        1254        1305        1304
         4        1254        1255        1306        1305
         4        1255        1256        1307        1306
         4        1256        1257        1308        1307
         4        1257        1258        1309        1308
         4        1258        1259        1310        1309
         4        1259        1260        1311        1310
         4        1260        1261        1312        1311
         4        1261        1262        1313        1312
         4        1262        1263        1314        1313
         4        1263        1264        1315        1314
         4        1264        1265        1316        1315
         4        1265        1266        1317        1316
         4        1266        1267        1318        1317
         4        1267        1268        1319        1318
         4        1268        1269        1320        1319
         4        1269        1270        1321        1320
         4        1270        1271        1322        1321
         4        1271        1272        1323        1322
         4        1272        1273        1324        1323
         4        1273        1274        1325        1324
         4        1275        1276        1327        1326
         4        1276        1277        1328        1327
         4        1277        1278        1329        1328
         4        1278        1279        1330        1329
         4        1279        1280        1331        1330
         4        1280        1281        1332        1331
         4        1281        1282        1333        1332
         4        1282        1283        1334        1333
         4        1283        1284        1335        1334
         4        1284        1285        1336        1335
         4        1285        1286        1337        1336
         4        1286        1287        1338        1337
         4        1287        1288        1339        1338
         4        1288        1289        1340        1339
         4        1289        1290        1341        1340
         4        1290        1291        1342        1341
         4        1291        1292        1343        1342
         4        1292        1293        1344        1343
         4        1293        1294        1345        1344
         4        1294        1295        1346        1345
         4        1295        1296        1347        1346
         4        1296        1297        1348        1347
         4        1297        1298        1349        1348
         4        1298        1299        1350        1349
         4        1299        1300        1351        1350
         4        1300        1301        1352        1351
         4        1301        1302        1353        1352
         4        1302        1303        1354        1353
         4        1303        1304        1355        1354
         4        1304        1305        1356        1355
         4        1305        1306        1357        1356
         4        1306        1307        1358        1357
         4        1307        1308        1359        1358
         4        1308        1309        1360        1359
         4        1309        1310        1361        1360
         4        1310        1311        1362        1361
         4        1311        1312        1363        1362
         4        1312        1313        1364        1363
         4        1313        1314        1365        1364
         4        1314        1315        1366        1365
         4        1315        1316        1367        1366
         4        1316        1317        1368        1367
         4        1317        1318        1369        1368
         4        1318        1319        1370        1369
         4        1319        1320        1371        1370
         4        1320        1321        1372        1371
         4        1321        1322        1373        1372
         4        1322        1323        1374        1373
         4        1323        1324        1375        1374
         4        1324        1325        1376        1375
         4        1326        1327        1378        1377
         4        1327        1328        1379        1378
         4        1328        1329        1380        1379
         4        1329        1330        1381        1380
         4        1330        1331        1382        1381
         4        1331        1332        1383        1382
         4        1332        1333        1384        1383
         4        1333        1334        1385        1384
         4        1334        1335        1386        1385
         4        1335        1336        1387        1386
         4        1336        1337        1388        1387
         4        1337        1338        1389        1388
         4        1338        1339        1390        1389
         4        1339        1340        1391        1390
         4        1340        1341        1392        1391
         4        1341        1342        1393        1392
         4        1342        1343        1394        1393
         4        1343        1344        1395        1394
         4        1344        1345        1396        1395
         4        1345        1346        1397        1396
         4        1346        1347        1398        1397
         4        1347        1348        1399        1398
         4        1348        1349        1400        1399
         4        1349        1350        1401        1400
         4        1350        1351        1402        1401
         4        1351        1352        1403        1402
         4        1352        1353        1404        1403
         4        1353        1354        1405        1404
         4        1354        1355        1406        1405
         4        1355        1356        1407        1406
         4        1356        1357        1408        1407
         4        1357        1358        1409        1408
         4        1358        1359        1410        1409
         4        1359        1360        1411        1410
         4        1360        1361        1412        1411
         4        1361        1362        1413        1412
         4        1362        1363        1414        1413
         4        1363        1364        1415        1414
         4        1364        1365        1416        1415
         4        1365        1366        1417        1416
         4        1366        1367        1418        1417
         4        1367        1368        1419        1418
         4        1368        1369        1420        1419
         4        1369        1370        1421        1420
         4        1370        1371        1422        1421
         4        1371        1372        1423        1422
         4        1372        1373        1424        1423
         4        1373        1374        1425        1424
         4        1374        1375        1426        1425
         4        1375        1376        1427        1426
         4        1377        1378        1429        1428
         4        1378        1379        1430        1429
         4        1379        1380        1431        1430
         4        1380        1381        1432        1431
         4        1381        1382        1433        1432
         4        1382        1383        1434        1433
         4        1383        1384        1435        1434
         4        1384        1385        1436        1435
         4        1385        1386        1437        1436
         4        1386        1387        1438        1437
         4        1387        1388        1439        1438
         4        1388        1389        1440        1439
         4        1389        1390        1441        1440
         4        1390        1391        1442        1441
         4        1391        1392        1443        1442
         4        1392        1393        1444        1443
         4        1393        1394        1445        1444
         4        1394        1395        1446        1445
         4        1395        1396        1447        1446
         4        1396        1397        1448        1447
         4        1397        1398        1449        1448
         4        1398        1399        1450        1449
         4        1399        1400        1451        1450
         4        1400        1401        1452        1451
         4        1401        1402        1453        1452
         4        1402        1403        1454        1453
         4        1403        1404        1455        1454
         4        1404        1405        1456        1455
         4        1405        1406        1457        1456
         4        1406        1407        1458        1457
         4        1407        1408        1459        1458
         4        1408        1409        1460        1459
         4        1409        1410        1461        1460
         4        1410        1411        1462        1461
         4        1411        1412        1463        1462
         4        1412        1413        1464        1463
         4        1413        1414        1465        1464
         4        1414        1415        1466        1465
         4        1415        1416        1467        1466
         4        1416        1417        1468        1467
         4        1417        1418        1469        1468
         4        1418        1419        1470        1469
         4        1419        1420        1471        1470
         4        1420        1421        1472        1471
         4        1421        1422        1473        1472
         4        1422        1423        1474        1473
         4        1423        1424        1475        1474
         4        1424        1425        1476        1475
         4        1425        1426        1477        1476
         4        1426        1427        1478        1477
         4        1428        1429        1480        1479
         4        1429        1430        1481        1480
         4        1430        1431        1482        1481
         4        1431        1432        1483        1482
         4        1432        1433        1484        1483
         4        1433        1434        1485        1484
         4        1434        1435        1486        1485
         4        1435        1436        1487        1486
         4        1436        1437        1488        1487
         4        1437        1438        1489        1488
         4        1438        1439        1490        1489
         4        1439        1440        1491        1490
         4        1440        1441        1492        1491
         4        1441        1442        1493        1492
         4        1442        1443        1494        1493
         4        1443        1444        1495        1494
         4        1444        1445        1496        1495
         4        1445        1446        1497        1496
         4        1446        1447        1498        1497
         4        1447        1448        1499        1498
         4        1448        1449        1500        1499
         4        1449        1450        1501        1500
         4        1450        1451        1502        1501
         4        1451        1452        1503        1502
         4        1452        1453        1504        1503
         4        1453        1454        1505        1504
         4        1454        1455        1506        1505
         4        1455        1456        1507        1506
         4        1456        1457        1508        1507
         4        1457        1458        1509        1508
         4        1458        1459        1510        1509
         4        1459        1460        1511        1510
         4        1460        1461        1512        1511
         4        1461        1462        1513        1512
         4        1462        1463        1514        1513
         4        1463        1464        1515        1514
         4        1464        1465        1516        1515
         4        1465        1466        1517        1516
         4        1466        1467        1518        1517
         4        1467        1468        1519        1518
         4        1468        1469        1520        1519
         4        1469        1470        1521        1520
         4        1470        1471        1522        1521
         4        1471        1472        1523        1522
         4        1472        1473        1524        1523
         4        1473        1474        1525        1524
         4        1474        1475        1526        1525
         4        1475        1476        1527        1526
         4        1476        1477        1528        1527
         4        1477        1478        1529        1528
         4        1479        1480        1531        1530
         4        1480        1481        1532        1531
         4        1481        1482        1533        1532
         4        1482        1483        1534        1533
         4        1483        1484        1535        1534
         4        1484        1485        1536        1535
         4        1485        1486        1537        1536
         4        1486        1487        1538        1537
         4        1487        1488        1539        1538
         4        1488        1489        1540        1539
         4        1489        1490        1541        1540
         4        1490        1491        1542        1541
         4        1491        1492        1543        1542
         4        1492        1493        1544        1543
         4        1493        1494        1545        1544
         4        1494        1495        1546        1545
         4        1495        1496        1547        1546
         4        1496        1497        1548        1547
         4        1497        1498        1549        1548
         4        1498        1499        1550        1549
         4        1499        1500        1551        1550
         4        1500        1501        1552        1551
         4        1501        1502        1553        1552
         4        1502        1503        1554        1553
         4        1503        1504        1555        1554
         4        1504        1505        1556        1555
         4        1505        1506        1557        1556
         4        1506        1507        1558        1557
         4        1507        1508        1559        1558
         4        1508        1509        1560        1559
         4        1509        1510        1561        1560
         4        1510        1511        1562        1561
         4        1511        1512        1563        1562
         4        1512        1513        1564        1563
         4        1513        1514        1565        1564
         4        1514        1515        1566        1565
         4        1515        1516        1567        1566
         4        1516        1517        1568        1567
         4        1517        1518        1569        1568
         4        1518        1519        1570        1569
         4        1519        1520        1571        1570
         4        1520        1521        1572        1571
         4        1521        1522        1573        1572
         4        1522        1523        1574        1573
         4        1523        1524        1575        1574
         4        1524        1525        1576        1575
         4        1525        1526        1577        1576
         4        1526        1527        1578        1577
         4        1527        1528        1579        1578
         4        1528        1529        1580        1579
         4        1530        1531        1582        1581
         4        1531        1532        1583        1582
         4        1532        1533        1584        1583
         4        1533        1534        1585        1584
         4        1534        1535        1586        1585
         4        1535        1536        1587        1586
         4        1536        1537        1588        1587
         4        1537        1538        1589        1588
         4        1538        1539        1590        1589
         4        1539        1540        1591        1590
         4        1540        1541        1592        1591
         4        1541        1542        1593        1592
         4        1542        1543        1594        1593
         4        1543        1544        1595        1594
         4        1544        1545        1596        1595
         4        1545        1546        1597        1596
         4        1546        1547        1598        1597
         4        1547        1548        1599        1598
         4        1548        1549        1600        1599
         4        1549        1550        1601        1600
         4        1550        1551        1602        1601
         4        1551        1552        1603        1602
         4        1552        1553        1604        1603
         4        1553        1554        1605        1604
         4        1554        1555        1606        1605
         4        1555        1556        1607        1606
         4        1556        1557        1608        1607
         4        1557        1558        1609        1608
         4        1558        1559        1610        1609
         4        1559        1560        1611        1610
         4        1560        1561        1612        1611
         4        1561        1562        1613        1612
         4        1562        1563        1614        1613
         4        1563        1564        1615        1614
         4        1564        1565        1616        1615
         4        1565        1566        1617        1616
         4        1566        1567        1618        1617
         4        1567        1568        1619        1618
         4        1568        1569        1620        1619
         4        1569        1570        1621        1620
         4        1570        1571        1622        1621
         4        1571        1572        1623        1622
         4        1572        1573        1624        1623
         4        1573        1574        1625        1624
         4        1574        1575        1626        1625
         4        1575        1576        1627        1626
         4        1576        1577        1628        1627
         4        1577        1578        1629        1628
         4        1578        1579        1630        1629
         4        1579        1580        1631        1630
         4        1581        1582        1633        1632
         4        1582        1583        1634        1633
         4        1583        1584        1635        1634
         4        1584        1585        1636        1635
         4        1585        1586        1637        1636
         4        1586        1587        1638        1637
         4        1587        1588        1639        1638
         4        1588        1589        1640        1639
         4        1589        1590        1641        1640
         4        1590        1591        1642        1641
         4        1591        1592        1643        1642
         4        1592        1593        1644        1643
         4        1593        1594        1645        1644
         4        1594        1595        1646        1645
         4        1595        1596        1647        1646
         4        1596        1597        1648        1647
         4        1597        1598        1649        1648
         4        1598        1599        1650        1649
         4        1599        1600        1651        1650
         4        1600        1601        1652        1651
         4        1601        1602        1653        1652
         4        1602        1603        1654        1653
         4        1603        1604        1655        1654
         4        1604        1605        1656        1655
         4        1605        1606        1657        1656
         4        1606        1607        1658        1657
         4        1607        1608        1659        1658
         4        1608        1609        1660        1659
         4        1609        1610        1661        1660
         4        1610        1611        1662        1661
         4        1611        1612        1663        1662
         4        1612        1613        1664        1663
         4        1613        1614        1665        1664
         4        1614        1615        1666        1665
         4        1615        1616        1667        1666
         4        1616        1617        1668        1667
         4        1617        1618        1669        1668
         4        1618        1619        1670        1669
         4        1619        1620        1671        1670
         4        1620        1621        1672        1671
         4        1621        1622        1673        1672
         4        1622        1623        1674        1673
         4        1623        1624        1675        1674
         4        1624        1625        1676        1675
         4        1625        1626        1677        1676
         4        1626        1627        1678        1677
         4        1627        1628        1679        1678
         4        1628        1629        1680        1679
         4        1629        1630        1681        1680
         4        1630        1631        1682        1681
         4        1632        1633        1684        1683
         4        1633        1634        1685        1684
         4        1634        1635        1686        1685
         4        1635        1636        1687        1686
         4        1636        1637        1688        1687
         4        1637        1638        1689        1688
         4        1638        1639        1690        1689
         4        1639        1640        1691        1690
         4        1640        1641        1692        1691
         4        1641        1642        1693        1692
         4        1642        1643        1694        1693
         4        1643        1644        1695        1694
         4        1644        1645        1696        1695
         4        1645        1646        1697        1696
         4        1646        1647        1698        1697
         4        1647        1648        1699        1698
         4        1648        1649        1700        1699
         4        1649        1650        1701        1700
         4        1650        1651        1702        1701
         4        1651        1652        1703        1702
         4        1652        1653        1704        1703
         4        1653        1654        1705        1704
         4        1654        1655        1706        1705
         4        1655        1656        1707        1706
         4        1656        1657        1708        1707
         4        1657        1658        1709        1708
         4        1658        1659        1710        1709
         4        1659        1660        1711        1710
         4        1660        1661        1712        1711
         4        1661        1662        1713        1712
         4        1662        1663        1714        1713
         4        1663        1664        1715        1714
         4        1664        1665        1716        1715
         4        1665        1666        1717        1716
         4        1666        1667        1718        1717
         4        1667        1668        1719        1718
         4        1668        1669        1720        1719
         4        1669        1670        1721        1720
         4        1670        1671        1722        1721
         4        1671        1672        1723        1722
         4        1672        1673        1724        1723
         4        1673        1674        1725        1724
         4        1674        1675        1726        1725
         4        1675        1676        1727        1726
         4        1676        1677        1728        1727
         4        1677        1678        1729        1728
         4        1678        1679        1730        1729
         4        1679        1680        1731        1730
         4        1680        1681        1732        1731
         4        1681        1682        1733        1732
         4        1683        1684        1735        1734
         4        1684        1685        1736        1735
         4        1685        1686        1737        1736
         4        1686        1687        1738        1737
         4        1687        1688        1739        1738
         4        1688        1689        1740        1739
         4        1689        1690        1741        1740
         4        1690        1691        1742        1741
         4        1691        1692        1743        1742
         4        1692        1693        1744        1743
         4        1693        1694        1745        1744
         4        1694        1695        1746        1745
         4        1695        1696        1747        1746
         4        1696        1697        1748        1747
         4        1697        1698        1749        1748
         4        1698        1699        1750        1749
         4        1699        1700        1751        1750
         4        1700        1701        1752        1751
         4        1701        1702        1753        1752
         4        1702        1703        1754        1753
         4        1703        1704        1755        1754
         4        1704        1705        1756        1755
         4        1705        1706        1757        1756
         4        1706        1707        1758        1757
         4        1707        1708        1759        1758
         4        1708        1709        1760        1759
         4        1709        1710        1761        1760
         4        1710        1711        1762        1761
         4        1711        1712        1763        1762
         4        1712        1713        1764        1763
         4        1713        1714        1765        1764
         4        1714        1715        1766        1765
         4        1715        1716        1767        1766
         4        1716        1717        1768        1767
         4        1717        1718        1769        1768
         4        1718        1719        1770        1769
         4        1719        1720        1771        1770
         4        1720        1721        1772        1771
         4        1721        1722        1773        1772
         4        1722        1723        1774        1773
         4        1723        1724        1775        1774
         4        1724        1725        1776        1775
         4        1725        1726        1777        1776
         4        1726        1727        1778        1777
         4        1727        1728        1779        1778
         4        1728        1729        1780        1779
         4        1729        1730        1781        1780
         4        1730        1731        1782        1781
         4        1731        1732        1783        1782
         4        1732        1733        1784        1783
         4        1734        1735        1786        1785
         4        1735        1736        1787        1786
         4        1736        1737        1788        1787
         4        1737        1738        1789        1788
         4        1738        1739        1790        1789
         4        1739        1740        1791        1790
         4        1740        1741        1792        1791
         4        1741        1742        1793        1792
         4        1742        1743        1794        1793
         4        1743        1744        1795        1794
         4        1744        1745        1796        1795
         4        1745        1746        1797        1796
         4        1746        1747        1798        1797
         4        1747        1748        1799        1798
         4        1748        1749        1800        1799
         4        1749        1750        1801        1800
         4        1750        1751        1802        1801
         4        1751        1752        1803        1802
         4        1752        1753        1804        1803
         4        1753        1754        1805        1804
         4        1754        1755        1806        1805
         4        1755        1756        1807        1806
         4        1756        1757        1808        1807
         4        1757        1758        1809        1808
         4        1758        1759        1810        1809
         4        1759        1760        1811        1810
         4        1760        1761        1812        1811
         4        1761        1762        1813        1812
         4        1762        1763        1814        1813
         4        1763        1764        1815        1814
         4        1764        1765        1816        1815
         4        1765        1766        1817        1816
         4        1766        1767        1818        1817
         4        1767        1768        1819        1818
         4        1768        1769        1820        1819
         4        1769        1770        1821        1820
         4        1770        1771        1822        1821
         4        1771        1772        1823        1822
         4        1772        1773        1824        1823
         4        1773        1774        1825        1824
         4        1774        1775        1826        1825
         4        1775        1776        1827        1826
         4        1776        1777        1828        1827
         4        1777        1778        1829        1828
         4        1778        1779        1830        1829
         4        1779        1780        1831        1830
         4        1780        1781        1832        1831
         4        1781        1782        1833        1832
         4        1782        1783        1834        1833
         4        1783        1784        1835        1834
         4        1785        1786        1837        1836
         4        1786        1787        1838        1837
         4        1787        1788        1839        1838
         4        1788        1789        1840        1839
         4        1789        1790        1841        1840
         4        1790        1791        1842        1841
         4        1791        1792        1843        1842
         4        1792        1793        1844        1843
         4        1793        1794        1845        1844
         4        1794        1795        1846        1845
         4        1795        1796        1847        1846
         4        1796        1797        1848        1847
         4        1797        1798        1849        1848
         4        1798        1799        1850        1849
         4        1799        1800        1851        1850
         4        1800        1801        1852        1851
         4        1801        1802        1853        1852
         4        1802        1803        1854        1853
         4        1803        1804        1855        1854
         4        1804        1805        1856        1855
         4        1805        1806        1857        1856
         4        1806        1807        1858        1857
         4        1807        1808        1859        1858
         4        1808        1809        1860        1859
         4        1809        1810        1861        1860
         4        1810        1811        1862        1861
         4        1811        1812        1863        1862
         4        1812        1813        1864        1863
         4        1813        1814        1865        1864
         4        1814        1815        1866        1865
         4        1815        1816        1867        1866
         4        1816        1817        1868        1867
         4        1817        1818        1869        1868
         4        1818        1819        1870        1869
         4        1819        1820        1871        1870
         4        1820        1821        1872        1871
         4        1821        1822        1873        1872
         4        1822        1823        1874        1873
         4        1823        1824        1875        1874
         4        1824        1825        1876        1875
         4        1825        1826        1877        1876
         4        1826        1827        1878        1877
         4        1827        1828        1879        1878
         4        1828        1829        1880        1879
         4        1829        1830        1881        1880
         4        1830        1831        1882        1881
         4        1831        1832        1883        1882
         4        1832        1833        1884        1883
         4        1833        1834        1885        1884
         4        1834        1835        1886        1885
         4        1836        1837        1888        1887
         4        1837        1838        1889        1888
         4        1838        1839        1890        1889
         4        1839        1840        1891        1890
         4        1840        1841        1892        1891
         4        1841        1842        1893        1892
         4        1842        1843        1894        1893
         4        1843        1844        1895        1894
         4        1844        1845        1896        1895
         4        1845        1846        1897        1896
         4        1846        1847        1898        1897
         4        1847        1848        1899        1898
         4        1848        1849        1900        1899
         4        1849        1850        1901        1900
         4        1850        1851        1902        1901
         4        1851        1852        1903        1902
         4        1852        1853        1904        1903
         4        1853        1854        1905        1904
         4        1854        1855        1906        1905
         4        1855        1856        1907        1906
         4        1856        1857        1908        1907
         4        1857        1858        1909        1908
         4        1858        1859        1910        1909
         4        1859        1860        1911        1910
         4        1860        1861        1912        1911
         4        1861        1862        1913        1912
         4        1862        1863        1914        1913
         4        1863        1864        1915        1914
         4        1864        1865        1916        1915
         4        1865        1866        1917        1916
         4        1866        1867        1918        1917
         4        1867        1868        1919        1918
         4        1868        1869        1920        1919
         4        1869        1870        1921        1920
         4        1870        1871        1922        1921
         4        1871        1872        1923        1922
         4        1872        1873        1924        1923
         4        1873        1874        1925        1924
         4        1874        1875        1926        1925
         4        1875        1876        1927        1926
         4        1876        1877        1928        1927
         4        1877        1878        1929        1928
         4        1878        1879        1930        1929
         4        1879        1880        1931        1930
         4        1880        1881        1932        1931
         4        1881        1882        1933        1932
         4        1882        1883        1934        1933
         4        1883        1884        1935        1934
         4        1884        1885        1936        1935
         4        1885        1886        1937        1936
         4        1887        1888        1939        1938
         4        1888        1889        1940        1939
         4        1889        1890        1941        1940
         4        1890        1891        1942        1941
         4        1891        1892        1943        1942
         4        1892        1893        1944        1943
         4        1893        1894        1945        1944
         4        1894        1895        1946        1945
         4        1895        1896        1947        1946
         4        1896        1897        1948        1947
         4        1897        1898        1949        1948
         4        1898        1899        1950        1949
         4        1899        1900        1951        1950
         4        1900        1901        1952        1951
         4        1901        1902        1953        1952
         4        1902        1903        1954        1953
         4        1903        1904        1955        1954
         4        1904        1905        1956        1955
         4        1905        1906        1957        1956
         4        1906        1907        1958        1957
         4        1907        1908        1959        1958
         4        1908        1909        1960        1959
         4        1909        1910        1961        1960
         4        1910        1911        1962        1961
         4        1911        1912        1963        1962
         4        1912        1913        1964        1963
         4        1913        1914        1965        1964
         4        1914        1915        1966        1965
         4        1915        1916        1967        1966
         4        1916        1917        1968        1967
         4        1917        1918        1969        1968
         4        1918        1919        1970        1969
         4        1919        1920        1971        1970
         4        1920        1921        1972        1971
         4        1921        1922        1973        1972
         4        1922        1923        1974        1973
         4        1923        1924        1975        1974
         4        1924        1925        1976        1975
         4        1925        1926        1977        1976
         4        1926        1927        1978        1977
         4        1927        1928        1979        1978
         4        1928        1929        1980        1979
         4        1929        1930        1981        1980
         4        1930        1931        1982        1981
         4        1931        1932        1983        1982
         4        1932        1933        1984        1983
         4        1933        1934        1985        1984
         4        1934        1935        1986        1985
         4        1935        1936        1987        1986
         4        1936        1937        1988        1987
         4        1938        1939        1990        1989
         4        1939        1940        1991        1990
         4        1940        1941        1992        1991
         4        1941        1942        1993        1992
         4        1942        1943        1994        1993
         4        1943        1944        1995        1994
         4        1944        1945        1996        1995
         4        1945        1946        1997        1996
         4        1946        1947        1998        1997
         4        1947        1948        1999        1998
         4        1948        1949        2000        1999
         4        1949        1950        2001        2000
         4        1950        1951        2002        2001
         4        1951        1952        2003        2002
         4        1952        1953        2004        2003
         4        1953        1954        2005        2004
         4        1954        1955        2006        2005
         4        1955        1956        2007        2006
         4        1956        1957        2008        2007
         4        1957        1958        2009        2008
         4        1958        1959        2010        2009
         4        1959        1960        2011        2010
         4        1960        1961        2012        2011
         4        1961        1962        2013        2012
         4        1962        1963        2014        2013
         4        1963        1964        2015        2014
         4        1964        1965        2016        2015
         4        1965        1966        2017        2016
         4        1966        1967        2018        2017
         4        1967        1968        2019        2018
         4        1968        1969        2020        2019
         4        1969        1970        2021        2020
         4        1970        1971        2022        2021
         4        1971        1972        2023        2022
         4        1972        1973        2024        2023
         4        1973        1974        2025        2024
         4        1974        1975        2026        2025
         4        1975        1976        2027        2026
         4        1976        1977        2028        2027
         4        1977        1978        2029        2028
         4        1978        1979        2030        2029
         4        1979        1980        2031        2030
         4        1980        1981        2032        2031
         4        1981        1982        2033        2032
         4        1982        1983        2034        2033
         4        1983        1984        2035        2034
         4        1984        1985        2036        2035
         4        1985        1986        2037        2036
         4        1986        1987        2038        2037
         4        1987        1988        2039        2038
         4        1989        1990        2041        2040
         4        1990        1991        2042        2041
         4        1991        1992        2043        2042
         4        1992        1993        2044        2043
         4        1993        1994        2045        2044
         4        1994        1995        2046        2045
         4        1995        1996        2047        2046
         4        1996        1997        2048        2047
         4        1997        1998        2049        2048
         4        1998        1999        2050        2049
         4        1999        2000        2051        2050
         4        2000        2001        2052        2051
         4        2001        2002        2053        2052
         4        2002        2003        2054        2053
         4        2003        2004        2055        2054
         4        2004        2005        2056        2055
         4        2005        2006        2057        2056
         4        2006        2007        2058        2057
         4        2007        2008        2059        2058
         4        2008        2009        2060        2059
         4        2009        2010        2061        2060
         4        2010        2011        2062        2061
         4        2011        2012        2063        2062
         4        2012        2013        2064        2063
         4        2013        2014        2065        2064
         4        2014        2015        2066        2065
         4        2015        2016        2067        2066
         4        2016        2017        2068        2067
         4        2017        2018        2069        2068
         4        2018        2019        2070        2069
         4        2019        2020        2071        2070
         4        2020        2021        2072        2071
         4        2021        2022        2073        2072
         4        2022        2023        2074        2073
         4        2023        2024        2075        2074
         4        2024        2025        2076        2075
         4        2025        2026        2077        2076
         4        2026        2027        2078        2077
         4        2027        2028        2079        2078
         4        2028        2029        2080        2079
         4        2029        2030        2081        2080
         4        2030        2031        2082        2081
         4        2031        2032        2083        2082
         4        2032        2033        2084        2083
         4        2033        2034        2085        2084
         4        2034        2035        2086        2085
         4        2035        2036        2087        2086
         4        2036        2037        2088        2087
         4        2037        2038        2089        2088
         4        2038        2039        2090        2089
         4        2040        2041        2092        2091
         4        2041        2042        2093        2092
         4        2042        2043        2094        2093
         4        2043        2044        2095        2094
         4        2044        2045        2096        2095
         4        2045        2046        2097        2096
         4        2046        2047        2098        2097
         4        2047        2048        2099        2098
         4        2048        2049        2100        2099
         4        2049        2050        2101        2100
         4        2050        2051        2102        2101
         4        2051        2052        2103        2102
         4        2052        2053        2104        2103
         4        2053        2054        2105        2104
         4        2054        2055        2106        2105
         4        2055        2056        2107        2106
         4        2056        2057        2108        2107
         4        2057        2058        2109        2108
         4        2058        2059        2110        2109
         4        2059        2060        2111        2110
         4        2060        2061        2112        2111
         4        2061        2062        2113        2112
         4        2062        2063        2114        2113
         4        2063        2064        2115        2114
         4        2064        2065        2116        2115
         4        2065        2066        2117        2116
         4        2066        2067        2118        2117
         4        2067        2068        2119        2118
         4        2068        2069        2120        2119
         4        2069        2070        2121        2120
         4        2070        2071        2122        2121
         4        2071        2072        2123        2122
         4        2072        2073        2124        2123
         4        2073        2074        2125        2124
         4        2074        2075        2126        2125
         4        2075        2076        2127        2126
         4        2076        2077        2128        2127
         4        2077        2078        2129        2128
         4        2078        2079        2130        2129
         4        2079        2080        2131        2130
         4        2080        2081        2132        2131
         4        2081        2082        2133        2132
         4        2082        2083        2134        2133
         4        2083        2084        2135        2134
         4        2084        2085        2136        2135
         4        2085        2086        2137        2136
         4        2086        2087        2138        2137
         4        2087        2088        2139        2138
         4        2088        2089        2140        2139
         4        2089        2090        2141        2140
         4        2091        2092        2143        2142
         4        2092        2093        2144        2143
         4        2093        2094        2145        2144
         4        2094        2095        2146        2145
         4        2095        2096        2147        2146
         4        2096        2097        2148        2147
         4        2097        2098        2149        2148
         4        2098        2099        2150        2149
         4        2099        2100        2151        2150
         4        2100        2101        2152        2151
         4        2101        2102        2153        2152
         4        2102        2103        2154        2153
         4        2103        2104        2155        2154
         4        2104        2105        2156        2155
         4        2105        2106        2157        2156
         4        2106        2107        2158        2157
         4        2107        2108        2159        2158
         4        2108        2109        2160        2159
         4        2109        2110        2161        2160
         4        2110        2111        2162        2161
         4        2111        2112        2163        2162
         4        2112        2113        2164        2163
         4        2113        2114        2165        2164
         4        2114        2115        2166        2165
         4        2115        2116        2167        2166
         4        2116        2117        2168        2167
         4        2117        2118        2169        2168
         4        2118        2119        2170        2169
         4        2119        2120        2171        2170
         4        2120        2121        2172        2171
         4        2121        2122        2173        2172
         4        2122        2123        2174        2173
         4        2123        2124        2175        2174
         4        2124        2125        2176        2175
         4        2125        2126        2177        2176
         4        2126        2127        2178        2177
         4        2127        2128        2179        2178
         4        2128        2129        2180        2179
         4        2129        2130        2181        2180
         4        2130        2131        2182        2181
         4        2131        2132        2183        2182
         4        2132        2133        2184        2183
         4        2133        2134        2185        2184
         4        2134        2135        2186        2185
         4        2135        2136        2187        2186
         4        2136        2137        2188        2187
         4        2137        2138        2189        2188
         4        2138        2139        2190        2189
         4        2139        2140        2191        2190
         4        2140        2141        2192        2191
         4        2142        2143        2194        2193
         4        2143        2144        2195        2194
         4        2144        2145        2196        2195
         4        2145        2146        2197        2196
         4        2146        2147        2198        2197
         4        2147        2148        2199        2198
         4        2148        2149        2200        2199
         4        2149        2150        2201        2200
         4        2150        2151        2202        2201
         4        2151        2152        2203        2202
         4        2152        2153        2204        2203
         4        2153        2154        2205        2204
         4        2154        2155        2206        2205
         4        2155        2156        2207        2206
         4        2156        2157        2208        2207
         4        2157        2158        2209        2208
         4        2158        2159        2210        2209
         4        2159        2160        2211        2210
         4        2160        2161        2212        2211
         4        2161        2162        2213        2212
         4        2162        2163        2214        2213
         4        2163        2164        2215        2214
         4        2164        2165        2216        2215
         4        2165        2166        2217        2216
         4        2166        2167        2218        2217
         4        2167        2168        2219        2218
         4        2168        2169        2220        2219
         4        2169        2170        2221        2220
         4        2170        2171        2222        2221
         4        2171        2172        2223        2222
         4        2172        2173        2224        2223
         4        2173        2174        2225        2224
         4        2174        2175        2226        2225
         4        2175        2176        2227        2226
         4        2176        2177        2228        2227
         4        2177        2178        2229        2228
         4        2178        2179        2230        2229
         4        2179        2180        2231        2230
         4        2180        2181        2232        2231
         4        2181        2182        2233        2232
         4        2182        2183        2234        2233
         4        2183        2184        2235        2234
         4        2184        2185        2236        2235
         4        2185        2186        2237        2236
         4        2186        2187        2238        2237
         4        2187        2188        2239        2238
         4        2188        2189        2240        2239
         4        2189        2190        2241        2240
         4        2190        2191        2242        2241
         4        2191        2192        2243        2242
         4        2193        2194        2245        2244
         4        2194        2195        2246        2245
         4        2195        2196        2247        2246
         4        2196        2197        2248        2247
         4        2197        2198        2249        2248
         4        2198        2199        2250        2249
         4        2199        2200        2251        2250
         4        2200        2201        2252        2251
         4        2201        2202        2253        2252
         4        2202        2203        2254        2253
         4        2203        2204        2255        2254
         4        2204        2205        2256        2255
         4        2205        2206        2257        2256
         4        2206        2207        2258        2257
         4        2207        2208        2259        2258
         4        2208        2209        2260        2259
         4        2209        2210        2261        2260
         4        2210        2211        2262        2261
         4        2211        2212        2263        2262
         4        2212        2213        2264        2263
         4        2213        2214        2265        2264
         4        2214        2215        2266        2265
         4        2215        2216        2267        2266
         4        2216        2217        2268        2267
         4        2217        2218        2269        2268
         4        2218        2219        2270        2269
         4        2219        2220        2271        2270
         4        2220        2221        2272        2271
         4        2221        2222        2273        2272
         4        2222        2223        2274        2273
         4        2223        2224        2275        2274
         4        2224        2225        2276        2275
         4        2225        2226        2277        2276
         4        2226        2227        2278        2277
         4        2227        2228        2279        2278
         4        2228        2229        2280        2279
         4        2229        2230        2281        2280
         4        2230        2231        2282        2281
         4        2231        2232        2283        2282
         4        2232        2233        2284        2283
         4        2233        2234        2285        2284
         4        2234        2235        2286        2285
         4        2235        2236        2287        2286
         4        2236        2237        2288        2287
         4        2237        2238        2289        2288
         4        2238        2239        2290        2289
         4        2239        2240        2291        2290
         4        2240        2241        2292        2291
         4        2241        2242        2293        2292
         4        2242        2243        2294        2293
         4        2244        2245        2296        2295
         4        2245        2246        2297        2296
         4        2246        2247        2298        2297
         4        2247        2248        2299        2298
         4        2248        2249        2300        2299
         4        2249        2250        2301        2300
         4        2250        2251        2302        2301
         4        2251        2252        2303        2302
         4        2252        2253        2304        2303
         4        2253        2254        2305        2304
         4        2254        2255        2306        2305
         4        2255        2256        2307        2306
         4        2256        2257        2308        2307
         4        2257        2258        2309        2308
         4        2258        2259        2310        2309
         4        2259        2260        2311        2310
         4        2260        2261        2312        2311
         4        2261        2262        2313        2312
         4        2262        2263        2314        2313
         4        2263        2264        2315        2314
         4        2264        2265        2316        2315
         4        2265        2266        2317        2316
         4        2266        2267        2318        2317
         4        2267        2268        2319        2318
         4        2268        2269        2320        2319
         4        2269        2270        2321        2320
         4        2270        2271        2322        2321
         4        2271        2272        2323        2322
         4        2272        2273        2324        2323
         4        2273        2274        2325        2324
         4        2274        2275        2326        2325
         4        2275        2276        2327        2326
         4        2276        2277        2328        2327
         4        2277        2278        2329        2328
         4        2278        2279        2330        2329
         4        2279        2280        2331        2330
         4        2280        2281        2332        2331
         4        2281        2282        2333        2332
         4        2282        2283        2334        2333
         4        2283        2284        2335        2334
         4        2284        2285        2336        2335
         4        2285        2286        2337        2336
         4        2286        2287        2338        2337
         4        2287        2288        2339        2338
         4        2288        2289        2340        2339
         4        2289        2290        2341        2340
         4        2290        2291        2342        2341
         4        2291        2292        2343        2342
         4        2292        2293        2344        2343
         4        2293        2294        2345        2344
         4        2295        2296        2347        2346
         4        2296        2297        2348        2347
         4        2297        2298        2349        2348
         4        2298        2299        2350        2349
         4        2299        2300        2351        2350
         4        2300        2301        2352        2351
         4        2301        2302        2353        2352
         4        2302        2303        2354        2353
         4        2303        2304        2355        2354
         4        2304        2305        2356        2355
         4        2305        2306        2357        2356
         4        2306        2307        2358        2357
         4        2307        2308        2359        2358
         4        2308        2309        2360        2359
         4        2309        2310        2361        2360
         4        2310        2311        2362        2361
         4        2311        2312        2363        2362
         4        2312        2313        2364        2363
         4        2313        2314        2365        2364
         4        2314        2315        2366        2365
         4        2315        2316        2367        2366
         4        2316        2317        2368        2367
         4        2317        2318        2369        2368
         4        2318        2319        2370        2369
         4        2319        2320        2371        2370
         4        2320        2321        2372        2371
         4        2321        2322        2373        2372
         4        2322        2323        2374        2373
         4        2323        2324        2375        2374
         4        2324        2325        2376        2375
         4        2325        2326        2377        2376
         4        2326        2327        2378        2377
         4        2327        2328        2379        2378
         4        2328        2329        2380        2379
         4        2329        2330        2381        2380
         4        2330        2331        2382        2381
         4        2331        2332        2383        2382
         4        2332        2333        2384        2383
         4        2333        2334        2385        2384
         4        2334        2335        2386        2385
         4        2335        2336        2387        2386
         4        2336        2337        2388        2387
         4        2337        2338        2389        2388
         4        2338        2339        2390        2389
         4        2339        2340        2391        2390
         4        2340        2341        2392        2391
         4        2341        2342        2393        2392
         4        2342        2343        2394        2393
         4        2343        2344        2395        2394
         4        2344        2345        2396        2395
         4        2346        2347        2398        2397
         4        2347        2348        2399        2398
         4        2348        2349        2400        2399
         4        2349        2350        2401        2400
         4        2350        2351        2402        2401
         4        2351        2352        2403        2402
         4        2352        2353        2404        2403
         4        2353        2354        2405        2404
         4        2354        2355        2406        2405
         4        2355        2356        2407        2406
         4        2356        2357        2408        2407
         4        2357        2358        2409        2408
         4        2358        2359        2410        2409
         4        2359        2360        2411        2410
         4        2360        2361        2412        2411
         4        2361        2362        2413        2412
         4        2362        2363        2414        2413
         4        2363        2364        2415        2414
         4        2364        2365        2416        2415
         4        2365        2366        2417        2416
         4        2366        2367        2418        2417
         4        2367        2368        2419        2418
         4        2368        2369        2420        2419
         4        2369        2370        2421        2420
         4        2370        2371        2422        2421
         4        2371        2372        2423        2422
         4        2372        2373        2424        2423
         4        2373        2374        2425        2424
         4        2374        2375        2426        2425
         4        2375        2376        2427        2426
         4        2376        2377        2428        2427
         4        2377        2378        2429        2428
         4        2378        2379        2430        2429
         4        2379        2380        2431        2430
         4        2380        2381        2432        2431
         4        2381        2382        2433        2432
         4        2382        2383        2434        2433
         4        2383        2384        2435        2434
         4        2384        2385        2436        2435
         4        2385        2386        2437        2436
         4        2386        2387        2438        2437
         4        2387        2388        2439        2438
         4        2388        2389        2440        2439
         4        2389        2390        2441        2440
         4        2390        2391        2442        2441
         4        2391        2392        2443        2442
         4        2392        2393        2444        2443
         4        2393        2394        2445        2444
         4        2394        2395        2446        2445
         4        2395        2396        2447        2446
         4        2397        2398        2449        2448
         4        2398        2399        2450        2449
         4        2399        2400        2451        2450
         4        2400        2401        2452        2451
         4        2401        2402        2453        2452
         4        2402        2403        2454        2453
         4        2403        2404        2455        2454
         4        2404        2405        2456        2455
         4        2405        2406        2457        2456
         4        2406        2407        2458        2457
         4        2407        2408        2459        2458
         4        2408        2409        2460        2459
         4        2409        2410        2461        2460
         4        2410        2411        2462        2461
         4        2411        2412        2463        2462
         4        2412        2413        2464        2463
         4        2413        2414        2465        2464
         4        2414        2415        2466        2465
         4        2415        2416        2467        2466
         4        2416        2417        2468        2467
         4        2417        2418        2469        2468
         4        2418        2419        2470        2469
         4        2419        2420        2471        2470
         4        2420        2421        2472        2471
         4        2421        2422        2473        2472
         4        2422        2423        2474        2473
         4        2423        2424        2475        2474
         4        2424        2425        2476        2475
         4        2425        2426        2477        2476
         4        2426        2427        2478        2477
         4        2427        2428        2479        2478
         4        2428        2429        2480        2479
         4        2429        2430        2481        2480
         4        2430        2431        2482        2481
         4        2431        2432        2483        2482
         4        2432        2433        2484        2483
         4        2433        2434        2485        2484
         4        2434        2435        2486        2485
         4        2435        2436        2487        2486
         4        2436        2437        2488        2487
         4        2437        2438        2489        2488
         4        2438        2439        2490        2489
         4        2439        2440        2491        2490
         4        2440        2441        2492        2491
         4        2441        2442        2493        2492
         4        2442        2443        2494        2493
         4        2443        2444        2495        2494
         4        2444        2445        2496        2495
         4        2445        2446        2497        2496
         4        2446        2447        2498        2497
         4        2448        2449        2500        2499
         4        2449        2450        2501        2500
         4        2450        2451        2502        2501
         4        2451        2452        2503        2502
         4        2452        2453        2504        2503
         4        2453        2454        2505        2504
         4        2454        2455        2506        2505
         4        2455        2456        2507        2506
         4        2456        2457        2508        2507
         4        2457        2458        2509        2508
         4        2458        2459        2510        2509
         4        2459        2460        2511        2510
         4        2460        2461        2512        2511
         4        2461        2462        2513        2512
         4        2462        2463        2514        2513
         4        2463        2464        2515        2514
         4        2464        2465        2516        2515
         4        2465        2466        2517        2516
         4        2466        2467        2518        2517
         4        2467        2468        2519        2518
         4        2468        2469        2520        2519
         4        2469        2470        2521        2520
         4        2470        2471        2522        2521
         4        2471        2472        2523        2522
         4        2472        2473        2524        2523
         4        2473        2474        2525        2524
         4        2474        2475        2526        2525
         4        2475        2476        2527        2526
         4        2476        2477        2528        2527
         4        2477        2478        2529        2528
         4        2478        2479        2530        2529
         4        2479        2480        2531        2530
         4        2480        2481        2532        2531
         4        2481        2482        2533        2532
         4        2482        2483        2534        2533
         4        2483        2484        2535        2534
         4        2484        2485        2536        2535
         4        2485        2486        2537        2536
         4        2486        2487        2538        2537
         4        2487        2488        2539        2538
         4        2488        2489        2540        2539
         4        2489        2490        2541        2540
         4        2490        2491        2542        2541
         4        2491        2492        2543        2542
         4        2492        2493        2544        2543
         4        2493        2494        2545        2544
         4        2494        2495        2546        2545
         4        2495        2496        2547        2546
         4        2496        2497        2548        2547
         4        2497        2498        2549        2548
         4        2499        2500        2551        2550
         4        2500        2501        2552        2551
         4        2501        2502        2553        2552
         4        2502        2503        2554        2553
         4        2503        2504        2555        2554
         4        2504        2505        2556        2555
         4        2505        2506        2557        2556
         4        2506        2507        2558        2557
         4        2507        2508        2559        2558
         4        2508        2509        2560        2559
         4        2509        2510        2561        2560
         4        2510        2511        2562        2561
         4        2511        2512        2563        2562
         4        2512        2513        2564        2563
         4        2513        2514        2565        2564
         4        2514        2515        2566        2565
         4        2515        2516        2567        2566
         4        2516        2517        2568        2567
         4        2517        2518        2569        2568
         4        2518        2519        2570        2569
         4        2519        2520        2571        2570
         4        2520        2521        2572        2571
         4        2521        2522        2573        2572
         4        2522        2523        2574        2573
         4        2523        2524        2575        2574
         4        2524        2525        2576        2575
         4        2525        2526        2577        2576
         4        2526        2527        2578        2577
         4        2527        2528        2579        2578
         4        2528        2529        2580        2579
         4        2529        2530        2581        2580
         4        2530        2531        2582        2581
         4        2531        2532        2583        2582
         4        2532        2533        2584        2583
         4        2533        2534        2585        2584
         4        2534        2535        2586        2585
         4        2535        2536        2587        2586
         4        2536        2537        2588        2587
         4        2537        2538        2589        2588
         4        2538        2539        2590        2589
         4        2539        2540        2591        2590
         4        2540        2541        2592        2591
         4        2541        2542        2593        2592
         4        2542        2543        2594        2593
         4        2543        2544        2595        2594
         4        2544        2545        2596        2595
         4        2545        2546        2597        2596
         4        2546        2547        2598        2597
         4        2547        2548        2599        2598
         4        2548        2549        2600        2599
         4        2550        2551        2602        2601
         4        2551        2552        2603        2602
         4        2552        2553        2604        2603
         4        2553        2554        2605        2604
         4        2554        2555        2606        2605
         4        2555        2556        2607        2606
         4        2556        2557        2608        2607
         4        2557        2558        2609        2608
         4        2558        2559        2610        2609
         4        2559        2560        2611        2610
         4        2560        2561        2612        2611
         4        2561        2562        2613        2612
         4        2562        2563        2614        2613
         4        2563        2564        2615        2614
         4        2564        2565        2616        2615
         4        2565        2566        2617        2616
         4        2566        2567        2618        2617
         4        2567        2568        2619        2618
         4        2568        2569        2620        2619
         4        2569        2570        2621        2620
         4        2570        2571        2622        2621
         4        2571        2572        2623        2622
         4        2572        2573        2624        2623
         4        2573        2574        2625        2624
         4        2574        2575        2626        2625
         4        2575        2576        2627        2626
         4        2576        2577        2628        2627
         4        2577        2578        2629        2628
         4        2578        2579        2630        2629
         4        2579        2580        2631        2630
         4        2580        2581        2632        2631
         4        2581        2582        2633        2632
         4        2582        2583        2634        2633
         4        2583        2584        2635        2634
         4        2584        2585        2636        2635
         4        2585        2586        2637        2636
         4        2586        2587        2638        2637
         4        2587        2588        2639        2638
         4        2588        2589        2640        2639
         4        2589        2590        2641        2640
         4        2590        2591        2642        2641
         4        2591        2592        2643        2642
         4        2592        2593        2644        2643
         4        2593        2594        2645        2644
         4        2594        2595        2646        2645
         4        2595        2596        2647        2646
         4        2596        2597        2648        2647
         4        2597        2598        2649        2648
         4        2598        2599        2650        2649
         4        2599        2600        2651        2650
         4        2601        2602        2653        2652
         4        2602        2603        2654        2653
         4        2603        2604        2655        2654
         4        2604        2605        2656        2655
         4        2605        2606        2657        2656
         4        2606        2607        2658        2657
         4        2607        2608        2659        2658
         4        2608        2609        2660        2659
         4        2609        2610        2661        2660
         4        2610        2611        2662        2661
         4        2611        2612        2663        2662
         4        2612        2613        2664        2663
         4        2613        2614        2665        2664
         4        2614        2615        2666        2665
         4        2615        2616        2667        2666
         4        2616        2617        2668        2667
         4        2617        2618        2669        2668
         4        2618        2619        2670        2669
         4        2619        2620        2671        2670
         4        2620        2621        2672        2671
         4        2621        2622        2673        2672
         4        2622        2623        2674        2673
         4        2623        2624        2675        2674
         4        2624        2625        2676        2675
         4        2625        2626        2677        2676
         4        2626        2627        2678        2677
         4        2627        2628        2679        2678
         4        2628        2629        2680        2679
         4        2629        2630        2681        2680
         4        2630        2631        2682        2681
         4        2631        2632        2683        2682
         4        2632        2633        2684        2683
         4        2633        2634        2685        2684
         4        2634        2635        2686        2685
         4        2635        2636        2687        2686
         4        2636        2637        2688        2687
         4        2637        2638        2689        2688
         4        2638        2639        2690        2689
         4        2639        2640        2691        2690
         4        2640        2641        2692        2691
         4        2641        2642        2693        2692
         4        2642        2643        2694        2693
         4        2643        2644        2695        2694
         4        2644        2645        2696        2695
         4        2645        2646        2697        2696
         4        2646        2647        2698        2697
         4        2647        2648        2699        2698
         4        2648        2649        2700        2699
         4        2649        2650        2701        2700
         4        2650        2651        2702        2701
         4        2652        2653        2704        2703
         4        2653        2654        2705        2704
         4        2654        2655        2706        2705
         4        2655        2656        2707        2706
         4        2656        2657        2708        2707
         4        2657        2658        2709        2708
         4        2658        2659        2710        2709
         4        2659        2660        2711        2710
         4        2660        2661        2712        2711
         4        2661        2662        2713        2712
         4        2662        2663        2714        2713
         4        2663        2664        2715        2714
         4        2664        2665        2716        2715
         4        2665        2666        2717        2716
         4        2666        2667        2718        2717
         4        2667        2668        2719        2718
         4        2668        2669        2720        2719
         4        2669        2670        2721        2720
         4        2670        2671        2722        2721
         4        2671        2672        2723        2722
         4        2672        2673        2724        2723
         4        2673        2674        2725        2724
         4        2674        2675        2726        2725
         4        2675        2676        2727        2726
         4        2676        2677        2728        2727
         4        2677        2678        2729        2728
         4        2678        2679        2730        2729
         4        2679        2680        2731        2730
         4        2680        2681        2732        2731
         4        2681        2682        2733        2732
         4        2682        2683        2734        2733
         4        2683        2684        2735        2734
         4        2684        2685        2736        2735
         4        2685        2686        2737        2736
         4        2686        2687        2738        2737
         4        2687        2688        2739        2738
         4        2688        2689        2740        2739
         4        2689        2690        2741        2740
         4        2690        2691        2742        2741
         4        2691        2692        2743        2742
         4        2692        2693        2744        2743
         4        2693        2694        2745        2744
         4        2694        2695        2746        2745
         4        2695        2696        2747        2746
         4        2696        2697        2748        2747
         4        2697        2698        2749        2748
         4        2698        2699        2750        2749
         4        2699        2700        2751        2750
         4        2700        2701        2752        2751
         4        2701        2702        2753        2752
         4        2703        2704        2755        2754
         4        2704        2705        2756        2755
         4        2705        2706        2757        2756
         4        2706        2707        2758        2757
         4        2707        2708        2759        2758
         4        2708        2709        2760        2759
         4        2709        2710        2761        2760
         4        2710        2711        2762        2761
         4        2711        2712        2763        2762
         4        2712        2713        2764        2763
         4        2713        2714        2765        2764
         4        2714        2715        2766        2765
         4        2715        2716        2767        2766
         4        2716        2717        2768        2767
         4        2717        2718        2769        2768
         4        2718        2719        2770        2769
         4        2719        2720        2771        2770
         4        2720        2721        2772        2771
         4        2721        2722        2773        2772
         4        2722        2723        2774        2773
         4        2723        2724        2775        2774
         4        2724        2725        2776        2775
         4        2725        2726        2777        2776
         4        2726        2727        2778        2777
         4        2727        2728        2779        2778
         4        2728        2729        2780        2779
         4        2729        2730        2781        2780
         4        2730        2731        2782        2781
         4        2731        2732        2783        2782
         4        2732        2733        2784        2783
         4        2733        2734        2785        2784
         4        2734        2735        2786        2785
         4        2735        2736        2787        2786
         4        2736        2737        2788        2787
         4        2737        2738        2789        2788
         4        2738        2739        2790        2789
         4        2739        2740        2791        2790
         4        2740        2741        2792        2791
         4        2741        2742        2793        2792
         4        2742        2743        2794        2793
         4        2743        2744        2795        2794
         4        2744        2745        2796        2795
         4        2745        2746        2797        2796
         4        2746        2747        2798        2797
         4        2747        2748        2799        2798
         4        2748        2749        2800        2799
         4        2749        2750        2801        2800
         4        2750        2751        2802        2801
         4        2751        2752        2803        2802
         4        2752        2753        2804        2803
         4        2754        2755        2806        2805
         4        2755        2756        2807        2806
         4        2756        2757        2808        2807
         4        2757        2758        2809        2808
         4        2758        2759        2810        2809
         4        2759        2760        2811        2810
         4        2760        2761        2812        2811
         4        2761        2762        2813        2812
         4        2762        2763        2814        2813
         4        2763        2764        2815        2814
         4        2764        2765        2816        2815
         4        2765        2766        2817        2816
         4        2766        2767        2818        2817
         4        2767        2768        2819        2818
         4        2768        2769        2820        2819
         4        2769        2770        2821        2820
         4        2770        2771        2822        2821
         4        2771        2772        2823        2822
         4        2772        2773        2824        2823
         4        2773        2774        2825        2824
         4        2774        2775        2826        2825
         4        2775        2776        2827        2826
         4        2776        2777        2828        2827
         4        2777        2778        2829        2828
         4        2778        2779        2830        2829
         4        2779        2780        2831        2830
         4        2780        2781        2832        2831
         4        2781        2782        2833        2832
         4        2782        2783        2834        2833
         4        2783        2784        2835        2834
         4        2784        2785        2836        2835
         4        2785        2786        2837        2836
         4        2786        2787        2838        2837
         4        2787        2788        2839        2838
         4        2788        2789        2840        2839
         4        2789        2790        2841        2840
         4        2790        2791        2842        2841
         4        2791        2792        2843        2842
         4        2792        2793        2844        2843
         4        2793        2794        2845        2844
         4        2794        2795        2846        2845
         4        2795        2796        2847        2846
         4        2796        2797        2848        2847
         4        2797        2798        2849        2848
         4        2798        2799        2850        2849
         4        2799        2800        2851        2850
         4        2800        2801        2852        2851
         4        2801        2802        2853        2852
         4        2802        2803        2854        2853
         4        2803        2804        2855        2854
         4        2805        2806        2857        2856
         4        2806        2807        2858        2857
         4        2807        2808        2859        2858
         4        2808        2809        2860        2859
         4        2809        2810        2861        2860
         4        2810        2811        2862        2861
         4        2811        2812        2863        2862
         4        2812        2813        2864        2863
         4        2813        2814        2865        2864
         4        2814        2815        2866        2865
         4        2815        2816        2867        2866
         4        2816        2817        2868        2867
         4        2817        2818        2869        2868
         4        2818        2819        2870        2869
         4        2819        2820        2871        2870
         4        2820        2821        2872        2871
         4        2821        2822        2873        2872
         4        2822        2823        2874        2873
         4        2823        2824        2875        2874
         4        2824        2825        2876        2875
         4        2825        2826        2877        2876
         4        2826        2827        2878        2877
         4        2827        2828        2879        2878
         4        2828        2829        2880        2879
         4        2829        2830        2881        2880
         4        2830        2831        2882        2881
         4        2831        2832        2883        2882
         4        2832        2833        2884        2883
         4        2833        2834        2885        2884
         4        2834        2835        2886        2885
         4        2835        2836        2887        2886
         4        2836        2837        2888        2887
         4        2837        2838        2889        2888
         4        2838        2839        2890        2889
         4        2839        2840        2891        2890
         4        2840        2841        2892        2891
         4        2841        2842        2893        2892
         4        2842        2843        2894        2893
         4        2843        2844        2895        2894
         4        2844        2845        2896        2895
         4        2845        2846        2897        2896
         4        2846        2847        2898        2897
         4        2847        2848        2899        2898
         4        2848        2849        2900        2899
         4        2849        2850        2901        2900
         4        2850        2851        2902        2901
         4        2851        2852        2903        2902
         4        2852        2853        2904        2903
         4        2853        2854        2905        2904
         4        2854        2855        2906        2905
         4        2856        2857        2908        2907
         4        2857        2858        2909        2908
         4        2858        2859        2910        2909
         4        2859        2860        2911        2910
         4        2860        2861        2912        2911
         4        2861        2862        2913        2912
         4        2862        2863        2914        2913
         4        2863        2864        2915        2914
         4        2864        2865        2916        2915
         4        2865        2866        2917        2916
         4        2866        2867        2918        2917
         4        2867        2868        2919        2918
         4        2868        2869        2920        2919
         4        2869        2870        2921        2920
         4        2870        2871        2922        2921
         4        2871        2872        2923        2922
         4        2872        2873        2924        2923
         4        2873        2874        2925        2924
         4        2874        2875        2926        2925
         4        2875        2876        2927        2926
         4        2876        2877        2928        2927
         4        2877        2878        2929        2928
         4        2878        2879        2930        2929
         4        2879        2880        2931        2930
         4        2880        2881        2932        2931
         4        2881        2882        2933        2932
         4        2882        2883        2934        2933
         4        2883        2884        2935        2934
         4        2884        2885        2936        2935
         4        2885        2886        2937        2936
         4        2886        2887        2938        2937
         4        2887        2888        2939        2938
         4        2888        2889        2940        2939
         4        2889        2890        2941        2940
         4        2890        2891        2942        2941
         4        2891        2892        2943        2942
         4        2892        2893        2944        2943
         4        2893        2894        2945        2944
         4        2894        2895        2946        2945
         4        2895        2896        2947        2946
         4        2896        2897        2948        2947
         4        2897        2898        2949        2948
         4        2898        2899        2950        2949
         4        2899        2900        2951        2950
         4        2900        2901        2952        2951
         4        2901        2902        2953        2952
         4        2902        2903        2954        2953
         4        2903        2904        2955        2954
         4        2904        2905        2956        2955
         4        2905        2906        2957        2956
         4        2907        2908        2959        2958
         4        2908        2909        2960        2959
         4        2909        2910        2961        2960
         4        2910        2911        2962        2961
         4        2911        2912        2963        2962
         4        2912        2913        2964        2963
         4        2913        2914        2965        2964
         4        2914        2915        2966        2965
         4        2915        2916        2967        2966
         4        2916        2917        2968        2967
         4        2917        2918        2969        2968
         4        2918        2919        2970        2969
         4        2919        2920        2971        2970
         4        2920        2921        2972        2971
         4        2921        2922        2973        2972
         4        2922        2923        2974        2973
         4        2923        2924        2975        2974
         4        2924        2925        2976        2975
         4        2925        2926        2977        2976
         4        2926        2927        2978        2977
         4        2927        2928        2979        2978
         4        2928        2929        2980        2979
         4        2929        2930        2981        2980
         4        2930        2931        2982        2981
         4        2931        2932        2983        2982
         4        2932        2933        2984        2983
         4        2933        2934        2985        2984
         4        2934        2935        2986        2985
         4        2935        2936        2987        2986
         4        2936        2937        2988        2987
         4        2937        2938        2989        2988
         4        2938        2939        2990        2989
         4        2939        2940        2991        2990
         4        2940        2941        2992        2991
         4        2941        2942        2993        2992
         4        2942        2943        2994        2993
         4        2943        2944        2995        2994
         4        2944        2945        2996        2995
         4        2945        2946        2997        2996
         4        2946        2947        2998        2997
         4        2947        2948        2999        2998
         4        2948        2949        3000        2999
         4        2949        2950        3001        3000
         4        2950        2951        3002        3001
         4        2951        2952        3003        3002
         4        2952        2953        3004        3003
         4        2953        2954        3005        3004
         4        2954        2955        3006        3005
         4        2955        2956        3007        3006
         4        2956        2957        3008        3007
         4        2958        2959        3010        3009
         4        2959        2960        3011        3010
         4        2960        2961        3012        3011
         4        2961        2962        3013        3012
         4        2962        2963        3014        3013
         4        2963        2964        3015        3014
         4        2964        2965        3016        3015
         4        2965        2966        3017        3016
         4        2966        2967        3018        3017
         4        2967        2968        3019        3018
         4        2968        2969        3020        3019
         4        2969        2970        3021        3020
         4        2970        2971        3022        3021
         4        2971        2972        3023        3022
         4        2972        2973        3024        3023
         4        2973        2974        3025        3024
         4        2974        2975        3026        3025
         4        2975        2976        3027        3026
         4        2976        2977        3028        3027
         4        2977        2978        3029        3028
         4        2978        2979        3030        3029
         4        2979        2980        3031        3030
         4        2980        2981        3032        3031
         4        2981        2982        3033        3032
         4        2982        2983        3034        3033
         4        2983        2984        3035        3034
         4        2984        2985        3036        3035
         4        2985        2986        3037        3036
         4        2986        2987        3038        3037
         4        2987        2988        3039        3038
         4        2988        2989        3040        3039
         4        2989        2990        3041        3040
         4        2990        2991        3042        3041
         4        2991        2992        3043        3042
         4        2992        2993        3044        3043
         4        2993        2994        3045        3044
         4        2994        2995        3046        3045
         4        2995        2996        3047        3046
         4        2996        2997        3048        3047
         4        2997        2998        3049        3048
         4        2998        2999        3050        3049
         4        2999        3000        3051        3050
         4        3000        3001        3052        3051
         4        3001        3002        3053        3052
         4        3002        3003        3054        3053
         4        3003        3004        3055        3054
         4        3004        3005        3056        3055
         4        3005        3006        3057        3056
         4        3006        3007        3058        3057
         4        3007        3008        3059        3058
         4        3009        3010        3061        3060
         4        3010        3011        3062        3061
         4        3011        3012        3063        3062
         4        3012        3013        3064        3063
         4        3013        3014        3065        3064
         4        3014        3015        3066        3065
         4        3015        3016        3067        3066
         4        3016        3017        3068        3067
         4        3017        3018        3069        3068
         4        3018        3019        3070        3069
         4        3019        3020        3071        3070
         4        3020        3021        3072        3071
         4        3021        3022        3073        3072
         4        3022        3023        3074        3073
         4        3023        3024        3075        3074
         4        3024        3025        3076        3075
         4        3025        3026        3077        3076
         4        3026        3027        3078        3077
         4        3027        3028        3079        3078
         4        3028        3029        3080        3079
         4        3029        3030        3081        3080
         4        3030        3031        3082        3081
         4        3031        3032        3083        3082
         4        3032        3033        3084        3083
         4        3033        3034        3085        3084
         4        3034        3035        3086        3085
         4        3035        3036        3087        3086
         4        3036        3037        3088        3087
         4        3037        3038        3089        3088
         4        3038        3039        3090        3089
         4        3039        3040        3091        3090
         4        3040        3041        3092        3091
         4        3041        3042        3093        3092
         4        3042        3043        3094        3093
         4        3043        3044        3095        3094
         4        3044        3045        3096        3095
         4        3045        3046        3097        3096
         4        3046        3047        3098        3097
         4        3047        3048        3099        3098
         4        3048        3049        3100        3099
         4        3049        3050        3101        3100
         4        3050        3051        3102        3101
         4        3051        3052        3103        3102
         4        3052        3053        3104        3103
         4        3053        3054        3105        3104
         4        3054        3055        3106        3105
         4        3055        3056        3107        3106
         4        3056        3057        3108        3107
         4        3057        3058        3109        3108
         4        3058        3059        3110        3109
         4        3060        3061        3112        3111
         4        3061        3062        3113        3112
         4        3062        3063        3114        3113
         4        3063        3064        3115        3114
         4        3064        3065        3116        3115
         4        3065        3066        3117        3116
         4        3066        3067        3118        3117
         4        3067        3068        3119        3118
         4        3068        3069        3120        3119
         4        3069        3070        3121        3120
         4        3070        3071        3122        3121
         4        3071        3072        3123        3122
         4        3072        3073        3124        3123
         4        3073        3074        3125        3124
         4        3074        3075        3126        3125
         4        3075        3076        3127        3126
         4        3076        3077        3128        3127
         4        3077        3078        3129        3128
         4        3078        3079        3130        3129
         4        3079        3080        3131        3130
         4        3080        3081        3132        3131
         4        3081        3082        3133        3132
         4        3082        3083        3134        3133
         4        3083        3084        3135        3134
         4        3084        3085        3136        3135
         4        3085        3086        3137        3136
         4        3086        3087        3138        3137
         4        3087        3088        3139        3138
         4        3088        3089        3140        3139
         4        3089        3090        3141        3140
         4        3090        3091        3142        3141
         4        3091        3092        3143        3142
         4        3092        3093        3144        3143
         4        3093        3094        3145        3144
         4        3094        3095        3146        3145
         4        3095        3096        3147        3146
         4        3096        3097        3148        3147
         4        3097        3098        3149        3148
         4        3098        3099        3150        3149
         4        3099        3100        3151        3150
         4        3100        3101        3152        3151
         4        3101        3102        3153        3152
         4        3102        3103        3154        3153
         4        3103        3104        3155        3154
         4        3104        3105        3156        3155
         4        3105        3106        3157        3156
         4        3106        3107        3158        3157
         4        3107        3108        3159        3158
         4        3108        3109        3160        3159
         4        3109        3110        3161        3160
         4        3111        3112        3163        3162
         4        3112        3113        3164        3163
         4        3113        3114        3165        3164
         4        3114        3115        3166        3165
         4        3115        3116        3167        3166
         4        3116        3117        3168        3167
         4        3117        3118        3169        3168
         4        3118        3119        3170        3169
         4        3119        3120        3171        3170
         4        3120        3121        3172        3171
         4        3121        3122        3173        3172
         4        3122        3123        3174        3173
         4        3123        3124        3175        3174
         4        3124        3125        3176        3175
         4        3125        3126        3177        3176
         4        3126        3127        3178        3177
         4        3127        3128        3179        3178
         4        3128        3129        3180        3179
         4        3129        3130        3181        3180
         4        3130        3131        3182        3181
         4        3131        3132        3183        3182
         4        3132        3133        3184        3183
         4        3133        3134        3185        3184
         4        3134        3135        3186        3185
         4        3135        3136        3187        3186
         4        3136        3137        3188        3187
         4        3137        3138        3189        3188
         4        3138        3139        3190        3189
         4        3139        3140        3191        3190
         4        3140        3141        3192        3191
         4        3141        3142        3193        3192
         4        3142        3143        3194        3193
         4        3143        3144        3195        3194
         4        3144        3145        3196        3195
         4        3145        3146        3197        3196
         4        3146        3147        3198        3197
         4        3147        3148        3199        3198
         4        3148        3149        3200        3199
         4        3149        3150        3201        3200
         4        3150        3151        3202        3201
         4        3151        3152        3203        3202
         4        3152        3153        3204        3203
         4        3153        3154        3205        3204
         4        3154        3155        3206        3205
         4        3155        3156        3207        3206
         4        3156        3157        3208        3207
         4        3157        3158        3209        3208
         4        3158        3159        3210        3209
         4        3159        3160        3211        3210
         4        3160        3161        3212        3211
         4        3162        3163        3214        3213
         4        3163        3164        3215        3214
         4        3164        3165        3216        3215
         4        3165        3166        3217        3216
         4        3166        3167        3218        3217
         4        3167        3168        3219        3218
         4        3168        3169        3220        3219
         4        3169        3170        3221        3220
         4        3170        3171        3222        3221
         4        3171        3172        3223        3222
         4        3172        3173        3224        3223
         4        3173        3174        3225        3224
         4        3174        3175        3226        3225
         4        3175        3176        3227        3226
         4        3176        3177        3228        3227
         4        3177        3178        3229        3228
         4        3178        3179        3230        3229
         4        3179        3180        3231        3230
         4        3180        3181        3232        3231
         4        3181        3182        3233        3232
         4        3182        3183        3234        3233
         4        3183        3184        3235        3234
         4        3184        3185        3236        3235
         4        3185        3186        3237        3236
         4        3186        3187        3238        3237
         4        3187        3188        3239        3238
         4        3188        3189        3240        3239
         4        3189        3190        3241        3240
         4        3190        3191        3242        3241
         4        3191        3192        3243        3242
         4        3192        3193        3244        3243
         4        3193        3194        3245        3244
         4        3194        3195        3246        3245
         4        3195        3196        3247        3246
         4        3196        3197        3248        3247
         4        3197        3198        3249        3248
         4        3198        3199        3250        3249
         4        3199        3200        3251        3250
         4        3200        3201        3252        3251
         4        3201        3202        3253        3252
         4        3202        3203        3254        3253
         4        3203        3204        3255        3254
         4        3204        3205        3256        3255
         4        3205        3206        3257        3256
         4        3206        3207        3258        3257
         4        3207        3208        3259        3258
         4        3208        3209        3260        3259
         4        3209        3210        3261        3260
         4        3210        3211        3262        3261
         4        3211        3212        3263        3262
         4        3213        3214        3265        3264
         4        3214        3215        3266        3265
         4        3215        3216        3267        3266
         4        3216        3217        3268        3267
         4        3217        3218        3269        3268
         4        3218        3219        3270        3269
         4        3219        3220        3271        3270
         4        3220        3221        3272        3271
         4        3221        3222        3273        3272
         4        3222        3223        3274        3273
         4        3223        3224        3275        3274
         4        3224        3225        3276        3275
         4        3225        3226        3277        3276
         4        3226        3227        3278        3277
         4        3227        3228        3279        3278
         4        3228        3229        3280        3279
         4        3229        3230        3281        3280
         4        3230        3231        3282        3281
         4        3231        3232        3283        3282
         4        3232        3233        3284        3283
         4        3233        3234        3285        3284
         4        3234        3235        3286        3285
         4        3235        3236        3287        3286
         4        3236        3237        3288        3287
         4        3237        3238        3289        3288
         4        3238        3239        3290        3289
         4        3239        3240        3291        3290
         4        3240        3241        3292        3291
         4        3241        3242        3293        3292
         4        3242        3243        3294        3293
         4        3243        3244        3295        3294
         4        3244        3245        3296        3295
         4        3245        3246        3297        3296
         4        3246        3247        3298        3297
         4        3247        3248        3299        3298
         4        3248        3249        3300        3299
         4        3249        3250        3301        3300
         4        3250        3251        3302        3301
         4        3251        3252        3303        3302
         4        3252        3253        3304        3303
         4        3253        3254        3305        3304
         4        3254        3255        3306        3305
         4        3255        3256        3307        3306
         4        3256        3257        3308        3307
         4        3257        3258        3309        3308
         4        3258        3259        3310        3309
         4        3259        3260        3311        3310
         4        3260        3261        3312        3311
         4        3261        3262        3313        3312
         4        3262        3263        3314        3313
         4        3264        3265        3316        3315
         4        3265        3266        3317        3316
         4        3266        3267        3318        3317
         4        3267        3268        3319        3318
         4        3268        3269        3320        3319
         4        3269        3270        3321        3320
         4        3270        3271        3322        3321
         4        3271        3272        3323        3322
         4        3272        3273        3324        3323
         4        3273        3274        3325        3324
         4        3274        3275        3326        3325
         4        3275        3276        3327        3326
         4        3276        3277        3328        3327
         4        3277        3278        3329        3328
         4        3278        3279        3330        3329
         4        3279        3280        3331        3330
         4        3280        3281        3332        3331
         4        3281        3282        3333        3332
         4        3282        3283        3334        3333
         4        3283        3284        3335        3334
         4        3284        3285        3336        3335
         4        3285        3286        3337        3336
         4        3286        3287        3338        3337
         4        3287        3288        3339        3338
         4        3288        3289        3340        3339
         4        3289        3290        3341        3340
         4        3290        3291        3342        3341
         4        3291        3292        3343        3342
         4        3292        3293        3344        3343
         4        3293        3294        3345        3344
         4        3294        3295        3346        3345
         4        3295        3296        3347        3346
         4        3296        3297        3348        3347
         4        3297        3298        3349        3348
         4        3298        3299        3350        3349
         4        3299        3300        3351        3350
         4        3300        3301        3352        3351
         4        3301        3302        3353        3352
         4        3302        3303        3354        3353
         4        3303        3304        3355        3354
         4        3304        3305        3356        3355
         4        3305        3306        3357        3356
         4        3306        3307        3358        3357
         4        3307        3308        3359        3358
         4        3308        3309        3360        3359
         4        3309        3310        3361        3360
         4        3310        3311        3362        3361
         4        3311        3312        3363        3362
         4        3312        3313        3364        3363
         4        3313        3314        3365        3364
         4        3315        3316        3367        3366
         4        3316        3317        3368        3367
         4        3317        3318        3369        3368
         4        3318        3319        3370        3369
         4        3319        3320        3371        3370
         4        3320        3321        3372        3371
         4        3321        3322        3373        3372
         4        3322        3323        3374        3373
         4        3323        3324        3375        3374
         4        3324        3325        3376        3375
         4        3325        3326        3377        3376
         4        3326        3327        3378        3377
         4        3327        3328        3379        3378
         4        3328        3329        3380        3379
         4        3329        3330        3381        3380
         4        3330        3331        3382        3381
         4        3331        3332        3383        3382
         4        3332        3333        3384        3383
         4        3333        3334        3385        3384
         4        3334        3335        3386        3385
         4        3335        3336        3387        3386
         4        3336        3337        3388        3387
         4        3337        3338        3389        3388
         4        3338        3339        3390        3389
         4        3339        3340        3391        3390
         4        3340        3341        3392        3391
         4        3341        3342        3393        3392
         4        3342        3343        3394        3393
         4        3343        3344        3395        3394
         4        3344        3345        3396        3395
         4        3345        3346        3397        3396
         4        3346        3347        3398        3397
         4        3347        3348        3399        3398
         4        3348        3349        3400        3399
         4        3349        3350        3401        3400
         4        3350        3351        3402        3401
         4        3351        3352        3403        3402
         4        3352        3353        3404        3403
         4        3353        3354        3405        3404
         4        3354        3355        3406        3405
         4        3355        3356        3407        3406
         4        3356        3357        3408        3407
         4        3357        3358        3409        3408
         4        3358        3359        3410        3409
         4        3359        3360        3411        3410
         4        3360        3361        3412        3411
         4        3361        3362        3413        3412
         4        3362        3363        3414        3413
         4        3363        3364        3415        3414
         4        3364        3365        3416        3415
         4        3366        3367        3418        3417
         4        3367        3368        3419        3418
         4        3368        3369        3420        3419
         4        3369        3370        3421        3420
         4        3370        3371        3422        3421
         4        3371        3372        3423        3422
         4        3372        3373        3424        3423
         4        3373        3374        3425        3424
         4        3374        3375        3426        3425
         4        3375        3376        3427        3426
         4        3376        3377        3428        3427
         4        3377        3378        3429        3428
         4        3378        3379        3430        3429
         4        3379        3380        3431        3430
         4        3380        3381        3432        3431
         4        3381        3382        3433        3432
         4        3382        3383        3434        3433
         4        3383        3384        3435        3434
         4        3384        3385        3436        3435
         4        3385        3386        3437        3436
         4        3386        3387        3438        3437
         4        3387        3388        3439        3438
         4        3388        3389        3440        3439
         4        3389        3390        3441        3440
         4        3390        3391        3442        3441
         4        3391        3392        3443        3442
         4        3392        3393        3444        3443
         4        3393        3394        3445        3444
         4        3394        3395        3446        3445
         4        3395        3396        3447        3446
         4        3396        3397        3448        3447
         4        3397        3398        3449        3448
         4        3398        3399        3450        3449
         4        3399        3400        3451        3450
         4        3400        3401        3452        3451
         4        3401        3402        3453        3452
         4        3402        3403        3454        3453
         4        3403        3404        3455        3454
         4        3404        3405        3456        3455
         4        3405        3406        3457        3456
         4        3406        3407        3458        3457
         4        3407        3408        3459        3458
         4        3408        3409        3460        3459
         4        3409        3410        3461        3460
         4        3410        3411        3462        3461
         4        3411        3412        3463        3462
         4        3412        3413        3464        3463
         4        3413        3414        3465        3464
         4        3414        3415        3466        3465
         4        3415        3416        3467        3466
         4        3417        3418        3469        3468
         4        3418        3419        3470        3469
         4        3419        3420        3471        3470
         4        3420        3421        3472        3471
         4        3421        3422        3473        3472
         4        3422        3423        3474        3473
         4        3423        3424        3475        3474
         4        3424        3425        3476        3475
         4        3425        3426        3477        3476
         4        3426        3427        3478        3477
         4        3427        3428        3479        3478
         4        3428        3429        3480        3479
         4        3429        3430        3481        3480
         4        3430        3431        3482        3481
         4        3431        3432        3483        3482
         4        3432        3433        3484        3483
         4        3433        3434        3485        3484
         4        3434        3435        3486        3485
         4        3435        3436        3487        3486
         4        3436        3437        3488        3487
         4        3437        3438        3489        3488
         4        3438        3439        3490        3489
         4        3439        3440        3491        3490
         4        3440        3441        3492        3491
         4        3441        3442        3493        3492
         4        3442        3443        3494        3493
         4        3443        3444        3495        3494
         4        3444        3445        3496        3495
         4        3445        3446        3497        3496
         4        3446        3447        3498        3497
         4        3447        3448        3499        3498
         4        3448        3449        3500        3499
         4        3449        3450        3501        3500
         4        3450        3451        3502        3501
         4        3451        3452        3503        3502
         4        3452        3453        3504        3503
         4        3453        3454        3505        3504
         4        3454        3455        3506        3505
         4        3455        3456        3507        3506
         4        3456        3457        3508        3507
         4        3457        3458        3509        3508
         4        3458        3459        3510        3509
         4        3459        3460        3511        3510
         4        3460        3461        3512        3511
         4        3461        3462        3513        3512
         4        3462        3463        3514        3513
         4        3463        3464        3515        3514
         4        3464        3465        3516        3515
         4        3465        3466        3517        3516
         4        3466        3467        3518        3517
         4        3468        3469        3520        3519
         4        3469        3470        3521        3520
         4        3470        3471        3522        3521
         4        3471        3472        3523        3522
         4        3472        3473        3524        3523
         4        3473        3474        3525        3524
         4        3474        3475        3526        3525
         4        3475        3476        3527        3526
         4        3476        3477        3528        3527
         4        3477        3478        3529        3528
         4        3478        3479        3530        3529
         4        3479        3480        3531        3530
         4        3480        3481        3532        3531
         4        3481        3482        3533        3532
         4        3482        3483        3534        3533
         4        3483        3484        3535        3534
         4        3484        3485        3536        3535
         4        3485        3486        3537        3536
         4        3486        3487        3538        3537
         4        3487        3488        3539        3538
         4        3488        3489        3540        3539
         4        3489        3490        3541        3540
         4        3490        3491        3542        3541
         4        3491        3492        3543        3542
         4        3492        3493        3544        3543
         4        3493        3494        3545        3544
         4        3494        3495        3546        3545
         4        3495        3496        3547        3546
         4        3496        3497        3548        3547
         4        3497        3498        3549        3548
         4        3498        3499        3550        3549
         4        3499        3500        3551        3550
         4        3500        3501        3552        3551
         4        3501        3502        3553        3552
         4        3502        3503        3554        3553
         4        3503        3504        3555        3554
         4        3504        3505        3556        3555
         4        3505        3506        3557        3556
         4        3506        3507        3558        3557
         4        3507        3508        3559        3558
         4        3508        3509        3560        3559
         4        3509        3510        3561        3560
         4        3510        3511        3562        3561
         4        3511        3512        3563        3562
         4        3512        3513        3564        3563
         4        3513        3514        3565        3564
         4        3514        3515        3566        3565
         4        3515        3516        3567        3566
         4        3516        3517        3568        3567
         4        3517        3518        3569        3568
         4        3519        3520        3571        3570
         4        3520        3521        3572        3571
         4        3521        3522        3573        3572
         4        3522        3523        3574        3573
         4        3523        3524        3575        3574
         4        3524        3525        3576        3575
         4        3525        3526        3577        3576
         4        3526        3527        3578        3577
         4        3527        3528        3579        3578
         4        3528        3529        3580        3579
         4        3529        3530        3581        3580
         4        3530        3531        3582        3581
         4        3531        3532        3583        3582
         4        3532        3533        3584        3583
         4        3533        3534        3585        3584
         4        3534        3535        3586        3585
         4        3535        3536        3587        3586
         4        3536        3537        3588        3587
         4        3537        3538        3589        3588
         4        3538        3539        3590        3589
         4        3539        3540        3591        3590
         4        3540        3541        3592        3591
         4        3541        3542        3593        3592
         4        3542        3543        3594        3593
         4        3543        3544        3595        3594
         4        3544        3545        3596        3595
         4        3545        3546        3597        3596
         4        3546        3547        3598        3597
         4        3547        3548        3599        3598
         4        3548        3549        3600        3599
         4        3549        3550        3601        3600
         4        3550        3551        3602        3601
         4        3551        3552        3603        3602
         4        3552        3553        3604        3603
         4        3553        3554        3605        3604
         4        3554        3555        3606        3605
         4        3555        3556        3607        3606
         4        3556        3557        3608        3607
         4        3557        3558        3609        3608
         4        3558        3559        3610        3609
         4        3559        3560        3611        3610
         4        3560        3561        3612        3611
         4        3561        3562        3613        3612
         4        3562        3563        3614        3613
         4        3563        3564        3615        3614
         4        3564        3565        3616        3615
         4        3565        3566        3617        3616
         4        3566        3567        3618        3617
         4        3567        3568        3619        3618
         4        3568        3569        3620        3619
         4        3570        3571        3622        3621
         4        3571        3572        3623        3622
         4        3572        3573        3624        3623
         4        3573        3574        3625        3624
         4        3574        3575        3626        3625
         4        3575        3576        3627        3626
         4        3576        3577        3628        3627
         4        3577        3578        3629        3628
         4        3578        3579        3630        3629
         4        3579        3580        3631        3630
         4        3580        3581        3632        3631
         4        3581        3582        3633        3632
         4        3582        3583        3634        3633
         4        3583        3584        3635        3634
         4        3584        3585        3636        3635
         4        3585        3586        3637        3636
         4        3586        3587        3638        3637
         4        3587        3588        3639        3638
         4        3588        3589        3640        3639
         4        3589        3590        3641        3640
         4        3590        3591        3642        3641
         4        3591        3592        3643        3642
         4        3592        3593        3644        3643
         4        3593        3594        3645        3644
         4        3594        3595        3646        3645
         4        3595        3596        3647        3646
         4        3596        3597        3648        3647
         4        3597        3598        3649        3648
         4        3598        3599        3650        3649
         4        3599        3600        3651        3650
         4        3600        3601        3652        3651
         4        3601        3602        3653        3652
         4        3602        3603        3654        3653
         4        3603        3604        3655        3654
         4        3604        3605        3656        3655
         4        3605        3606        3657        3656
         4        3606        3607        3658        3657
         4        3607        3608        3659        3658
         4        3608        3609        3660        3659
         4        3609        3610        3661        3660
         4        3610        3611        3662        3661
         4        3611        3612        3663        3662
         4        3612        3613        3664        3663
         4        3613        3614        3665        3664
         4        3614        3615        3666        3665
         4        3615        3616        3667        3666
         4        3616        3617        3668        3667
         4        3617        3618        3669        3668
         4        3618        3619        3670        3669
         4        3619        3620        3671        3670
         4        3621        3622        3673        3672
         4        3622        3623        3674        3673
         4        3623        3624        3675        3674
         4        3624        3625        3676        3675
         4        3625        3626        3677        3676
         4        3626        3627        3678        3677
         4        3627        3628        3679        3678
         4        3628        3629        3680        3679
         4        3629        3630        3681        3680
         4        3630        3631        3682        3681
         4        3631        3632        3683        3682
         4        3632        3633        3684        3683
         4        3633        3634        3685        3684
         4        3634        3635        3686        3685
         4        3635        3636        3687        3686
         4        3636        3637        3688        3687
         4        3637        3638        3689        3688
         4        3638        3639        3690        3689
         4        3639        3640        3691        3690
         4        3640        3641        3692        3691
         4        3641        3642        3693        3692
         4        3642        3643        3694        3693
         4        3643        3644        3695        3694
         4        3644        3645        3696        3695
         4        3645        3646        3697        3696
         4        3646        3647        3698        3697
         4        3647        3648        3699        3698
         4        3648        3649        3700        3699
         4        3649        3650        3701        3700
         4        3650        3651        3702        3701
         4        3651        3652        3703        3702
         4        3652        3653        3704        3703
         4        3653        3654        3705        3704
         4        3654        3655        3706        3705
         4        3655        3656        3707        3706
         4        3656        3657        3708        3707
         4        3657        3658        3709        3708
         4        3658        3659        3710        3709
         4        3659        3660        3711        3710
         4        3660        3661        3712        3711
         4        3661        3662        3713        3712
         4        3662        3663        3714        3713
         4        3663        3664        3715        3714
         4        3664        3665        3716        3715
         4        3665        3666        3717        3716
         4        3666        3667        3718        3717
         4        3667        3668        3719        3718
         4        3668        3669        3720        3719
         4        3669        3670        3721        3720
         4        3670        3671        3722        3721
         4        3672        3673        3724        3723
         4        3673        3674        3725        3724
         4        3674        3675        3726        3725
         4        3675        3676        3727        3726
         4        3676        3677        3728        3727
         4        3677        3678        3729        3728
         4        3678        3679        3730        3729
         4        3679        3680        3731        3730
         4        3680        3681        3732        3731
         4        3681        3682        3733        3732
         4        3682        3683        3734        3733
         4        3683        3684        3735        3734
         4        3684        3685        3736        3735
         4        3685        3686        3737        3736
         4        3686        3687        3738        3737
         4        3687        3688        3739        3738
         4        3688        3689        3740        3739
         4        3689        3690        3741        3740
         4        3690        3691        3742        3741
         4        3691        3692        3743        3742
         4        3692        3693        3744        3743
         4        3693        3694        3745        3744
         4        3694        3695        3746        3745
         4        3695        3696        3747        3746
         4        3696        3697        3748        3747
         4        3697        3698        3749        3748
         4        3698        3699        3750        3749
         4        3699        3700        3751        3750
         4        3700        3701        3752        3751
         4        3701        3702        3753        3752
         4        3702        3703        3754        3753
         4        3703        3704        3755        3754
         4        3704        3705        3756        3755
         4        3705        3706        3757        3756
         4        3706        3707        3758        3757
         4        3707        3708        3759        3758
         4        3708        3709        3760        3759
         4        3709        3710        3761        3760
         4        3710        3711        3762        3761
         4        3711        3712        3763        3762
         4        3712        3713        3764        3763
         4        3713        3714        3765        3764
         4        3714        3715        3766        3765
         4        3715        3716        3767        3766
         4        3716        3717        3768        3767
         4        3717        3718        3769        3768
         4        3718        3719        3770        3769
         4        3719        3720        3771        3770
         4        3720        3721        3772        3771
         4        3721        3722        3773        3772
         4        3723        3724        3775        3774
         4        3724        3725        3776        3775
         4        3725        3726        3777        3776
         4        3726        3727        3778        3777
         4        3727        3728        3779        3778
         4        3728        3729        3780        3779
         4        3729        3730        3781        3780
         4        3730        3731        3782        3781
         4        3731        3732        3783        3782
         4        3732        3733        3784        3783
         4        3733        3734        3785        3784
         4        3734        3735        3786        3785
         4        3735        3736        3787        3786
         4        3736        3737        3788        3787
         4        3737        3738        3789        3788
         4        3738        3739        3790        3789
         4        3739        3740        3791        3790
         4        3740        3741        3792        3791
         4        3741        3742        3793        3792
         4        3742        3743        3794        3793
         4        3743        3744        3795        3794
         4        3744        3745        3796        3795
         4        3745        3746        3797        3796
         4        3746        3747        3798        3797
         4        3747        3748        3799        3798
         4        3748        3749        3800        3799
         4        3749        3750        3801        3800
         4        3750        3751        3802        3801
         4        3751        3752        3803        3802
         4        3752        3753        3804        3803
         4        3753        3754        3805        3804
         4        3754        3755        3806        3805
         4        3755        3756        3807        3806
         4        3756        3757        3808        3807
         4        3757        3758        3809        3808
         4        3758        3759        3810        3809
         4        3759        3760        3811        3810
         4        3760        3761        3812        3811
         4        3761        3762        3813        3812
         4        3762        3763        3814        3813
         4        3763        3764        3815        3814
         4        3764        3765        3816        3815
         4        3765        3766        3817        3816
         4        3766        3767        3818        3817
         4        3767        3768        3819        3818
         4        3768        3769        3820        3819
         4        3769        3770        3821        3820
         4        3770        3771        3822        3821
         4        3771        3772        3823        3822
         4        3772        3773        3824        3823
         4        3774        3775        3826        3825
         4        3775        3776        3827        3826
         4        3776        3777        3828        3827
         4        3777        3778        3829        3828
         4        3778        3779        3830        3829
         4        3779        3780        3831        3830
         4        3780        3781        3832        3831
         4        3781        3782        3833        3832
         4        3782        3783        3834        3833
         4        3783        3784        3835        3834
         4        3784        3785        3836        3835
         4        3785        3786        3837        3836
         4        3786        3787        3838        3837
         4        3787        3788        3839        3838
         4        3788        3789        3840        3839
         4        3789        3790        3841        3840
         4        3790        3791        3842        3841
         4        3791        3792        3843        3842
         4        3792        3793        3844        3843
         4        3793        3794        3845        3844
         4        3794        3795        3846        3845
         4        3795        3796        3847        3846
         4        3796        3797        3848        3847
         4        3797        3798        3849        3848
         4        3798        3799        3850        3849
         4        3799        3800        3851        3850
         4        3800        3801        3852        3851
         4        3801        3802        3853        3852
         4        3802        3803        3854        3853
         4        3803        3804        3855        3854
         4        3804        3805        3856        3855
         4        3805        3806        3857        3856
         4        3806        3807        3858        3857
         4        3807        3808        3859        3858
         4        3808        3809        3860        3859
         4        3809        3810        3861        3860
         4        3810        3811        3862        3861
         4        3811        3812        3863        3862
         4        3812        3813        3864        3863
         4        3813        3814        3865        3864
         4        3814        3815        3866        3865
         4        3815        3816        3867        3866
         4        3816        3817        3868        3867
         4        3817        3818        3869        3868
         4        3818        3819        3870        3869
         4        3819        3820        3871        3870
         4        3820        3821        3872        3871
         4        3821        3822        3873        3872
         4        3822        3823        3874        3873
         4        3823        3824        3875        3874
         4        3825        3826        3877        3876
         4        3826        3827        3878        3877
         4        3827        3828        3879        3878
         4        3828        3829        3880        3879
         4        3829        3830        3881        3880
         4        3830        3831        3882        3881
         4        3831        3832        3883        3882
         4        3832        3833        3884        3883
         4        3833        3834        3885        3884
         4        3834        3835        3886        3885
         4        3835        3836        3887        3886
         4        3836        3837        3888        3887
         4        3837        3838        3889        3888
         4        3838        3839        3890        3889
         4        3839        3840        3891        3890
         4        3840        3841        3892        3891
         4        3841        3842        3893        3892
         4        3842        3843        3894        3893
         4        3843        3844        3895        3894
         4        3844        3845        3896        3895
         4        3845        3846        3897        3896
         4        3846        3847        3898        3897
         4        3847        3848        3899        3898
         4        3848        3849        3900        3899
         4        3849        3850        3901        3900
         4        3850        3851        3902        3901
         4        3851        3852        3903        3902
         4        3852        3853        3904        3903
         4        3853        3854        3905        3904
         4        3854        3855        3906        3905
         4        3855        3856        3907        3906
         4        3856        3857        3908        3907
         4        3857        3858        3909        3908
         4        3858        3859        3910        3909
         4        3859        3860        3911        3910
         4        3860        3861        3912        3911
         4        3861        3862        3913        3912
         4        3862        3863        3914        3913
         4        3863        3864        3915        3914
         4        3864        3865        3916        3915
         4        3865        3866        3917        3916
         4        3866        3867        3918        3917
         4        3867        3868        3919        3918
         4        3868        3869        3920        3919
         4        3869        3870        3921        3920
         4        3870        3871        3922        3921
         4        3871        3872        3923        3922
         4        3872        3873        3924        3923
         4        3873        3874        3925        3924
         4        3874        3875        3926        3925
         4        3876        3877        3928        3927
         4        3877        3878        3929        3928
         4        3878        3879        3930        3929
         4        3879        3880        3931        3930
         4        3880        3881        3932        3931
         4        3881        3882        3933        3932
         4        3882        3883        3934        3933
         4        3883        3884        3935        3934
         4        3884        3885        3936        3935
         4        3885        3886        3937        3936
         4        3886        3887        3938        3937
         4        3887        3888        3939        3938
         4        3888        3889        3940        3939
         4        3889        3890        3941        3940
         4        3890        3891        3942        3941
         4        3891        3892        3943        3942
         4        3892        3893        3944        3943
         4        3893        3894        3945        3944
         4        3894        3895        3946        3945
         4        3895        3896        3947        3946
         4        3896        3897        3948        3947
         4        3897        3898        3949        3948
         4        3898        3899        3950        3949
         4        3899        3900        3951        3950
         4        3900        3901        3952        3951
         4        3901        3902        3953        3952
         4        3902        3903        3954        3953
         4        3903        3904        3955        3954
         4        3904        3905        3956        3955
         4        3905        3906        3957        3956
         4        3906        3907        3958        3957
         4        3907        3908        3959        3958
         4        3908        3909        3960        3959
         4        3909        3910        3961        3960
         4        3910        3911        3962        3961
         4        3911        3912        3963        3962
         4        3912        3913        3964        3963
         4        3913        3914        3965        3964
         4        3914        3915        3966        3965
         4        3915        3916        3967        3966
         4        3916        3917        3968        3967
         4        3917        3918        3969        3968
         4        3918        3919        3970        3969
         4        3919        3920        3971        3970
         4        3920        3921        3972        3971
         4        3921        3922        3973        3972
         4        3922        3923        3974        3973
         4        3923        3924        3975        3974
         4        3924        3925        3976        3975
         4        3925        3926        3977        3976
         4        3927        3928        3979        3978
         4        3928        3929        3980        3979
         4        3929        3930        3981        3980
         4        3930        3931        3982        3981
         4        3931        3932        3983        3982
         4        3932        3933        3984        3983
         4        3933        3934        3985        3984
         4        3934        3935        3986        3985
         4        3935        3936        3987        3986
         4        3936        3937        3988        3987
         4        3937        3938        3989        3988
         4        3938        3939        3990        3989
         4        3939        3940        3991        3990
         4        3940        3941        3992        3991
         4        3941        3942        3993        3992
         4        3942        3943        3994        3993
         4        3943        3944        3995        3994
         4        3944        3945        3996        3995
         4        3945        3946        3997        3996
         4        3946        3947        3998        3997
         4        3947        3948        3999        3998
         4        3948        3949        4000        3999
         4        3949        3950        4001        4000
         4        3950        3951        4002        4001
         4        3951        3952        4003        4002
         4        3952        3953        4004        4003
         4        3953        3954        4005        4004
         4        3954        3955        4006        4005
         4        3955        3956        4007        4006
         4        3956        3957        4008        4007
         4        3957        3958        4009        4008
         4        3958        3959        4010        4009
         4        3959        3960        4011        4010
         4        3960        3961        4012        4011
         4        3961        3962        4013        4012
         4        3962        3963        4014        4013
         4        3963        3964        4015        4014
         4        3964        3965        4016        4015
         4        3965        3966        4017        4016
         4        3966        3967        4018        4017
         4        3967        3968        4019        4018
         4        3968        3969        4020        4019
         4        3969        3970        4021        4020
         4        3970        3971        4022        4021
         4        3971        3972        4023        4022
         4        3972        3973        4024        4023
         4        3973        3974        4025        4024
         4        3974        3975        4026        4025
         4        3975        3976        4027        4026
         4        3976        3977        4028        4027
         4        3978        3979        4030        4029
         4        3979        3980        4031        4030
         4        3980        3981        4032        4031
         4        3981        3982        4033        4032
         4        3982        3983        4034        4033
         4        3983        3984        4035        4034
         4        3984        3985        4036        4035
         4        3985        3986        4037        4036
         4        3986        3987        4038        4037
         4        3987        3988        4039        4038
         4        3988        3989        4040        4039
         4        3989        3990        4041        4040
         4        3990        3991        4042        4041
         4        3991        3992        4043        4042
         4        3992        3993        4044        4043
         4        3993        3994        4045        4044
         4        3994        3995        4046        4045
         4        3995        3996        4047        4046
         4        3996        3997        4048        4047
         4        3997        3998        4049        4048
         4        3998        3999        4050        4049
         4        3999        4000        4051        4050
         4        4000        4001        4052        4051
         4        4001        4002        4053        4052
         4        4002        4003        4054        4053
         4        4003        4004        4055        4054
         4        4004        4005        4056        4055
         4        4005        4006        4057        4056
         4        4006        4007        4058        4057
         4        4007        4008        4059        4058
         4        4008        4009        4060        4059
         4        4009        4010        4061        4060
         4        4010        4011        4062        4061
         4        4011        4012        4063        4062
         4        4012        4013        4064        4063
         4        4013        4014        4065        4064
         4        4014        4015        4066        4065
         4        4015        4016        4067        4066
         4        4016        4017        4068        4067
         4        4017        4018        4069        4068
         4        4018        4019        4070        4069
         4        4019        4020        4071        4070
         4        4020        4021        4072        4071
         4        4021        4022        4073        4072
         4        4022        4023        4074        4073
         4        4023        4024        4075        4074
         4        4024        4025        4076        4075
         4        4025        4026        4077        4076
         4        4026        4027        4078        4077
         4        4027        4028        4079        4078
         4        4029        4030        4081        4080
         4        4030        4031        4082        4081
         4        4031        4032        4083        4082
         4        4032        4033        4084        4083
         4        4033        4034        4085        4084
         4        4034        4035        4086        4085
         4        4035        4036        4087        4086
         4        4036        4037        4088        4087
         4        4037        4038        4089        4088
         4        4038        4039        4090        4089
         4        4039        4040        4091        4090
         4        4040        4041        4092        4091
         4        4041        4042        4093        4092
         4        4042        4043        4094        4093
         4        4043        4044        4095        4094
         4        4044        4045        4096        4095
         4        4045        4046        4097        4096
         4        4046        4047        4098        4097
         4        4047        4048        4099        4098
         4        4048        4049        4100        4099
         4        4049        4050        4101        4100
         4        4050        4051        4102        4101
         4        4051        4052        4103        4102
         4        4052        4053        4104        4103
         4        4053        4054        4105        4104
         4        4054        4055        4106        4105
         4        4055        4056        4107        4106
         4        4056        4057        4108        4107
         4        4057        4058        4109        4108
         4        4058        4059        4110        4109
         4        4059        4060        4111        4110
         4        4060        4061        4112        4111
         4        4061        4062        4113        4112
         4        4062        4063        4114        4113
         4        4063        4064        4115        4114
         4        4064        4065        4116        4115
         4        4065        4066        4117        4116
         4        4066        4067        4118        4117
         4        4067        4068        4119        4118
         4        4068        4069        4120        4119
         4        4069        4070        4121        4120
         4        4070        4071        4122        4121
         4        4071        4072        4123        4122
         4        4072        4073        4124        4123
         4        4073        4074        4125        4124
         4        4074        4075        4126        4125
         4        4075        4076        4127        4126
         4        4076        4077        4128        4127
         4        4077        4078        4129        4128
         4        4078        4079        4130        4129
         4        4080        4081        4132        4131
         4        4081        4082        4133        4132
         4        4082        4083        4134        4133
         4        4083        4084        4135        4134
         4        4084        4085        4136        4135
         4        4085        4086        4137        4136
         4        4086        4087        4138        4137
         4        4087        4088        4139        4138
         4        4088        4089        4140        4139
         4        4089        4090        4141        4140
         4        4090        4091        4142        4141
         4        4091        4092        4143        4142
         4        4092        4093        4144        4143
         4        4093        4094        4145        4144
         4        4094        4095        4146        4145
         4        4095        4096        4147        4146
         4        4096        4097        4148        4147
         4        4097        4098        4149        4148
         4        4098        4099        4150        4149
         4        4099        4100        4151        4150
         4        4100        4101        4152        4151
         4        4101        4102        4153        4152
         4        4102        4103        4154        4153
         4        4103        4104        4155        4154
         4        4104        4105        4156        4155
         4        4105        4106        4157        4156
         4        4106        4107        4158        4157
         4        4107        4108        4159        4158
         4        4108        4109        4160        4159
         4        4109        4110        4161        4160
         4        4110        4111        4162        4161
         4        4111        4112        4163        4162
         4        4112        4113        4164        4163
         4        4113        4114        4165        4164
         4        4114        4115        4166        4165
         4        4115        4116        4167        4166
         4        4116        4117        4168        4167
         4        4117        4118        4169        4168
         4        4118        4119        4170        4169
         4        4119        4120        4171        4170
         4        4120        4121        4172        4171
         4        4121        4122        4173        4172
         4        4122        4123        4174        4173
         4        4123        4124        4175        4174
         4        4124        4125        4176        4175
         4        4125        4126        4177        4176
         4        4126        4127        4178        4177
         4        4127        4128        4179        4178
         4        4128        4129        4180        4179
         4        4129        4130        4181        4180
         4        4131        4132        4183        4182
         4        4132        4133        4184        4183
         4        4133        4134        4185        4184
         4        4134        4135        4186        4185
         4        4135        4136        4187        4186
         4        4136        4137        4188        4187
         4        4137        4138        4189        4188
         4        4138        4139        4190        4189
         4        4139        4140        4191        4190
         4        4140        4141        4192        4191
         4        4141        4142        4193        4192
         4        4142        4143        4194        4193
         4        4143        4144        4195        4194
         4        4144        4145        4196        4195
         4        4145        4146        4197        4196
         4        4146        4147        4198        4197
         4        4147        4148        4199        4198
         4        4148        4149        4200        4199
         4        4149        4150        4201        4200
         4        4150        4151        4202        4201
         4        4151        4152        4203        4202
         4        4152        4153        4204        4203
         4        4153        4154        4205        4204
         4        4154        4155        4206        4205
         4        4155        4156        4207        4206
         4        4156        4157        4208        4207
         4        4157        4158        4209        4208
         4        4158        4159        4210        4209
         4        4159        4160        4211        4210
         4        4160        4161        4212        4211
         4        4161        4162        4213        4212
         4        4162        4163        4214        4213
         4        4163        4164        4215        4214
         4        4164        4165        4216        4215
         4        4165        4166        4217        4216
         4        4166        4167        4218        4217
         4        4167        4168        4219        4218
         4        4168        4169        4220        4219
         4        4169        4170        4221        4220
         4        4170        4171        4222        4221
         4        4171        4172        4223        4222
         4        4172        4173        4224        4223
         4        4173        4174        4225        4224
         4        4174        4175        4226        4225
         4        4175        4176        4227        4226
         4        4176        4177        4228        4227
         4        4177        4178        4229        4228
         4        4178        4179        4230        4229
         4        4179        4180        4231        4230
         4        4180        4181        4232        4231
         4        4182        4183        4234        4233
         4        4183        4184        4235        4234
         4        4184        4185        4236        4235
         4        4185        4186        4237        4236
         4        4186        4187        4238        4237
         4        4187        4188        4239        4238
         4        4188        4189        4240        4239
         4        4189        4190        4241        4240
         4        4190        4191        4242        4241
         4        4191        4192        4243        4242
         4        4192        4193        4244        4243
         4        4193        4194        4245        4244
         4        4194        4195        4246        4245
         4        4195        4196        4247        4246
         4        4196        4197        4248        4247
         4        4197        4198        4249        4248
         4        4198        4199        4250        4249
         4        4199        4200        4251        4250
         4        4200        4201        4252        4251
         4        4201        4202        4253        4252
         4        4202        4203        4254        4253
         4        4203        4204        4255        4254
         4        4204        4205        4256        4255
         4        4205        4206        4257        4256
         4        4206        4207        4258        4257
         4        4207        4208        4259        4258
         4        4208        4209        4260        4259
         4        4209        4210        4261        4260
         4        4210        4211        4262        4261
         4        4211        4212        4263        4262
         4        4212        4213        4264        4263
         4        4213        4214        4265        4264
         4        4214        4215        4266        4265
         4        4215        4216        4267        4266
         4        4216        4217        4268        4267
         4        4217        4218        4269        4268
         4        4218        4219        4270        4269
         4        4219        4220        4271        4270
         4        4220        4221        4272        4271
         4        4221        4222        4273        4272
         4        4222        4223        4274        4273
         4        4223        4224        4275        4274
         4        4224        4225        4276        4275
         4        4225        4226        4277        4276
         4        4226        4227        4278        4277
         4        4227        4228        4279        4278
         4        4228        4229        4280        4279
         4        4229        4230        4281        4280
         4        4230        4231        4282        4281
         4        4231        4232        4283        4282
         4        4233        4234        4285        4284
         4        4234        4235        4286        4285
         4        4235        4236        4287        4286
         4        4236        4237        4288        4287
         4        4237        4238        4289        4288
         4        4238        4239        4290        4289
         4        4239        4240        4291        4290
         4        4240        4241        4292        4291
         4        4241        4242        4293        4292
         4        4242        4243        4294        4293
         4        4243        4244        4295        4294
         4        4244        4245        4296        4295
         4        4245        4246        4297        4296
         4        4246        4247        4298        4297
         4        4247        4248        4299        4298
         4        4248        4249        4300        4299
         4        4249        4250        4301        4300
         4        4250        4251        4302        4301
         4        4251        4252        4303        4302
         4        4252        4253        4304        4303
         4        4253        4254        4305        4304
         4        4254        4255        4306        4305
         4        4255        4256        4307        4306
         4        4256        4257        4308        4307
         4        4257        4258        4309        4308
         4        4258        4259        4310        4309
         4        4259        4260        4311        4310
         4        4260        4261        4312        4311
         4        4261        4262        4313        4312
         4        4262        4263        4314        4313
         4        4263        4264        4315        4314
         4        4264        4265        4316        4315
         4        4265        4266        4317        4316
         4        4266        4267        4318        4317
         4        4267        4268        4319        4318
         4        4268        4269        4320        4319
         4        4269        4270        4321        4320
         4        4270        4271        4322        4321
         4        4271        4272        4323        4322
         4        4272        4273        4324        4323
         4        4273        4274        4325        4324
         4        4274        4275        4326        4325
         4        4275        4276        4327        4326
         4        4276        4277        4328        4327
         4        4277        4278        4329        4328
         4        4278        4279        4330        4329
         4        4279        4280        4331        4330
         4        4280        4281        4332        4331
         4        4281        4282        4333        4332
         4        4282        4283        4334        4333
         4        4284        4285        4336        4335
         4        4285        4286        4337        4336
         4        4286        4287        4338        4337
         4        4287        4288        4339        4338
         4        4288        4289        4340        4339
         4        4289        4290        4341        4340
         4        4290        4291        4342        4341
         4        4291        4292        4343        4342
         4        4292        4293        4344        4343
         4        4293        4294        4345        4344
         4        4294        4295        4346        4345
         4        4295        4296        4347        4346
         4        4296        4297        4348        4347
         4        4297        4298        4349        4348
         4        4298        4299        4350        4349
         4        4299        4300        4351        4350
         4        4300        4301        4352        4351
         4        4301        4302        4353        4352
         4        4302        4303        4354        4353
         4        4303        4304        4355        4354
         4        4304        4305        4356        4355
         4        4305        4306        4357        4356
         4        4306        4307        4358        4357
         4        4307        4308        4359        4358
         4        4308        4309        4360        4359
         4        4309        4310        4361        4360
         4        4310        4311        4362        4361
         4        4311        4312        4363        4362
         4        4312        4313        4364        4363
         4        4313        4314        4365        4364
         4        4314        4315        4366        4365
         4        4315        4316        4367        4366
         4        4316        4317        4368        4367
         4        4317        4318        4369        4368
         4        4318        4319        4370        4369
         4        4319        4320        4371        4370
         4        4320        4321        4372        4371
         4        4321        4322        4373        4372
         4        4322        4323        4374        4373
         4        4323        4324        4375        4374
         4        4324        4325        4376        4375
         4        4325        4326        4377        4376
         4        4326        4327        4378        4377
         4        4327        4328        4379        4378
         4        4328        4329        4380        4379
         4        4329        4330        4381        4380
         4        4330        4331        4382        4381
         4        4331        4332        4383        4382
         4        4332        4333        4384        4383
         4        4333        4334        4385        4384
         4        4335        4336        4387        4386
         4        4336        4337        4388        4387
         4        4337        4338        4389        4388
         4        4338        4339        4390        4389
         4        4339        4340        4391        4390
         4        4340        4341        4392        4391
         4        4341        4342        4393        4392
         4        4342        4343        4394        4393
         4        4343        4344        4395        4394
         4        4344        4345        4396        4395
         4        4345        4346        4397        4396
         4        4346        4347        4398        4397
         4        4347        4348        4399        4398
         4        4348        4349        4400        4399
         4        4349        4350        4401        4400
         4        4350        4351        4402        4401
         4        4351        4352        4403        4402
         4        4352        4353        4404        4403
         4        4353        4354        4405        4404
         4        4354        4355        4406        4405
         4        4355        4356        4407        4406
         4        4356        4357        4408        4407
         4        4357        4358        4409        4408
         4        4358        4359        4410        4409
         4        4359        4360        4411        4410
         4        4360        4361        4412        4411
         4        4361        4362        4413        4412
         4        4362        4363        4414        4413
         4        4363        4364        4415        4414
         4        4364        4365        4416        4415
         4        4365        4366        4417        4416
         4        4366        4367        4418        4417
         4        4367        4368        4419        4418
         4        4368        4369        4420        4419
         4        4369        4370        4421        4420
         4        4370        4371        4422        4421
         4        4371        4372        4423        4422
         4        4372        4373        4424        4423
         4        4373        4374        4425        4424
         4        4374        4375        4426        4425
         4        4375        4376        4427        4426
         4        4376        4377        4428        4427
         4        4377        4378        4429        4428
         4        4378        4379        4430        4429
         4        4379        4380        4431        4430
         4        4380        4381        4432        4431
         4        4381        4382        4433        4432
         4        4382        4383        4434        4433
         4        4383        4384        4435        4434
         4        4384        4385        4436        4435
         4        4386        4387        4438        4437
         4        4387        4388        4439        4438
         4        4388        4389        4440        4439
         4        4389        4390        4441        4440
         4        4390        4391        4442        4441
         4        4391        4392        4443        4442
         4        4392        4393        4444        4443
         4        4393        4394        4445        4444
         4        4394        4395        4446        4445
         4        4395        4396        4447        4446
         4        4396        4397        4448        4447
         4        4397        4398        4449        4448
         4        4398        4399        4450        4449
         4        4399        4400        4451        4450
         4        4400        4401        4452        4451
         4        4401        4402        4453        4452
         4        4402        4403        4454        4453
         4        4403        4404        4455        4454
         4        4404        4405        4456        4455
         4        4405        4406        4457        4456
         4        4406        4407        4458        4457
         4        4407        4408        4459        4458
         4        4408        4409        4460        4459
         4        4409        4410        4461        4460
         4        4410        4411        4462        4461
         4        4411        4412        4463        4462
         4        4412        4413        4464        4463
         4        4413        4414        4465        4464
         4        4414        4415        4466        4465
         4        4415        4416        4467        4466
         4        4416        4417        4468        4467
         4        4417        4418        4469        4468
         4        4418        4419        4470        4469
         4        4419        4420        4471        4470
         4        4420        4421        4472        4471
         4        4421        4422        4473        4472
         4        4422        4423        4474        4473
         4        4423        4424        4475        4474
         4        4424        4425        4476        4475
         4        4425        4426        4477        4476
         4        4426        4427        4478        4477
         4        4427        4428        4479        4478
         4        4428        4429        4480        4479
         4        4429        4430        4481        4480
         4        4430        4431        4482        4481
         4        4431        4432        4483        4482
         4        4432        4433        4484        4483
         4        4433        4434        4485        4484
         4        4434        4435        4486        4485
         4        4435        4436        4487        4486
         4        4437        4438        4489        4488
         4        4438        4439        4490        4489
         4        4439        4440        4491        4490
         4        4440        4441        4492        4491
         4        4441        4442        4493        4492
         4        4442        4443        4494        4493
         4        4443        4444        4495        4494
         4        4444        4445        4496        4495
         4        4445        4446        4497        4496
         4        4446        4447        4498        4497
         4        4447        4448        4499        4498
         4        4448        4449        4500        4499
         4        4449        4450        4501        4500
         4        4450        4451        4502        4501
         4        4451        4452        4503        4502
         4        4452        4453        4504        4503
         4        4453        4454        4505        4504
         4        4454        4455        4506        4505
         4        4455        4456        4507        4506
         4        4456        4457        4508        4507
         4        4457        4458        4509        4508
         4        4458        4459        4510        4509
         4        4459        4460        4511        4510
         4        4460        4461        4512        4511
         4        4461        4462        4513        4512
         4        4462        4463        4514        4513
         4        4463        4464        4515        4514
         4        4464        4465        4516        4515
         4        4465        4466        4517        4516
         4        4466        4467        4518        4517
         4        4467        4468        4519        4518
         4        4468        4469        4520        4519
         4        4469        4470        4521        4520
         4        4470        4471        4522        4521
         4        4471        4472        4523        4522
         4        4472        4473        4524        4523
         4        4473        4474        4525        4524
         4        4474        4475        4526        4525
         4        4475        4476        4527        4526
         4        4476        4477        4528        4527
         4        4477        4478        4529        4528
         4        4478        4479        4530        4529
         4        4479        4480        4531        4530
         4        4480        4481        4532        4531
         4        4481        4482        4533        4532
         4        4482        4483        4534        4533
         4        4483        4484        4535        4534
         4        4484        4485        4536        4535
         4        4485        4486        4537        4536
         4        4486        4487        4538        4537
         4        4488        4489        4540        4539
         4        4489        4490        4541        4540
         4        4490        4491        4542        4541
         4        4491        4492        4543        4542
         4        4492        4493        4544        4543
         4        4493        4494        4545        4544
         4        4494        4495        4546        4545
         4        4495        4496        4547        4546
         4        4496        4497        4548        4547
         4        4497        4498        4549        4548
         4        4498        4499        4550        4549
         4        4499        4500        4551        4550
         4        4500        4501        4552        4551
         4        4501        4502        4553        4552
         4        4502        4503        4554        4553
         4        4503        4504        4555        4554
         4        4504        4505        4556        4555
         4        4505        4506        4557        4556
         4        4506        4507        4558        4557
         4        4507        4508        4559        4558
         4        4508        4509        4560        4559
         4        4509        4510        4561        4560
         4        4510        4511        4562        4561
         4        4511        4512        4563        4562
         4        4512        4513        4564        4563
         4        4513        4514        4565        4564
         4        4514        4515        4566        4565
         4        4515        4516        4567        4566
         4        4516        4517        4568        4567
         4        4517        4518        4569        4568
         4        4518        4519        4570        4569
         4        4519        4520        4571        4570
         4        4520        4521        4572        4571
         4        4521        4522        4573        4572
         4        4522        4523        4574        4573
         4        4523        4524        4575        4574
         4        4524        4525        4576        4575
         4        4525        4526        4577        4576
         4        4526        4527        4578        4577
         4        4527        4528        4579        4578
         4        4528        4529        4580        4579
         4        4529        4530        4581        4580
         4        4530        4531        4582        4581
         4        4531        4532        4583        4582
         4        4532        4533        4584        4583
         4        4533        4534        4585        4584
         4        4534        4535        4586        4585
         4        4535        4536        4587        4586
         4        4536        4537        4588        4587
         4        4537        4538        4589        4588
         4        4539        4540        4591        4590
         4        4540        4541        4592        4591
         4        4541        4542        4593        4592
         4        4542        4543        4594        4593
         4        4543        4544        4595        4594
         4        4544        4545        4596        4595
         4        4545        4546        4597        4596
         4        4546        4547        4598        4597
         4        4547        4548        4599        4598
         4        4548        4549        4600        4599
         4        4549        4550        4601        4600
         4        4550        4551        4602        4601
         4        4551        4552        4603        4602
         4        4552        4553        4604        4603
         4        4553        4554        4605        4604
         4        4554        4555        4606        4605
         4        4555        4556        4607        4606
         4        4556        4557        4608        4607
         4        4557        4558        4609        4608
         4        4558        4559        4610        4609
         4        4559        4560        4611        4610
         4        4560        4561        4612        4611
         4        4561        4562        4613        4612
         4        4562        4563        4614        4613
         4        4563        4564        4615        4614
         4        4564        4565        4616        4615
         4        4565        4566        4617        4616
         4        4566        4567        4618        4617
         4        4567        4568        4619        4618
         4        4568        4569        4620        4619
         4        4569        4570        4621        4620
         4        4570        4571        4622        4621
         4        4571        4572        4623        4622
         4        4572        4573        4624        4623
         4        4573        4574        4625        4624
         4        4574        4575        4626        4625
         4        4575        4576        4627        4626
         4        4576        4577        4628        4627
         4        4577        4578        4629        4628
         4        4578        4579        4630        4629
         4        4579        4580        4631        4630
         4        4580        4581        4632        4631
         4        4581        4582        4633        4632
         4        4582        4583        4634        4633
         4        4583        4584        4635        4634
         4        4584        4585        4636        4635
         4        4585        4586        4637        4636
         4        4586        4587        4638        4637
         4        4587        4588        4639        4638
         4        4588        4589        4640        4639
         4        4590        4591        4642        4641
         4        4591        4592        4643        4642
         4        4592        4593        4644        4643
         4        4593        4594        4645        4644
         4        4594        4595        4646        4645
         4        4595        4596        4647        4646
         4        4596        4597        4648        4647
         4        4597        4598        4649        4648
         4        4598        4599        4650        4649
         4        4599        4600        4651        4650
         4        4600        4601        4652        4651
         4        4601        4602        4653        4652
         4        4602        4603        4654        4653
         4        4603        4604        4655        4654
         4        4604        4605        4656        4655
         4        4605        4606        4657        4656
         4        4606        4607        4658        4657
         4        4607        4608        4659        4658
         4        4608        4609        4660        4659
         4        4609        4610        4661        4660
         4        4610        4611        4662        4661
         4        4611        4612        4663        4662
         4        4612        4613        4664        4663
         4        4613        4614        4665        4664
         4        4614        4615        4666        4665
         4        4615        4616        4667        4666
         4        4616        4617        4668        4667
         4        4617        4618        4669        4668
         4        4618        4619        4670        4669
         4        4619        4620        4671        4670
         4        4620        4621        4672        4671
         4        4621        4622        4673        4672
         4        4622        4623        4674        4673
         4        4623        4624        4675        4674
         4        4624        4625        4676        4675
         4        4625        4626        4677        4676
         4        4626        4627        4678        4677
         4        4627        4628        4679        4678
         4        4628        4629        4680        4679
         4        4629        4630        4681        4680
         4        4630        4631        4682        4681
         4        4631        4632        4683        4682
         4        4632        4633        4684        4683
         4        4633        4634        4685        4684
         4        4634        4635        4686        4685
         4        4635        4636        4687        4686
         4        4636        4637        4688        4687
         4        4637        4638        4689        4688
         4        4638        4639        4690        4689
         4        4639        4640        4691        4690
         4        4641        4642        4693        4692
         4        4642        4643        4694        4693
         4        4643        4644        4695        4694
         4        4644        4645        4696        4695
         4        4645        4646        4697        4696
         4        4646        4647        4698        4697
         4        4647        4648        4699        4698
         4        4648        4649        4700        4699
         4        4649        4650        4701        4700
         4        4650        4651        4702        4701
         4        4651        4652        4703        4702
         4        4652        4653        4704        4703
         4        4653        4654        4705        4704
         4        4654        4655        4706        4705
         4        4655        4656        4707        4706
         4        4656        4657        4708        4707
         4        4657        4658        4709        4708
         4        4658        4659        4710        4709
         4        4659        4660        4711        4710
         4        4660        4661        4712        4711
         4        4661        4662        4713        4712
         4        4662        4663        4714        4713
         4        4663        4664        4715        4714
         4        4664        4665        4716        4715
         4        4665        4666        4717        4716
         4        4666        4667        4718        4717
         4        4667        4668        4719        4718
         4        4668        4669        4720        4719
         4        4669        4670        4721        4720
         4        4670        4671        4722        4721
         4        4671        4672        4723        4722
         4        4672        4673        4724        4723
         4        4673        4674        4725        4724
         4        4674        4675        4726        4725
         4        4675        4676        4727        4726
         4        4676        4677        4728        4727
         4        4677        4678        4729        4728
         4        4678        4679        4730        4729
         4        4679        4680        4731        4730
         4        4680        4681        4732        4731
         4        4681        4682        4733        4732
         4        4682        4683        4734        4733
         4        4683        4684        4735        4734
         4        4684        4685        4736        4735
         4        4685        4686        4737        4736
         4        4686        4687        4738        4737
         4        4687        4688        4739        4738
         4        4688        4689        4740        4739
         4        4689        4690        4741        4740
         4        4690        4691        4742        4741
         4        4692        4693        4744        4743
         4        4693        4694        4745        4744
         4        4694        4695        4746        4745
         4        4695        4696        4747        4746
         4        4696        4697        4748        4747
         4        4697        4698        4749        4748
         4        4698        4699        4750        4749
         4        4699        4700        4751        4750
         4        4700        4701        4752        4751
         4        4701        4702        4753        4752
         4        4702        4703        4754        4753
         4        4703        4704        4755        4754
         4        4704        4705        4756        4755
         4        4705        4706        4757        4756
         4        4706        4707        4758        4757
         4        4707        4708        4759        4758
         4        4708        4709        4760        4759
         4        4709        4710        4761        4760
         4        4710        4711        4762        4761
         4        4711        4712        4763        4762
         4        4712        4713        4764        4763
         4        4713        4714        4765        4764
         4        4714        4715        4766        4765
         4        4715        4716        4767        4766
         4        4716        4717        4768        4767
         4        4717        4718        4769        4768
         4        4718        4719        4770        4769
         4        4719        4720        4771        4770
         4        4720        4721        4772        4771
         4        4721        4722        4773        4772
         4        4722        4723        4774        4773
         4        4723        4724        4775        4774
         4        4724        4725        4776        4775
         4        4725        4726        4777        4776
         4        4726        4727        4778        4777
         4        4727        4728        4779        4778
         4        4728        4729        4780        4779
         4        4729        4730        4781        4780
         4        4730        4731        4782        4781
         4        4731        4732        4783        4782
         4        4732        4733        4784        4783
         4        4733        4734        4785        4784
         4        4734        4735        4786        4785
         4        4735        4736        4787        4786
         4        4736        4737        4788        4787
         4        4737        4738        4789        4788
         4        4738        4739        4790        4789
         4        4739        4740        4791        4790
         4        4740        4741        4792        4791
         4        4741        4742        4793        4792
         4        4743        4744        4795        4794
         4        4744        4745        4796        4795
         4        4745        4746        4797        4796
         4        4746        4747        4798        4797
         4        4747        4748        4799        4798
         4        4748        4749        4800        4799
         4        4749        4750        4801        4800
         4        4750        4751        4802        4801
         4        4751        4752        4803        4802
         4        4752        4753        4804        4803
         4        4753        4754        4805        4804
         4        4754        4755        4806        4805
         4        4755        4756        4807        4806
         4        4756        4757        4808        4807
         4        4757        4758        4809        4808
         4        4758        4759        4810        4809
         4        4759        4760        4811        4810
         4        4760        4761        4812        4811
         4        4761        4762        4813        4812
         4        4762        4763        4814        4813
         4        4763        4764        4815        4814
         4        4764        4765        4816        4815
         4        4765        4766        4817        4816
         4        4766        4767        4818        4817
         4        4767        4768        4819        4818
         4        4768        4769        4820        4819
         4        4769        4770        4821        4820
         4        4770        4771        4822        4821
         4        4771        4772        4823        4822
         4        4772        4773        4824        4823
         4        4773        4774        4825        4824
         4        4774        4775        4826        4825
         4        4775        4776        4827        4826
         4        4776        4777        4828        4827
         4        4777        4778        4829        4828
         4        4778        4779        4830        4829
         4        4779        4780        4831        4830
         4        4780        4781        4832        4831
         4        4781        4782        4833        4832
         4        4782        4783        4834        4833
         4        4783        4784        4835        4834
         4        4784        4785        4836        4835
         4        4785        4786        4837        4836
         4        4786        4787        4838        4837
         4        4787        4788        4839        4838
         4        4788        4789        4840        4839
         4        4789        4790        4841        4840
         4        4790        4791        4842        4841
         4        4791        4792        4843        4842
         4        4792        4793        4844        4843
         4        4794        4795        4846        4845
         4        4795        4796        4847        4846
         4        4796        4797        4848        4847
         4        4797        4798        4849        4848
         4        4798        4799        4850        4849
         4        4799        4800        4851        4850
         4        4800        4801        4852        4851
         4        4801        4802        4853        4852
         4        4802        4803        4854        4853
         4        4803        4804        4855        4854
         4        4804        4805        4856        4855
         4        4805        4806        4857        4856
         4        4806        4807        4858        4857
         4        4807        4808        4859        4858
         4        4808        4809        4860        4859
         4        4809        4810        4861        4860
         4        4810        4811        4862        4861
         4        4811        4812        4863        4862
         4        4812        4813        4864        4863
         4        4813        4814        4865        4864
         4        4814        4815        4866        4865
         4        4815        4816        4867        4866
         4        4816        4817        4868        4867
         4        4817        4818        4869        4868
         4        4818        4819        4870        4869
         4        4819        4820        4871        4870
         4        4820        4821        4872        4871
         4        4821        4822        4873        4872
         4        4822        4823        4874        4873
         4        4823        4824        4875        4874
         4        4824        4825        4876        4875
         4        4825        4826        4877        4876
         4        4826        4827        4878        4877
         4        4827        4828        4879        4878
         4        4828        4829        4880        4879
         4        4829        4830        4881        4880
         4        4830        4831        4882        4881
         4        4831        4832        4883        4882
         4        4832        4833        4884        4883
         4        4833        4834        4885        4884
         4        4834        4835        4886        4885
         4        4835        4836        4887        4886
         4        4836        4837        4888        4887
         4        4837        4838        4889        4888
         4        4838        4839        4890        4889
         4        4839        4840        4891        4890
         4        4840        4841        4892        4891
         4        4841        4842        4893        4892
         4        4842        4843        4894        4893
         4        4843        4844        4895        4894
         4        4845        4846        4897        4896
         4        4846        4847        4898        4897
         4        4847        4848        4899        4898
         4        4848        4849        4900        4899
         4        4849        4850        4901        4900
         4        4850        4851        4902        4901
         4        4851        4852        4903        4902
         4        4852        4853        4904        4903
         4        4853        4854        4905        4904
         4        4854        4855        4906        4905
         4        4855        4856        4907        4906
         4        4856        4857        4908        4907
         4        4857        4858        4909        4908
         4        4858        4859        4910        4909
         4        4859        4860        4911        4910
         4        4860        4861        4912        4911
         4        4861        4862        4913        4912
         4        4862        4863        4914        4913
         4        4863        4864        4915        4914
         4        4864        4865        4916        4915
         4        4865        4866        4917        4916
         4        4866        4867        4918        4917
         4        4867        4868        4919        4918
         4        4868        4869        4920        4919
         4        4869        4870        4921        4920
         4        4870        4871        4922        4921
         4        4871        4872        4923        4922
         4        4872        4873        4924        4923
         4        4873        4874        4925        4924
         4        4874        4875        4926        4925
         4        4875        4876        4927        4926
         4        4876        4877        4928        4927
         4        4877        4878        4929        4928
         4        4878        4879        4930        4929
         4        4879        4880        4931        4930
         4        4880        4881        4932        4931
         4        4881        4882        4933        4932
         4        4882        4883        4934        4933
         4        4883        4884        4935        4934
         4        4884        4885        4936        4935
         4        4885        4886        4937        4936
         4        4886        4887        4938        4937
         4        4887        4888        4939        4938
         4        4888        4889        4940        4939
         4        4889        4890        4941        4940
         4        4890        4891        4942        4941
         4        4891        4892        4943        4942
         4        4892        4893        4944        4943
         4        4893        4894        4945        4944
         4        4894        4895        4946        4945
         4        4896        4897        4948        4947
         4        4897        4898        4949        4948
         4        4898        4899        4950        4949
         4        4899        4900        4951        4950
         4        4900        4901        4952        4951
         4        4901        4902        4953        4952
         4        4902        4903        4954        4953
         4        4903        4904        4955        4954
         4        4904        4905        4956        4955
         4        4905        4906        4957        4956
         4        4906        4907        4958        4957
         4        4907        4908        4959        4958
         4        4908        4909        4960        4959
         4        4909        4910        4961        4960
         4        4910        4911        4962        4961
         4        4911        4912        4963        4962
         4        4912        4913        4964        4963
         4        4913        4914        4965        4964
         4        4914        4915        4966        4965
         4        4915        4916        4967        4966
         4        4916        4917        4968        4967
         4        4917        4918        4969        4968
         4        4918        4919        4970        4969
         4        4919        4920        4971        4970
         4        4920        4921        4972        4971
         4        4921        4922        4973        4972
         4        4922        4923        4974        4973
         4        4923        4924        4975        4974
         4        4924        4925        4976        4975
         4        4925        4926        4977        4976
         4        4926        4927        4978        4977
         4        4927        4928        4979        4978
         4        4928        4929        4980        4979
         4        4929        4930        4981        4980
         4        4930        4931        4982        4981
         4        4931        4932        4983        4982
         4        4932        4933        4984        4983
         4        4933        4934        4985        4984
         4        4934        4935        4986        4985
         4        4935        4936        4987        4986
         4        4936        4937        4988        4987
         4        4937        4938        4989        4988
         4        4938        4939        4990        4989
         4        4939        4940        4991        4990
         4        4940        4941        4992        4991
         4        4941        4942        4993        4992
         4        4942        4943        4994        4993
         4        4943        4944        4995        4994
         4        4944        4945        4996        4995
         4        4945        4946        4997        4996
         4        4947        4948        4999        4998
         4        4948        4949        5000        4999
         4        4949        4950        5001        5000
         4        4950        4951        5002        5001
         4        4951        4952        5003        5002
         4        4952        4953        5004        5003
         4        4953        4954        5005        5004
         4        4954        4955        5006        5005
         4        4955        4956        5007        5006
         4        4956        4957        5008        5007
         4        4957        4958        5009        5008
         4        4958        4959        5010        5009
         4        4959        4960        5011        5010
         4        4960        4961        5012        5011
         4        4961        4962        5013        5012
         4        4962        4963        5014        5013
         4        4963        4964        5015        5014
         4        4964        4965        5016        5015
         4        4965        4966        5017        5016
         4        4966        4967        5018        5017
         4        4967        4968        5019        5018
         4        4968        4969        5020        5019
         4        4969        4970        5021        5020
         4        4970        4971        5022        5021
         4        4971        4972        5023        5022
         4        4972        4973        5024        5023
         4        4973        4974        5025        5024
         4        4974        4975        5026        5025
         4        4975        4976        5027        5026
         4        4976        4977        5028        5027
         4        4977        4978        5029        5028
         4        4978        4979        5030        5029
         4        4979        4980        5031        5030
         4        4980        4981        5032        5031
         4        4981        4982        5033        5032
         4        4982        4983        5034        5033
         4        4983        4984        5035        5034
         4        4984        4985        5036        5035
         4        4985        4986        5037        5036
         4        4986        4987        5038        5037
         4        4987        4988        5039        5038
         4        4988        4989        5040        5039
         4        4989        4990        5041        5040
         4        4990        4991        5042        5041
         4        4991        4992        5043        5042
         4        4992        4993        5044        5043
         4        4993        4994        5045        5044
         4        4994        4995        5046        5045
         4        4995        4996        5047        5046
         4        4996        4997        5048        5047
         4        4998        4999        5050        5049
         4        4999        5000        5051        5050
         4        5000        5001        5052        5051
         4        5001        5002        5053        5052
         4        5002        5003        5054        5053
         4        5003        5004        5055        5054
         4        5004        5005        5056        5055
         4        5005        5006        5057        5056
         4        5006        5007        5058        5057
         4        5007        5008        5059        5058
         4        5008        5009        5060        5059
         4        5009        5010        5061        5060
         4        5010        5011        5062        5061
         4        5011        5012        5063        5062
         4        5012        5013        5064        5063
         4        5013        5014        5065        5064
         4        5014        5015        5066        5065
         4        5015        5016        5067        5066
         4        5016        5017        5068        5067
         4        5017        5018        5069        5068
         4        5018        5019        5070        5069
         4        5019        5020        5071        5070
         4        5020        5021        5072        5071
         4        5021        5022        5073        5072
         4        5022        5023        5074        5073
         4        5023        5024        5075        5074
         4        5024        5025        5076        5075
         4        5025        5026        5077        5076
         4        5026        5027        5078        5077
         4        5027        5028        5079        5078
         4        5028        5029        5080        5079
         4        5029        5030        5081        5080
         4        5030        5031        5082        5081
         4        5031        5032        5083        5082
         4        5032        5033        5084        5083
         4        5033        5034        5085        5084
         4        5034        5035        5086        5085
         4        5035        5036        5087        5086
         4        5036        5037        5088        5087
         4        5037        5038        5089        5088
         4        5038        5039        5090        5089
         4        5039        5040        5091        5090
         4        5040        5041        5092        5091
         4        5041        5042        5093        5092
         4        5042        5043        5094        5093
         4        5043        5044        5095        5094
         4        5044        5045        5096        5095
         4        5045        5046        5097        5096
         4        5046        5047        5098        5097
         4        5047        5048        5099        5098
         4        5049        5050        5101        5100
         4        5050        5051        5102        5101
         4        5051        5052        5103        5102
         4        5052        5053        5104        5103
         4        5053        5054        5105        5104
         4        5054        5055        5106        5105
         4        5055        5056        5107        5106
         4        5056        5057        5108        5107
         4        5057        5058        5109        5108
         4        5058        5059        5110        5109
         4        5059        5060        5111        5110
         4        5060        5061        5112        5111
         4        5061        5062        5113        5112
         4        5062        5063        5114        5113
         4        5063        5064        5115        5114
         4        5064        5065        5116        5115
         4        5065        5066        5117        5116
         4        5066        5067        5118        5117
         4        5067        5068        5119        5118
         4        5068        5069        5120        5119
         4        5069        5070        5121        5120
         4        5070        5071        5122        5121
         4        5071        5072        5123        5122
         4        5072        5073        5124        5123
         4        5073        5074        5125        5124
         4        5074        5075        5126        5125
         4        5075        5076        5127        5126
         4        5076        5077        5128        5127
         4        5077        5078        5129        5128
         4        5078        5079        5130        5129
         4        5079        5080        5131        5130
         4        5080        5081        5132        5131
         4        5081        5082        5133        5132
         4        5082        5083        5134        5133
         4        5083        5084        5135        5134
         4        5084        5085        5136        5135
         4        5085        5086        5137        5136
         4        5086        5087        5138        5137
         4        5087        5088        5139        5138
         4        5088        5089        5140        5139
         4        5089        5090        5141        5140
         4        5090        5091        5142        5141
         4        5091        5092        5143        5142
         4        5092        5093        5144        5143
         4        5093        5094        5145        5144
         4        5094        5095        5146        5145
         4        5095        5096        5147        5146
         4        5096        5097        5148        5147
         4        5097        5098        5149        5148
         4        5098        5099        5150        5149
CELL_TYPES       5000
9
9
9
9
9
9
9
9
9
9
9
9
9
9
9
9
9
9
9
9
9
9
9
9
9
9
9
9
9
9
9
9
9
9
9
9
9
9
9
9
9
9
9
9
9
9
9
9
9
9
9
9
9
9
9
9
9
9
9
9
9
9
9
9
9
9
9
9
9
9
9
9
9
9
9
9
9
9
9
9
9
9
9
9
9
9
9
9
9
9
9
9
9
9
9
9
9
9
9
9
9
9
9
9
9
9
9
9
9
9
9
9
9
9
9
9
9
9
9
9
9
9
9
9
9
9
9
9
9
9
9
9
9
9
9
9
9
9
9
9
9
9
9
9
9
9
9
9
9
9
9
9
9
9
9
9
9
9
9
9
9
9
9
9
9
9
9
9
9
9
9
9
9
9
9
9
9
9
9
9
9
9
9
9
9
9
9
9
9
9
9
9
9
9
9
9
9
9
9
9
9
9
9
9
9
9
9
9
9
9
9
9
9
9
9
9
9
9
9
9
9
9
9
9
9
9
9
9
9
9
9
9
9
9
9
9
9
9
9
9
9
9
9
9
9
9
9
9
9
9
9
9
9
9
9
9
9
9
9
9
9
9
9
9
9
9
9
9
9
9
9
9
9
9
9
9
9
9
9
9
9
9
9
9
9
9
9
9
9
9
9
9
9
9
9
9
9
9
9
9
9
9
9
9
9
9
9
9
9
9
9
9
9
9
9
9
9
9
9
9
9
9
9
9
9
9
9
9
9
9
9
9
9
9
9
9
9
9
9
9
9
9
9
9
9
9
9
9
9
9
9
9
9
9
9
9
9
9
9
9
9
9
9
9
9
9
9
9
9
9
9
9
9
9
9
9
9
9
9
9
9
9
9
9
9
9
9
9
9
9
9
9
9
9
9
9
9
9
9
9
9
9
9
9
9
9
9
9
9
9
9
9
9
9
9
9
9
9
9
9
9
9
9
9
9
9
9
9
9
9
9
9
9
9
9
9
9
9
9
9
9
9
9
9
9
9
9
9
9
9
9
9
9
9
9
9
9
9
9
9
9
9
9
9
9
9
9
9
9
9
9
9
9
9
9
9
9
9
9
9
9
9
9
9
9
9
9
9
9
9
9
9
9
9
9
9
9
9
9
9
9
9
9
9
9
9
9
9
9
9
9
9
9
9
9
9
9
9
9
9
9
9
9
9
9
9
9
9
9
9
9
9
9
9
9
9
9
9
9
9
9
9
9
9
9
9
9
9
9
9
9
9
9
9
9
9
9
9
9
9
9
9
9
9
9
9
9
9
9
9
9
9
9
9
9
9
9
9
9
9
9
9
9
9
9
9
9
9
9
9
9
9
9
9
9
9
9
9
9
9
9
9
9
9
9
9
9
9
9
9
9
9
9
9
9
9
9
9
9
9
9
9
9
9
9
9
9
9
9
9
9
9
9
9
9
9
9
9
9
9
9
9
9
9
9
9
9
9
9
9
9
9
9
9
9
9
9
9
9
9
9
9
9
9
9
9
9
9
9
9
9
9
9
9
9
9
9
9
9
9
9
9
9
9
9
9
9
9
9
9
9
9
9
9
9
9
9
9
9
9
9
9
9
9
9
9
9
9
9
9
9
9
9
9
9
9
9
9
9
9
9
9
9
9
9
9
9
9
9
9
9
9
9
9
9
9
9
9
9
9
9
9
9
9
9
9
9
9
9
9
9
9
9
9
9
9
9
9
9
9
9
9
9
9
9
9
9
9
9
9
9
9
9
9
9
9
9
9
9
9
9
9
9
9
9
9
9
9
9
9
9
9
9
9
9
9
9
9
9
9
9
9
9
9
9
9
9
9
9
9
9
9
9
9
9
9
9
9
9
9
9
9
9
9
9
9
9
9
9
9
9
9
9
9
9
9
9
9
9
9
9
9
9
9
9
9
9
9
9
9
9
9
9
9
9
9
9
9
9
9
9
9
9
9
9
9
9
9
9
9
9
9
9
9
9
9
9
9
9
9
9
9
9
9
9
9
9
9
9
9
9
9
9
9
9
9
9
9
9
9
9
9
9
9
9
9
9
9
9
9
9
9
9
9
9
9
9
9
9
9
9
9
9
9
9
9
9
9
9
9
9
9
9
9
9
9
9
9
9
9
9
9
9
9
9
9
9
9
9
9
9
9
9
9
9
9
9
9
9
9
9
9
9
9
9
9
9
9
9
9
9
9
9
9
9
9
9
9
9
9
9
9
9
9
9
9
9
9
9
9
9
9
9
9
9
9
9
9
9
9
9
9
9
9
9
9
9
9
9
9
9
9
9
9
9
9
9
9
9
9
9
9
9
9
9
9
9
9
9
9
9
9
9
9
9
9
9
9
9
9
9
9
9
9
9
9
9
9
9
9
9
9
9
9
9
9
9
9
9
9
9
9
9
9
9
9
9
9
9
9
9
9
9
9
9
9
9
9
9
9
9
9
9
9
9
9
9
9
9
9
9
9
9
9
9
9
9
9
9
9
9
9
9
9
9
9
9
9
9
9
9
9
9
9
9
9
9
9
9
9
9
9
9
9
9
9
9
9
9
9
9
9
9
9
9
9
9
9
9
9
9
9
9
9
9
9
9
9
9
9
9
9
9
9
9
9
9
9
9
9
9
9
9
9
9
9
9
9
9
9
9
9
9
9
9
9
9
9
9
9
9
9
9
9
9
9
9
9
9
9
9
9
9
9
9
9
9
9
9
9
9
9
9
9
9
9
9
9
9
9
9
9
9
9
9
9
9
9
9
9
9
9
9
9
9
9
9
9
9
9
9
9
9
9
9
9
9
9
9
9
9
9
9
9
9
9
9
9
9
9
9
9
9
9
9
9
9
9
9
9
9
9
9
9
9
9
9
9
9
9
9
9
9
9
9
9
9
9
9
9
9
9
9
9
9
9
9
9
9
9
9
9
9
9
9
9
9
9
9
9
9
9
9
9
9
9
9
9
9
9
9
9
9
9
9
9
9
9
9
9
9
9
9
9
9
9
9
9
9
9
9
9
9
9
9
9
9
9
9
9
9
9
9
9
9
9
9
9
9
9
9
9
9
9
9
9
9
9
9
9
9
9
9
9
9
9
9
9
9
9
9
9
9
9
9
9
9
9
9
9
9
9
9
9
9
9
9
9
9
9
9
9
9
9
9
9
9
9
9
9
9
9
9
9
9
9
9
9
9
9
9
9
9
9
9
9
9
9
9
9
9
9
9
9
9
9
9
9
9
9
9
9
9
9
9
9
9
9
9
9
9
9
9
9
9
9
9
9
9
9
9
9
9
9
9
9
9
9
9
9
9
9
9
9
9
9
9
9
9
9
9
9
9
9
9
9
9
9
9
9
9
9
9
9
9
9
9
9
9
9
9
9
9
9
9
9
9
9
9
9
9
9
9
9
9
9
9
9
9
9
9
9
9
9
9
9
9
9
9
9
9
9
9
9
9
9
9
9
9
9
9
9
9
9
9
9
9
9
9
9
9
9
9
9
9
9
9
9
9
9
9
9
9
9
9
9
9
9
9
9
9
9
9
9
9
9
9
9
9
9
9
9
9
9
9
9
9
9
9
9
9
9
9
9
9
9
9
9
9
9
9
9
9
9
9
9
9
9
9
9
9
9
9
9
9
9
9
9
9
9
9
9
9
9
9
9
9
9
9
9
9
9
9
9
9
9
9
9
9
9
9
9
9
9
9
9
9
9
9
9
9
9
9
9
9
9
9
9
9
9
9
9
9
9
9
9
9
9
9
9
9
9
9
9
9
9
9
9
9
9
9
9
9
9
9
9
9
9
9
9
9
9
9
9
9
9
9
9
9
9
9
9
9
9
9
9
9
9
9
9
9
9
9
9
9
9
9
9
9
9
9
9
9
9
9
9
9
9
9
9
9
9
9
9
9
9
9
9
9
9
9
9
9
9
9
9
9
9
9
9
9
9
9
9
9
9
9
9
9
9
9
9
9
9
9
9
9
9
9
9
9
9
9
9
9
9
9
9
9
9
9
9
9
9
9
9
9
9
9
9
9
9
9
9
9
9
9
9
9
9
9
9
9
9
9
9
9
9
9
9
9
9
9
9
9
9
9
9
9
9
9
9
9
9
9
9
9
9
9
9
9
9
9
9
9
9
9
9
9
9
9
9
9
9
9
9
9
9
9
9
9
9
9
9
9
9
9
9
9
9
9
9
9
9
9
9
9
9
9
9
9
9
9
9
9
9
9
9
9
9
9
9
9
9
9
9
9
9
9
9
9
9
9
9
9
9
9
9
9
9
9
9
9
9
9
9
9
9
9
9
9
9
9
9
9
9
9
9
9
9
9
9
9
9
9
9
9
9
9
9
9
9
9
9
9
9
9
9
9
9
9
9
9
9
9
9
9
9
9
9
9
9
9
9
9
9
9
9
9
9
9
9
9
9
9
9
9
9
9
9
9
9
9
9
9
9
9
9
9
9
9
9
9
9
9
9
9
9
9
9
9
9
9
9
9
9
9
9
9
9
9
9
9
9
9
9
9
9
9
9
9
9
9
9
9
9
9
9
9
9
9
9
9
9
9
9
9
9
9
9
9
9
9
9
9
9
9
9
9
9
9
9
9
9
9
9
9
9
9
9
9
9
9
9
9
9
9
9
9
9
9
9
9
9
9
9
9
9
9
9
9
9
9
9
9
9
9
9
9
9
9
9
9
9
9
9
9
9
9
9
9
9
9
9
9
9
9
9
9
9
9
9
9
9
9
9
9
9
9
9
9
9
9
9
9
9
9
9
9
9
9
9
9
9
9
9
9
9
9
9
9
9
9
9
9
9
9
9
9
9
9
9
9
9
9
9
9
9
9
9
9
9
9
9
9
9
9
9
9
9
9
9
9
9
9
9
9
9
9
9
9
9
9
9
9
9
9
9
9
9
9
9
9
9
9
9
9
9
9
9
9
9
9
9
9
9
9
9
9
9
9
9
9
9
9
9
9
9
9
9
9
9
9
9
9
9
9
9
9
9
9
9
9
9
9
9
9
9
9
9
9
9
9
9
9
9
9
9
9
9
9
9
9
9
9
9
9
9
9
9
9
9
9
9
9
9
9
9
9
9
9
9
9
9
9
9
9
9
9
9
9
9
9
9
9
9
9
9
9
9
9
9
9
9
9
9
9
9
9
9
9
9
9
9
9
9
9
9
9
9
9
9
9
9
9
9
9
9
9
9
9
9
9
9
9
9
9
9
9
9
9
9
9
9
9
9
9
9
9
9
9
9
9
9
9
9
9
9
9
9
9
9
9
9
9
9
9
9
9
9
9
9
9
9
9
9
9
9
9
9
9
9
9
9
9
9
9
9
9
9
9
9
9
9
9
9
9
9
9
9
9
9
9
9
9
9
9
9
9
9
9
9
9
9
9
9
9
9
9
9
9
9
9
9
9
9
9
9
9
9
9
9
9
9
9
9
9
9
9
9
9
9
9
9
9
9
9
9
9
9
9
9
9
9
9
9
9
9
9
9
9
9
9
9
9
9
9
9
9
9
9
9
9
9
9
9
9
9
9
9
9
9
9
9
9
9
9
9
9
9
9
9
9
9
9
9
9
9
9
9
9
9
9
9
9
9
9
9
9
9
9
9
9
9
9
9
9
9
9
9
9
9
9
9
9
9
9
9
9
9
9
9
9
9
9
9
9
9
9
9
9
9
9
9
9
9
9
9
9
9
9
9
9
9
9
9
9
9
9
9
9
9
9
9
9
9
9
9
9
9
9
9
9
9
9
9
9
9
9
9
9
9
9
9
9
9
9
9
9
9
9
9
9
9
9
9
9
9
9
9
9
9
9
9
9
9
9
9
9
9
9
9
9
9
9
9
9
9
9
9
9
9
9
9
9
9
9
9
9
9
9
9
9
9
9
9
9
9
9
9
9
9
9
9
9
9
9
9
9
9
9
9
9
9
9
9
9
9
9
9
9
9
9
9
9
9
9
9
9
9
9
9
9
9
9
9
9
9
9
9
9
9
9
9
9
9
9
9
9
9
9
9
9
9
9
9
9
9
9
9
9
9
9
9
9
9
9
9
9
9
9
9
9
9
9
9
9
9
9
9
9
9
9
9
9
9
9
9
9
9
9
9
9
9
9
9
9
9
9
9
9
9
9
9
9
9
9
9
9
9
9
9
9
9
9
9
9
9
9
9
9
9
9
9
9
9
9
9
9
9
9
9
9
9
9
9
9
9
9
9
9
9
9
9
9
9
9
9
9
9
9
9
9
9
9
9
9
9
9
9
9
9
9
9
9
9
9
9
9
9
9
9
9
9
9
9
9
9
9
9
9
9
9
9
9
9
9
9
9
9
9
9
9
9
9
9
9
9
9
9
9
9
9
9
9
9
9
9
9
9
9
9
9
9
9
9
9
9
9
9
9
9
9
9
9
9
9
9
9
9
9
9
9
9
9
9
9
9
9
9
9
9
9
9
9
9
9
9
9
9
9
9
9
9
9
9
9
9
9
9
9
9
9
9
9
9
9
9
9
9
9
9
9
9
9
9
9
9
9
9
9
9
9
9
9
9
9
9
9
9
9
9
9
9
9
9
9
9
9
9
9
9
9
9
9
9
9
9
9
9
9
9
9
9
9
9
9
9
9
9
9
9
9
9
9
9
9
9
9
9
9
9
9
9
9
9
9
9
9
9
9
9
9
9
9
9
9
9
9
9
9
9
9
9
9
9
9
9
9
9
9
9
9
9
9
9
9
9
9
9
9
9
9
9
9
9
9
9
9
9
9
9
9
9
9
9
9
9
9
9
9
9
9
9
9
9
9
9
9
9
9
9
9
9
9
9
9
9
9
9
9
9
9
9
9
9
9
9
9
9
9
9
9
9
9
9
9
9
9
9
9
9
9
9
9
9
9
9
9
9
9
9
9
9
9
9
9
9
9
9
9
9
9
9
9
9
9
9
9
9
9
9
9
9
9
9
9
9
9
9
9
9
9
9
9
9
9
9
9
9
9
9
9
9
9
9
9
9
9
9
9
9
9
9
9
9
9
9
9
9
9
9
9
9
9
9
9
9
9
9
9
9
9
9
9
9
9
9
9
9
9
9
9
9
9
9
9
9
9
9
9
9
9
9
9
9
9
9
9
9
9
9
9
9
9
9
9
9
9
9
9
9
9
9
9
9
9
9
9
9
9
9
9
9
9
9
9
9
9
9
9
9
9
9
9
9
9
9
9
9
9
9
9
9
9
9
9
9
9
9
9
9
9
9
9
9
9
9
9
9
9
9
9
9
9
9
9
9
9
9
9
9
9
9
9
9
9
9
9
9
9
9
9
9
9
9
9
9
9
9
9
9
9
9
9
9
9
9
9
9
9
9
9
9
9
9
9
9
9
9
9
9
9
9
9
9
9
9
9
9
9
9
9
9
9
9
9
9
9
9
9
9
9
9
9
9
9
9
9
9
9
9
9
9
9
9
9
9
9
9
9
9
9
9
9
9
9
9
9
9
9
9
9
9
9
9
9
9
9
9
9
9
9
9
9
9
9
9
9
9
9
9
9
9
9
9
9
9
9
9
9
9
9
9
9
9
9
9
9
9
9
9
9
9
9
9
9
9
9
9
9
9
9
9
9
9
9
9
9
9
9
9
9
9
9
9
9
9
9
9
9
9
9
9
9
9
9
9
9
9
9
9
9
9
9
9
9
9
9
9
9
9
9
9
9
9
9
9
9
9
9
9
9
9
9
9
9
9
9
9
9
9
9
9
9
9
9
9
9
9
9
9
9
9
9
9
9
9
9
9
9
9
9
9
9
9
9
9
9
9
9
9
9
9
9
9
9
9
9
9
9
9
9
9
9
9
9
9
9
9
9
9
9
9
9
9
9
9
9
9
9
9
9
9
9
9
9
9
9
9
9
9
9
9
9
9
9
9
9
9
9
9
9
9
9
9
9
9
9
9
9
9
9
9
9
9
9
9
9
9
9
9
9
9
9
9
9
9
9
9
9
9
9
9
9
9
9
9
9
9
9
9
9
9
9
9
9
9
9
9
9
9
9
9
9
9
9
9
9
9
9
9
9
9
9
9
9
9
9
9
9
9
9
9
9
9
9
9
9
9
9
9
9
9
9
9
9
9
9
9
9
9
9
9
9
9
9
9
9
9
9
9
9
9
9
9
9
9
9
9
9
9
9
9
9
9
9
9
9
9
9
9
9
9
9
9
9
9
9
9
9
9
9
9
9
9
9
9
9
9
9
9
9
9
9
9
9
9
9
9
9
9
9
9
9
9
9
9
9
9
9
9
9
9
9
9
9
9
9
9
9
9
9
9
9
9
9
9
9
9
9
9
9
9
9
9
9
9
9
9
9
9
9
9
9
9
9
9
9
9
9
9
9
9
9
9
9
9
9
9
9
9
9
9
9
9
9
9
9
9
9
9
9
9
9
9
9
9
9
9
9
9
9
9
9
9
9
9
9
9
9
9
9
9
9
9
9
9
9
9
9
9
9
9
9
9
9
9
9
9
9
9
9
9
9
9
9
9
9
9
9
9
9
9
9
9
9
9
9
9
9
9
9
9
9
9
9
9
9
9
9
9
9
9
9
9
9
9
9
9
9
9
9
9
9
9
9
9
9
9
9
9
9
9
9
9
9
9
9
9
9
9
9
9
9
9
9
9
9
9
9
9
9
9
9
9
9
9
9
9
9
9
9
9
9
9
9
9
9
9
9
9
9
9
9
9
9
9
9
9
9
9
9
9
9
9
9
9
9
9
9
9
9
9
9
9
9
9
9
9
9
9
9
9
9
9
9
9
9
9
9
9
9
9
9
9
9
9
9
9
9
9
9
9
9
9
9
9
9
9
9
9
9
9
9
9
9
9
9
9
9
9
9
9
9
9
9
9
9
9
9
9
9
9
9
9
9
9
9
9
9
9
9
9
9
9
9
9
9
9
9
9
9
9
9
9
9
9
9
9
9
9
9
9
9
9
9
9
9
9
9
9
9
9
9
9
9
9
9
9
9
9
9
9
9
9
9
9
9
9
9
9
9
9
9
9
9
9
9
9
9
9
9
9
9
9
9
9
9
9
9
9
9
9
9
9
9
9
9
9
9
9
9
9
9
9
9
9
9
9
9
9
9
9
9
9
9
9
9
9
9
9
9
9
9
9
9
9
9
9
9
9
9
9
9
9
9
9
9
9
9
9
9
9
9
9
9
9
9
9
9
9
9
9
9
9
9
9
9
9
9
9
9
9
9
9
9
9
9
9
9
9
9
9
9
9
9
9
9
9
9
9
9
9
9
9
9
9
9
9
9
9
9
9
9
9
9
9
9
9
9
9
9
9
9
9
9
9
9
9
9
9
9
9
9
9
9
9
9
9
9
9
9
9
9
9
9
9
9
9
9
9
9
9
9
9
9
9
9
9
9
9
9
9
9
9
9
9
9
9
9
9
9
9
9
9
9
9
9
9
9
9
9
9
9
9
9
9
9
9
9
9
9
9
9
9
9
9
9
9
9
9
9
9
9
9
9
9
9
9
9
9
9
9
9
9
9
9
9
9
9
9
9
9
9
9
9
9
9
9
9
9
9
9
9
9
9
9
9
9
9
9
9
9
9
9
9
9
9
9
9
9
9
9
9
9
9
9
9
9
9
9
9
9
9
9
9
9
9
9
9
9
9
9
9
9
9
9
9
9
9
9
9
9
9
9
9
9
9
9
9
9
9
9
9
9
9
9
9
9
9
9
9
9
9
9
9
9
9
9
9
9
9
9
9
9
9
9
9
9
9
9
9
9
9
9
9
9
9
9
9
9
9
9
9
9
9
9
9
9
9
9
9
9
9
9
9
9
9
9
9
9
9
9
9
9
9
9
9
9
9
9
9
9
9
9
9
9
9
9
9
9
9
9
9
9
9
9
9
9
9
9
9
9
9
9
9
9
9
9
9
9
9
9
9
9
9
9
9
9
9
9
9
9
9
9
9
9
9
9
9
9
9
9
9
9
9
9
9
9
9
9
9
9
9
9
9
9
9
9
9
9
9
9
9
9
9
9
9
9
9
9
9
9
9
9
9
9
9
9
9
9
9
9
9
9
9
9
9
9
9
9
9
9
9
9
9
9
9
9
9
9
9
9
9
9
9
9
9
9
9
9
9
9
9
9
9
9
9
9
9
9
9
9
9
9
9
9
9
9
9
9
9
9
9
9
9
9
9
9
9
9
9
9
9
9
9
9
9
9
9
9
9
9
9
9
9
9
9
9
9
9
9
9
9
9
9
9
9
9
9
9
9
9
9
9
9
9
9
9
9
9
9
9
9
9
9
9
9
9
9
9
9
9
9
9
9
9
9
9
9
9
9
9
9
9
9
9
9
9
9
9
9
9
9
9
9
9
9
9
9
9
9
9
9
9
9
9
9
9
9
9
9
9
9
9
9
9
9
9
9
9
9
9
9
9
9
9
9
9
9
9
9
9
9
9
9
9
9
9
9
9
9
9
9
9
9
9
9
9
9
9
9
9
9
9
9
9
9
9
9
9
9
9
9
9
9
9
9
9
9
9
9
9
9
9
9
9
9
9
9
9
9
9
9
9
9
9
9
9
9
9
9
9
9
9
9
9
9
9
9
9
9
9
9
9
9
9
9
9
9
9
9
9
9
9
9
9
9
9
9
9
9
9
9
9
9
9
9
9
9
9
9
9
9
9
9
9
9
9
9
9
9
9
9
9
9
9
9
9
9
9
9
9
9
9
9
9
9
9
9
9
9
9
9
9
9
9
9
9
9
9
9
9
9
9
9
9
9
9
9
9
9
9
9
9
9
9
9
9
9
9
9
9
9
9
9
9
9
9
9
9
9
9
9
9
9
9
9
9
9
9
9
9
9
9
9
9
9
9
9
9
9
9
9
9
9
9
9
9
9
9
9
9
9
9
9
9
9
9
9
9
9
9
9
9
9
9
9
9
9
9
9
9
9
9
9
9
9
9
9
9
9
9
9
9
9
9
9
9
9
9
9
9
9
9
9
9
9
9
9
9
9
9
9
9
9
9
9
9
9
9
9
9
9
9
9
9
9
9
9
9
9
9
9
9
9
9
9
9
9
9
9
9
9
9
9
9
9
9
9
9
9
9
9
9
9
9
9
9
9
9
9
9
9
9
9
9
9
9
9
9
9
9
9
9
9
9
9
9
9
9
9
9
9
9
9
9
9
9
9
9
9
9
9
9
9
9
9
9
9
9
9
9
9
9
9
9
9
9
9
9
9
9
9
9
9
9
9
9
9
9
9
9
9
9
9
9
9
9
9
9
9
9
9
9
9
9
9
9
POINT_DATA      5151
SCALARS p double 
LOOKUP_TABLE default
   70000000.0000000     
   70000000.0000000     
   70000000.0000000     
   70000000.0000000     
   70000000.0000000     
   70000000.0000000     
   70000000.0000000     
   70000000.0000000     
   70000000.0000000     
   70000000.0000000     
   70000000.0000000     
   70000000.0000000     
   70000000.0000000     
   70000000.0000000     
   70000000.0000000     
   70000000.0000000     
   70000000.0000000     
   70000000.0000000     
   70000000.0000000     
   70000000.0000000     
   70000000.0000000     
   70000000.0000000     
   70000000.0000000     
   70000000.0000000     
   70000000.0000000     
   70000000.0000000     
   70000000.0000000     
   70000000.0000000     
   70000000.0000000     
   70000000.0000000     
   70000000.0000000     
   70000000.0000000     
   70000000.0000000     
   70000000.0000000     
   70000000.0000000     
   70000000.0000000     
   70000000.0000000     
   70000000.0000000     
   70000000.0000000     
   70000000.0000000     
   70000000.0000000     
   70000000.0000000     
   70000000.0000000     
   70000000.0000000     
   70000000.0000000     
   70000000.0000000     
   70000000.0000000     
   70000000.0000000     
   70000000.0000000     
   70000000.0000000     
   70000000.0000000     
   69484559.3126921     
   69484540.1024865     
   69484488.2936214     
   69484410.9135492     
   69484313.3183812     
   69484199.6637472     
   69484073.2259934     
   69483936.6253416     
   69483791.9838046     
   69483641.0389566     
   69483485.2273320     
   69483325.7465793     
   69483163.6025123     
   69482999.6452568     
   69482834.5974069     
   69482669.0762439     
   69482503.6114856     
   69482338.6596300     
   69482174.6156752     
   69482011.8227979     
   69481850.5804298     
   69481691.1510674     
   69481533.7660746     
   69481378.6306824     
   69481225.9283473     
   69481075.8245991     
   69480928.4704883     
   69480784.0057205     
   69480642.5615612     
   69480504.2635777     
   69480369.2342876     
   69480237.5957762     
   69480109.4723501     
   69479984.9932982     
   69479864.2958424     
   69479747.5283702     
   69479634.8540707     
   69479526.4551192     
   69479422.5376036     
   69479323.3374491     
   69479229.1276897     
   69479140.2275661     
   69479057.0141321     
   69478979.9373460     
   69478909.5400752     
   69478846.4851426     
   69478791.5926341     
   69478745.8924225     
   69478710.6996341     
   69478687.7252681     
   69478679.2414233     
   68966113.5197156     
   68966093.6653689     
   68966036.8068590     
   68965947.1576931     
   68965828.8604053     
   68965685.7910844     
   68965521.4792182     
   68965339.0887219     
   68965141.4300459     
   68964930.9867678     
   68964709.9476756     
   68964480.2396071     
   68964243.5586869     
   68964001.3989134     
   68963755.0777534     
   68963505.7587740     
   68963254.4715144     
   68963002.1288801     
   68962749.5423582     
   68962497.4353415     
   68962246.4548277     
   68961997.1817324     
   68961750.1400249     
   68961505.8048716     
   68961264.6099458     
   68961026.9540472     
   68960793.2071521     
   68960563.7160085     
   68960338.8093719     
   68960118.8029781     
   68959904.0043354     
   68959694.7174227     
   68959491.2473733     
   68959293.9052293     
   68959103.0128519     
   68958918.9080792     
   68958741.9502279     
   68958572.5260440     
   68958411.0562109     
   68958258.0025278     
   68958113.8758614     
   68957979.2449507     
   68957854.7460764     
   68957741.0934798     
   68957639.0901484     
   68957549.6380977     
   68957473.7463630     
   68957412.5332417     
   68957367.2162860     
   68957339.0780426     
   68957329.3856033     
   68445737.5927499     
   68445718.9150559     
   68445665.1168098     
   68445579.3886601     
   68445464.7731372     
   68445324.1866125     
   68445160.4111729     
   68444976.0797399     
   68444773.6637398     
   68444555.4661621     
   68444323.6200681     
   68444080.0915928     
   68443826.6862562     
   68443565.0574977     
   68443296.7165530     
   68443023.0430070     
   68442745.2955458     
   68442464.6225819     
   68442182.0725396     
   68441898.6036766     
   68441615.0933745     
   68441332.3468756     
   68441051.1054716     
   68440772.0541692     
   68440495.8288692     
   68440223.0231036     
   68439954.1943781     
   68439689.8701692     
   68439430.5536269     
   68439176.7290282     
   68438928.8670297     
   68438687.4297619     
   68438452.8758035     
   68438225.6650704     
   68438006.2636476     
   68437795.1485820     
   68437592.8126408     
   68437399.7690264     
   68437216.5560102     
   68437043.7414170     
   68436881.9268469     
   68436731.7514622     
   68436593.8950922     
   68436469.0803269     
   68436358.0731854     
   68436261.6819135     
   68436180.7535619     
   68436116.1684475     
   68436068.8338258     
   68436039.6809977     
   68436029.6764487     
   67924291.6666090     
   67924275.8191090     
   67924229.7551515     
   67924155.6953960     
   67924055.8335536     
   67923932.3140028     
   67923787.2200844     
   67923622.5657055     
   67923440.2882399     
   67923242.2425373     
   67923030.1962892     
   67922805.8269527     
   67922570.7202826     
   67922326.3703805     
   67922074.1810830     
   67921815.4684716     
   67921551.4642750     
   67921283.3199527     
   67921012.1112704     
   67920738.8432092     
   67920464.4550759     
   67920189.8257151     
   67919915.7787418     
   67919643.0877358     
   67919372.4813564     
   67919104.6483465     
   67918840.2424087     
   67918579.8869401     
   67918324.1796189     
   67918073.6968406     
   67917828.9980000     
   67917590.6296156     
   67917359.1292935     
   67917135.0295195     
   67916918.8612659     
   67916711.1573931     
   67916512.4558138     
   67916323.3023818     
   67916144.2534550     
   67915975.8780702     
   67915818.7596636     
   67915673.4972612     
   67915540.7060781     
   67915421.0174780     
   67915315.0782983     
   67915223.5496016     
   67915147.1049974     
   67915086.4286915     
   67915042.2132048     
   67915015.1557866     
   67915005.9498366     
   67402549.3068277     
   67402536.9211332     
   67402500.7222452     
   67402442.1535010     
   67402362.6660539     
   67402263.7108983     
   67402146.7295031     
   67402013.1452379     
   67401864.3559939     
   67401701.7279455     
   67401526.5903449     
   67401340.2312777     
   67401143.8943339     
   67400938.7761589     
   67400726.0248398     
   67400506.7390684     
   67400281.9680144     
   67400052.7118285     
   67399819.9226922     
   67399584.5063346     
   67399347.3239341     
   67399109.1943325     
   67398870.8964926     
   67398633.1721413     
   67398396.7285439     
   67398162.2413630     
   67397930.3575632     
   67397701.6983262     
   67397476.8619445     
   67397256.4266671     
   67397040.9534718     
   67396830.9887397     
   67396627.0668089     
   67396429.7123837     
   67396239.4427761     
   67396056.7699538     
   67395882.2023696     
   67395716.2465474     
   67395559.4083972     
   67395412.1942372     
   67395275.1115035     
   67395148.6691296     
   67395033.3775900     
   67394929.7486030     
   67394838.2944910     
   67394759.5271884     
   67394693.9568678     
   67394642.0901234     
   67394604.4276742     
   67394581.4617845     
   67394573.6745824     
   66881225.8293395     
   66881217.1946527     
   66881191.7952994     
   66881150.4197117     
   66881093.8916899     
   66881023.0620925     
   66880938.8015556     
   66880841.9937228     
   66880733.5289757     
   66880614.2987259     
   66880485.1903078     
   66880347.0824821     
   66880200.8415411     
   66880047.3180011     
   66879887.3438560     
   66879721.7303685     
   66879551.2663656     
   66879376.7170054     
   66879198.8229772     
   66879018.3000955     
   66878835.8392448     
   66878652.1066354     
   66878467.7443269     
   66878283.3709798     
   66878099.5827952     
   66877916.9546064     
   66877736.0410874     
   66877557.3780437     
   66877381.4837567     
   66877208.8603524     
   66877039.9951656     
   66876875.3620765     
   66876715.4227945     
   66876560.6280669     
   66876411.4187922     
   66876268.2270176     
   66876131.4768037     
   66876001.5849389     
   66875878.9614915     
   66875764.0101861     
   66875657.1285943     
   66875558.7081338     
   66875469.1338692     
   66875388.7841105     
   66875318.0298097     
   66875257.2337568     
   66875206.7495914     
   66875166.9206622     
   66875138.0787849     
   66875120.5429125     
   66875114.6174269     
   66360991.7610136     
   66360986.9139998     
   66360972.5013669     
   66360948.7568693     
   66360915.9655178     
   66360874.4571348     
   66360824.6001285     
   66360766.7956408     
   66360701.4720814     
   66360629.0800456     
   66360550.0876180     
   66360464.9760692     
   66360374.2359443     
   66360278.3635424     
   66360177.8577796     
   66360073.2174235     
   66359964.9386876     
   66359853.5131661     
   66359739.4260916     
   66359623.1548948     
   66359505.1680422     
   66359385.9241302     
   66359265.8712088     
   66359145.4463117     
   66359025.0751669     
   66358905.1720628     
   66358786.1398458     
   66358668.3700252     
   66358552.2429620     
   66358438.1281201     
   66358326.3843592     
   66358217.3602482     
   66358111.3943820     
   66358008.8156825     
   66357909.9436705     
   66357815.0886919     
   66357724.5520850     
   66357638.6262802     
   66357557.5948197     
   66357481.7322903     
   66357411.3041635     
   66357346.5665380     
   66357287.7657831     
   66357235.1380829     
   66357188.9088847     
   66357149.2922562     
   66357116.4901599     
   66357090.6916467     
   66357072.0719687     
   66357060.7916121     
   66357056.9953424     
   65842478.7007089     
   65842477.5299358     
   65842473.8270850     
   65842467.3546146     
   65842457.9358908     
   65842445.4496953     
   65842429.8249818     
   65842411.0358618     
   65842389.0968343     
   65842364.0582709     
   65842336.0021631     
   65842305.0381350     
   65842271.2997240     
   65842234.9409284     
   65842196.1330201     
   65842155.0616169     
   65842111.9240107     
   65842066.9267405     
   65842020.2834022     
   65841972.2126836     
   65841922.9366124     
   65841872.6790027     
   65841821.6640875     
   65841770.1153204     
   65841718.2543320     
   65841666.3000257     
   65841614.4677958     
   65841562.9688541     
   65841512.0096485     
   65841461.7913586     
   65841412.5094541     
   65841364.3533023     
   65841317.5058118     
   65841272.1430997     
   65841228.4341715     
   65841186.5406036     
   65841146.6162192     
   65841108.8067486     
   65841073.2494695     
   65841040.0728196     
   65841009.3959787     
   65840981.3284170     
   65840955.9694087     
   65840933.4075107     
   65840913.7200071     
   65840896.9723232     
   65840883.2174110     
   65840872.4951138     
   65840864.8315178     
   65840860.2383069     
   65840858.7121109     
   65326281.9397288     
   65326284.2391442     
   65326290.6776904     
   65326300.6174673     
   65326313.4866734     
   65326328.7749680     
   65326346.0289787     
   65326364.8479701     
   65326384.8796802     
   65326405.8163305     
   65326427.3908128     
   65326449.3730593     
   65326471.5665972     
   65326493.8052881     
   65326515.9502544     
   65326537.8869892     
   65326559.5226472     
   65326580.7835147     
   65326601.6126521     
   65326621.9677035     
   65326641.8188667     
   65326661.1470171     
   65326679.9419757     
   65326698.2009133     
   65326715.9268825     
   65326733.1274668     
   65326749.8135378     
   65326765.9981111     
   65326781.6952903     
   65326796.9192903     
   65326811.6835312     
   65326825.9997912     
   65326839.8774141     
   65326853.3225592     
   65326866.3374887     
   65326878.9198852     
   65326891.0621923     
   65326902.7509743     
   65326913.9662891     
   65326924.6810720     
   65326934.8605249     
   65326944.4615129     
   65326953.4319628     
   65326961.7102663     
   65326969.2246872     
   65326975.8927747     
   65326981.6207850     
   65326986.3031144     
   65326989.8217481     
   65326992.0457255     
   65326992.8306321     
   64812961.2880455     
   64812966.7957553     
   64812982.6322073     
   64813007.8203547     
   64813041.4514151     
   64813082.6809228     
   64813130.7248798     
   64813184.8560127     
   64813244.4001406     
   64813308.7326593     
   64813377.2751488     
   64813449.4921037     
   64813524.8877928     
   64813603.0032476     
   64813683.4133817     
   64813765.7242419     
   64813849.5703882     
   64813934.6124048     
   64814020.5345366     
   64814107.0424505     
   64814193.8611186     
   64814280.7328169     
   64814367.4152379     
   64814453.6797110     
   64814539.3095255     
   64814624.0983507     
   64814707.8487482     
   64814790.3707696     
   64814871.4806351     
   64814950.9994859     
   64815028.7522053     
   64815104.5663029     
   64815178.2708565     
   64815249.6955066     
   64815318.6694988     
   64815385.0207692     
   64815448.5750701     
   64815509.1551303     
   64815566.5798495     
   64815620.6635220     
   64815671.2150889     
   64815718.0374169     
   64815760.9266037     
   64815799.6713068     
   64815834.0521003     
   64815863.8408561     
   64815888.8001533     
   64815908.6827166     
   64815923.2308859     
   64815932.1761210     
   64815935.2385435     
   64303040.9124556     
   64303049.3365095     
   64303073.7314593     
   64303112.8342611     
   64303165.4502500     
   64303230.4497751     
   64303306.7648942     
   64303393.3861366     
   64303489.3593391     
   64303593.7825591     
   64303705.8030693     
   64303824.6144374     
   64303949.4536940     
   64304079.5985902     
   64304214.3649475     
   64304353.1041014     
   64304495.2004373     
   64304640.0690220     
   64304787.1533272     
   64304935.9230463     
   64305085.8720027     
   64305236.5161466     
   64305387.3916404     
   64305538.0530283     
   64305688.0714890     
   64305837.0331672     
   64305984.5375824     
   64306130.1961100     
   64306273.6305327     
   64306414.4716591     
   64306552.3580044     
   64306686.9345316     
   64306817.8514503     
   64306944.7630671     
   64307067.3266891     
   64307185.2015734     
   64307298.0479237     
   64307405.5259288     
   64307507.2948436     
   64307603.0121083     
   64307692.3325068     
   64307774.9073622     
   64307850.3837676     
   64307918.4038542     
   64307978.6040936     
   64308030.6146372     
   64308074.0586921     
   64308108.5519333     
   64308133.7019549     
   64308149.1077609     
   64308154.3592964     
   63797008.6224087     
   63797019.6584802     
   63797051.7305236     
   63797103.3358972     
   63797173.0390988     
   63797259.4688883     
   63797361.3154460     
   63797477.3275723     
   63797606.3099320     
   63797747.1203497     
   63797898.6671578     
   63798059.9066011     
   63798229.8403019     
   63798407.5127869     
   63798592.0090779     
   63798782.4523495     
   63798978.0016530     
   63799177.8497089     
   63799381.2207678     
   63799587.3685405     
   63799795.5741965     
   63800005.1444311     
   63800215.4095999     
   63800425.7219209     
   63800635.4537407     
   63800843.9958665     
   63801050.7559601     
   63801255.1569938     
   63801456.6357652     
   63801654.6414699     
   63801848.6343312     
   63802038.0842824     
   63802222.4697027     
   63802401.2762033     
   63802573.9954623     
   63802740.1241074     
   63802899.1626439     
   63803050.6144274     
   63803193.9846797     
   63803328.7795466     
   63803454.5051976     
   63803570.6669644     
   63803676.7685213     
   63803772.3111029     
   63803856.7927624     
   63803929.7076682     
   63803990.5454400     
   63804038.7905232     
   63804073.9216044     
   63804095.4110657     
   63804102.7244807     
   63295314.8803131     
   63295328.2234426     
   63295367.0852396     
   63295429.7641608     
   63295514.6236976     
   63295620.0899086     
   63295744.6489704     
   63295886.8447511     
   63296045.2764104     
   63296218.5960309     
   63296405.5062823     
   63296604.7581234     
   63296815.1485433     
   63297035.5183451     
   63297264.7499737     
   63297501.7653899     
   63297745.5239927     
   63297995.0205902     
   63298249.2834214     
   63298507.3722285     
   63298768.3763814     
   63299031.4130534     
   63299295.6254502     
   63299560.1810902     
   63299824.2701370     
   63300087.1037834     
   63300347.9126872     
   63300605.9454563     
   63300860.4671848     
   63301110.7580373     
   63301356.1118820     
   63301595.8349711     
   63301829.2446669     
   63302055.6682148     
   63302274.4415597     
   63302484.9082064     
   63302686.4181238     
   63302878.3266902     
   63303059.9936801     
   63303230.7822925     
   63303390.0582181     
   63303537.1887469     
   63303671.5419143     
   63303792.4856867     
   63303899.3871838     
   63303991.6119410     
   63304068.5232078     
   63304129.4812860     
   63304173.8429036     
   63304200.9606281     
   63304210.1823163     
   62798371.7196850     
   62798387.0718797     
   62798431.8536105     
   62798504.2003081     
   62798602.3098061     
   62798724.4402164     
   62798868.9078108     
   62799034.0849136     
   62799218.3978088     
   62799420.3246640     
   62799638.3934750     
   62799871.1800336     
   62800117.3059205     
   62800375.4365269     
   62800644.2791060     
   62800922.5808562     
   62801209.1270388     
   62801502.7391299     
   62801802.2730094     
   62802106.6171884     
   62802414.6910738     
   62802725.4432731     
   62803037.8499394     
   62803350.9131564     
   62803663.6593645     
   62803975.1378282     
   62804284.4191436     
   62804590.5937888     
   62804892.7707132     
   62805190.0759701     
   62805481.6513875     
   62805766.6532810     
   62806044.2512063     
   62806313.6267507     
   62806573.9723641     
   62806824.4902299     
   62807064.3911724     
   62807292.8936036     
   62807509.2225072     
   62807712.6084594     
   62807902.2866867     
   62808077.4961600     
   62808237.4787249     
   62808381.4782672     
   62808508.7399143     
   62808618.5092709     
   62808710.0316906     
   62808782.5515801     
   62808835.3117398     
   62808867.5527362     
   62808878.5123097     
   62306551.6978542     
   62306568.7727951     
   62306618.6368325     
   62306699.2941676     
   62306808.8084712     
   62306945.3010458     
   62307106.9489857     
   62307291.9833418     
   62307498.6872908     
   62307725.3943143     
   62307970.4863883     
   62308232.3921864     
   62308509.5852993     
   62308800.5824718     
   62309103.9418606     
   62309418.2613127     
   62309742.1766682     
   62310074.3600881     
   62310413.5184074     
   62310758.3915173     
   62311107.7507746     
   62311460.3974420     
   62311815.1611577     
   62312170.8984370     
   62312526.4912060     
   62312880.8453663     
   62313232.8893941     
   62313581.5729713     
   62313925.8656502     
   62314264.7555521     
   62314597.2480990     
   62314922.3647795     
   62315239.1419481     
   62315546.6296577     
   62315843.8905269     
   62316129.9986393     
   62316404.0384770     
   62316665.1038868     
   62316912.2970790     
   62317144.7276597     
   62317361.5116941     
   62317561.7708038     
   62317744.6312938     
   62317909.2233130     
   62318054.6800446     
   62318180.1369282     
   62318284.7309121     
   62318367.5997363     
   62318427.8812447     
   62318464.7127276     
   62318477.2302928     
   61820186.9710160     
   61820205.4968042     
   61820259.6464020     
   61820347.3211116     
   61820466.4786172     
   61820615.1313851     
   61820791.3450601     
   61820993.2368608     
   61821218.9739741     
   61821466.7719547     
   61821734.8931279     
   61822021.6450006     
   61822325.3786814     
   61822644.4873119     
   61822977.4045099     
   61823322.6028286     
   61823678.5922305     
   61824043.9185790     
   61824417.1621494     
   61824796.9361588     
   61825181.8853180     
   61825570.6844052     
   61825962.0368620     
   61826354.6734147     
   61826747.3507181     
   61827138.8500271     
   61827527.9758915     
   61827913.5548794     
   61828294.4343254     
   61828669.4811072     
   61829037.5804493     
   61829397.6347540     
   61829748.5624604     
   61830089.2969315     
   61830418.7853695     
   61830735.9877584     
   61831039.8758359     
   61831329.4320920     
   61831603.6487971     
   61831861.5270564     
   61832102.0758935     
   61832324.3113602     
   61832527.2556749     
   61832709.9363871     
   61832871.3855697     
   61833010.6390371     
   61833126.7355897     
   61833218.7162849     
   61833285.6237325     
   61833326.5014165     
   61833340.3930396     
   61339568.5512069     
   61339588.2718177     
   61339645.9558315     
   61339739.4270171     
   61339866.5623709     
   61340025.2907198     
   61340213.5913170     
   61340429.4924335     
   61340671.0699478     
   61340936.4459345     
   61341223.7872536     
   61341531.3041446     
   61341857.2488233     
   61342199.9140859     
   61342557.6319212     
   61342928.7721307     
   61343311.7409606     
   61343704.9797453     
   61344106.9635632     
   61344516.1999080     
   61344931.2273742     
   61345350.6143594     
   61345772.9577833     
   61346196.8818250     
   61346621.0366795     
   61347044.0973323     
   61347464.7623555     
   61347881.7527233     
   61348293.8106498     
   61348699.6984476     
   61349098.1974088     
   61349488.1067075     
   61349868.2423264     
   61350237.4360046     
   61350594.5342097     
   61350938.3971320     
   61351267.8977029     
   61351581.9206359     
   61351879.3614915     
   61352159.1257647     
   61352420.1279962     
   61352661.2909070     
   61352881.5445549     
   61353079.8255151     
   61353255.0760824     
   61353406.2434963     
   61353532.2791875     
   61353632.1380467     
   61353704.7777144     
   61353749.1578916     
   61353764.2396709     
   60864945.7833988     
   60864966.4593134     
   60865026.9743798     
   60865125.0976276     
   60865258.6481486     
   60865425.4938714     
   60865623.5503279     
   60865850.7794144     
   60866105.1881487     
   60866384.8274235     
   60866687.7907603     
   60867012.2130621     
   60867356.2693684     
   60867718.1736129     
   60868096.1773857     
   60868488.5687008     
   60868893.6707704     
   60869309.8407863     
   60869735.4687117     
   60870168.9760810     
   60870608.8148116     
   60871053.4660272     
   60871501.4388932     
   60871951.2694662     
   60872401.5195564     
   60872850.7756063     
   60873297.6475835     
   60873740.7678895     
   60874178.7902861     
   60874610.3888372     
   60875034.2568691     
   60875449.1059479     
   60875853.6648753     
   60876246.6787021     
   60876626.9077611     
   60876993.1267184     
   60877344.1236431     
   60877678.6990966     
   60877995.6652412     
   60878293.8449665     
   60878572.0710364     
   60878829.1852542     
   60879064.0376468     
   60879275.4856679     
   60879462.3934194     
   60879623.6308914     
   60879758.0732207     
   60879864.5999665     
   60879942.0944038     
   60879989.4428345     
   60880005.5339141     
   60396526.0644020     
   60396547.4727380     
   60396610.1638814     
   60396711.8726556     
   60396850.3807996     
   60397023.5158908     
   60397229.1502594     
   60397465.1998960     
   60397729.6233556     
   60398020.4206560     
   60398335.6321748     
   60398673.3375439     
   60399031.6545443     
   60399408.7380009     
   60399802.7786800     
   60400212.0021884     
   60400634.6678772     
   60401069.0677501     
   60401513.5253770     
   60401966.3948149     
   60402426.0595355     
   60402890.9313611     
   60403359.4494096     
   60403830.0790495     
   60404301.3108644     
   60404771.6596289     
   60405239.6632962     
   60405703.8819975     
   60406162.8970537     
   60406615.3100008     
   60407059.7416283     
   60407494.8310315     
   60407919.2346777     
   60408331.6254872     
   60408730.6919290     
   60409115.1371306     
   60409483.6780042     
   60409835.0443872     
   60410167.9781978     
   60410481.2326066     
   60410773.5712235     
   60411043.7672995     
   60411290.6029440     
   60411512.8683577     
   60411709.3610797     
   60411878.8852509     
   60412020.2508904     
   60412132.2731879     
   60412213.7718092     
   60412263.5702162     
   60412280.4950001     
   59934474.8124052     
   59934496.7467541     
   59934561.0070637     
   59934665.3124591     
   59934807.4258707     
   59934985.1530858     
   59935196.3417933     
   59935438.8806209     
   59935710.6981680     
   59936009.7620323     
   59936334.0778347     
   59936681.6882395     
   59937050.6719742     
   59937439.1428476     
   59937845.2487685     
   59938267.1707644     
   59938703.1220026     
   59939151.3468137     
   59939610.1197177     
   59940077.7444549     
   59940552.5530210     
   59941032.9047079     
   59941517.1851507     
   59942003.8053806     
   59942491.2008865     
   59942977.8306832     
   59943462.1763886     
   59943942.7413096     
   59944418.0495376     
   59944886.6450535     
   59945347.0908429     
   59945797.9680221     
   59946237.8749743     
   59946665.4264979     
   59947079.2529654     
   59947477.9994939     
   59947860.3251279     
   59948224.9020339     
   59948570.4147064     
   59948895.5591871     
   59949199.0422950     
   59949479.5808702     
   59949735.9010282     
   59949966.7374278     
   59950170.8325501     
   59950346.9359898     
   59950493.8037580     
   59950610.1975966     
   59950694.8843045     
   59950746.6350741     
   59950764.2248391     
   59478915.6860178     
   59478937.9561203     
   59479003.2258988     
   59479109.2154427     
   59479253.6855820     
   59479434.4370543     
   59479649.3096648     
   59479896.1814400     
   59480172.9677748     
   59480477.6205749     
   59480808.1273952     
   59481162.5105741     
   59481538.8263654     
   59481935.1640676     
   59482349.6451527     
   59482780.4223933     
   59483225.6789906     
   59483683.6277026     
   59484152.5099742     
   59484630.5950686     
   59485116.1792025     
   59485607.5846828     
   59486103.1590489     
   59486601.2742184     
   59487100.3256377     
   59487598.7314382     
   59488094.9315984     
   59488587.3871121     
   59489074.5791634     
   59489555.0083085     
   59490027.1936658     
   59490489.6721125     
   59490940.9974906     
   59491379.7398203     
   59491804.4845223     
   59492213.8316491     
   59492606.3951251     
   59492980.8019958     
   59493335.6916865     
   59493669.7152702     
   59493981.5347451     
   59494269.8223212     
   59494533.2597170     
   59494770.5374651     
   59494980.3542275     
   59495161.4161206     
   59495312.4360481     
   59495432.1330450     
   59495519.2316288     
   59495572.4611605     
   59495590.5552130     
   59029931.0440185     
   59029953.4753526     
   59030019.2409728     
   59030126.0768866     
   59030271.7568304     
   59030454.0915415     
   59030670.9280224     
   59030920.1487986     
   59031199.6711704     
   59031507.4464595     
   59031841.4592500     
   59032199.7266266     
   59032580.2974078     
   59032981.2513770     
   59033400.6985107     
   59033836.7782057     
   59034287.6585038     
   59034751.5353175     
   59035226.6316540     
   59035711.1968403     
   59036203.5057503     
   59036701.8580312     
   59037204.5773342     
   59037710.0105459     
   59038216.5270236     
   59038722.5178332     
   59039226.3949919     
   59039726.5907141     
   59040221.5566620     
   59040709.7632018     
   59041189.6986638     
   59041659.8686094     
   59042118.7951028     
   59042565.0159892     
   59042997.0841794     
   59043413.5669409     
   59043813.0451949     
   59044194.1128211     
   59044555.3759690     
   59044895.4523763     
   59045212.9706942     
   59045506.5698207     
   59045774.8982401     
   59046016.6133705     
   59046230.3809180     
   59046414.8742390     
   59046568.7737083     
   59046690.7660954     
   59046779.5439472     
   59046833.8049774     
   59046852.2514627     
   58587562.6312626     
   58587585.0645835     
   58587650.8571787     
   58587757.7743245     
   58587903.6160755     
   58588086.2166322     
   58588303.4437007     
   58588553.1978463     
   58588833.4118402     
   58589142.0500011     
   58589477.1075315     
   58589836.6098489     
   58590218.6119130     
   58590621.1975494     
   58591042.4787702     
   58591480.5950907     
   58591933.7128458     
   58592400.0245028     
   58592877.7479739     
   58593365.1259281     
   58593860.4251016     
   58594361.9356095     
   58594867.9702570     
   58595376.8638523     
   58595886.9725203     
   58596396.6730180     
   58596904.3620521     
   58597408.4555989     
   58597907.3882272     
   58598399.6124237     
   58598883.5979222     
   58599357.8310362     
   58599820.8139955     
   58600271.0642868     
   58600707.1139985     
   58601127.5091707     
   58601530.8091488     
   58601915.5859432     
   58602280.4235931     
   58602623.9175355     
   58602944.6739804     
   58603241.3092897     
   58603512.4493631     
   58603756.7290282     
   58603972.7914366     
   58604159.2874654     
   58604314.8751235     
   58604438.2189643     
   58604527.9895025     
   58604582.8626371     
   58604601.5190788     
   58151812.4720033     
   58151834.7628511     
   58151900.1568940     
   58152006.4605113     
   58152151.5119796     
   58152333.1809276     
   58152549.3677848     
   58152798.0032225     
   58153077.0475890     
   58153384.4903379     
   58153718.3494519     
   58154076.6708606     
   58154457.5278536     
   58154859.0204896     
   58155279.2750013     
   58155716.4431967     
   58156168.7018578     
   58156634.2521356     
   58157111.3189442     
   58157598.1503515     
   58158093.0169699     
   58158594.2113444     
   58159100.0473413     
   58159608.8595353     
   58160119.0025976     
   58160628.8506836     
   58161136.7968215     
   58161641.2523017     
   58162140.6460679     
   58162633.4241087     
   58163118.0488523     
   58163592.9985622     
   58164056.7667359     
   58164507.8615053     
   58164944.8050411     
   58165366.1329585     
   58165770.3937276     
   58166156.1480858     
   58166521.9684543     
   58166866.4383581     
   58167188.1518492     
   58167485.7129339     
   58167757.7350040     
   58168002.8402716     
   58168219.6592076     
   58168406.8299848     
   58168562.9979246     
   58168686.8149473     
   58168776.9390270     
   58168832.0336495     
   58168850.7672752     
   57722643.9489846     
   57722665.9671618     
   57722730.5789468     
   57722835.6422141     
   57722979.0439328     
   57723158.6997036     
   57723372.5532892     
   57723618.5761366     
   57723894.7668940     
   57724199.1509200     
   57724529.7797878     
   57724884.7307826     
   57725262.1063951     
   57725660.0338086     
   57726076.6643830     
   57726510.1731331     
   57726958.7582041     
   57727420.6403432     
   57727894.0623682     
   57728377.2886331     
   57728868.6044912     
   57729366.3157565     
   57729868.7481629     
   57730374.2468221     
   57730881.1756803     
   57731387.9169741     
   57731892.8706858     
   57732394.4539984     
   57732891.1007504     
   57733381.2608917     
   57733863.3999390     
   57734335.9984322     
   57734797.5513923     
   57735246.5677800     
   57735681.5699560     
   57736101.0931424     
   57736503.6848862     
   57736887.9045252     
   57737252.3226549     
   57737595.5205984     
   57737916.0898784     
   57738212.6316918     
   57738483.7563863     
   57738728.0829402     
   57738944.2384448     
   57739130.8575889     
   57739286.5821469     
   57739410.0604691     
   57739499.9469752     
   57739554.9016502     
   57739573.5895433     
   57299983.0448420     
   57300004.6738583     
   57300068.1598799     
   57300171.4212953     
   57300312.4028749     
   57300489.0753847     
   57300699.4351925     
   57300941.5038666     
   57301213.3277672     
   57301512.9776312     
   57301838.5481506     
   57302188.1575450     
   57302559.9471274     
   57302952.0808654     
   57303362.7449371     
   57303790.1472814     
   57304232.5171451     
   57304688.1046245     
   57305155.1802036     
   57305632.0342892     
   57306116.9767419     
   57306608.3364047     
   57307104.4606289     
   57307603.7147973     
   57308104.4818453     
   57308605.1617810     
   57309104.1712023     
   57309599.9428146     
   57310090.9249453     
   57310575.5810594     
   57311052.3892737     
   57311519.8418705     
   57311976.4448116     
   57312420.7172523     
   57312851.1910556     
   57313266.4103069     
   57313664.9308297     
   57314045.3197014     
   57314406.1547708     
   57314746.0241760     
   57315063.5258643     
   57315357.2671132     
   57315625.8640522     
   57315867.9411874     
   57316082.1309266     
   57316267.0731069     
   57316421.4145239     
   57316543.8084623     
   57316632.9142289     
   57316687.3966877     
   57316705.9257963     
   56883719.7214214     
   56883740.8578981     
   56883802.9131101     
   56883903.8736734     
   56884041.7499759     
   56884214.5758623     
   56884420.4083105     
   56884657.3271011     
   56884923.4344782     
   56885216.8548043     
   56885535.7342077     
   56885878.2402227     
   56886242.5614249     
   56886626.9070594     
   56887029.5066631     
   56887448.6096830     
   56887882.4850879     
   56888329.4209756     
   56888787.7241765     
   56889255.7198517     
   56889731.7510879     
   56890214.1784880     
   56890701.3797594     
   56891191.7492978     
   56891683.6977688     
   56892175.6516872     
   56892666.0529931     
   56893153.3586265     
   56893636.0400999     
   56894112.5830690     
   56894581.4869025     
   56895041.2642496     
   56895490.4406081     
   56895927.5538904     
   56896351.1539890     
   56896759.8023423     
   56897152.0714998     
   56897526.5446867     
   56897881.8153692     
   56898216.4868199     
   56898529.1716832     
   56898818.4915419     
   56899083.0764834     
   56899321.5646675     
   56899532.6018946     
   56899714.8411750     
   56899866.9422991     
   56899987.5714083     
   56900075.4005682     
   56900129.1073414     
   56900147.3743632     
   56473709.4124417     
   56473729.9654714     
   56473790.3214121     
   56473888.5415870     
   56474022.7085966     
   56474190.9260690     
   56474391.3184021     
   56474622.0304978     
   56474881.2274877     
   56475167.0944517     
   56475477.8361295     
   56475811.6766242     
   56476166.8591002     
   56476541.6454735     
   56476934.3160973     
   56477343.1694397     
   56477766.5217576     
   56478202.7067640     
   56478650.0752909     
   56479106.9949470     
   56479571.8497708     
   56480043.0398800     
   56480518.9811156     
   56480998.1046837     
   56481478.8567926     
   56481959.6982872     
   56482439.1042802     
   56482915.5637802     
   56483387.5793176     
   56483853.6665682     
   56484312.3539739     
   56484762.1823623     
   56485201.7045642     
   56485629.4850290     
   56486044.0994402     
   56486444.1343281     
   56486828.1866822     
   56487194.8635633     
   56487542.7817138     
   56487870.5671685     
   56488176.8548641     
   56488460.2882496     
   56488719.5188952     
   56488953.2061028     
   56489160.0165150     
   56489338.6237260     
   56489487.7078912     
   56489605.9553387     
   56489692.0581806     
   56489744.7139248     
   56489762.6250883     
   56069774.6053528     
   56069794.4958098     
   56069852.9185837     
   56069948.0150262     
   56070077.9453996     
   56070240.8886876     
   56070435.0423975     
   56070658.6223540     
   56070909.8624845     
   56071187.0145965     
   56071488.3481469     
   56071812.1500050     
   56072156.7242071     
   56072520.3917043     
   56072901.4901049     
   56073298.3734086     
   56073709.4117364     
   56074132.9910529     
   56074567.5128846     
   56075011.3940317     
   56075463.0662756     
   56075920.9760809     
   56076383.5842935     
   56076849.3658336     
   56077316.8093855     
   56077784.4170827     
   56078250.7041898     
   56078714.1987811     
   56079173.4414154     
   56079626.9848086     
   56080073.3935030     
   56080511.2435342     
   56080939.1220960     
   56081355.6272021     
   56081759.3673474     
   56082148.9611660     
   56082523.0370882     
   56082880.2329966     
   56083219.1958798     
   56083538.5814857     
   56083837.0539742     
   56084113.2855681     
   56084365.9562037     
   56084593.7531814     
   56084795.3708154     
   56084969.5100827     
   56085114.8782730     
   56085230.1886376     
   56085314.1600388     
   56085365.5165993     
   56085382.9873522     
   55671706.4891722     
   55671725.6489725     
   55671781.9370859     
   55671873.5791361     
   55671998.8174313     
   55672155.9108297     
   55672343.1345962     
   55672558.7802507     
   55672801.1554068     
   55673068.5836033     
   55673359.4041272     
   55673671.9718284     
   55674004.6569274     
   55674355.8448157     
   55674723.9358491     
   55675107.3451342     
   55675504.5023082     
   55675913.8513130     
   55676333.8501627     
   55676762.9707061     
   55677199.6983824     
   55677642.5319732     
   55678089.9833486     
   55678540.5772084     
   55678992.8508191     
   55679445.3537467     
   55679896.6475847     
   55680345.3056791     
   55680789.9128491     
   55681229.0651048     
   55681661.3693610     
   55682085.4431487     
   55682499.9143234     
   55682903.4207702     
   55683294.6101078     
   55683672.1393891     
   55684034.6747996     
   55684380.8913545     
   55684709.4725941     
   55685019.1102768     
   55685308.5040712     
   55685576.3612473     
   55685821.3963656     
   55686042.3309658     
   55686237.8932547     
   55686406.8177933     
   55686547.8451829     
   55686659.7217511     
   55686741.1992380     
   55686791.0344809     
   55686807.9890997     
   55279266.6464069     
   55279285.0177211     
   55279338.9997766     
   55279426.9057231     
   55279547.0633193     
   55279697.8148480     
   55279877.5170223     
   55280084.5408816     
   55280317.2716804     
   55280574.1087667     
   55280853.4654533     
   55281153.7688801     
   55281473.4598695     
   55281810.9927732     
   55282164.8353127     
   55282533.4684119     
   55282915.3860233     
   55283309.0949477     
   55283713.1146470     
   55284125.9770519     
   55284546.2263628     
   55284972.4188457     
   55285403.1226222     
   55285836.9174553     
   55286272.3945288     
   55286708.1562236     
   55287142.8158887     
   55287574.9976075     
   55288003.3359611     
   55288426.4757870     
   55288843.0719346     
   55289251.7890168     
   55289651.3011588     
   55290040.2917438     
   55290417.4531555     
   55290781.4865182     
   55291131.1014341     
   55291465.0157191     
   55291781.9551355     
   55292080.6531227     
   55292359.8505272     
   55292618.2953297     
   55292854.7423712     
   55293067.9530779     
   55293256.6951842     
   55293419.7424560     
   55293555.8744114     
   55293663.8760416     
   55293742.5375309     
   55293790.6539765     
   55293807.0251071     
   54892188.7688240     
   54892206.3032445     
   54892257.8355087     
   54892341.7686472     
   54892456.5183850     
   54892600.5131004     
   54892772.1937745     
   54892970.0139306     
   54893192.4395653     
   54893437.9490705     
   54893705.0331462     
   54893992.1947065     
   54894297.9487757     
   54894620.8223779     
   54894959.3544187     
   54895312.0955592     
   54895677.6080838     
   54896054.4657601     
   54896441.2536932     
   54896836.5681734     
   54897239.0165171     
   54897647.2169031     
   54898059.7982021     
   54898475.3998014     
   54898892.6714244     
   54899310.2729450     
   54899726.8741970     
   54900141.1547795     
   54900551.8038576     
   54900957.5199588     
   54901357.0107663     
   54901748.9929072     
   54902132.1917388     
   54902505.3411296     
   54902867.1832394     
   54903216.4682945     
   54903551.9543610     
   54903872.4071154     
   54904176.5996126     
   54904463.3120515     
   54904731.3315393     
   54904979.4518524     
   54905206.4731968     
   54905411.2019660     
   54905592.4504983     
   54905749.0368315     
   54905879.7844577     
   54905983.5220760     
   54906059.0833453     
   54906105.3066349     
   54906121.0347760     
   54510180.3787146     
   54510197.0363880     
   54510246.0002502     
   54510325.7647667     
   54510434.8353509     
   54510571.7283614     
   54510734.9710881     
   54510923.1017300     
   54511134.6693634     
   54511368.2339005     
   54511622.3660407     
   54511895.6472120     
   54512186.6695050     
   54512494.0355987     
   54512816.3586788     
   54513152.2623485     
   54513500.3805318     
   54513859.3573703     
   54514227.8471129     
   54514604.5139990     
   54514988.0321360     
   54515377.0853699     
   54515770.3671508     
   54516166.5803925     
   54516564.4373266     
   54516962.6593516     
   54517359.9768774     
   54517755.1291641     
   54518146.8641573     
   54518533.9383186     
   54518915.1164517     
   54519289.1715251     
   54519654.8844906     
   54520011.0440987     
   54520356.4467098     
   54520689.8961032     
   54521010.2032825     
   54521316.1862782     
   54521606.6699476     
   54521880.4857724     
   54522136.4716541     
   54522373.4717062     
   54522590.3360457     
   54522785.9205824     
   54522959.0868057     
   54523108.7015705     
   54523233.6368821     
   54523332.7696787     
   54523404.9816138     
   54523449.1588372     
   54523464.1917749     
   54132924.5393687     
   54132940.2880975     
   54132986.5874453     
   54133062.0241651     
   54133165.1943854     
   54133294.7036387     
   54133449.1668799     
   54133627.2084960     
   54133827.4623052     
   54134048.5715484     
   54134289.1888711     
   54134547.9762966     
   54134823.6051922     
   54135114.7562259     
   54135420.1193166     
   54135738.3935753     
   54136068.2872412     
   54136408.5176085     
   54136757.8109479     
   54137114.9024208     
   54137478.5359877     
   54137847.4643100     
   54138220.4486460     
   54138596.2587413     
   54138973.6727136     
   54139351.4769325     
   54139728.4658938     
   54140103.4420894     
   54140475.2158723     
   54140842.6053169     
   54141204.4360756     
   54141559.5412307     
   54141906.7611432     
   54142244.9432967     
   54142572.9421393     
   54142889.6189204     
   54143193.8415261     
   54143484.4843103     
   54143760.4279237     
   54144020.5591397     
   54144263.7706780     
   54144488.9610258     
   54144695.0342573     
   54144880.8998502     
   54145045.4725010     
   54145187.6719390     
   54145306.4227377     
   54145400.6541256     
   54145469.2997950     
   54145511.2977110     
   54145525.5899176     
   53760081.5406612     
   53760096.3549875     
   53760139.9135271     
   53760210.8955742     
   53760307.9884032     
   53760429.8873221     
   53760575.2957177     
   53760742.9250905     
   53760931.4950806     
   53761139.7334852     
   53761366.3762665     
   53761610.1675517     
   53761869.8596246     
   53762144.2129096     
   53762431.9959476     
   53762731.9853644     
   53763042.9658323     
   53763363.7300240     
   53763693.0785605     
   53764029.8199517     
   53764372.7705310     
   53764720.7543842     
   53765072.6032711     
   53765427.1565432     
   53765783.2610544     
   53766139.7710673     
   53766495.5481538     
   53766849.4610916     
   53767200.3857547     
   53767547.2050010     
   53767888.8085541     
   53768224.0928820     
   53768551.9610712     
   53768871.3226974     
   53769181.0936924     
   53769480.1962076     
   53769767.5584745     
   53770042.1146617     
   53770302.8047292     
   53770548.5742802     
   53770778.3744096     
   53770991.1615513     
   53771185.8973218     
   53771361.5483623     
   53771517.0861796     
   53771651.4869838     
   53771763.7315252     
   53771852.8049300     
   53771917.6965332     
   53771957.3997121     
   53771970.9117171     
   53391290.5478963     
   53391304.4081777     
   53391345.1667297     
   53391411.5951470     
   53391502.4717851     
   53391616.5818357     
   53391752.7173909     
   53391909.6774988     
   53392086.2682102     
   53392281.3026165     
   53392493.6008786     
   53392721.9902478     
   53392965.3050791     
   53393222.3868356     
   53393492.0840866     
   53393773.2524970     
   53394064.7548108     
   53394365.4608268     
   53394674.2473683     
   53394989.9982452     
   53395311.6042115     
   53395637.9629151     
   53395967.9788427     
   53396300.5632589     
   53396634.6341397     
   53396969.1161006     
   53397302.9403203     
   53397635.0444584     
   53397964.3725697     
   53398289.8750131     
   53398610.5083565     
   53398925.2352775     
   53399233.0244607     
   53399532.8504897     
   53399823.6937376     
   53400104.5402522     
   53400374.3816393     
   53400632.2149417     
   53400877.0425165     
   53401107.8719086     
   53401323.7157222     
   53401523.5914892     
   53401706.5215361     
   53401871.5328482     
   53402017.6569319     
   53402143.9296753     
   53402249.3912067     
   53402333.0857519     
   53402394.0614899     
   53402431.3704075     
   53402444.0681523     
   53026171.2043416     
   53026184.0958285     
   53026222.0096321     
   53026283.8090126     
   53026368.3629490     
   53026474.5462281     
   53026601.2395237     
   53026747.3294674     
   53026911.7087098     
   53027093.2759739     
   53027290.9361000     
   53027503.6000824     
   53027730.1850985     
   53027969.6145298     
   53028220.8179765     
   53028482.7312638     
   53028754.2964420     
   53029034.4617796     
   53029322.1817502     
   53029616.4170125     
   53029916.1343846     
   53030220.3068125     
   53030527.9133324     
   53030837.9390280     
   53031149.3749821     
   53031461.2182237     
   53031772.4716687     
   53032082.1440580     
   53032389.2498891     
   53032692.8093439     
   53032991.8482130     
   53033285.3978149     
   53033572.4949120     
   53033852.1816223     
   53034123.5053285     
   53034385.5185822     
   53034637.2790065     
   53034877.8491949     
   53035106.2966065     
   53035321.6934596     
   53035523.1166224     
   53035709.6475005     
   53035880.3719232     
   53036034.3800271     
   53036170.7661372     
   53036288.6286472     
   53036387.0698973     
   53036465.1960503     
   53036522.1169672     
   53036556.9460801     
   53036568.8002652     
   52664325.1801304     
   52664337.0920580     
   52664372.1281139     
   52664429.2422974     
   52664507.3934570     
   52664605.5453868     
   52664722.6669161     
   52664857.7319888     
   52665009.7197347     
   52665177.6145338     
   52665360.4060709     
   52665557.0893836     
   52665766.6649027     
   52665988.1384849     
   52666220.5214387     
   52666462.8305434     
   52666714.0880615     
   52666973.3217444     
   52667239.5648320     
   52667511.8560464     
   52667789.2395792     
   52668070.7650740     
   52668355.4876026     
   52668642.4676359     
   52668930.7710106     
   52669219.4688897     
   52669507.6377192     
   52669794.3591798     
   52670078.7201339     
   52670359.8125693     
   52670636.7335379     
   52670908.5850902     
   52671174.4742078     
   52671433.5127300     
   52671684.8172788     
   52671927.5091797     
   52672160.7143794     
   52672383.5633608     
   52672595.1910551     
   52672794.7367511     
   52672981.3440023     
   52673154.1605309     
   52673312.3381304     
   52673455.0325653     
   52673581.4034695     
   52673690.6142424     
   52673781.8319436     
   52673854.2271857     
   52673906.9740259     
   52673939.2498564     
   52673950.2352931     
   52305337.6624296     
   52305348.5871338     
   52305380.7216184     
   52305433.1095023     
   52305504.7985485     
   52305594.8407652     
   52305702.2924986     
   52305826.2145168     
   52305965.6720866     
   52306119.7350420     
   52306287.4778456     
   52306467.9796424     
   52306660.3243066     
   52306863.6004813     
   52307076.9016123     
   52307299.3259742     
   52307529.9766909     
   52307767.9617504     
   52308012.3940124     
   52308262.3912117     
   52308517.0759547     
   52308775.5757114     
   52309037.0228017     
   52309300.5543769     
   52309565.3123966     
   52309830.4436002     
   52310095.0994745     
   52310358.4362165     
   52310619.6146929     
   52310877.8003941     
   52311132.1633854     
   52311381.8782547     
   52311626.1240554     
   52311864.0842471     
   52312094.9466320     
   52312317.9032895     
   52312532.1505063     
   52312736.8887049     
   52312931.3223684     
   52313114.6599638     
   52313286.1138615     
   52313444.9002543     
   52313590.2390722     
   52313721.3538970     
   52313837.4718740     
   52313937.8236219     
   52314021.6431416     
   52314088.1677230     
   52314136.6378506     
   52314166.2971080     
   52314176.3920809     
   51948778.7839003     
   51948788.7159685     
   51948817.9317503     
   51948865.5632634     
   51948930.7461228     
   51949012.6196408     
   51949110.3269178     
   51949223.0149270     
   51949349.8345902     
   51949489.9408479     
   51949642.4927214     
   51949806.6533684     
   51949981.5901319     
   51950166.4745830     
   51950360.4825569     
   51950562.7941837     
   51950772.5939123     
   51950989.0705293     
   51951211.4171723     
   51951438.8313378     
   51951670.5148837     
   51951905.6740270     
   51952143.5193367     
   51952383.2657220     
   51952624.1324159     
   51952865.3429542     
   51953106.1251508     
   51953345.7110686     
   51953583.3369867     
   51953818.2433633     
   51954049.6747959     
   51954276.8799768     
   51954499.1116468     
   51954715.6265443     
   51954925.6853520     
   51955128.5526408     
   51955323.4968106     
   51955509.7900283     
   51955686.7081639     
   51955853.5307238     
   51956009.5407813     
   51956154.0249063     
   51956286.2730916     
   51956405.5786781     
   51956511.2382779     
   51956602.5516959     
   51956678.8218498     
   51956739.3546886     
   51956783.4591098     
   51956810.4468757     
   51956819.6325276     
   51594204.9885194     
   51594213.9239853     
   51594240.2082690     
   51594283.0605553     
   51594341.7032269     
   51594415.3619578     
   51594503.2657992     
   51594604.6472589     
   51594718.7423733     
   51594844.7907730     
   51594982.0357427     
   51595129.7242735     
   51595287.1071108     
   51595453.4387951     
   51595627.9776973     
   51595809.9860491     
   51595998.7299676     
   51596193.4794744     
   51596393.5085102     
   51596598.0949440     
   51596806.5205784     
   51597018.0711492     
   51597232.0363217     
   51597447.7096815     
   51597664.3887224     
   51597881.3748296     
   51598097.9732590     
   51598313.4931133     
   51598527.2473138     
   51598738.5525695     
   51598946.7293424     
   51599151.1018101     
   51599350.9978243     
   51599545.7488679     
   51599734.6900083     
   51599917.1598479     
   51600092.5004727     
   51600260.0573982     
   51600419.1795130     
   51600569.2190199     
   51600709.5313754     
   51600839.4752271     
   51600958.4123488     
   51601065.7075749     
   51601160.7287316     
   51601242.8465683     
   51601311.4346863     
   51601365.8694668     
   51601405.5299973     
   51601429.7979976     
   51601438.0577439     
   51241160.3357488     
   51241168.2713404     
   51241191.6134679     
   51241229.6673221     
   51241281.7410277     
   51241347.1457261     
   51241425.1956517     
   51241515.2082015     
   51241616.5039998     
   51241728.4069556     
   51241850.2443154     
   51241981.3467099     
   51242121.0481952     
   51242268.6862894     
   51242423.6020031     
   51242585.1398660     
   51242752.6479480     
   51242925.4778756     
   51243102.9848450     
   51243284.5276286     
   51243469.4685796     
   51243657.1736311     
   51243847.0122915     
   51244038.3576368     
   51244230.5862978     
   51244423.0784451     
   51244615.2177703     
   51244806.3914632     
   51244995.9901866     
   51245183.4080478     
   51245368.0425672     
   51245549.2946438     
   51245726.5685183     
   51245899.2717336     
   51246066.8150922     
   51246228.6126124     
   51246384.0814811     
   51246532.6420050     
   51246673.7175597     
   51246806.7345365     
   51246931.1222882     
   51247046.3130719     
   51247151.7419913     
   51247246.8469369     
   51247331.0685246     
   51247403.8500334     
   51247464.6373418     
   51247512.8788623     
   51247548.0254758     
   51247569.5304648     
   51247576.8494448     
   50889177.7458337     
   50889184.6782831     
   50889205.0677129     
   50889238.3043059     
   50889283.7810368     
   50889340.8937397     
   50889409.0411709     
   50889487.6250665     
   50889576.0501940     
   50889673.7243994     
   50889780.0586491     
   50889894.4670666     
   50890016.3669655     
   50890145.1788764     
   50890280.3265710     
   50890421.2370808     
   50890567.3407120     
   50890718.0710563     
   50890872.8649980     
   50891031.1627168     
   50891192.4076877     
   50891356.0466768     
   50891521.5297337     
   50891688.3101806     
   50891855.8445987     
   50892023.5928109     
   50892191.0178616     
   50892357.5859940     
   50892522.7666246     
   50892686.0323144     
   50892846.8587387     
   50893004.7246532     
   50893159.1118587     
   50893309.5051634     
   50893455.3923425     
   50893596.2640962     
   50893731.6140061     
   50893860.9384888     
   50893983.7367487     
   50894099.5107282     
   50894207.7650576     
   50894308.0070017     
   50894399.7464067     
   50894482.4956451     
   50894555.7695587     
   50894619.0854017     
   50894671.9627821     
   50894713.9236014     
   50894744.4919948     
   50894763.1942698     
   50894769.5588435     
   50537780.1906615     
   50537786.1160828     
   50537803.5405703     
   50537831.9385012     
   50537870.7870075     
   50537919.5660267     
   50537977.7583473     
   50538044.8496503     
   50538120.3285460     
   50538203.6866061     
   50538294.4183922     
   50538392.0214801     
   50538495.9964801     
   50538605.8470531     
   50538721.0799237     
   50538841.2048891     
   50538965.7348251     
   50539094.1856880     
   50539226.0765137     
   50539360.9294138     
   50539498.2695680     
   50539637.6252144     
   50539778.5276364     
   50539920.5111468     
   50540063.1130692     
   50540205.8737177     
   50540348.3363730     
   50540490.0472565     
   50540630.5555029     
   50540769.4131292     
   50540906.1750026     
   50541040.3988065     
   50541171.6450037     
   50541299.4767985     
   50541423.4600969     
   50541543.1634646     
   50541658.1580842     
   50541768.0177105     
   50541872.3186241     
   50541970.6395841     
   50542062.5617791     
   50542147.6687773     
   50542225.5464751     
   50542295.7830453     
   50542357.9688834     
   50542411.6965533     
   50542456.5607329     
   50542492.1581575     
   50542518.0875637     
   50542533.9496317     
   50542539.3469280     
   50186481.8361157     
   50186486.7494579     
   50186501.1934567     
   50186524.7261607     
   50186556.9084267     
   50186597.3039492     
   50186645.4792864     
   50186701.0038828     
   50186763.4500877     
   50186832.3931705     
   50186907.4113331     
   50186988.0857183     
   50187074.0004153     
   50187164.7424628     
   50187259.9018483     
   50187359.0715051     
   50187461.8473061     
   50187567.8280555     
   50187676.6154774     
   50187787.8142024     
   50187901.0317514     
   50188015.8785170     
   50188131.9677433     
   50188248.9155030     
   50188366.3406723     
   50188483.8649046     
   50188601.1126013     
   50188717.7108814     
   50188833.2895493     
   50188947.4810605     
   50189059.9204859     
   50189170.2454749     
   50189278.0962164     
   50189383.1153988     
   50189484.9481685     
   50189583.2420872     
   50189677.6470878     
   50189767.8154295     
   50189853.4016510     
   50189934.0625239     
   50190009.4570041     
   50190079.2461827     
   50190143.0932359     
   50190200.6633743     
   50190251.6237911     
   50190295.6436102     
   50190332.3938330     
   50190361.5472851     
   50190382.7785619     
   50190395.7639748     
   50190400.1814956     
   49834789.1432061     
   49834793.0377878     
   49834804.4810872     
   49834823.1146296     
   49834848.5828737     
   49834880.5332173     
   49834918.6160019     
   49834962.4845135     
   49835011.7949806     
   49835066.2065709     
   49835125.3813841     
   49835188.9844438     
   49835256.6836859     
   49835328.1499450     
   49835403.0569398     
   49835481.0812549     
   49835561.9023215     
   49835645.2023961     
   49835730.6665374     
   49835817.9825807     
   49835906.8411118     
   49835996.9354384     
   49836087.9615604     
   49836179.6181378     
   49836271.6064586     
   49836363.6304039     
   49836455.3964124     
   49836546.6134438     
   49836636.9929401     
   49836726.2487867     
   49836814.0972716     
   49836900.2570443     
   49836984.4490729     
   49837066.3966009     
   49837145.8251028     
   49837222.4622383     
   49837296.0378072     
   49837366.2837015     
   49837432.9338588     
   49837495.7242130     
   49837554.3926465     
   49837608.6789400     
   49837658.3247227     
   49837703.0734217     
   49837742.6702110     
   49837776.8619603     
   49837805.3971828     
   49837828.0259831     
   49837844.5000051     
   49837854.5723788     
   49837857.9976675     
   49482201.9364470     
   49482204.8035764     
   49482213.2201914     
   49482226.9114704     
   49482245.6057028     
   49482269.0342703     
   49482296.9316266     
   49482329.0352756     
   49482365.0857475     
   49482404.8265735     
   49482448.0042594     
   49482494.3682573     
   49482543.6709360     
   49482595.6675503     
   49482650.1162086     
   49482706.7778400     
   49482765.4161591     
   49482825.7976308     
   49482887.6914337     
   49482950.8694217     
   49483015.1060861     
   49483080.1785149     
   49483145.8663532     
   49483211.9517611     
   49483278.2193717     
   49483344.4562480     
   49483410.4518391     
   49483475.9979362     
   49483540.8886265     
   49483604.9202486     
   49483667.8913454     
   49483729.6026176     
   49483789.8568762     
   49483848.4589946     
   49483905.2158604     
   49483959.9363265     
   49484012.4311621     
   49484062.5130034     
   49484109.9963032     
   49484154.6972813     
   49484196.4338740     
   49484235.0256831     
   49484270.2939255     
   49484302.0613818     
   49484330.1523453     
   49484354.3925702     
   49484374.6092206     
   49484390.6308184     
   49484402.2871919     
   49484409.4094239     
   49484411.8297998     
   49128214.4489786     
   49128216.2776645     
   49128221.6349918     
   49128230.3303725     
   49128242.1765406     
   49128256.9895076     
   49128274.5885159     
   49128294.7959928     
   49128317.4375032     
   49128342.3417022     
   49128369.3402867     
   49128398.2679471     
   49128428.9623176     
   49128461.2639270     
   49128495.0161490     
   49128530.0651514     
   49128566.2598460     
   49128603.4518371     
   49128641.4953704     
   49128680.2472819     
   49128719.5669458     
   49128759.3162225     
   49128799.3594066     
   49128839.5631748     
   49128879.7965332     
   49128919.9307647     
   49128959.8393765     
   49128999.3980475     
   49129038.4845750     
   49129076.9788223     
   49129114.7626656     
   49129151.7199411     
   49129187.7363921     
   49129222.6996161     
   49129256.4990120     
   49129289.0257270     
   49129320.1726042     
   49129349.8341295     
   49129377.9063793     
   49129404.2869676     
   49129428.8749938     
   49129451.5709902     
   49129472.2768698     
   49129490.8958742     
   49129507.3325216     
   49129521.4925549     
   49129533.2828902     
   49129542.6115651     
   49129549.3876872     
   49129553.5213831     
   49129554.9237475     
   48772316.3547914     
   48772317.1315484     
   48772319.3897981     
   48772323.0241954     
   48772327.9329416     
   48772334.0177117     
   48772341.1835822     
   48772349.3389597     
   48772358.3955094     
   48772368.2680843     
   48772378.8746549     
   48772390.1362392     
   48772401.9768337     
   48772414.3233442     
   48772427.1055176     
   48772440.2558739     
   48772453.7096391     
   48772467.4046780     
   48772481.2814286     
   48772495.2828356     
   48772509.3542858     
   48772523.4435432     
   48772537.5006847     
   48772551.4780370     
   48772565.3301130     
   48772579.0135498     
   48772592.4870464     
   48772605.7113026     
   48772618.6489578     
   48772631.2645308     
   48772643.5243603     
   48772655.3965453     
   48772666.8508862     
   48772677.8588271     
   48772688.3933979     
   48772698.4291567     
   48772707.9421338     
   48772716.9097749     
   48772725.3108862     
   48772733.1255781     
   48772740.3352116     
   48772746.9223433     
   48772752.8706719     
   48772758.1649850     
   48772762.7911059     
   48772766.7358415     
   48772769.9869302     
   48772772.5329902     
   48772774.3634684     
   48772775.4685895     
   48772775.8393061     
   48413993.7991008     
   48413993.5078524     
   48413992.6197668     
   48413991.1161941     
   48413988.9822467     
   48413986.2066992     
   48413982.7818892     
   48413978.7036205     
   48413973.9710675     
   48413968.5866806     
   48413962.5560937     
   48413955.8880332     
   48413948.5942278     
   48413940.6893204     
   48413932.1907813     
   48413923.1188226     
   48413913.4963139     
   48413903.3487000     
   48413892.7039194     
   48413881.5923240     
   48413870.0466007     
   48413858.1016940     
   48413845.7947297     
   48413833.1649403     
   48413820.2535912     
   48413807.1039084     
   48413793.7610073     
   48413780.2718227     
   48413766.6850401     
   48413753.0510276     
   48413739.4217698     
   48413725.8508018     
   48413712.3931450     
   48413699.1052439     
   48413686.0449031     
   48413673.2712267     
   48413660.8445570     
   48413648.8264159     
   48413637.2794456     
   48413626.2673515     
   48413615.8548449     
   48413606.1075875     
   48413597.0921359     
   48413588.8758874     
   48413581.5270266     
   48413575.1144724     
   48413569.7078259     
   48413565.3773188     
   48413562.1937632     
   48413560.2285008     
   48413559.5533539     
   48052730.4384488     
   48052729.0605301     
   48052724.9713959     
   48052718.2409905     
   48052708.9432071     
   48052697.1557599     
   48052682.9600594     
   48052666.4410894     
   48052647.6872878     
   48052626.7904291     
   48052603.8455097     
   48052578.9506357     
   48052552.2069131     
   48052523.7183403     
   48052493.5917032     
   48052461.9364723     
   48052428.8647025     
   48052394.4909346     
   48052358.9320996     
   48052322.3074245     
   48052284.7383408     
   48052246.3483947     
   48052207.2631596     
   48052167.6101504     
   48052127.5187398     
   48052087.1200762     
   48052046.5470043     
   48052005.9339867     
   48051965.4170275     
   48051925.1335979     
   48051885.2225632     
   48051845.8241114     
   48051807.0796839     
   48051769.1319070     
   48051732.1245256     
   48051696.2023382     
   48051661.5111330     
   48051628.1976257     
   48051596.4093986     
   48051566.2948413     
   48051538.0030918     
   48051511.6839798     
   48051487.4879707     
   48051465.5661104     
   48051446.0699722     
   48051429.1516037     
   48051414.9634750     
   48051403.6584286     
   48051395.3896288     
   48051390.3105135     
   48051388.5747455     
   47688008.5024518     
   47688006.0167158     
   47687998.6646769     
   47687986.6072134     
   47687970.0092879     
   47687949.0397927     
   47687923.8713994     
   47687894.6804123     
   47687861.6466255     
   47687824.9531836     
   47687784.7864453     
   47687741.3358517     
   47687694.7937972     
   47687645.3555036     
   47687593.2188983     
   47687538.5844948     
   47687481.6552774     
   47687422.6365877     
   47687361.7360154     
   47687299.1632913     
   47687235.1301834     
   47687169.8503962     
   47687103.5394718     
   47687036.4146951     
   47686968.6950005     
   47686900.6008819     
   47686832.3543046     
   47686764.1786202     
   47686696.2984839     
   47686628.9397734     
   47686562.3295113     
   47686496.6957884     
   47686432.2676905     
   47686369.2752256     
   47686307.9492551     
   47686248.5214250     
   47686191.2241009     
   47686136.2903030     
   47686083.9536442     
   47686034.4482697     
   47685988.0087973     
   47685944.8702606     
   47685905.2680530     
   47685869.4378733     
   47685837.6156726     
   47685810.0376028     
   47685786.9399660     
   47685768.5591658     
   47685755.1316590     
   47685746.8939087     
   47685744.0823388     
   47319309.8892902     
   47319306.2723167     
   47319295.5889918     
   47319278.0938909     
   47319254.0457361     
   47319223.7072166     
   47319187.3448140     
   47319145.2286338     
   47319097.6322397     
   47319044.8324938     
   47318987.1094015     
   47318924.7459601     
   47318858.0280120     
   47318787.2441032     
   47318712.6853443     
   47318634.6452773     
   47318553.4197453     
   47318469.3067666     
   47318382.6064129     
   47318293.6206908     
   47318202.6534272     
   47318110.0101585     
   47318015.9980230     
   47317920.9256571     
   47317825.1030944     
   47317728.8416684     
   47317632.4539186     
   47317536.2534987     
   47317440.5550894     
   47317345.6743125     
   47317251.9276488     
   47317159.6323589     
   47317069.1064059     
   47316980.6683814     
   47316894.6374336     
   47316811.3331981     
   47316731.0757308     
   47316654.1854433     
   47316580.9830406     
   47316511.7894603     
   47316446.9258147     
   47316386.7133341     
   47316331.4733124     
   47316281.5270545     
   47316237.1958251     
   47316198.8007993     
   47316166.6630152     
   47316141.1033271     
   47316122.4423609     
   47316111.0004704     
   47316107.0976952     
   46946117.3070257     
   46946112.5334361     
   46946098.4448431     
   46946075.3926782     
   46946043.7324871     
   46946003.8237278     
   46945956.0295740     
   46945900.7167249     
   46945838.2552212     
   46945769.0182658     
   46945693.3820509     
   46945611.7255904     
   46945524.4305576     
   46945431.8811281     
   46945334.4638282     
   46945232.5673875     
   46945126.5825976     
   46945016.9021744     
   46944903.9206260     
   46944788.0341249     
   46944669.6403842     
   46944549.1385390     
   46944426.9290313     
   46944303.4134997     
   46944178.9946725     
   46944054.0762652     
   46943929.0628818     
   46943804.3599195     
   46943680.3734771     
   46943557.5102675     
   46943436.1775326     
   46943316.7829624     
   46943199.7346168     
   46943085.4408504     
   46942974.3102413     
   46942866.7515211     
   46942763.1735093     
   46942663.9850496     
   46942569.5949487     
   46942480.4119182     
   46942396.8445182     
   46942319.3011038     
   46942248.1897736     
   46942183.9183200     
   46942126.8941820     
   46942077.5243998     
   46942036.2155710     
   46942003.3738087     
   46941979.4047011     
   46941964.7132732     
   46941959.7039490     
   46567915.4726325     
   46567909.5155092     
   46567891.9432973     
   46567863.2078004     
   46567823.7647879     
   46567774.0737735     
   46567714.5977993     
   46567645.8032273     
   46567568.1595383     
   46567482.1391366     
   46567388.2171626     
   46567286.8713101     
   46567178.5816518     
   46567063.8304697     
   46566943.1020917     
   46566816.8827346     
   46566685.6603526     
   46566549.9244911     
   46566410.1661465     
   46566266.8776311     
   46566120.5524434     
   46565971.6851433     
   46565820.7712321     
   46565668.3070380     
   46565514.7896055     
   46565360.7165901     
   46565206.5861569     
   46565052.8968838     
   46564900.1476688     
   46564748.8376414     
   46564599.4660781     
   46564452.5323216     
   46564308.5357035     
   46564167.9754707     
   46564031.3507160     
   46563899.1603107     
   46563771.9028414     
   46563650.0765497     
   46563534.1792748     
   46563424.7083987     
   46563322.1607951     
   46563227.0327795     
   46563139.8200634     
   46563061.0177096     
   46562991.1200906     
   46562930.6208489     
   46562880.0128593     
   46562839.7881936     
   46562810.4380864     
   46562792.4529034     
   46562786.3221111     
   46184192.3802384     
   46184185.2116480     
   46184164.0746357     
   46184129.5251996     
   46184082.1230198     
   46184022.4312189     
   46183951.0161302     
   46183868.4470748     
   46183775.2961464     
   46183672.1380032     
   46183559.5496685     
   46183438.1103372     
   46183308.4011911     
   46183171.0052203     
   46183026.5070513     
   46182875.4927832     
   46182718.5498284     
   46182556.2667620     
   46182389.2331754     
   46182218.0395378     
   46182043.2770620     
   46181865.5375774     
   46181685.4134078     
   46181503.4972552     
   46181320.3820883     
   46181136.6610370     
   46180952.9272913     
   46180769.7740054     
   46180587.7942068     
   46180407.5807093     
   46180229.7260313     
   46180054.8223176     
   46179883.4612664     
   46179716.2340591     
   46179553.7312953     
   46179396.5429304     
   46179245.2582177     
   46179100.4656537     
   46178962.7529265     
   46178832.7068679     
   46178710.9134082     
   46178597.9575339     
   46178494.4232491     
   46178400.8935380     
   46178317.9503319     
   46178246.1744768     
   46178186.1457046     
   46178138.4426059     
   46178103.6426050     
   46178082.3219368     
   46178075.0556257     
   45794440.6494878     
   45794432.2411081     
   45794407.4571211     
   45794366.9617898     
   45794311.4226176     
   45794241.5100962     
   45794157.8974615     
   45794061.2604600     
   45793952.2771231     
   45793831.6275501     
   45793699.9937007     
   45793558.0591940     
   45793406.5091178     
   45793246.0298439     
   45793077.3088519     
   45792901.0345613     
   45792717.8961692     
   45792528.5834971     
   45792333.7868432     
   45792134.1968423     
   45791930.5043325     
   45791723.4002275     
   45791513.5753961     
   45791301.7205475     
   45791088.5261221     
   45790874.6821891     
   45790660.8783489     
   45790447.8036408     
   45790236.1464571     
   45790026.5944609     
   45789819.8345099     
   45789616.5525845     
   45789417.4337208     
   45789223.1619480     
   45789034.4202299     
   45788851.8904107     
   45788676.2531651     
   45788508.1879519     
   45788348.3729712     
   45788197.4851258     
   45788056.1999851     
   45787925.1917531     
   45787805.1332387     
   45787696.6958298     
   45787600.5494697     
   45787517.3626356     
   45787447.8023214     
   45787392.5340208     
   45787352.2217140     
   45787327.5278558     
   45787319.1133665     
   45398158.9641375     
   45398149.2879842     
   45398120.7759883     
   45398074.2049225     
   45398010.3541829     
   45397930.0055275     
   45397833.9428260     
   45397722.9518183     
   45397597.8198837     
   45397459.3358192     
   45397308.2896274     
   45397145.4723134     
   45396971.6756912     
   45396787.6921973     
   45396594.3147151     
   45396392.3364053     
   45396182.5505461     
   45395965.7503805     
   45395742.7289711     
   45395514.2790633     
   45395281.1929547     
   45395044.2623726     
   45394804.2783576     
   45394562.0311543     
   45394318.3101085     
   45394073.9035708     
   45393829.5988062     
   45393586.1819094     
   45393344.4377268     
   45393105.1497826     
   45392869.1002121     
   45392637.0696985     
   45392409.8374162     
   45392188.1809778     
   45391972.8763868     
   45391764.6979940     
   45391564.4184586     
   45391372.8087140     
   45391190.6379363     
   45391018.6735181     
   45390857.6810453     
   45390708.4242769     
   45390571.6651295     
   45390448.1636632     
   45390338.6780726     
   45390243.9646787     
   45390164.7779247     
   45390101.8703741     
   45390055.9927110     
   45390027.8937426     
   45390018.3204043     
   44994853.6099912     
   44994842.6392410     
   44994810.3217570     
   44994757.5511589     
   44994685.2228793     
   44994594.2338982     
   44994485.4824905     
   44994359.8679824     
   44994218.2905204     
   44994061.6508492     
   44993890.8501009     
   44993706.7895931     
   44993510.3706377     
   44993302.4943584     
   44993084.0615180     
   44992855.9723542     
   44992619.1264244     
   44992374.4224596     
   44992122.7582252     
   44991865.0303917     
   44991602.1344119     
   44991334.9644065     
   44991064.4130567     
   44990791.3715045     
   44990516.7292599     
   44990241.3741147     
   44989966.1920631     
   44989692.0672287     
   44989419.8817979     
   44989150.5159590     
   44988884.8478470     
   44988623.7534949     
   44988368.1067891     
   44988118.7794313     
   44987876.6409046     
   44987642.5584449     
   44987417.3970163     
   44987202.0192922     
   44986997.2856393     
   44986804.0541068     
   44986623.1804187     
   44986455.5179705     
   44986301.9178292     
   44986163.2287364     
   44986040.2971151     
   44985933.9670791     
   44985845.0804457     
   44985774.4767508     
   44985722.9932663     
   44985691.4650205     
   44985680.7248199     
   44584040.1200561     
   44584027.8299626     
   44583991.6357494     
   44583932.5522218     
   44583851.5949763     
   44583749.7801384     
   44583628.1241119     
   44583487.6433407     
   44583329.3540809     
   44583154.2721852     
   44582963.4128977     
   44582757.7906590     
   44582538.4189226     
   44582306.3099810     
   44582062.4748008     
   44581807.9228695     
   44581543.6620497     
   44581270.6984432     
   44580990.0362644     
   44580702.6777219     
   44580409.6229084     
   44580111.8696993     
   44579810.4136589     
   44579506.2479543     
   44579200.3632768     
   44578893.7477714     
   44578587.3869715     
   44578282.2637425     
   44577979.3582307     
   44577679.6478191     
   44577384.1070889     
   44577093.7077878     
   44576809.4188032     
   44576532.2061412     
   44576263.0329116     
   44576002.8593169     
   44575752.6426470     
   44575513.3372784     
   44575285.8946779     
   44575071.2634105     
   44574870.3891520     
   44574684.2147048     
   44574513.6800175     
   44574359.7222092     
   44574223.2755950     
   44574105.2717169     
   44574006.6393763     
   44573928.3046699     
   44573871.1910276     
   44573836.2192536     
   44573824.3075695     
   44165245.0333523     
   44165231.4022468     
   44165191.2692365     
   44165125.7745478     
   44165036.0579524     
   44164923.2585131     
   44164788.5143428     
   44164632.9623755     
   44164457.7381494     
   44164263.9756026     
   44164052.8068794     
   44163825.3621486     
   44163582.7694324     
   44163326.1544463     
   44163056.6404496     
   44162775.3481057     
   44162483.3953522     
   44162181.8972820     
   44161871.9660316     
   44161554.7106809     
   44161231.2371597     
   44160902.6481649     
   44160570.0430845     
   44160234.5179304     
   44159897.1652793     
   44159559.0742210     
   44159221.3303139     
   44158885.0155479     
   44158551.2083147     
   44158220.9833837     
   44157895.4118857     
   44157575.5613017     
   44157262.4954583     
   44156957.2745290     
   44156660.9550410     
   44156374.5898867     
   44156099.2283414     
   44155835.9160853     
   44155585.6952301     
   44155349.6043507     
   44155128.6785203     
   44154923.9493506     
   44154736.4450352     
   44154567.1903965     
   44154417.2069369     
   44154287.5128924     
   44154179.1232897     
   44154093.0500063     
   44154030.3018327     
   44153991.8845378     
   44153978.8009360     
   43738007.7721417     
   43737992.7825129     
   43737948.6609734     
   43737876.6771930     
   43737778.0989030     
   43737654.1916573     
   43737506.2186069     
   43737335.4402873     
   43737143.1144187     
   43736930.4957191     
   43736698.8357285     
   43736449.3826462     
   43736183.3811790     
   43735902.0724002     
   43735606.6936207     
   43735298.4782701     
   43734978.6557877     
   43734648.4515252     
   43734309.0866572     
   43733961.7781031     
   43733607.7384570     
   43733248.1759274     
   43732884.2942850     
   43732517.2928198     
   43732148.3663059     
   43731778.7049740     
   43731409.4944925     
   43731041.9159550     
   43730677.1458762     
   43730316.3561935     
   43729960.7142764     
   43729611.3829416     
   43729269.5204747     
   43728936.2806582     
   43728612.8128045     
   43728300.2617950     
   43727999.7681244     
   43727712.4679499     
   43727439.4931458     
   43727181.9713614     
   43726941.0260851     
   43726717.7767113     
   43726513.3386118     
   43726328.8232110     
   43726165.3380643     
   43726023.9869401     
   43725905.8699050     
   43725812.0834115     
   43725743.7203889     
   43725701.8703363     
   43725687.6194178     
   43301882.6404419     
   43301866.2800848     
   43301818.1359864     
   43301739.6109481     
   43301632.1041015     
   43301497.0106910     
   43301335.7218714     
   43301149.6245180     
   43300940.1010514     
   43300708.5292736     
   43300456.2822182     
   43300184.7280118     
   43299895.2297481     
   43299589.1453733     
   43299267.8275830     
   43298932.6237301     
   43298584.8757438     
   43298225.9200586     
   43297857.0875540     
   43297479.7035032     
   43297095.0875326     
   43296704.5535898     
   43296309.4099207     
   43295910.9590559     
   43295510.4978049     
   43295109.3172587     
   43294708.7028011     
   43294309.9341263     
   43293914.2852650     
   43293523.0246172     
   43293137.4149924     
   43292758.7136552     
   43292388.1723790     
   43292027.0375043     
   43291676.5500040     
   43291337.9455536     
   43291012.4546073     
   43290701.3024788     
   43290405.7094272     
   43290126.8907483     
   43289866.0568689     
   43289624.4134466     
   43289403.1614733     
   43289203.4973817     
   43289026.6131566     
   43288873.6964485     
   43288745.9306910     
   43288644.4952207     
   43288570.5653996     
   43288525.3127408     
   43288509.9050354     
   42856440.9445748     
   42856423.2077997     
   42856371.0263547     
   42856285.9394011     
   42856169.4804420     
   42856023.1771359     
   42855848.5511230     
   42855647.1178668     
   42855420.3865090     
   42855169.8597374     
   42854897.0336669     
   42854603.3977338     
   42854290.4346015     
   42853959.6200788     
   42853612.4230494     
   42853250.3054136     
   42852874.7220401     
   42852487.1207293     
   42852088.9421864     
   42851681.6200052     
   42851266.5806613     
   42850845.2435152     
   42850419.0208242     
   42849989.3177639     
   42849557.5324573     
   42849125.0560137     
   42848693.2725742     
   42848263.5593662     
   42847837.2867650     
   42847415.8183620     
   42847000.5110414     
   42846592.7150621     
   42846193.7741469     
   42845805.0255776     
   42845427.8002964     
   42845063.4230126     
   42844713.2123148     
   42844378.4807883     
   42844060.5351378     
   42843760.6763142     
   42843480.1996462     
   42843220.3949763     
   42842982.5468000     
   42842767.9344099     
   42842577.8320426     
   42842413.5090286     
   42842276.2299460     
   42842167.2547768     
   42842087.8390654     
   42842039.2340801     
   42842022.6869764     
   42401273.2341757     
   42401254.1230648     
   42401197.9124086     
   42401106.2803618     
   42400980.8971722     
   42400823.4250306     
   42400635.5179361     
   42400418.8215746     
   42400174.9732127     
   42399905.6016033     
   42399612.3269063     
   42399296.7606211     
   42398960.5055319     
   42398605.1556654     
   42398232.2962604     
   42397843.5037485     
   42397440.3457468     
   42397024.3810610     
   42396597.1596989     
   42396160.2228951     
   42395715.1031443     
   42395263.3242456     
   42394806.4013553     
   42394345.8410492     
   42393883.1413930     
   42393419.7920220     
   42392957.2742285     
   42392497.0610569     
   42392040.6174068     
   42391589.4001427     
   42391144.8582122     
   42390708.4327686     
   42390281.5573021     
   42389865.6577765     
   42389462.1527708     
   42389072.4536285     
   42388697.9646101     
   42388340.0830523     
   42388000.1995316     
   42387679.6980324     
   42387379.9561195     
   42387102.3451150     
   42386848.2302786     
   42386618.9709925     
   42386415.9209485     
   42386240.4283394     
   42386093.8360524     
   42385977.4818663     
   42385892.6986501     
   42385840.8145647     
   42385823.1532663     
   41935991.6595541     
   41935971.1852546     
   41935910.9802312     
   41935812.8635341     
   41935678.6437941     
   41935510.1191171     
   41935309.0769953     
   41935077.2942313     
   41934816.5368775     
   41934528.5601883     
   41934215.1085866     
   41933877.9156428     
   41933518.7040661     
   41933139.1857095     
   41932741.0615852     
   41932326.0218928     
   41931895.7460584     
   41931451.9027845     
   41930996.1501112     
   41930530.1354869     
   41930055.4958496     
   41929573.8577179     
   41929086.8372906     
   41928596.0405565     
   41928103.0634120     
   41927609.4917876     
   41927116.9017825     
   41926626.8598066     
   41926140.9227305     
   41925660.6380430     
   41925187.5440143     
   41924723.1698674     
   41924269.0359547     
   41923826.6539414     
   41923397.5269944     
   41922983.1499767     
   41922585.0096472     
   41922204.5848658     
   41921843.3468024     
   41921502.7591516     
   41921184.2783505     
   41920889.3538013     
   41920619.4280972     
   41920375.9372521     
   41920160.3109331     
   41919973.9726970     
   41919818.3402282     
   41919694.8255806     
   41919604.8354208     
   41919549.7712740     
   41919531.0297715     
   41460232.4385888     
   41460210.6226291     
   41460146.4886442     
   41460041.9976102     
   41459899.0973069     
   41459719.7222664     
   41459505.7937372     
   41459259.2196625     
   41458981.8946723     
   41458675.7000903     
   41458342.5039534     
   41457984.1610444     
   41457602.5129378     
   41457199.3880577     
   41456776.6017477     
   41456335.9563525     
   41455879.2413109     
   41455408.2332595     
   41454924.6961477     
   41454430.3813617     
   41453927.0278599     
   41453416.3623170     
   41452900.0992776     
   41452379.9413187     
   41451857.5792212     
   41451334.6921492     
   41450812.9478374     
   41450294.0027867     
   41449779.5024663     
   41449271.0815238     
   41448770.3640016     
   41448278.9635594     
   41447798.4837037     
   41447330.5180228     
   41446876.6504274     
   41446438.4553966     
   41446017.4982287     
   41445615.3352976     
   41445233.5143127     
   41444873.5745839     
   41444537.0472902     
   41444225.4557522     
   41443940.3157081     
   41443683.1355927     
   41443455.4168204     
   41443258.6540696     
   41443094.3355707     
   41442963.9433962     
   41442868.9537529     
   41442810.8372756     
   41442791.0593231     
   40973658.4234736     
   40973635.2990895     
   40973567.3359933     
   40973456.6371028     
   40973305.2891020     
   40973115.3624524     
   40972888.9114174     
   40972627.9741028     
   40972334.5725103     
   40972010.7126056     
   40971658.3843994     
   40971279.5620413     
   40970876.2039273     
   40970450.2528181     
   40970003.6359706     
   40969538.2652804     
   40969056.0374355     
   40968558.8340809     
   40968048.5219939     
   40967526.9532691     
   40966995.9655137     
   40966457.3820515     
   40965913.0121371     
   40965364.6511778     
   40964814.0809642     
   40964263.0699095     
   40963713.3732959     
   40963166.7335285     
   40962624.8803968     
   40962089.5313424     
   40961562.3917338     
   40961045.1551469     
   40960539.5036517     
   40960047.1081047     
   40959569.6284460     
   40959108.7140026     
   40958666.0037952     
   40958243.1268504     
   40957841.7025166     
   40957463.3407840     
   40957109.6426086     
   40956782.2002393     
   40956482.5975482     
   40956212.4103640     
   40955973.2068081     
   40955766.5476334     
   40955593.9865647     
   40955457.0706419     
   40955357.3405646     
   40955296.3310383     
   40955275.5711222     
   40475961.7546350     
   40475937.3680926     
   40475865.7140538     
   40475749.0362378     
   40475589.5588389     
   40475389.4866062     
   40475151.0049384     
   40474876.2799934     
   40474567.4588113     
   40474226.6694517     
   40473856.0211435     
   40473457.6044486     
   40473033.4914366     
   40472585.7358737     
   40472116.3734209     
   40471627.4218459     
   40471120.8812442     
   40470598.7342720     
   40470062.9463887     
   40469515.4661094     
   40468958.2252673     
   40468393.1392847     
   40467822.1074531     
   40467247.0132221     
   40466669.7244956     
   40466092.0939365     
   40465515.9592784     
   40464943.1436447     
   40464375.4558743     
   40463814.6908536     
   40463262.6298550     
   40462721.0408807     
   40462191.6790126     
   40461676.2867670     
   40461176.5944541     
   40460694.3205430     
   40460231.1720295     
   40459788.8448094     
   40459369.0240550     
   40458973.3845950     
   40458603.5912979     
   40458261.2994585     
   40457948.1551868     
   40457665.7957999     
   40457415.8502159     
   40457199.9393498     
   40457019.6765118     
   40456876.6678064     
   40456772.5125338     
   40456708.8035919     
   40456687.1278796     
   39966866.5860631     
   39966840.9979678     
   39966765.8333044     
   39966643.4741598     
   39966476.2795568     
   39966266.5856126     
   39966016.7057106     
   39965728.9306875     
   39965405.5290339     
   39965048.7471081     
   39964660.8093633     
   39964243.9185872     
   39963800.2561543     
   39963331.9822896     
   39962841.2363440     
   39962330.1370806     
   39961800.7829722     
   39961255.2525087     
   39960695.6045142     
   39960123.8784744     
   39959542.0948723     
   39958952.2555336     
   39958356.3439793     
   39957756.3257878     
   39957154.1489635     
   39956551.7443131     
   39955951.0258295     
   39955353.8910808     
   39954762.2216075     
   39954177.8833239     
   39953602.7269263     
   39953038.5883059     
   39952487.2889670     
   39951950.6364492     
   39951430.4247552     
   39950928.4347814     
   39950446.4347529     
   39949986.1806619     
   39949549.4167097     
   39949137.8757506     
   39948753.2797399     
   39948397.3401835     
   39948071.7585897     
   39947778.2269233     
   39947518.4280615     
   39947294.0362514     
   39947106.7175680     
   39946958.1303749     
   39946849.9257844     
   39946783.7481190     
   39946761.2353742     
   39446131.8631888     
   39446105.1497677     
   39446026.7007057     
   39445899.0325925     
   39445724.6351787     
   39445505.9716192     
   39445245.4787313     
   39444945.5672670     
   39444608.6221982     
   39444237.0030164     
   39443833.0440438     
   39443399.0547577     
   39442937.3201269     
   39442450.1009588     
   39441939.6342592     
   39441408.1336010     
   39440857.7895048     
   39440290.7698285     
   39439709.2201667     
   39439115.2642593     
   39438511.0044083     
   39437898.5219039     
   39437279.8774574     
   39436657.1116420     
   39436032.2453414     
   39435407.2802037     
   39434784.1991032     
   39434164.9666073     
   39433551.5294489     
   39432945.8170052     
   39432349.7417801     
   39431765.1998918     
   39431194.0715651     
   39430638.2216269     
   39430099.5000059     
   39429579.7422355     
   39429080.7699595     
   39428604.3914413     
   39428152.4020745     
   39427726.5848970     
   39427328.7111061     
   39426960.5405759     
   39426623.8223760     
   39426320.2952919     
   39426051.6883455     
   39425819.7213177     
   39425626.1052711     
   39425472.5430729     
   39425360.7299187     
   39425292.3538563     
   39425269.0963091     
   38913554.1313351     
   38913526.3856875     
   38913444.9280233     
   38913312.4040103     
   38913131.4284764     
   38912904.5857465     
   38912634.4299943     
   38912323.4856077     
   38911974.2475676     
   38911589.1818400     
   38911170.7257800     
   38910721.2885486     
   38910243.2515410     
   38909738.9688254     
   38909210.7675941     
   38908660.9486232     
   38908091.7867434     
   38907505.5313198     
   38906904.4067407     
   38906290.6129148     
   38905666.3257771     
   38905033.6978016     
   38904394.8585221     
   38903751.9150593     
   38903106.9526545     
   38902462.0352095     
   38901819.2058316     
   38901180.4873846     
   38900547.8830438     
   38899923.3768562     
   38899308.9343042     
   38898706.5028737     
   38898118.0126250     
   38897545.3767672     
   38896990.4922351     
   38896455.2402688     
   38895941.4869952     
   38895451.0840119     
   38894985.8689717     
   38894547.6661697     
   38894138.2871304     
   38893759.5311964     
   38893413.1861173     
   38893101.0286395     
   38892824.8250955     
   38892586.3319940     
   38892387.2966094     
   38892229.4575712     
   38892114.5454528     
   38892044.2833599     
   38892020.3875181     
   38368970.3497768     
   38368941.6830868     
   38368857.5457414     
   38368720.7053772     
   38368533.8945755     
   38368299.8113024     
   38368021.1193613     
   38367700.4488599     
   38367340.3966905     
   38366943.5270230     
   38366512.3718099     
   38366049.4313037     
   38365557.1745847     
   38365038.0401010     
   38364494.4362176     
   38363928.7417758     
   38363343.3066623     
   38362740.4523867     
   38362122.4726676     
   38361491.6340266     
   38360850.1763893     
   38360200.3136942     
   38359544.2345072     
   38358884.1026423     
   38358222.0577881     
   38357560.2161393     
   38356900.6710328     
   38356245.4935884     
   38355596.7333527     
   38354956.4189471     
   38354326.5587185     
   38353709.1413930     
   38353106.1367316     
   38352519.4961878     
   38351951.1535676     
   38351403.0256900     
   38350877.0130487     
   38350375.0004751     
   38349898.8578007     
   38349450.4405212     
   38349031.5904589     
   38348644.1364263     
   38348289.8948882     
   38347970.6706238     
   38347688.2573873     
   38347444.4385685     
   38347240.9878510     
   38347079.6698699     
   38346962.2408683     
   38346890.4493512     
   38346866.0367391     
   37812260.6835943     
   37812231.2263049     
   37812144.7947690     
   37812004.2696773     
   37811812.4922493     
   37811572.2647820     
   37811286.3512132     
   37810957.4776983     
   37810588.3332000     
   37810181.5700915     
   37809739.8047705     
   37809265.6182858     
   37808761.5569748     
   37808230.1331108     
   37807673.8255604     
   37807095.0804511     
   37806496.3118464     
   37805879.9024298     
   37805248.2041964     
   37804603.5391514     
   37803948.2000157     
   37803284.4509367     
   37802614.5282053     
   37801940.6409782     
   37801264.9720032     
   37800589.6783506     
   37799916.8921464     
   37799248.7213094     
   37798587.2502911     
   37797934.5408171     
   37797292.6326309     
   37796663.5442385     
   37796049.2736547     
   37795451.7991494     
   37794873.0799944     
   37794315.0572102     
   37793779.6543120     
   37793268.7780560     
   37792784.3191834     
   37792328.1531644     
   37791902.1409401     
   37791508.1296629     
   37791147.9534349     
   37790823.4340448     
   37790536.3817017     
   37790288.5957678     
   37790081.8654873     
   37789917.9707138     
   37789798.6826347     
   37789725.7644925     
   37789700.9723044     
   37243351.2429311     
   37243321.1458860     
   37243232.8655669     
   37243089.3848862     
   37242893.6426767     
   37242648.5343592     
   37242356.9126245     
   37242021.5881289     
   37241645.3302036     
   37241230.8675759     
   37240780.8891030     
   37240298.0445166     
   37239784.9451784     
   37239244.1648458     
   37238678.2404466     
   37238089.6728624     
   37237480.9277210     
   37236854.4361947     
   37236212.5958067     
   37235557.7712431     
   37234892.2951706     
   37234218.4690595     
   37233538.5640100     
   37232854.8215835     
   37232169.4546368     
   37231484.6481581     
   37230802.5601066     
   37230125.3222523     
   37229455.0410178     
   37228793.7983207     
   37228143.6524153     
   37227506.6387353     
   37226884.7707348     
   37226280.0407286     
   37225694.4207314     
   37225129.8632943     
   37224588.3023402     
   37224071.6539959     
   37223581.8174220     
   37223120.6756399     
   37222690.0963550     
   37222291.9327774     
   37221928.0244380     
   37221600.1980020     
   37221310.2680773     
   37221060.0380204     
   37220851.3007365     
   37220685.8394773     
   37220565.4286334     
   37220491.8345227     
   37220466.8161755     
   36662216.7370470     
   36662186.1726072     
   36662096.5521058     
   36661950.9478123     
   36661752.3831246     
   36661503.8333651     
   36661208.2265913     
   36660868.4444208     
   36660487.3228696     
   36660067.6532027     
   36659612.1827973     
   36659123.6160163     
   36658604.6150924     
   36658057.8010222     
   36657485.7544687     
   36656891.0166716     
   36656276.0903656     
   36655643.4407045     
   36654995.4961915     
   36654334.6496147     
   36653663.2589860     
   36652983.6484850     
   36652298.1094051     
   36651608.9011015     
   36650918.2519415     
   36650228.3602555     
   36649541.3952887     
   36648859.4981517     
   36648184.7827718     
   36647519.3368412     
   36646865.2227654     
   36646224.4786071     
   36645599.1190297     
   36644991.1362354     
   36644402.5009014     
   36643835.1631112     
   36643291.0532821     
   36642772.0830876     
   36642280.1463755     
   36641817.1200804     
   36641384.8651311     
   36640985.2273523     
   36640620.0383609     
   36640291.1164559     
   36640000.2675029     
   36639749.2858122     
   36639539.9550116     
   36639374.0489118     
   36639253.3323673     
   36639179.5621305     
   36639154.4876995     
   36068883.0088172     
   36068852.1719676     
   36068761.7863232     
   36068614.9984978     
   36068414.9012633     
   36068164.5344855     
   36067866.8860747     
   36067524.8929520     
   36067141.4420282     
   36066719.3711963     
   36066261.4703353     
   36065770.4823256     
   36065249.1040732     
   36064699.9875444     
   36064125.7408075     
   36063528.9290821     
   36062912.0757952     
   36062277.6636414     
   36061628.1356494     
   36060965.8962503     
   36060293.3123501     
   36059612.7144035     
   36058926.3974891     
   36058236.6223850     
   36057545.6166436     
   36056855.5756663     
   36056168.6637753     
   36055487.0152838     
   36054812.7355625     
   36054147.9021029     
   36053494.5655762     
   36052854.7508873     
   36052230.4582231     
   36051623.6640963     
   36051036.3223815     
   36050470.3653456     
   36049927.7046711     
   36049410.2324720     
   36048919.8223021     
   36048458.3301555     
   36048027.5954593     
   36047629.4420579     
   36047265.6791890     
   36046938.1024510     
   36046648.4947624     
   36046398.6273121     
   36046190.2605015     
   36046025.1448783     
   36045905.0220615     
   36045831.6256587     
   36045806.6821749     
   35463429.4142196     
   35463398.5236828     
   35463308.0176322     
   35463161.0997400     
   35462960.9146892     
   35462710.5492627     
   35462413.0334482     
   35462071.3415593     
   35461688.3933698     
   35461267.0552623     
   35460810.1413867     
   35460320.4148314     
   35459800.5888029     
   35459253.3278136     
   35458681.2488780     
   35458086.9227137     
   35457472.8749486     
   35456841.5873310     
   35456195.4989434     
   35455537.0074181     
   35454868.4701529     
   35454192.2055278     
   35453510.4941200     
   35452825.5799168     
   35452139.6715262     
   35451454.9433833     
   35450773.5369530     
   35450097.5619261     
   35449429.0974110     
   35448770.1931178     
   35448122.8705351     
   35447489.1240996     
   35446870.9223565     
   35446270.2091114     
   35445688.9045726     
   35445128.9064836     
   35444592.0912453     
   35444080.3150281     
   35443595.4148721     
   35443139.2097775     
   35442713.5017828     
   35442320.0770318     
   35441960.7068290     
   35441637.1486839     
   35441351.1473428     
   35441104.4358094     
   35440898.7363545     
   35440735.7615129     
   35440617.2150704     
   35440544.7930391     
   35440520.1846219     
   34845991.0110097     
   34845960.3103841     
   34845870.4016814     
   34845724.5259286     
   34845525.8598371     
   34845277.5170624     
   34844982.5494804     
   34844643.9484811     
   34844264.6462757     
   34843847.5172177     
   34843395.3791350     
   34842910.9946737     
   34842397.0726487     
   34841856.2694033     
   34841291.1901747     
   34840704.3904633     
   34840098.3774064     
   34839475.6111533     
   34838838.5062414     
   34838189.4329723     
   34837530.7187850     
   34836864.6496281     
   34836193.4713266     
   34835519.3909447     
   34834844.5781421     
   34834171.1665237     
   34833501.2549810     
   34832836.9090259     
   34832180.1621133     
   34831533.0169547     
   34830897.4468206     
   34830275.3968305     
   34829668.7852312     
   34829079.5046625     
   34828509.4234085     
   34827960.3866366     
   34827434.2176207     
   34826932.7189510     
   34826457.6737283     
   34826010.8467439     
   34825593.9856432     
   34825208.8220753     
   34824857.0728255     
   34824540.4409339     
   34824260.6167974     
   34824019.2792569     
   34823818.0966692     
   34823658.7279638     
   34823542.8236849     
   34823472.0270190     
   34823447.9748081     
   34216760.5214265     
   34216730.2803608     
   34216641.7631859     
   34216498.2259860     
   34216302.8550204     
   34216058.7681745     
   34215769.0164305     
   34215436.5853545     
   34215064.3965990     
   34214655.3094181     
   34214212.1221942     
   34213737.5739746     
   34213234.3460149     
   34212705.0633297     
   34212152.2962466     
   34211578.5619632     
   34210986.3261052     
   34210378.0042843     
   34209755.9636532     
   34209122.5244581     
   34208479.9615855     
   34207830.5061036     
   34207176.3467952     
   34206519.6316828     
   34205862.4695431     
   34205206.9314108     
   34204555.0520705     
   34203908.8315347     
   34203270.2365093     
   34202641.2018426     
   34202023.6319600     
   34201419.4022820     
   34200830.3606245     
   34200258.3285825     
   34199705.1028954     
   34199172.4567928     
   34198662.1413228     
   34198175.8866597     
   34197715.4033927     
   34197282.3837941     
   34196878.5030684     
   34196505.4205806     
   34196164.7810642     
   34195858.2158097     
   34195587.3438326     
   34195353.7730216     
   34195159.1012672     
   34195004.9175709     
   34194892.8031351     
   34194824.3324347     
   34194801.0742704     
   33575990.0356015     
   33575960.5510056     
   33575874.2994481     
   33575734.5269567     
   33575544.4040357     
   33575307.0273386     
   33575025.4213600     
   33574702.5401446     
   33574341.2690114     
   33573944.4262908     
   33573514.7650712     
   33573054.9749546     
   33572567.6838177     
   33572055.4595765     
   33571520.8119535     
   33570966.1942433     
   33570394.0050778     
   33569806.5901851     
   33569206.2441449     
   33568595.2121343     
   33567975.6916659     
   33567349.8343143     
   33566719.7474303     
   33566087.4958426     
   33565455.1035429     
   33564824.5553560     
   33564197.7985922     
   33563576.7446811     
   33562963.2707862     
   33562359.2213990     
   33561766.4099117     
   33561186.6201682     
   33560621.6079926     
   33560073.1026931     
   33559542.8085442     
   33559032.4062422     
   33558543.5543376     
   33558077.8906420     
   33557637.0336089     
   33557222.5836897     
   33556836.1246644     
   33556479.2249450     
   33556153.4388550     
   33555860.3078820     
   33555601.3619052     
   33555378.1203981     
   33555192.0936054     
   33555044.7836957     
   33554937.6858905     
   33554872.2895683     
   33554850.0793469     
   32923992.4256422     
   32923964.0229084     
   32923880.9944367     
   32923746.5479761     
   32923563.8098672     
   32923335.8269714     
   32923065.5686198     
   32922755.9285795     
   32922409.7270342     
   32922029.7125749     
   32921618.5641999     
   32921178.8933202     
   32920713.2457670     
   32920224.1038006     
   32919713.8881161     
   32919184.9598456     
   32918639.6225524     
   32918080.1242172     
   32917508.6592126     
   32916927.3702646     
   32916338.3503997     
   32915743.6448744     
   32915145.2530874     
   32914545.1304706     
   32913945.1903605     
   32913347.3058447     
   32912753.3115867     
   32912165.0056237     
   32911584.1511393     
   32911012.4782087     
   32910451.6855159     
   32909903.4420417     
   32909369.3887231     
   32908851.1400814     
   32908350.2858204     
   32907868.3923934     
   32907407.0045379     
   32906967.6467799     
   32906551.8249044     
   32906161.0273955     
   32905796.7268428     
   32905460.3813166     
   32905153.4357099     
   32904877.3230496     
   32904633.4657746     
   32904423.2769832     
   32904248.1616496     
   32904109.5178084     
   32904008.7377105     
   32903947.2089483     
   32903926.3155525     
   32261142.4454604     
   32261115.4796260     
   32261036.7183145     
   32260909.2992877     
   32260736.2728390     
   32260520.6040264     
   32260265.1749242     
   32259972.7868903     
   32259646.1628446     
   32259287.9495560     
   32258900.7199337     
   32258486.9753190     
   32258049.1477767     
   32257589.6023793     
   32257110.6394853     
   32256614.4970048     
   32256103.3526535     
   32255579.3261890     
   32255044.4816303     
   32254500.8294555     
   32253950.3287784     
   32253394.8894991     
   32252836.3744294     
   32252276.6013896     
   32251717.3452762     
   32251160.3400983     
   32250607.2809824     
   32250059.8261430     
   32249519.5988195     
   32248988.1891774     
   32248467.1561733     
   32247958.0293829     
   32247462.3107917     
   32246981.4765469     
   32246516.9786715     
   32246070.2467388     
   32245642.6895077     
   32245235.6965189     
   32244850.6396506     
   32244488.8746354     
   32244151.7425370     
   32243840.5711871     
   32243556.6765837     
   32243301.3642486     
   32243075.9305478     
   32242881.6639716     
   32242719.8463776     
   32242591.7541959     
   32242498.6595964     
   32242441.8316211     
   32242422.5372794     
   31587877.4987080     
   31587852.3554213     
   31587778.9945073     
   31587660.4480477     
   31587499.6544602     
   31587299.4610936     
   31587062.6268394     
   31586791.8247544     
   31586489.6446898     
   31586158.5959226     
   31585801.1097855     
   31585419.5422900     
   31585016.1767409     
   31584593.2263367     
   31584152.8367538     
   31583697.0887109     
   31583228.0005101     
   31582747.5305535     
   31582257.5798305     
   31581759.9943749     
   31581256.5676900     
   31580749.0431379     
   31580239.1162929     
   31579728.4372560     
   31579218.6129306     
   31578711.2092555     
   31578207.7533974     
   31577709.7358983     
   31577218.6127793     
   31576735.8075995     
   31576262.7134682     
   31575800.6950114     
   31575351.0902906     
   31574915.2126749     
   31574494.3526656     
   31574089.7796715     
   31573702.7437386     
   31573334.4772293     
   31572986.1964550     
   31572659.1032609     
   31572354.3865613     
   31572073.2238293     
   31571816.7825375     
   31571586.2215524     
   31571382.6924815     
   31571207.3409746     
   31571061.3079788     
   31570945.7309483     
   31570861.7450098     
   31570810.4840831     
   31570793.0819592     
   30904698.0671918     
   30904675.1632428     
   30904608.4262697     
   30904500.7423580     
   30904354.8976781     
   30904173.5815172     
   30903959.3893206     
   30903714.8257360     
   30903442.3076560     
   30903144.1672533     
   30902822.6550029     
   30902479.9426881     
   30902118.1263846     
   30901739.2294199     
   30901345.2053027     
   30900937.9406197     
   30900519.2578974     
   30900090.9184236     
   30899654.6250286     
   30899212.0248212     
   30898764.7118792     
   30898314.2298915     
   30897862.0747503     
   30897409.6970916     
   30896958.5047831     
   30896509.8653584     
   30896065.1083961     
   30895625.5278432     
   30895192.3842825     
   30894766.9071432     
   30894350.2968541     
   30893943.7269400     
   30893548.3460600     
   30893165.2799886     
   30892795.6335391     
   30892440.4924296     
   30892100.9250916     
   30891777.9844213     
   30891472.7094745     
   30891186.1271045     
   30890919.2535435     
   30890673.0959288     
   30890448.6537722     
   30890246.9203756     
   30890068.8841905     
   30889915.5301239     
   30889787.8407905     
   30889686.7977106     
   30889613.3824564     
   30889568.5777451     
   30889553.3684813     
   30212167.8054924     
   30212147.5885202     
   30212088.7878849     
   30211994.0979231     
   30211866.1068994     
   30211707.3005655     
   30211520.0657170     
   30211306.6937389     
   30211069.3841357     
   30210810.2480379     
   30210531.3116800     
   30210234.5198459     
   30209921.7392742     
   30209594.7620211     
   30209255.3087762     
   30208905.0321269     
   30208545.5197688     
   30208178.2976585     
   30207804.8331068     
   30207426.5378095     
   30207044.7708144     
   30206660.8414220     
   30206276.0120194     
   30205891.5008463     
   30205508.4846912     
   30205128.1015188     
   30204751.4530267     
   30204379.6071326     
   30204013.6003908     
   30203654.4403388     
   30203303.1077743     
   30202960.5589621     
   30202627.7277730     
   30202305.5277530     
   30201994.8541259     
   30201696.5857273     
   30201411.5868729     
   30201140.7091601     
   30200884.7932043     
   30200644.6703105     
   30200421.1640807     
   30200215.0919569     
   30200027.2667018     
   30199858.4978162     
   30199709.5928943     
   30199581.3589173     
   30199474.6034854     
   30199390.1359887     
   30199328.7687174     
   30199291.3179125     
   30199278.6047551     
   29510913.3250399     
   29510896.2718250     
   29510846.8029295     
   29510767.3687388     
   29510660.3077555     
   29510527.8507953     
   29510372.1251600     
   29510195.1587787     
   29509998.8843097     
   29509785.1431969     
   29509555.6896728     
   29509312.1947034     
   29509056.2498691     
   29508789.3711771     
   29508513.0028010     
   29508228.5207435     
   29507937.2364195     
   29507640.4001569     
   29507339.2046127     
   29507034.7881022     
   29506728.2378408     
   29506420.5930976     
   29506112.8482585     
   29505805.9558017     
   29505500.8291820     
   29505198.3456279     
   29504899.3488495     
   29504604.6516593     
   29504315.0385074     
   29504031.2679304     
   29503754.0749180     
   29503484.1731962     
   29503222.2574301     
   29502969.0053474     
   29502725.0797840     
   29502491.1306531     
   29502267.7968388     
   29502055.7080169     
   29501855.4864025     
   29501667.7484259     
   29501493.1063392     
   29501332.1697521     
   29501185.5470995     
   29501053.8470408     
   29500937.6797910     
   29500837.6583849     
   29500754.3998736     
   29500688.5264534     
   29500640.6665282     
   29500611.4557041     
   29500601.5377165     
   28801623.7137138     
   28801610.3261847     
   28801571.6545585     
   28801509.8453813     
   28801426.9282503     
   28801324.8207774     
   28801205.3334963     
   28801070.1747070     
   28800920.9552469     
   28800759.1931806     
   28800586.3184026     
   28800403.6771448     
   28800212.5363848     
   28800014.0881490     
   28799809.4537068     
   28799599.6876526     
   28799385.7818730     
   28799168.6693972     
   28798949.2281289     
   28798728.2844594     
   28798506.6167622     
   28798284.9587687     
   28798064.0028263     
   28797844.4030407     
   28797626.7783035     
   28797411.7152078     
   28797199.7708538     
   28796991.4755474     
   28796787.3353950     
   28796587.8347962     
   28796393.4388391     
   28796204.5956001     
   28796021.7383523     
   28795845.2876843     
   28795675.6535337     
   28795513.2371372     
   28795358.4328997     
   28795211.6301859     
   28795073.2150354     
   28794943.5718034     
   28794823.0847296     
   28794712.1394349     
   28794611.1243482     
   28794520.4320635     
   28794440.4606277     
   28794371.6147591     
   28794314.3069960     
   28794268.9587766     
   28794236.0014462     
   28794215.8771943     
   28794209.0399182     
   28085049.8666735     
   28085040.6643915     
   28085014.3020518     
   28084972.5533040     
   28084917.0711330     
   28084849.3937412     
   28084770.9503283     
   28084683.0667603     
   28084586.9711155     
   28084483.7991002     
   28084374.5993253     
   28084260.3384378     
   28084141.9061003     
   28084020.1198158     
   28083895.7295927     
   28083769.4224476     
   28083641.8267451     
   28083513.5163739     
   28083385.0147591     
   28083256.7987121     
   28083129.3021206     
   28083002.9194809     
   28082878.0092765     
   28082754.8972066     
   28082633.8792691     
   28082515.2247038     
   28082399.1787999     
   28082285.9655748     
   28082175.7903287     
   28082068.8420818     
   28081965.2958996     
   28081865.3151121     
   28081769.0534328     
   28081676.6569824     
   28081588.2662240     
   28081504.0178115     
   28081424.0463598     
   28081348.4861368     
   28081277.4726839     
   28081211.1443655     
   28081149.6438526     
   28081093.1195391     
   28081041.7268955     
   28080995.6297584     
   28080955.0015563     
   28080920.0264728     
   28080890.9005442     
   28080867.8326907     
   28080851.0456797     
   28080840.7770186     
   28080837.2797746     
   27362003.7429481     
   27361999.2503476     
   27361986.7162235     
   27361967.4613432     
   27361942.6843283     
   27361913.4686344     
   27361880.7893607     
   27361845.5198809     
   27361808.4382807     
   27361770.2335941     
   27361731.5118274     
   27361692.8017657     
   27361654.5605563     
   27361617.1790626     
   27361580.9869899     
   27361546.2577793     
   27361513.2132702     
   27361482.0281360     
   27361452.8340932     
   27361425.7238898     
   27361400.7550795     
   27361377.9535864     
   27361357.3170696     
   27361338.8180950     
   27361322.4071243     
   27361308.0153295     
   27361295.5572443     
   27361284.9332614     
   27361276.0319875     
   27361268.7324649     
   27361262.9062703     
   27361258.4195022     
   27361255.1346643     
   27361252.9124559     
   27361251.6134770     
   27361251.0998562     
   27361251.2368090     
   27361251.8941322     
   27361252.9476409     
   27361254.2805520     
   27361255.7848180     
   27361257.3624146     
   27361258.9265823     
   27361260.4030240     
   27361261.7310581     
   27361262.8647256     
   27361263.7738482     
   27361264.4450363     
   27361264.8826410     
   27361265.1096440     
   27361265.1684822     
   26633357.7141311     
   26633358.4402057     
   26633361.1975688     
   26633366.7611132     
   26633375.7855982     
   26633388.8139357     
   26633406.2852241     
   26633428.5424995     
   26633455.8401946     
   26633488.3512922     
   26633526.1741651     
   26633569.3390934     
   26633617.8144542     
   26633671.5125820     
   26633730.2952976     
   26633793.9791081     
   26633862.3400837     
   26633935.1184142     
   26634012.0226570     
   26634092.7336843     
   26634176.9083413     
   26634264.1828306     
   26634354.1758340     
   26634446.4913907     
   26634540.7215448     
   26634636.4487817     
   26634733.2482687     
   26634830.6899185     
   26634928.3402928     
   26635025.7643622     
   26635122.5271411     
   26635218.1952117     
   26635312.3381550     
   26635404.5299007     
   26635494.3500125     
   26635581.3849191     
   26635665.2291030     
   26635745.4862573     
   26635821.7704182     
   26635893.7070810     
   26635960.9343041     
   26636023.1038056     
   26636079.8820544     
   26636130.9513568     
   26636176.0109362     
   26636214.7780055     
   26636246.9888251     
   26636272.3997425     
   26636290.7882065     
   26636301.9537527     
   26636305.7189434     
   25900044.2436295     
   25900050.6507641     
   25900070.0119807     
   25900102.4477039     
   25900147.9654956     
   25900206.4699623     
   25900277.7722238     
   25900361.5989758     
   25900457.6011212     
   25900565.3619474     
   25900684.4048357     
   25900814.2004968     
   25900954.1737260     
   25901103.7096800     
   25901262.1596774     
   25901428.8465295     
   25901603.0694133     
   25901784.1082999     
   25901971.2279548     
   25902163.6815311     
   25902360.7137766     
   25902561.5638796     
   25902765.4679776     
   25902971.6613581     
   25903179.3803767     
   25903387.8641220     
   25903596.3558561     
   25903804.1042570     
   25904010.3644937     
   25904214.3991587     
   25904415.4790850     
   25904612.8840733     
   25904805.9035526     
   25904993.8371965     
   25905175.9955158     
   25905351.7004469     
   25905520.2859511     
   25905681.0986423     
   25905833.4984518     
   25905976.8593445     
   25906110.5700913     
   25906234.0351043     
   25906346.6753373     
   25906447.9292519     
   25906537.2538471     
   25906614.1257495     
   25906678.0423559     
   25906728.5230198     
   25906765.1102619     
   25906787.3709821     
   25906794.8976857     
   25163056.2404592     
   25163068.6984146     
   25163105.6834007     
   25163166.5338904     
   25163250.4906262     
   25163356.7083512     
   25163484.2671534     
   25163632.1831434     
   25163799.4184432     
   25163984.8904869     
   25164187.4806256     
   25164406.0420291     
   25164639.4068768     
   25164886.3928439     
   25165145.8088932     
   25165416.4603905     
   25165697.1535696     
   25165986.6993751     
   25166283.9167178     
   25166587.6351787     
   25166896.6972044     
   25167209.9598334     
   25167526.2960005     
   25167844.5954617     
   25168163.7653872     
   25168482.7306660     
   25168800.4339678     
   25169115.8356044     
   25169427.9132338     
   25169735.6614465     
   25170038.0912726     
   25170334.2296461     
   25170623.1188614     
   25170903.8160516     
   25171175.3927217     
   25171436.9343596     
   25171687.5401516     
   25171926.3228220     
   25172152.4086169     
   25172364.9374446     
   25172563.0631870     
   25172745.9541888     
   25172912.7939298     
   25173062.7818801     
   25173195.1345331     
   25173309.0866077     
   25173403.8924081     
   25173478.8273341     
   25173533.1895457     
   25173566.3017788     
   25173577.5131442     
   24423448.6054470     
   24423467.3215801     
   24423522.4482158     
   24423612.3902054     
   24423735.4808887     
   24423889.9973335     
   24424074.1737220     
   24424286.2138223     
   24424524.3025649     
   24424786.6166040     
   24425071.3337948     
   24425376.6415626     
   24425700.7441783     
   24426041.8689681     
   24426398.2714986     
   24426768.2397811     
   24427150.0975538     
   24427542.2066990     
   24427942.9688661     
   24428350.8263698     
   24428764.2624391     
   24429181.8008942     
   24429602.0053243     
   24430023.4778423     
   24430444.8574854     
   24430864.8183310     
   24431282.0673900     
   24431695.3423394     
   24432103.4091489     
   24432505.0596554     
   24432899.1091350     
   24433284.3939186     
   24433659.7690958     
   24434024.1063484     
   24434376.2919514     
   24434715.2249798     
   24435039.8157525     
   24435348.9845449     
   24435641.6605965     
   24435916.7814359     
   24436173.2925431     
   24436410.1473617     
   24436626.3076757     
   24436820.7443553     
   24436992.4384790     
   24437140.3828229     
   24437263.5836958     
   24437361.0630588     
   24437431.8608385     
   24437475.0374139     
   24437489.6768091     
   23682341.7825323     
   23682366.7051230     
   23682439.6766325     
   23682557.9839459     
   23682718.8895590     
   23682919.6463944     
   23683157.5151709     
   23683429.7803404     
   23683733.7638578     
   23684066.8368807     
   23684426.4295906     
   23684810.0392664     
   23685215.2366837     
   23685639.6709066     
   23686081.0725478     
   23686537.2555993     
   23687006.1179581     
   23687485.6407879     
   23687973.8868667     
   23688468.9980689     
   23688969.1921277     
   23689472.7588115     
   23689978.0556372     
   23690483.5032300     
   23690987.5804266     
   23691488.8192060     
   23691985.7995211     
   23692477.1440964     
   23692961.5132469     
   23693437.5997703     
   23693904.1239587     
   23694359.8287746     
   23694803.4752327     
   23695233.8380341     
   23695649.7014946     
   23696049.8558142     
   23696433.0937362     
   23696798.2076432     
   23697143.9871383     
   23697469.2171562     
   23697772.6766419     
   23698053.1378276     
   23698309.3661246     
   23698540.1206395     
   23698744.1553204     
   23698920.2207534     
   23699067.0666704     
   23699183.4452736     
   23699268.1154545     
   23699319.8475400     
   23699337.4264014     
   22940928.8089014     
   22940959.4377625     
   22941048.6288811     
   22941192.3234546     
   22941386.4982578     
   22941627.2069509     
   22941910.6019515     
   22942232.9503053     
   22942590.6472144     
   22942980.2275480     
   22943398.3748758     
   22943841.9276424     
   22944307.8823905     
   22944793.3941911     
   22945295.7746028     
   22945812.4875575     
   22946341.1435861     
   22946879.4927712     
   22947425.4167714     
   22947976.9202088     
   22948532.1216552     
   22949089.2444074     
   22949646.6071960     
   22950202.6149354     
   22950755.7495937     
   22951304.5612369     
   22951847.6592840     
   22952383.7039940     
   22952911.3981997     
   22953429.4792936     
   22953936.7114730     
   22954431.8782500     
   22954913.7752347     
   22955381.2032111     
   22955832.9615308     
   22956267.8418646     
   22956684.6223673     
   22957082.0623306     
   22957458.8974162     
   22957813.8355826     
   22958145.5538341     
   22958452.6959258     
   22958733.8711472     
   22958987.6542676     
   22959212.5866484     
   22959407.1784030     
   22959569.9113564     
   22959699.2425187     
   22959793.6081908     
   22959851.4305036     
   22959871.1331758     
   22200488.5321373     
   22200523.7558721     
   22200625.3969715     
   22200787.6913036     
   22201005.1269915     
   22201272.4054230     
   22201584.4571564     
   22201936.4701403     
   22202323.9132483     
   22202742.5499390     
   22203188.4419177     
   22203657.9445393     
   22204147.6961093     
   22204654.6030656     
   22205175.8226470     
   22205708.7442674     
   22206250.9704685     
   22206800.2980505     
   22207354.6997681     
   22207912.3068275     
   22208471.3923053     
   22209030.3555358     
   22209587.7074580     
   22210142.0568792     
   22210692.0975915     
   22211236.5962600     
   22211774.3809985     
   22212304.3305434     
   22212825.3639365     
   22213336.4306293     
   22213836.5009257     
   22214324.5566855     
   22214799.5822147     
   22215260.5552830     
   22215706.4382151     
   22216136.1690234     
   22216548.6525712     
   22216942.7517852     
   22217317.2789852     
   22217670.9874549     
   22218002.5634646     
   22218310.6190626     
   22218593.6860895     
   22218850.2120262     
   22219078.5584383     
   22219277.0028445     
   22219443.7446542     
   22219576.9149948     
   22219674.5879920     
   22219734.7857343     
   22219755.4574186     
   21462412.9592652     
   21462449.8213263     
   21462555.5542583     
   21462722.5743932     
   21462943.4052317     
   21463211.0358818     
   21463519.0692534     
   21463861.7585685     
   21464233.9870272     
   21464631.2208706     
   21465049.4522489     
   21465485.1405430     
   21465935.1564563     
   21466396.7308075     
   21466867.4086625     
   21467345.0087695     
   21467827.5879366     
   21468313.4098503     
   21468800.9177994     
   21469288.7107854     
   21469775.5225426     
   21470260.2030364     
   21470741.7020646     
   21471219.0546286     
   21471691.3677845     
   21472157.8087209     
   21472617.5938386     
   21473069.9786302     
   21473514.2481808     
   21473949.7081197     
   21474375.6758663     
   21474791.4720174     
   21475196.4117244     
   21475589.7959053     
   21475970.9021339     
   21476338.9750333     
   21476693.2159940     
   21477032.7720217     
   21477356.7235068     
   21477664.0707056     
   21477953.7187352     
   21478224.4609299     
   21478474.9605273     
   21478703.7308942     
   21478909.1149856     
   21479089.2656451     
   21479242.1300424     
   21479365.4446485     
   21479456.7527835     
   21479513.4669752     
   21479533.0167791     
   20728262.0125558     
   20728297.2761126     
   20728392.5419978     
   20728535.1086080     
   20728715.2934254     
   20728925.5807174     
   20729160.0403422     
   20729413.9241284     
   20729683.3804127     
   20729965.2485010     
   20730256.9081015     
   20730556.1671943     
   20730861.1772117     
   20731170.3679279     
   20731482.3967808     
   20731796.1089112     
   20732110.5052634     
   20732424.7168240     
   20732737.9835830     
   20733049.6371681     
   20733359.0863549     
   20733665.8048513     
   20733969.3208828     
   20734269.2082148     
   20734565.0783161     
   20734856.5734285     
   20735143.3603459     
   20735425.1247383     
   20735701.5658763     
   20735972.3916277     
   20736237.3136036     
   20736496.0423371     
   20736748.2823688     
   20736993.7271082     
   20737232.0533188     
   20737462.9150465     
   20737685.9367727     
   20737900.7055103     
   20738106.7614819     
   20738303.5868961     
   20738490.5921659     
   20738667.0986610     
   20738832.3167146     
   20738985.3170446     
   20739124.9929029     
   20739250.0089543     
   20739358.7308392     
   20739449.1261252     
   20739518.6221516     
   20739563.8978781     
   20739580.5732554     
   20000000.0000000     
   20000000.0000000     
   20000000.0000000     
   20000000.0000000     
   20000000.0000000     
   20000000.0000000     
   20000000.0000000     
   20000000.0000000     
   20000000.0000000     
   20000000.0000000     
   20000000.0000000     
   20000000.0000000     
   20000000.0000000     
   20000000.0000000     
   20000000.0000000     
   20000000.0000000     
   20000000.0000000     
   20000000.0000000     
   20000000.0000000     
   20000000.0000000     
   20000000.0000000     
   20000000.0000000     
   20000000.0000000     
   20000000.0000000     
   20000000.0000000     
   20000000.0000000     
   20000000.0000000     
   20000000.0000000     
   20000000.0000000     
   20000000.0000000     
   20000000.0000000     
   20000000.0000000     
   20000000.0000000     
   20000000.0000000     
   20000000.0000000     
   20000000.0000000     
   20000000.0000000     
   20000000.0000000     
   20000000.0000000     
   20000000.0000000     
   20000000.0000000     
   20000000.0000000     
   20000000.0000000     
   20000000.0000000     
   20000000.0000000     
   20000000.0000000     
   20000000.0000000     
   20000000.0000000     
   20000000.0000000     
   20000000.0000000     
   20000000.0000000     
VECTORS u double 
    0.00000E+00         0.83432E-01         0.00000E+00
    0.00000E+00         0.81725E-01         0.00000E+00
    0.00000E+00         0.80024E-01         0.00000E+00
    0.00000E+00         0.78327E-01         0.00000E+00
    0.00000E+00         0.76635E-01         0.00000E+00
    0.00000E+00         0.74948E-01         0.00000E+00
    0.00000E+00         0.73265E-01         0.00000E+00
    0.00000E+00         0.71587E-01         0.00000E+00
    0.00000E+00         0.69913E-01         0.00000E+00
    0.00000E+00         0.68243E-01         0.00000E+00
    0.00000E+00         0.66576E-01         0.00000E+00
    0.00000E+00         0.64913E-01         0.00000E+00
    0.00000E+00         0.63252E-01         0.00000E+00
    0.00000E+00         0.61595E-01         0.00000E+00
    0.00000E+00         0.59940E-01         0.00000E+00
    0.00000E+00         0.58288E-01         0.00000E+00
    0.00000E+00         0.56638E-01         0.00000E+00
    0.00000E+00         0.54990E-01         0.00000E+00
    0.00000E+00         0.53343E-01         0.00000E+00
    0.00000E+00         0.51699E-01         0.00000E+00
    0.00000E+00         0.50055E-01         0.00000E+00
    0.00000E+00         0.48412E-01         0.00000E+00
    0.00000E+00         0.46771E-01         0.00000E+00
    0.00000E+00         0.45130E-01         0.00000E+00
    0.00000E+00         0.43489E-01         0.00000E+00
    0.00000E+00         0.41848E-01         0.00000E+00
    0.00000E+00         0.40207E-01         0.00000E+00
    0.00000E+00         0.38566E-01         0.00000E+00
    0.00000E+00         0.36924E-01         0.00000E+00
    0.00000E+00         0.35282E-01         0.00000E+00
    0.00000E+00         0.33638E-01         0.00000E+00
    0.00000E+00         0.31993E-01         0.00000E+00
    0.00000E+00         0.30346E-01         0.00000E+00
    0.00000E+00         0.28697E-01         0.00000E+00
    0.00000E+00         0.27045E-01         0.00000E+00
    0.00000E+00         0.25392E-01         0.00000E+00
    0.00000E+00         0.23735E-01         0.00000E+00
    0.00000E+00         0.22075E-01         0.00000E+00
    0.00000E+00         0.20412E-01         0.00000E+00
    0.00000E+00         0.18745E-01         0.00000E+00
    0.00000E+00         0.17073E-01         0.00000E+00
    0.00000E+00         0.15397E-01         0.00000E+00
    0.00000E+00         0.13715E-01         0.00000E+00
    0.00000E+00         0.12028E-01         0.00000E+00
    0.00000E+00         0.10335E-01         0.00000E+00
    0.00000E+00         0.86348E-02         0.00000E+00
    0.00000E+00         0.69272E-02         0.00000E+00
    0.00000E+00         0.52111E-02         0.00000E+00
    0.00000E+00         0.34856E-02         0.00000E+00
    0.00000E+00         0.17492E-02         0.00000E+00
    0.00000E+00         0.00000E+00         0.00000E+00
    0.37583E-02         0.82944E-01         0.00000E+00
    0.35976E-02         0.81278E-01         0.00000E+00
    0.34583E-02         0.79611E-01         0.00000E+00
    0.33351E-02         0.77944E-01         0.00000E+00
    0.32241E-02         0.76278E-01         0.00000E+00
    0.31228E-02         0.74613E-01         0.00000E+00
    0.30294E-02         0.72950E-01         0.00000E+00
    0.29425E-02         0.71290E-01         0.00000E+00
    0.28609E-02         0.69632E-01         0.00000E+00
    0.27839E-02         0.67976E-01         0.00000E+00
    0.27107E-02         0.66322E-01         0.00000E+00
    0.26407E-02         0.64671E-01         0.00000E+00
    0.25736E-02         0.63022E-01         0.00000E+00
    0.25088E-02         0.61375E-01         0.00000E+00
    0.24461E-02         0.59730E-01         0.00000E+00
    0.23852E-02         0.58087E-01         0.00000E+00
    0.23257E-02         0.56446E-01         0.00000E+00
    0.22676E-02         0.54806E-01         0.00000E+00
    0.22105E-02         0.53167E-01         0.00000E+00
    0.21542E-02         0.51530E-01         0.00000E+00
    0.20987E-02         0.49893E-01         0.00000E+00
    0.20438E-02         0.48258E-01         0.00000E+00
    0.19892E-02         0.46622E-01         0.00000E+00
    0.19349E-02         0.44987E-01         0.00000E+00
    0.18808E-02         0.43353E-01         0.00000E+00
    0.18266E-02         0.41718E-01         0.00000E+00
    0.17724E-02         0.40083E-01         0.00000E+00
    0.17180E-02         0.38447E-01         0.00000E+00
    0.16632E-02         0.36810E-01         0.00000E+00
    0.16080E-02         0.35173E-01         0.00000E+00
    0.15522E-02         0.33534E-01         0.00000E+00
    0.14957E-02         0.31894E-01         0.00000E+00
    0.14384E-02         0.30251E-01         0.00000E+00
    0.13802E-02         0.28607E-01         0.00000E+00
    0.13209E-02         0.26961E-01         0.00000E+00
    0.12604E-02         0.25311E-01         0.00000E+00
    0.11986E-02         0.23659E-01         0.00000E+00
    0.11352E-02         0.22004E-01         0.00000E+00
    0.10700E-02         0.20345E-01         0.00000E+00
    0.10029E-02         0.18682E-01         0.00000E+00
    0.93360E-03         0.17014E-01         0.00000E+00
    0.86176E-03         0.15342E-01         0.00000E+00
    0.78706E-03         0.13665E-01         0.00000E+00
    0.70908E-03         0.11982E-01         0.00000E+00
    0.62729E-03         0.10294E-01         0.00000E+00
    0.54105E-03         0.85982E-02         0.00000E+00
    0.44951E-03         0.68956E-02         0.00000E+00
    0.35155E-03         0.51852E-02         0.00000E+00
    0.24563E-03         0.34663E-02         0.00000E+00
    0.12954E-03         0.17382E-02         0.00000E+00
    0.00000E+00         0.00000E+00         0.00000E+00
    0.71191E-02         0.81828E-01         0.00000E+00
    0.68622E-02         0.80207E-01         0.00000E+00
    0.66249E-02         0.78585E-01         0.00000E+00
    0.64056E-02         0.76964E-01         0.00000E+00
    0.62022E-02         0.75342E-01         0.00000E+00
    0.60126E-02         0.73719E-01         0.00000E+00
    0.58349E-02         0.72096E-01         0.00000E+00
    0.56677E-02         0.70474E-01         0.00000E+00
    0.55095E-02         0.68851E-01         0.00000E+00
    0.53590E-02         0.67229E-01         0.00000E+00
    0.52154E-02         0.65608E-01         0.00000E+00
    0.50777E-02         0.63987E-01         0.00000E+00
    0.49451E-02         0.62366E-01         0.00000E+00
    0.48170E-02         0.60747E-01         0.00000E+00
    0.46927E-02         0.59128E-01         0.00000E+00
    0.45717E-02         0.57509E-01         0.00000E+00
    0.44536E-02         0.55891E-01         0.00000E+00
    0.43380E-02         0.54274E-01         0.00000E+00
    0.42244E-02         0.52657E-01         0.00000E+00
    0.41125E-02         0.51040E-01         0.00000E+00
    0.40019E-02         0.49424E-01         0.00000E+00
    0.38925E-02         0.47807E-01         0.00000E+00
    0.37838E-02         0.46190E-01         0.00000E+00
    0.36758E-02         0.44573E-01         0.00000E+00
    0.35680E-02         0.42956E-01         0.00000E+00
    0.34602E-02         0.41338E-01         0.00000E+00
    0.33523E-02         0.39719E-01         0.00000E+00
    0.32441E-02         0.38099E-01         0.00000E+00
    0.31352E-02         0.36478E-01         0.00000E+00
    0.30255E-02         0.34855E-01         0.00000E+00
    0.29147E-02         0.33231E-01         0.00000E+00
    0.28027E-02         0.31605E-01         0.00000E+00
    0.26892E-02         0.29977E-01         0.00000E+00
    0.25740E-02         0.28346E-01         0.00000E+00
    0.24568E-02         0.26713E-01         0.00000E+00
    0.23373E-02         0.25078E-01         0.00000E+00
    0.22154E-02         0.23439E-01         0.00000E+00
    0.20907E-02         0.21796E-01         0.00000E+00
    0.19628E-02         0.20150E-01         0.00000E+00
    0.18315E-02         0.18501E-01         0.00000E+00
    0.16962E-02         0.16846E-01         0.00000E+00
    0.15567E-02         0.15188E-01         0.00000E+00
    0.14123E-02         0.13524E-01         0.00000E+00
    0.12625E-02         0.11855E-01         0.00000E+00
    0.11067E-02         0.10181E-01         0.00000E+00
    0.94419E-03         0.85001E-02         0.00000E+00
    0.77407E-03         0.68135E-02         0.00000E+00
    0.59548E-03         0.51203E-02         0.00000E+00
    0.40747E-03         0.34203E-02         0.00000E+00
    0.20916E-03         0.17135E-02         0.00000E+00
    0.00000E+00         0.00000E+00         0.00000E+00
    0.10094E-01         0.80318E-01         0.00000E+00
    0.97705E-02         0.78742E-01         0.00000E+00
    0.94654E-02         0.77165E-01         0.00000E+00
    0.91768E-02         0.75588E-01         0.00000E+00
    0.89035E-02         0.74010E-01         0.00000E+00
    0.86443E-02         0.72431E-01         0.00000E+00
    0.83977E-02         0.70852E-01         0.00000E+00
    0.81627E-02         0.69273E-01         0.00000E+00
    0.79379E-02         0.67692E-01         0.00000E+00
    0.77224E-02         0.66111E-01         0.00000E+00
    0.75152E-02         0.64530E-01         0.00000E+00
    0.73154E-02         0.62948E-01         0.00000E+00
    0.71220E-02         0.61365E-01         0.00000E+00
    0.69344E-02         0.59782E-01         0.00000E+00
    0.67518E-02         0.58198E-01         0.00000E+00
    0.65737E-02         0.56614E-01         0.00000E+00
    0.63993E-02         0.55030E-01         0.00000E+00
    0.62283E-02         0.53444E-01         0.00000E+00
    0.60601E-02         0.51859E-01         0.00000E+00
    0.58942E-02         0.50272E-01         0.00000E+00
    0.57303E-02         0.48685E-01         0.00000E+00
    0.55678E-02         0.47097E-01         0.00000E+00
    0.54065E-02         0.45508E-01         0.00000E+00
    0.52460E-02         0.43919E-01         0.00000E+00
    0.50859E-02         0.42328E-01         0.00000E+00
    0.49260E-02         0.40735E-01         0.00000E+00
    0.47659E-02         0.39142E-01         0.00000E+00
    0.46052E-02         0.37547E-01         0.00000E+00
    0.44438E-02         0.35950E-01         0.00000E+00
    0.42812E-02         0.34351E-01         0.00000E+00
    0.41173E-02         0.32750E-01         0.00000E+00
    0.39517E-02         0.31147E-01         0.00000E+00
    0.37841E-02         0.29542E-01         0.00000E+00
    0.36142E-02         0.27934E-01         0.00000E+00
    0.34417E-02         0.26323E-01         0.00000E+00
    0.32663E-02         0.24709E-01         0.00000E+00
    0.30876E-02         0.23092E-01         0.00000E+00
    0.29053E-02         0.21472E-01         0.00000E+00
    0.27189E-02         0.19848E-01         0.00000E+00
    0.25282E-02         0.18220E-01         0.00000E+00
    0.23326E-02         0.16588E-01         0.00000E+00
    0.21318E-02         0.14952E-01         0.00000E+00
    0.19252E-02         0.13311E-01         0.00000E+00
    0.17124E-02         0.11665E-01         0.00000E+00
    0.14928E-02         0.10015E-01         0.00000E+00
    0.12658E-02         0.83592E-02         0.00000E+00
    0.10309E-02         0.66984E-02         0.00000E+00
    0.78747E-03         0.50321E-02         0.00000E+00
    0.53494E-03         0.33604E-02         0.00000E+00
    0.27269E-03         0.16830E-02         0.00000E+00
    0.00000E+00         0.00000E+00         0.00000E+00
    0.12714E-01         0.78530E-01         0.00000E+00
    0.12342E-01         0.76998E-01         0.00000E+00
    0.11987E-01         0.75466E-01         0.00000E+00
    0.11647E-01         0.73933E-01         0.00000E+00
    0.11321E-01         0.72400E-01         0.00000E+00
    0.11008E-01         0.70866E-01         0.00000E+00
    0.10707E-01         0.69331E-01         0.00000E+00
    0.10417E-01         0.67795E-01         0.00000E+00
    0.10137E-01         0.66259E-01         0.00000E+00
    0.98672E-02         0.64721E-01         0.00000E+00
    0.96055E-02         0.63182E-01         0.00000E+00
    0.93514E-02         0.61642E-01         0.00000E+00
    0.91043E-02         0.60101E-01         0.00000E+00
    0.88633E-02         0.58559E-01         0.00000E+00
    0.86279E-02         0.57015E-01         0.00000E+00
    0.83974E-02         0.55471E-01         0.00000E+00
    0.81712E-02         0.53925E-01         0.00000E+00
    0.79487E-02         0.52378E-01         0.00000E+00
    0.77293E-02         0.50829E-01         0.00000E+00
    0.75127E-02         0.49280E-01         0.00000E+00
    0.72983E-02         0.47728E-01         0.00000E+00
    0.70856E-02         0.46176E-01         0.00000E+00
    0.68743E-02         0.44621E-01         0.00000E+00
    0.66639E-02         0.43066E-01         0.00000E+00
    0.64540E-02         0.41508E-01         0.00000E+00
    0.62443E-02         0.39949E-01         0.00000E+00
    0.60343E-02         0.38387E-01         0.00000E+00
    0.58238E-02         0.36824E-01         0.00000E+00
    0.56123E-02         0.35259E-01         0.00000E+00
    0.53995E-02         0.33691E-01         0.00000E+00
    0.51852E-02         0.32121E-01         0.00000E+00
    0.49689E-02         0.30548E-01         0.00000E+00
    0.47503E-02         0.28973E-01         0.00000E+00
    0.45290E-02         0.27395E-01         0.00000E+00
    0.43048E-02         0.25814E-01         0.00000E+00
    0.40772E-02         0.24230E-01         0.00000E+00
    0.38460E-02         0.22642E-01         0.00000E+00
    0.36107E-02         0.21052E-01         0.00000E+00
    0.33709E-02         0.19457E-01         0.00000E+00
    0.31264E-02         0.17859E-01         0.00000E+00
    0.28766E-02         0.16257E-01         0.00000E+00
    0.26213E-02         0.14651E-01         0.00000E+00
    0.23599E-02         0.13041E-01         0.00000E+00
    0.20921E-02         0.11427E-01         0.00000E+00
    0.18174E-02         0.98086E-02         0.00000E+00
    0.15353E-02         0.81855E-02         0.00000E+00
    0.12456E-02         0.65579E-02         0.00000E+00
    0.94758E-03         0.49255E-02         0.00000E+00
    0.64096E-03         0.32885E-02         0.00000E+00
    0.32523E-03         0.16466E-02         0.00000E+00
    0.00000E+00         0.00000E+00         0.00000E+00
    0.15007E-01         0.76542E-01         0.00000E+00
    0.14601E-01         0.75055E-01         0.00000E+00
    0.14209E-01         0.73567E-01         0.00000E+00
    0.13830E-01         0.72079E-01         0.00000E+00
    0.13464E-01         0.70590E-01         0.00000E+00
    0.13109E-01         0.69101E-01         0.00000E+00
    0.12766E-01         0.67611E-01         0.00000E+00
    0.12432E-01         0.66119E-01         0.00000E+00
    0.12108E-01         0.64627E-01         0.00000E+00
    0.11793E-01         0.63133E-01         0.00000E+00
    0.11486E-01         0.61638E-01         0.00000E+00
    0.11186E-01         0.60142E-01         0.00000E+00
    0.10893E-01         0.58644E-01         0.00000E+00
    0.10606E-01         0.57144E-01         0.00000E+00
    0.10324E-01         0.55644E-01         0.00000E+00
    0.10047E-01         0.54141E-01         0.00000E+00
    0.97745E-02         0.52637E-01         0.00000E+00
    0.95056E-02         0.51131E-01         0.00000E+00
    0.92399E-02         0.49624E-01         0.00000E+00
    0.89769E-02         0.48114E-01         0.00000E+00
    0.87162E-02         0.46603E-01         0.00000E+00
    0.84572E-02         0.45090E-01         0.00000E+00
    0.81996E-02         0.43575E-01         0.00000E+00
    0.79429E-02         0.42057E-01         0.00000E+00
    0.76867E-02         0.40538E-01         0.00000E+00
    0.74306E-02         0.39017E-01         0.00000E+00
    0.71742E-02         0.37493E-01         0.00000E+00
    0.69171E-02         0.35967E-01         0.00000E+00
    0.66590E-02         0.34438E-01         0.00000E+00
    0.63994E-02         0.32907E-01         0.00000E+00
    0.61382E-02         0.31373E-01         0.00000E+00
    0.58748E-02         0.29837E-01         0.00000E+00
    0.56089E-02         0.28298E-01         0.00000E+00
    0.53402E-02         0.26755E-01         0.00000E+00
    0.50683E-02         0.25210E-01         0.00000E+00
    0.47930E-02         0.23662E-01         0.00000E+00
    0.45137E-02         0.22110E-01         0.00000E+00
    0.42303E-02         0.20556E-01         0.00000E+00
    0.39422E-02         0.18997E-01         0.00000E+00
    0.36493E-02         0.17436E-01         0.00000E+00
    0.33510E-02         0.15870E-01         0.00000E+00
    0.30472E-02         0.14301E-01         0.00000E+00
    0.27373E-02         0.12728E-01         0.00000E+00
    0.24211E-02         0.11151E-01         0.00000E+00
    0.20982E-02         0.95705E-02         0.00000E+00
    0.17682E-02         0.79857E-02         0.00000E+00
    0.14308E-02         0.63969E-02         0.00000E+00
    0.10856E-02         0.48039E-02         0.00000E+00
    0.73227E-03         0.32068E-02         0.00000E+00
    0.37052E-03         0.16055E-02         0.00000E+00
    0.00000E+00         0.00000E+00         0.00000E+00
    0.17003E-01         0.74413E-01         0.00000E+00
    0.16572E-01         0.72970E-01         0.00000E+00
    0.16153E-01         0.71527E-01         0.00000E+00
    0.15746E-01         0.70083E-01         0.00000E+00
    0.15350E-01         0.68639E-01         0.00000E+00
    0.14963E-01         0.67194E-01         0.00000E+00
    0.14587E-01         0.65748E-01         0.00000E+00
    0.14219E-01         0.64302E-01         0.00000E+00
    0.13859E-01         0.62854E-01         0.00000E+00
    0.13508E-01         0.61404E-01         0.00000E+00
    0.13163E-01         0.59954E-01         0.00000E+00
    0.12825E-01         0.58502E-01         0.00000E+00
    0.12493E-01         0.57048E-01         0.00000E+00
    0.12167E-01         0.55593E-01         0.00000E+00
    0.11845E-01         0.54135E-01         0.00000E+00
    0.11528E-01         0.52677E-01         0.00000E+00
    0.11215E-01         0.51216E-01         0.00000E+00
    0.10906E-01         0.49753E-01         0.00000E+00
    0.10599E-01         0.48289E-01         0.00000E+00
    0.10295E-01         0.46822E-01         0.00000E+00
    0.99924E-02         0.45353E-01         0.00000E+00
    0.96918E-02         0.43882E-01         0.00000E+00
    0.93923E-02         0.42409E-01         0.00000E+00
    0.90936E-02         0.40934E-01         0.00000E+00
    0.87952E-02         0.39456E-01         0.00000E+00
    0.84968E-02         0.37976E-01         0.00000E+00
    0.81980E-02         0.36493E-01         0.00000E+00
    0.78984E-02         0.35008E-01         0.00000E+00
    0.75976E-02         0.33520E-01         0.00000E+00
    0.72953E-02         0.32030E-01         0.00000E+00
    0.69911E-02         0.30537E-01         0.00000E+00
    0.66847E-02         0.29041E-01         0.00000E+00
    0.63757E-02         0.27542E-01         0.00000E+00
    0.60638E-02         0.26040E-01         0.00000E+00
    0.57486E-02         0.24535E-01         0.00000E+00
    0.54298E-02         0.23028E-01         0.00000E+00
    0.51071E-02         0.21517E-01         0.00000E+00
    0.47802E-02         0.20002E-01         0.00000E+00
    0.44487E-02         0.18485E-01         0.00000E+00
    0.41123E-02         0.16964E-01         0.00000E+00
    0.37707E-02         0.15440E-01         0.00000E+00
    0.34235E-02         0.13912E-01         0.00000E+00
    0.30705E-02         0.12381E-01         0.00000E+00
    0.27114E-02         0.10846E-01         0.00000E+00
    0.23458E-02         0.93077E-02         0.00000E+00
    0.19734E-02         0.77657E-02         0.00000E+00
    0.15940E-02         0.62200E-02         0.00000E+00
    0.12072E-02         0.46706E-02         0.00000E+00
    0.81276E-03         0.31175E-02         0.00000E+00
    0.41046E-03         0.15606E-02         0.00000E+00
    0.00000E+00         0.00000E+00         0.00000E+00
    0.18729E-01         0.72186E-01         0.00000E+00
    0.18281E-01         0.70787E-01         0.00000E+00
    0.17844E-01         0.69389E-01         0.00000E+00
    0.17416E-01         0.67990E-01         0.00000E+00
    0.16997E-01         0.66590E-01         0.00000E+00
    0.16587E-01         0.65190E-01         0.00000E+00
    0.16185E-01         0.63789E-01         0.00000E+00
    0.15790E-01         0.62386E-01         0.00000E+00
    0.15403E-01         0.60983E-01         0.00000E+00
    0.15022E-01         0.59578E-01         0.00000E+00
    0.14647E-01         0.58172E-01         0.00000E+00
    0.14278E-01         0.56765E-01         0.00000E+00
    0.13914E-01         0.55356E-01         0.00000E+00
    0.13555E-01         0.53945E-01         0.00000E+00
    0.13200E-01         0.52532E-01         0.00000E+00
    0.12849E-01         0.51118E-01         0.00000E+00
    0.12501E-01         0.49701E-01         0.00000E+00
    0.12156E-01         0.48283E-01         0.00000E+00
    0.11814E-01         0.46863E-01         0.00000E+00
    0.11473E-01         0.45440E-01         0.00000E+00
    0.11135E-01         0.44016E-01         0.00000E+00
    0.10797E-01         0.42589E-01         0.00000E+00
    0.10461E-01         0.41159E-01         0.00000E+00
    0.10125E-01         0.39728E-01         0.00000E+00
    0.97888E-02         0.38294E-01         0.00000E+00
    0.94526E-02         0.36857E-01         0.00000E+00
    0.91158E-02         0.35418E-01         0.00000E+00
    0.87779E-02         0.33977E-01         0.00000E+00
    0.84388E-02         0.32532E-01         0.00000E+00
    0.80979E-02         0.31085E-01         0.00000E+00
    0.77551E-02         0.29636E-01         0.00000E+00
    0.74099E-02         0.28183E-01         0.00000E+00
    0.70620E-02         0.26728E-01         0.00000E+00
    0.67111E-02         0.25270E-01         0.00000E+00
    0.63569E-02         0.23809E-01         0.00000E+00
    0.59991E-02         0.22345E-01         0.00000E+00
    0.56374E-02         0.20878E-01         0.00000E+00
    0.52714E-02         0.19407E-01         0.00000E+00
    0.49009E-02         0.17934E-01         0.00000E+00
    0.45256E-02         0.16458E-01         0.00000E+00
    0.41452E-02         0.14978E-01         0.00000E+00
    0.37594E-02         0.13495E-01         0.00000E+00
    0.33679E-02         0.12009E-01         0.00000E+00
    0.29704E-02         0.10519E-01         0.00000E+00
    0.25667E-02         0.90267E-02         0.00000E+00
    0.21566E-02         0.75307E-02         0.00000E+00
    0.17397E-02         0.60313E-02         0.00000E+00
    0.13158E-02         0.45285E-02         0.00000E+00
    0.88473E-03         0.30224E-02         0.00000E+00
    0.44620E-03         0.15129E-02         0.00000E+00
    0.00000E+00         0.00000E+00         0.00000E+00
    0.20212E-01         0.69896E-01         0.00000E+00
    0.19754E-01         0.68542E-01         0.00000E+00
    0.19303E-01         0.67187E-01         0.00000E+00
    0.18861E-01         0.65833E-01         0.00000E+00
    0.18426E-01         0.64477E-01         0.00000E+00
    0.17998E-01         0.63122E-01         0.00000E+00
    0.17577E-01         0.61765E-01         0.00000E+00
    0.17162E-01         0.60407E-01         0.00000E+00
    0.16753E-01         0.59048E-01         0.00000E+00
    0.16349E-01         0.57688E-01         0.00000E+00
    0.15950E-01         0.56327E-01         0.00000E+00
    0.15556E-01         0.54964E-01         0.00000E+00
    0.15166E-01         0.53600E-01         0.00000E+00
    0.14780E-01         0.52234E-01         0.00000E+00
    0.14397E-01         0.50866E-01         0.00000E+00
    0.14017E-01         0.49497E-01         0.00000E+00
    0.13640E-01         0.48125E-01         0.00000E+00
    0.13266E-01         0.46752E-01         0.00000E+00
    0.12893E-01         0.45376E-01         0.00000E+00
    0.12522E-01         0.43999E-01         0.00000E+00
    0.12151E-01         0.42619E-01         0.00000E+00
    0.11782E-01         0.41237E-01         0.00000E+00
    0.11413E-01         0.39853E-01         0.00000E+00
    0.11045E-01         0.38466E-01         0.00000E+00
    0.10676E-01         0.37077E-01         0.00000E+00
    0.10306E-01         0.35686E-01         0.00000E+00
    0.99355E-02         0.34292E-01         0.00000E+00
    0.95639E-02         0.32896E-01         0.00000E+00
    0.91906E-02         0.31497E-01         0.00000E+00
    0.88155E-02         0.30095E-01         0.00000E+00
    0.84383E-02         0.28691E-01         0.00000E+00
    0.80585E-02         0.27284E-01         0.00000E+00
    0.76760E-02         0.25874E-01         0.00000E+00
    0.72903E-02         0.24462E-01         0.00000E+00
    0.69013E-02         0.23047E-01         0.00000E+00
    0.65087E-02         0.21628E-01         0.00000E+00
    0.61121E-02         0.20207E-01         0.00000E+00
    0.57113E-02         0.18784E-01         0.00000E+00
    0.53059E-02         0.17357E-01         0.00000E+00
    0.48959E-02         0.15927E-01         0.00000E+00
    0.44808E-02         0.14494E-01         0.00000E+00
    0.40604E-02         0.13058E-01         0.00000E+00
    0.36345E-02         0.11620E-01         0.00000E+00
    0.32028E-02         0.10178E-01         0.00000E+00
    0.27651E-02         0.87331E-02         0.00000E+00
    0.23211E-02         0.72852E-02         0.00000E+00
    0.18707E-02         0.58343E-02         0.00000E+00
    0.14136E-02         0.43803E-02         0.00000E+00
    0.94956E-03         0.29233E-02         0.00000E+00
    0.47843E-03         0.14632E-02         0.00000E+00
    0.00000E+00         0.00000E+00         0.00000E+00
    0.21477E-01         0.67569E-01         0.00000E+00
    0.21013E-01         0.66259E-01         0.00000E+00
    0.20555E-01         0.64949E-01         0.00000E+00
    0.20104E-01         0.63638E-01         0.00000E+00
    0.19658E-01         0.62327E-01         0.00000E+00
    0.19217E-01         0.61016E-01         0.00000E+00
    0.18782E-01         0.59703E-01         0.00000E+00
    0.18352E-01         0.58390E-01         0.00000E+00
    0.17926E-01         0.57076E-01         0.00000E+00
    0.17504E-01         0.55760E-01         0.00000E+00
    0.17087E-01         0.54444E-01         0.00000E+00
    0.16672E-01         0.53126E-01         0.00000E+00
    0.16261E-01         0.51806E-01         0.00000E+00
    0.15853E-01         0.50485E-01         0.00000E+00
    0.15448E-01         0.49162E-01         0.00000E+00
    0.15045E-01         0.47838E-01         0.00000E+00
    0.14643E-01         0.46511E-01         0.00000E+00
    0.14244E-01         0.45183E-01         0.00000E+00
    0.13845E-01         0.43853E-01         0.00000E+00
    0.13447E-01         0.42521E-01         0.00000E+00
    0.13051E-01         0.41187E-01         0.00000E+00
    0.12654E-01         0.39850E-01         0.00000E+00
    0.12257E-01         0.38512E-01         0.00000E+00
    0.11860E-01         0.37171E-01         0.00000E+00
    0.11463E-01         0.35828E-01         0.00000E+00
    0.11064E-01         0.34483E-01         0.00000E+00
    0.10664E-01         0.33135E-01         0.00000E+00
    0.10263E-01         0.31784E-01         0.00000E+00
    0.98600E-02         0.30432E-01         0.00000E+00
    0.94548E-02         0.29077E-01         0.00000E+00
    0.90473E-02         0.27719E-01         0.00000E+00
    0.86371E-02         0.26359E-01         0.00000E+00
    0.82239E-02         0.24996E-01         0.00000E+00
    0.78076E-02         0.23630E-01         0.00000E+00
    0.73877E-02         0.22262E-01         0.00000E+00
    0.69642E-02         0.20891E-01         0.00000E+00
    0.65366E-02         0.19518E-01         0.00000E+00
    0.61048E-02         0.18142E-01         0.00000E+00
    0.56686E-02         0.16763E-01         0.00000E+00
    0.52276E-02         0.15381E-01         0.00000E+00
    0.47816E-02         0.13997E-01         0.00000E+00
    0.43304E-02         0.12610E-01         0.00000E+00
    0.38738E-02         0.11220E-01         0.00000E+00
    0.34115E-02         0.98269E-02         0.00000E+00
    0.29434E-02         0.84314E-02         0.00000E+00
    0.24692E-02         0.70331E-02         0.00000E+00
    0.19887E-02         0.56321E-02         0.00000E+00
    0.15017E-02         0.42282E-02         0.00000E+00
    0.10081E-02         0.28216E-02         0.00000E+00
    0.50756E-03         0.14122E-02         0.00000E+00
    0.00000E+00         0.00000E+00         0.00000E+00
    0.22549E-01         0.65226E-01         0.00000E+00
    0.22082E-01         0.63960E-01         0.00000E+00
    0.21621E-01         0.62694E-01         0.00000E+00
    0.21163E-01         0.61428E-01         0.00000E+00
    0.20711E-01         0.60161E-01         0.00000E+00
    0.20262E-01         0.58893E-01         0.00000E+00
    0.19817E-01         0.57625E-01         0.00000E+00
    0.19375E-01         0.56356E-01         0.00000E+00
    0.18937E-01         0.55085E-01         0.00000E+00
    0.18502E-01         0.53814E-01         0.00000E+00
    0.18070E-01         0.52542E-01         0.00000E+00
    0.17640E-01         0.51269E-01         0.00000E+00
    0.17213E-01         0.49994E-01         0.00000E+00
    0.16787E-01         0.48717E-01         0.00000E+00
    0.16363E-01         0.47439E-01         0.00000E+00
    0.15941E-01         0.46160E-01         0.00000E+00
    0.15520E-01         0.44879E-01         0.00000E+00
    0.15099E-01         0.43596E-01         0.00000E+00
    0.14679E-01         0.42311E-01         0.00000E+00
    0.14260E-01         0.41024E-01         0.00000E+00
    0.13840E-01         0.39736E-01         0.00000E+00
    0.13421E-01         0.38445E-01         0.00000E+00
    0.13000E-01         0.37153E-01         0.00000E+00
    0.12579E-01         0.35858E-01         0.00000E+00
    0.12157E-01         0.34561E-01         0.00000E+00
    0.11734E-01         0.33262E-01         0.00000E+00
    0.11309E-01         0.31961E-01         0.00000E+00
    0.10882E-01         0.30657E-01         0.00000E+00
    0.10453E-01         0.29351E-01         0.00000E+00
    0.10022E-01         0.28043E-01         0.00000E+00
    0.95876E-02         0.26732E-01         0.00000E+00
    0.91508E-02         0.25419E-01         0.00000E+00
    0.87108E-02         0.24104E-01         0.00000E+00
    0.82675E-02         0.22786E-01         0.00000E+00
    0.78206E-02         0.21466E-01         0.00000E+00
    0.73699E-02         0.20143E-01         0.00000E+00
    0.69150E-02         0.18818E-01         0.00000E+00
    0.64559E-02         0.17490E-01         0.00000E+00
    0.59923E-02         0.16160E-01         0.00000E+00
    0.55239E-02         0.14827E-01         0.00000E+00
    0.50506E-02         0.13492E-01         0.00000E+00
    0.45721E-02         0.12154E-01         0.00000E+00
    0.40882E-02         0.10814E-01         0.00000E+00
    0.35987E-02         0.94709E-02         0.00000E+00
    0.31035E-02         0.81255E-02         0.00000E+00
    0.26022E-02         0.67775E-02         0.00000E+00
    0.20948E-02         0.54271E-02         0.00000E+00
    0.15811E-02         0.40741E-02         0.00000E+00
    0.10608E-02         0.27185E-02         0.00000E+00
    0.53384E-03         0.13605E-02         0.00000E+00
    0.00000E+00         0.00000E+00         0.00000E+00
    0.23448E-01         0.62883E-01         0.00000E+00
    0.22982E-01         0.61661E-01         0.00000E+00
    0.22519E-01         0.60438E-01         0.00000E+00
    0.22060E-01         0.59215E-01         0.00000E+00
    0.21603E-01         0.57992E-01         0.00000E+00
    0.21149E-01         0.56768E-01         0.00000E+00
    0.20698E-01         0.55544E-01         0.00000E+00
    0.20249E-01         0.54318E-01         0.00000E+00
    0.19802E-01         0.53092E-01         0.00000E+00
    0.19357E-01         0.51865E-01         0.00000E+00
    0.18914E-01         0.50637E-01         0.00000E+00
    0.18473E-01         0.49408E-01         0.00000E+00
    0.18032E-01         0.48177E-01         0.00000E+00
    0.17593E-01         0.46946E-01         0.00000E+00
    0.17155E-01         0.45712E-01         0.00000E+00
    0.16717E-01         0.44478E-01         0.00000E+00
    0.16280E-01         0.43242E-01         0.00000E+00
    0.15842E-01         0.42004E-01         0.00000E+00
    0.15405E-01         0.40764E-01         0.00000E+00
    0.14967E-01         0.39523E-01         0.00000E+00
    0.14529E-01         0.38280E-01         0.00000E+00
    0.14090E-01         0.37035E-01         0.00000E+00
    0.13650E-01         0.35788E-01         0.00000E+00
    0.13209E-01         0.34540E-01         0.00000E+00
    0.12766E-01         0.33289E-01         0.00000E+00
    0.12321E-01         0.32036E-01         0.00000E+00
    0.11875E-01         0.30781E-01         0.00000E+00
    0.11426E-01         0.29525E-01         0.00000E+00
    0.10975E-01         0.28266E-01         0.00000E+00
    0.10521E-01         0.27005E-01         0.00000E+00
    0.10064E-01         0.25741E-01         0.00000E+00
    0.96042E-02         0.24476E-01         0.00000E+00
    0.91410E-02         0.23208E-01         0.00000E+00
    0.86743E-02         0.21938E-01         0.00000E+00
    0.82038E-02         0.20666E-01         0.00000E+00
    0.77293E-02         0.19391E-01         0.00000E+00
    0.72506E-02         0.18115E-01         0.00000E+00
    0.67675E-02         0.16836E-01         0.00000E+00
    0.62799E-02         0.15554E-01         0.00000E+00
    0.57874E-02         0.14271E-01         0.00000E+00
    0.52900E-02         0.12985E-01         0.00000E+00
    0.47873E-02         0.11697E-01         0.00000E+00
    0.42793E-02         0.10406E-01         0.00000E+00
    0.37657E-02         0.91134E-02         0.00000E+00
    0.32464E-02         0.78183E-02         0.00000E+00
    0.27211E-02         0.65209E-02         0.00000E+00
    0.21898E-02         0.52212E-02         0.00000E+00
    0.16522E-02         0.39193E-02         0.00000E+00
    0.11081E-02         0.26151E-02         0.00000E+00
    0.55743E-03         0.13087E-02         0.00000E+00
    0.00000E+00         0.00000E+00         0.00000E+00
    0.24195E-01         0.60552E-01         0.00000E+00
    0.23732E-01         0.59372E-01         0.00000E+00
    0.23270E-01         0.58193E-01         0.00000E+00
    0.22811E-01         0.57013E-01         0.00000E+00
    0.22353E-01         0.55833E-01         0.00000E+00
    0.21896E-01         0.54653E-01         0.00000E+00
    0.21441E-01         0.53472E-01         0.00000E+00
    0.20988E-01         0.52290E-01         0.00000E+00
    0.20535E-01         0.51108E-01         0.00000E+00
    0.20083E-01         0.49924E-01         0.00000E+00
    0.19632E-01         0.48740E-01         0.00000E+00
    0.19182E-01         0.47555E-01         0.00000E+00
    0.18732E-01         0.46368E-01         0.00000E+00
    0.18283E-01         0.45181E-01         0.00000E+00
    0.17833E-01         0.43992E-01         0.00000E+00
    0.17383E-01         0.42802E-01         0.00000E+00
    0.16933E-01         0.41610E-01         0.00000E+00
    0.16482E-01         0.40417E-01         0.00000E+00
    0.16031E-01         0.39223E-01         0.00000E+00
    0.15579E-01         0.38027E-01         0.00000E+00
    0.15125E-01         0.36829E-01         0.00000E+00
    0.14670E-01         0.35629E-01         0.00000E+00
    0.14214E-01         0.34428E-01         0.00000E+00
    0.13755E-01         0.33225E-01         0.00000E+00
    0.13295E-01         0.32021E-01         0.00000E+00
    0.12833E-01         0.30814E-01         0.00000E+00
    0.12368E-01         0.29606E-01         0.00000E+00
    0.11901E-01         0.28395E-01         0.00000E+00
    0.11431E-01         0.27183E-01         0.00000E+00
    0.10958E-01         0.25969E-01         0.00000E+00
    0.10481E-01         0.24753E-01         0.00000E+00
    0.10002E-01         0.23535E-01         0.00000E+00
    0.95185E-02         0.22315E-01         0.00000E+00
    0.90315E-02         0.21092E-01         0.00000E+00
    0.85406E-02         0.19868E-01         0.00000E+00
    0.80455E-02         0.18642E-01         0.00000E+00
    0.75462E-02         0.17413E-01         0.00000E+00
    0.70423E-02         0.16183E-01         0.00000E+00
    0.65336E-02         0.14951E-01         0.00000E+00
    0.60202E-02         0.13716E-01         0.00000E+00
    0.55016E-02         0.12479E-01         0.00000E+00
    0.49778E-02         0.11241E-01         0.00000E+00
    0.44486E-02         0.99999E-02         0.00000E+00
    0.39138E-02         0.87570E-02         0.00000E+00
    0.33732E-02         0.75121E-02         0.00000E+00
    0.28268E-02         0.62652E-02         0.00000E+00
    0.22742E-02         0.50162E-02         0.00000E+00
    0.17154E-02         0.37651E-02         0.00000E+00
    0.11502E-02         0.25121E-02         0.00000E+00
    0.57845E-03         0.12570E-02         0.00000E+00
    0.00000E+00         0.00000E+00         0.00000E+00
    0.24808E-01         0.58240E-01         0.00000E+00
    0.24348E-01         0.57103E-01         0.00000E+00
    0.23890E-01         0.55967E-01         0.00000E+00
    0.23432E-01         0.54830E-01         0.00000E+00
    0.22975E-01         0.53693E-01         0.00000E+00
    0.22518E-01         0.52556E-01         0.00000E+00
    0.22061E-01         0.51418E-01         0.00000E+00
    0.21605E-01         0.50279E-01         0.00000E+00
    0.21149E-01         0.49140E-01         0.00000E+00
    0.20693E-01         0.48000E-01         0.00000E+00
    0.20237E-01         0.46859E-01         0.00000E+00
    0.19781E-01         0.45718E-01         0.00000E+00
    0.19324E-01         0.44575E-01         0.00000E+00
    0.18867E-01         0.43431E-01         0.00000E+00
    0.18409E-01         0.42286E-01         0.00000E+00
    0.17950E-01         0.41140E-01         0.00000E+00
    0.17490E-01         0.39993E-01         0.00000E+00
    0.17029E-01         0.38844E-01         0.00000E+00
    0.16566E-01         0.37694E-01         0.00000E+00
    0.16102E-01         0.36543E-01         0.00000E+00
    0.15636E-01         0.35390E-01         0.00000E+00
    0.15168E-01         0.34236E-01         0.00000E+00
    0.14698E-01         0.33080E-01         0.00000E+00
    0.14226E-01         0.31922E-01         0.00000E+00
    0.13751E-01         0.30763E-01         0.00000E+00
    0.13274E-01         0.29602E-01         0.00000E+00
    0.12794E-01         0.28440E-01         0.00000E+00
    0.12311E-01         0.27276E-01         0.00000E+00
    0.11825E-01         0.26110E-01         0.00000E+00
    0.11336E-01         0.24942E-01         0.00000E+00
    0.10843E-01         0.23773E-01         0.00000E+00
    0.10347E-01         0.22602E-01         0.00000E+00
    0.98468E-02         0.21429E-01         0.00000E+00
    0.93426E-02         0.20254E-01         0.00000E+00
    0.88342E-02         0.19077E-01         0.00000E+00
    0.83215E-02         0.17899E-01         0.00000E+00
    0.78043E-02         0.16718E-01         0.00000E+00
    0.72824E-02         0.15536E-01         0.00000E+00
    0.67557E-02         0.14352E-01         0.00000E+00
    0.62240E-02         0.13166E-01         0.00000E+00
    0.56871E-02         0.11978E-01         0.00000E+00
    0.51449E-02         0.10789E-01         0.00000E+00
    0.45973E-02         0.95971E-02         0.00000E+00
    0.40439E-02         0.84038E-02         0.00000E+00
    0.34848E-02         0.72087E-02         0.00000E+00
    0.29198E-02         0.60117E-02         0.00000E+00
    0.23486E-02         0.48130E-02         0.00000E+00
    0.17712E-02         0.36124E-02         0.00000E+00
    0.11874E-02         0.24100E-02         0.00000E+00
    0.59703E-03         0.12059E-02         0.00000E+00
    0.00000E+00         0.00000E+00         0.00000E+00
    0.25302E-01         0.55954E-01         0.00000E+00
    0.24848E-01         0.54860E-01         0.00000E+00
    0.24393E-01         0.53766E-01         0.00000E+00
    0.23938E-01         0.52672E-01         0.00000E+00
    0.23483E-01         0.51578E-01         0.00000E+00
    0.23028E-01         0.50483E-01         0.00000E+00
    0.22572E-01         0.49388E-01         0.00000E+00
    0.22115E-01         0.48292E-01         0.00000E+00
    0.21658E-01         0.47196E-01         0.00000E+00
    0.21200E-01         0.46098E-01         0.00000E+00
    0.20740E-01         0.45001E-01         0.00000E+00
    0.20280E-01         0.43902E-01         0.00000E+00
    0.19819E-01         0.42803E-01         0.00000E+00
    0.19356E-01         0.41702E-01         0.00000E+00
    0.18892E-01         0.40601E-01         0.00000E+00
    0.18426E-01         0.39498E-01         0.00000E+00
    0.17959E-01         0.38395E-01         0.00000E+00
    0.17489E-01         0.37290E-01         0.00000E+00
    0.17018E-01         0.36184E-01         0.00000E+00
    0.16545E-01         0.35077E-01         0.00000E+00
    0.16069E-01         0.33969E-01         0.00000E+00
    0.15591E-01         0.32859E-01         0.00000E+00
    0.15110E-01         0.31748E-01         0.00000E+00
    0.14627E-01         0.30635E-01         0.00000E+00
    0.14141E-01         0.29521E-01         0.00000E+00
    0.13651E-01         0.28405E-01         0.00000E+00
    0.13159E-01         0.27289E-01         0.00000E+00
    0.12663E-01         0.26170E-01         0.00000E+00
    0.12164E-01         0.25050E-01         0.00000E+00
    0.11661E-01         0.23928E-01         0.00000E+00
    0.11155E-01         0.22805E-01         0.00000E+00
    0.10644E-01         0.21680E-01         0.00000E+00
    0.10130E-01         0.20554E-01         0.00000E+00
    0.96109E-02         0.19426E-01         0.00000E+00
    0.90877E-02         0.18296E-01         0.00000E+00
    0.85600E-02         0.17165E-01         0.00000E+00
    0.80276E-02         0.16032E-01         0.00000E+00
    0.74904E-02         0.14897E-01         0.00000E+00
    0.69482E-02         0.13761E-01         0.00000E+00
    0.64008E-02         0.12623E-01         0.00000E+00
    0.58482E-02         0.11484E-01         0.00000E+00
    0.52902E-02         0.10343E-01         0.00000E+00
    0.47265E-02         0.91998E-02         0.00000E+00
    0.41572E-02         0.80553E-02         0.00000E+00
    0.35820E-02         0.69093E-02         0.00000E+00
    0.30008E-02         0.57617E-02         0.00000E+00
    0.24135E-02         0.46125E-02         0.00000E+00
    0.18199E-02         0.34617E-02         0.00000E+00
    0.12198E-02         0.23093E-02         0.00000E+00
    0.61327E-03         0.11554E-02         0.00000E+00
    0.00000E+00         0.00000E+00         0.00000E+00
    0.25692E-01         0.53700E-01         0.00000E+00
    0.25244E-01         0.52648E-01         0.00000E+00
    0.24794E-01         0.51596E-01         0.00000E+00
    0.24344E-01         0.50544E-01         0.00000E+00
    0.23892E-01         0.49491E-01         0.00000E+00
    0.23439E-01         0.48439E-01         0.00000E+00
    0.22985E-01         0.47386E-01         0.00000E+00
    0.22529E-01         0.46332E-01         0.00000E+00
    0.22072E-01         0.45278E-01         0.00000E+00
    0.21613E-01         0.44224E-01         0.00000E+00
    0.21152E-01         0.43168E-01         0.00000E+00
    0.20690E-01         0.42113E-01         0.00000E+00
    0.20226E-01         0.41056E-01         0.00000E+00
    0.19760E-01         0.39998E-01         0.00000E+00
    0.19291E-01         0.38940E-01         0.00000E+00
    0.18821E-01         0.37881E-01         0.00000E+00
    0.18348E-01         0.36820E-01         0.00000E+00
    0.17873E-01         0.35759E-01         0.00000E+00
    0.17395E-01         0.34696E-01         0.00000E+00
    0.16915E-01         0.33633E-01         0.00000E+00
    0.16431E-01         0.32568E-01         0.00000E+00
    0.15945E-01         0.31503E-01         0.00000E+00
    0.15456E-01         0.30435E-01         0.00000E+00
    0.14964E-01         0.29367E-01         0.00000E+00
    0.14468E-01         0.28298E-01         0.00000E+00
    0.13970E-01         0.27227E-01         0.00000E+00
    0.13467E-01         0.26155E-01         0.00000E+00
    0.12961E-01         0.25081E-01         0.00000E+00
    0.12451E-01         0.24006E-01         0.00000E+00
    0.11937E-01         0.22930E-01         0.00000E+00
    0.11419E-01         0.21852E-01         0.00000E+00
    0.10897E-01         0.20773E-01         0.00000E+00
    0.10371E-01         0.19693E-01         0.00000E+00
    0.98396E-02         0.18611E-01         0.00000E+00
    0.93040E-02         0.17528E-01         0.00000E+00
    0.87637E-02         0.16443E-01         0.00000E+00
    0.82186E-02         0.15357E-01         0.00000E+00
    0.76684E-02         0.14269E-01         0.00000E+00
    0.71131E-02         0.13180E-01         0.00000E+00
    0.65524E-02         0.12089E-01         0.00000E+00
    0.59864E-02         0.10997E-01         0.00000E+00
    0.54149E-02         0.99037E-02         0.00000E+00
    0.48377E-02         0.88089E-02         0.00000E+00
    0.42546E-02         0.77126E-02         0.00000E+00
    0.36657E-02         0.66149E-02         0.00000E+00
    0.30706E-02         0.55158E-02         0.00000E+00
    0.24694E-02         0.44154E-02         0.00000E+00
    0.18619E-02         0.33135E-02         0.00000E+00
    0.12479E-02         0.22103E-02         0.00000E+00
    0.62728E-03         0.11058E-02         0.00000E+00
    0.00000E+00         0.00000E+00         0.00000E+00
    0.25990E-01         0.51479E-01         0.00000E+00
    0.25549E-01         0.50469E-01         0.00000E+00
    0.25106E-01         0.49459E-01         0.00000E+00
    0.24660E-01         0.48448E-01         0.00000E+00
    0.24213E-01         0.47438E-01         0.00000E+00
    0.23763E-01         0.46427E-01         0.00000E+00
    0.23312E-01         0.45415E-01         0.00000E+00
    0.22858E-01         0.44404E-01         0.00000E+00
    0.22402E-01         0.43391E-01         0.00000E+00
    0.21944E-01         0.42379E-01         0.00000E+00
    0.21484E-01         0.41366E-01         0.00000E+00
    0.21021E-01         0.40352E-01         0.00000E+00
    0.20555E-01         0.39337E-01         0.00000E+00
    0.20087E-01         0.38322E-01         0.00000E+00
    0.19616E-01         0.37306E-01         0.00000E+00
    0.19143E-01         0.36289E-01         0.00000E+00
    0.18666E-01         0.35272E-01         0.00000E+00
    0.18187E-01         0.34253E-01         0.00000E+00
    0.17705E-01         0.33234E-01         0.00000E+00
    0.17219E-01         0.32213E-01         0.00000E+00
    0.16730E-01         0.31192E-01         0.00000E+00
    0.16238E-01         0.30169E-01         0.00000E+00
    0.15743E-01         0.29146E-01         0.00000E+00
    0.15244E-01         0.28121E-01         0.00000E+00
    0.14741E-01         0.27095E-01         0.00000E+00
    0.14234E-01         0.26069E-01         0.00000E+00
    0.13724E-01         0.25041E-01         0.00000E+00
    0.13209E-01         0.24011E-01         0.00000E+00
    0.12691E-01         0.22981E-01         0.00000E+00
    0.12168E-01         0.21949E-01         0.00000E+00
    0.11641E-01         0.20917E-01         0.00000E+00
    0.11109E-01         0.19882E-01         0.00000E+00
    0.10573E-01         0.18847E-01         0.00000E+00
    0.10032E-01         0.17811E-01         0.00000E+00
    0.94861E-02         0.16773E-01         0.00000E+00
    0.89354E-02         0.15734E-01         0.00000E+00
    0.83796E-02         0.14693E-01         0.00000E+00
    0.78186E-02         0.13652E-01         0.00000E+00
    0.72523E-02         0.12609E-01         0.00000E+00
    0.66807E-02         0.11565E-01         0.00000E+00
    0.61034E-02         0.10520E-01         0.00000E+00
    0.55205E-02         0.94731E-02         0.00000E+00
    0.49318E-02         0.84253E-02         0.00000E+00
    0.43373E-02         0.73763E-02         0.00000E+00
    0.37367E-02         0.63261E-02         0.00000E+00
    0.31299E-02         0.52746E-02         0.00000E+00
    0.25169E-02         0.42220E-02         0.00000E+00
    0.18976E-02         0.31682E-02         0.00000E+00
    0.12717E-02         0.21133E-02         0.00000E+00
    0.63921E-03         0.10572E-02         0.00000E+00
    0.00000E+00         0.00000E+00         0.00000E+00
    0.26209E-01         0.49295E-01         0.00000E+00
    0.25775E-01         0.48326E-01         0.00000E+00
    0.25338E-01         0.47357E-01         0.00000E+00
    0.24898E-01         0.46387E-01         0.00000E+00
    0.24456E-01         0.45418E-01         0.00000E+00
    0.24011E-01         0.44448E-01         0.00000E+00
    0.23563E-01         0.43478E-01         0.00000E+00
    0.23112E-01         0.42508E-01         0.00000E+00
    0.22659E-01         0.41537E-01         0.00000E+00
    0.22202E-01         0.40566E-01         0.00000E+00
    0.21743E-01         0.39594E-01         0.00000E+00
    0.21280E-01         0.38622E-01         0.00000E+00
    0.20815E-01         0.37649E-01         0.00000E+00
    0.20346E-01         0.36675E-01         0.00000E+00
    0.19875E-01         0.35701E-01         0.00000E+00
    0.19399E-01         0.34726E-01         0.00000E+00
    0.18921E-01         0.33751E-01         0.00000E+00
    0.18439E-01         0.32774E-01         0.00000E+00
    0.17954E-01         0.31797E-01         0.00000E+00
    0.17465E-01         0.30819E-01         0.00000E+00
    0.16972E-01         0.29840E-01         0.00000E+00
    0.16476E-01         0.28861E-01         0.00000E+00
    0.15975E-01         0.27880E-01         0.00000E+00
    0.15471E-01         0.26898E-01         0.00000E+00
    0.14963E-01         0.25916E-01         0.00000E+00
    0.14450E-01         0.24932E-01         0.00000E+00
    0.13934E-01         0.23947E-01         0.00000E+00
    0.13413E-01         0.22962E-01         0.00000E+00
    0.12888E-01         0.21975E-01         0.00000E+00
    0.12358E-01         0.20988E-01         0.00000E+00
    0.11823E-01         0.19999E-01         0.00000E+00
    0.11284E-01         0.19009E-01         0.00000E+00
    0.10740E-01         0.18018E-01         0.00000E+00
    0.10191E-01         0.17026E-01         0.00000E+00
    0.96368E-02         0.16033E-01         0.00000E+00
    0.90776E-02         0.15039E-01         0.00000E+00
    0.85131E-02         0.14044E-01         0.00000E+00
    0.79434E-02         0.13047E-01         0.00000E+00
    0.73681E-02         0.12050E-01         0.00000E+00
    0.67873E-02         0.11051E-01         0.00000E+00
    0.62008E-02         0.10052E-01         0.00000E+00
    0.56085E-02         0.90513E-02         0.00000E+00
    0.50104E-02         0.80497E-02         0.00000E+00
    0.44062E-02         0.70469E-02         0.00000E+00
    0.37959E-02         0.60432E-02         0.00000E+00
    0.31794E-02         0.50385E-02         0.00000E+00
    0.25566E-02         0.40327E-02         0.00000E+00
    0.19274E-02         0.30260E-02         0.00000E+00
    0.12916E-02         0.20182E-02         0.00000E+00
    0.64918E-03         0.10096E-02         0.00000E+00
    0.00000E+00         0.00000E+00         0.00000E+00
    0.26359E-01         0.47149E-01         0.00000E+00
    0.25932E-01         0.46220E-01         0.00000E+00
    0.25501E-01         0.45292E-01         0.00000E+00
    0.25068E-01         0.44363E-01         0.00000E+00
    0.24631E-01         0.43434E-01         0.00000E+00
    0.24191E-01         0.42505E-01         0.00000E+00
    0.23747E-01         0.41575E-01         0.00000E+00
    0.23300E-01         0.40646E-01         0.00000E+00
    0.22850E-01         0.39716E-01         0.00000E+00
    0.22396E-01         0.38785E-01         0.00000E+00
    0.21939E-01         0.37854E-01         0.00000E+00
    0.21478E-01         0.36923E-01         0.00000E+00
    0.21013E-01         0.35991E-01         0.00000E+00
    0.20545E-01         0.35059E-01         0.00000E+00
    0.20074E-01         0.34126E-01         0.00000E+00
    0.19598E-01         0.33193E-01         0.00000E+00
    0.19119E-01         0.32258E-01         0.00000E+00
    0.18636E-01         0.31324E-01         0.00000E+00
    0.18149E-01         0.30388E-01         0.00000E+00
    0.17658E-01         0.29452E-01         0.00000E+00
    0.17162E-01         0.28515E-01         0.00000E+00
    0.16663E-01         0.27577E-01         0.00000E+00
    0.16160E-01         0.26639E-01         0.00000E+00
    0.15652E-01         0.25699E-01         0.00000E+00
    0.15140E-01         0.24759E-01         0.00000E+00
    0.14623E-01         0.23818E-01         0.00000E+00
    0.14102E-01         0.22876E-01         0.00000E+00
    0.13576E-01         0.21934E-01         0.00000E+00
    0.13046E-01         0.20990E-01         0.00000E+00
    0.12510E-01         0.20045E-01         0.00000E+00
    0.11970E-01         0.19100E-01         0.00000E+00
    0.11425E-01         0.18153E-01         0.00000E+00
    0.10875E-01         0.17206E-01         0.00000E+00
    0.10319E-01         0.16258E-01         0.00000E+00
    0.97589E-02         0.15309E-01         0.00000E+00
    0.91930E-02         0.14359E-01         0.00000E+00
    0.86217E-02         0.13408E-01         0.00000E+00
    0.80448E-02         0.12456E-01         0.00000E+00
    0.74623E-02         0.11503E-01         0.00000E+00
    0.68742E-02         0.10549E-01         0.00000E+00
    0.62802E-02         0.95942E-02         0.00000E+00
    0.56803E-02         0.86386E-02         0.00000E+00
    0.50745E-02         0.76822E-02         0.00000E+00
    0.44625E-02         0.67248E-02         0.00000E+00
    0.38444E-02         0.57666E-02         0.00000E+00
    0.32199E-02         0.48075E-02         0.00000E+00
    0.25891E-02         0.38476E-02         0.00000E+00
    0.19518E-02         0.28869E-02         0.00000E+00
    0.13079E-02         0.19253E-02         0.00000E+00
    0.65735E-03         0.96305E-03         0.00000E+00
    0.00000E+00         0.00000E+00         0.00000E+00
    0.26448E-01         0.45041E-01         0.00000E+00
    0.26028E-01         0.44152E-01         0.00000E+00
    0.25605E-01         0.43263E-01         0.00000E+00
    0.25178E-01         0.42375E-01         0.00000E+00
    0.24747E-01         0.41486E-01         0.00000E+00
    0.24312E-01         0.40597E-01         0.00000E+00
    0.23873E-01         0.39708E-01         0.00000E+00
    0.23430E-01         0.38818E-01         0.00000E+00
    0.22984E-01         0.37928E-01         0.00000E+00
    0.22533E-01         0.37038E-01         0.00000E+00
    0.22079E-01         0.36148E-01         0.00000E+00
    0.21620E-01         0.35257E-01         0.00000E+00
    0.21158E-01         0.34366E-01         0.00000E+00
    0.20691E-01         0.33474E-01         0.00000E+00
    0.20220E-01         0.32582E-01         0.00000E+00
    0.19746E-01         0.31689E-01         0.00000E+00
    0.19267E-01         0.30795E-01         0.00000E+00
    0.18783E-01         0.29902E-01         0.00000E+00
    0.18296E-01         0.29007E-01         0.00000E+00
    0.17804E-01         0.28112E-01         0.00000E+00
    0.17307E-01         0.27216E-01         0.00000E+00
    0.16806E-01         0.26320E-01         0.00000E+00
    0.16301E-01         0.25423E-01         0.00000E+00
    0.15791E-01         0.24525E-01         0.00000E+00
    0.15276E-01         0.23627E-01         0.00000E+00
    0.14757E-01         0.22727E-01         0.00000E+00
    0.14232E-01         0.21827E-01         0.00000E+00
    0.13703E-01         0.20927E-01         0.00000E+00
    0.13169E-01         0.20025E-01         0.00000E+00
    0.12630E-01         0.19123E-01         0.00000E+00
    0.12085E-01         0.18220E-01         0.00000E+00
    0.11536E-01         0.17316E-01         0.00000E+00
    0.10981E-01         0.16412E-01         0.00000E+00
    0.10421E-01         0.15506E-01         0.00000E+00
    0.98552E-02         0.14600E-01         0.00000E+00
    0.92841E-02         0.13693E-01         0.00000E+00
    0.87074E-02         0.12785E-01         0.00000E+00
    0.81251E-02         0.11877E-01         0.00000E+00
    0.75370E-02         0.10968E-01         0.00000E+00
    0.69431E-02         0.10058E-01         0.00000E+00
    0.63433E-02         0.91468E-02         0.00000E+00
    0.57374E-02         0.82352E-02         0.00000E+00
    0.51255E-02         0.73230E-02         0.00000E+00
    0.45073E-02         0.64100E-02         0.00000E+00
    0.38829E-02         0.54962E-02         0.00000E+00
    0.32522E-02         0.45818E-02         0.00000E+00
    0.26150E-02         0.36667E-02         0.00000E+00
    0.19713E-02         0.27510E-02         0.00000E+00
    0.13209E-02         0.18346E-02         0.00000E+00
    0.66386E-03         0.91760E-03         0.00000E+00
    0.00000E+00         0.00000E+00         0.00000E+00
    0.26485E-01         0.42971E-01         0.00000E+00
    0.26073E-01         0.42122E-01         0.00000E+00
    0.25657E-01         0.41273E-01         0.00000E+00
    0.25236E-01         0.40424E-01         0.00000E+00
    0.24811E-01         0.39574E-01         0.00000E+00
    0.24381E-01         0.38725E-01         0.00000E+00
    0.23948E-01         0.37875E-01         0.00000E+00
    0.23510E-01         0.37025E-01         0.00000E+00
    0.23067E-01         0.36175E-01         0.00000E+00
    0.22621E-01         0.35325E-01         0.00000E+00
    0.22170E-01         0.34474E-01         0.00000E+00
    0.21714E-01         0.33623E-01         0.00000E+00
    0.21255E-01         0.32772E-01         0.00000E+00
    0.20790E-01         0.31920E-01         0.00000E+00
    0.20321E-01         0.31068E-01         0.00000E+00
    0.19848E-01         0.30215E-01         0.00000E+00
    0.19370E-01         0.29362E-01         0.00000E+00
    0.18887E-01         0.28508E-01         0.00000E+00
    0.18400E-01         0.27654E-01         0.00000E+00
    0.17908E-01         0.26799E-01         0.00000E+00
    0.17412E-01         0.25944E-01         0.00000E+00
    0.16910E-01         0.25088E-01         0.00000E+00
    0.16404E-01         0.24232E-01         0.00000E+00
    0.15893E-01         0.23375E-01         0.00000E+00
    0.15376E-01         0.22518E-01         0.00000E+00
    0.14855E-01         0.21660E-01         0.00000E+00
    0.14329E-01         0.20801E-01         0.00000E+00
    0.13798E-01         0.19941E-01         0.00000E+00
    0.13261E-01         0.19081E-01         0.00000E+00
    0.12719E-01         0.18221E-01         0.00000E+00
    0.12172E-01         0.17359E-01         0.00000E+00
    0.11619E-01         0.16497E-01         0.00000E+00
    0.11061E-01         0.15634E-01         0.00000E+00
    0.10498E-01         0.14771E-01         0.00000E+00
    0.99283E-02         0.13907E-01         0.00000E+00
    0.93534E-02         0.13043E-01         0.00000E+00
    0.87728E-02         0.12177E-01         0.00000E+00
    0.81864E-02         0.11311E-01         0.00000E+00
    0.75941E-02         0.10445E-01         0.00000E+00
    0.69958E-02         0.95774E-02         0.00000E+00
    0.63916E-02         0.87096E-02         0.00000E+00
    0.57812E-02         0.78411E-02         0.00000E+00
    0.51646E-02         0.69721E-02         0.00000E+00
    0.45417E-02         0.61025E-02         0.00000E+00
    0.39126E-02         0.52322E-02         0.00000E+00
    0.32770E-02         0.43615E-02         0.00000E+00
    0.26349E-02         0.34902E-02         0.00000E+00
    0.19862E-02         0.26184E-02         0.00000E+00
    0.13309E-02         0.17460E-02         0.00000E+00
    0.66886E-03         0.87325E-03         0.00000E+00
    0.00000E+00         0.00000E+00         0.00000E+00
    0.26478E-01         0.40940E-01         0.00000E+00
    0.26073E-01         0.40130E-01         0.00000E+00
    0.25664E-01         0.39319E-01         0.00000E+00
    0.25249E-01         0.38509E-01         0.00000E+00
    0.24831E-01         0.37699E-01         0.00000E+00
    0.24407E-01         0.36888E-01         0.00000E+00
    0.23979E-01         0.36078E-01         0.00000E+00
    0.23546E-01         0.35267E-01         0.00000E+00
    0.23108E-01         0.34456E-01         0.00000E+00
    0.22666E-01         0.33645E-01         0.00000E+00
    0.22219E-01         0.32833E-01         0.00000E+00
    0.21767E-01         0.32021E-01         0.00000E+00
    0.21310E-01         0.31209E-01         0.00000E+00
    0.20849E-01         0.30397E-01         0.00000E+00
    0.20382E-01         0.29584E-01         0.00000E+00
    0.19911E-01         0.28771E-01         0.00000E+00
    0.19435E-01         0.27957E-01         0.00000E+00
    0.18954E-01         0.27143E-01         0.00000E+00
    0.18468E-01         0.26329E-01         0.00000E+00
    0.17977E-01         0.25514E-01         0.00000E+00
    0.17481E-01         0.24698E-01         0.00000E+00
    0.16980E-01         0.23883E-01         0.00000E+00
    0.16473E-01         0.23066E-01         0.00000E+00
    0.15962E-01         0.22250E-01         0.00000E+00
    0.15445E-01         0.21432E-01         0.00000E+00
    0.14923E-01         0.20614E-01         0.00000E+00
    0.14396E-01         0.19796E-01         0.00000E+00
    0.13864E-01         0.18977E-01         0.00000E+00
    0.13326E-01         0.18158E-01         0.00000E+00
    0.12782E-01         0.17338E-01         0.00000E+00
    0.12233E-01         0.16517E-01         0.00000E+00
    0.11679E-01         0.15696E-01         0.00000E+00
    0.11118E-01         0.14875E-01         0.00000E+00
    0.10552E-01         0.14053E-01         0.00000E+00
    0.99808E-02         0.13230E-01         0.00000E+00
    0.94033E-02         0.12407E-01         0.00000E+00
    0.88200E-02         0.11583E-01         0.00000E+00
    0.82307E-02         0.10759E-01         0.00000E+00
    0.76354E-02         0.99337E-02         0.00000E+00
    0.70341E-02         0.91084E-02         0.00000E+00
    0.64266E-02         0.82826E-02         0.00000E+00
    0.58130E-02         0.74562E-02         0.00000E+00
    0.51931E-02         0.66295E-02         0.00000E+00
    0.45668E-02         0.58022E-02         0.00000E+00
    0.39342E-02         0.49745E-02         0.00000E+00
    0.32950E-02         0.41464E-02         0.00000E+00
    0.26494E-02         0.33178E-02         0.00000E+00
    0.19971E-02         0.24889E-02         0.00000E+00
    0.13382E-02         0.16596E-02         0.00000E+00
    0.67250E-03         0.82997E-03         0.00000E+00
    0.00000E+00         0.00000E+00         0.00000E+00
    0.26432E-01         0.38947E-01         0.00000E+00
    0.26035E-01         0.38175E-01         0.00000E+00
    0.25632E-01         0.37403E-01         0.00000E+00
    0.25225E-01         0.36631E-01         0.00000E+00
    0.24812E-01         0.35859E-01         0.00000E+00
    0.24395E-01         0.35087E-01         0.00000E+00
    0.23972E-01         0.34315E-01         0.00000E+00
    0.23544E-01         0.33543E-01         0.00000E+00
    0.23112E-01         0.32770E-01         0.00000E+00
    0.22674E-01         0.31997E-01         0.00000E+00
    0.22231E-01         0.31224E-01         0.00000E+00
    0.21783E-01         0.30451E-01         0.00000E+00
    0.21330E-01         0.29678E-01         0.00000E+00
    0.20872E-01         0.28904E-01         0.00000E+00
    0.20408E-01         0.28130E-01         0.00000E+00
    0.19940E-01         0.27356E-01         0.00000E+00
    0.19466E-01         0.26581E-01         0.00000E+00
    0.18987E-01         0.25806E-01         0.00000E+00
    0.18503E-01         0.25031E-01         0.00000E+00
    0.18014E-01         0.24255E-01         0.00000E+00
    0.17519E-01         0.23479E-01         0.00000E+00
    0.17019E-01         0.22702E-01         0.00000E+00
    0.16513E-01         0.21925E-01         0.00000E+00
    0.16003E-01         0.21148E-01         0.00000E+00
    0.15486E-01         0.20370E-01         0.00000E+00
    0.14965E-01         0.19592E-01         0.00000E+00
    0.14437E-01         0.18813E-01         0.00000E+00
    0.13904E-01         0.18034E-01         0.00000E+00
    0.13366E-01         0.17255E-01         0.00000E+00
    0.12822E-01         0.16475E-01         0.00000E+00
    0.12272E-01         0.15694E-01         0.00000E+00
    0.11717E-01         0.14913E-01         0.00000E+00
    0.11155E-01         0.14132E-01         0.00000E+00
    0.10588E-01         0.13350E-01         0.00000E+00
    0.10015E-01         0.12568E-01         0.00000E+00
    0.94361E-02         0.11785E-01         0.00000E+00
    0.88511E-02         0.11002E-01         0.00000E+00
    0.82600E-02         0.10218E-01         0.00000E+00
    0.76629E-02         0.94346E-02         0.00000E+00
    0.70596E-02         0.86502E-02         0.00000E+00
    0.64500E-02         0.78655E-02         0.00000E+00
    0.58342E-02         0.70804E-02         0.00000E+00
    0.52121E-02         0.62949E-02         0.00000E+00
    0.45836E-02         0.55091E-02         0.00000E+00
    0.39486E-02         0.47229E-02         0.00000E+00
    0.33071E-02         0.39365E-02         0.00000E+00
    0.26591E-02         0.31497E-02         0.00000E+00
    0.20044E-02         0.23626E-02         0.00000E+00
    0.13431E-02         0.15753E-02         0.00000E+00
    0.67494E-03         0.78776E-03         0.00000E+00
    0.00000E+00         0.00000E+00         0.00000E+00
    0.26355E-01         0.36991E-01         0.00000E+00
    0.25965E-01         0.36257E-01         0.00000E+00
    0.25569E-01         0.35523E-01         0.00000E+00
    0.25168E-01         0.34789E-01         0.00000E+00
    0.24762E-01         0.34055E-01         0.00000E+00
    0.24351E-01         0.33321E-01         0.00000E+00
    0.23934E-01         0.32586E-01         0.00000E+00
    0.23511E-01         0.31852E-01         0.00000E+00
    0.23084E-01         0.31117E-01         0.00000E+00
    0.22651E-01         0.30383E-01         0.00000E+00
    0.22212E-01         0.29648E-01         0.00000E+00
    0.21768E-01         0.28913E-01         0.00000E+00
    0.21319E-01         0.28177E-01         0.00000E+00
    0.20865E-01         0.27442E-01         0.00000E+00
    0.20405E-01         0.26706E-01         0.00000E+00
    0.19939E-01         0.25970E-01         0.00000E+00
    0.19469E-01         0.25233E-01         0.00000E+00
    0.18992E-01         0.24496E-01         0.00000E+00
    0.18511E-01         0.23759E-01         0.00000E+00
    0.18023E-01         0.23022E-01         0.00000E+00
    0.17530E-01         0.22285E-01         0.00000E+00
    0.17032E-01         0.21547E-01         0.00000E+00
    0.16528E-01         0.20808E-01         0.00000E+00
    0.16019E-01         0.20070E-01         0.00000E+00
    0.15503E-01         0.19331E-01         0.00000E+00
    0.14982E-01         0.18591E-01         0.00000E+00
    0.14456E-01         0.17852E-01         0.00000E+00
    0.13924E-01         0.17111E-01         0.00000E+00
    0.13385E-01         0.16371E-01         0.00000E+00
    0.12842E-01         0.15630E-01         0.00000E+00
    0.12292E-01         0.14889E-01         0.00000E+00
    0.11736E-01         0.14147E-01         0.00000E+00
    0.11175E-01         0.13406E-01         0.00000E+00
    0.10607E-01         0.12663E-01         0.00000E+00
    0.10033E-01         0.11921E-01         0.00000E+00
    0.94538E-02         0.11178E-01         0.00000E+00
    0.88680E-02         0.10434E-01         0.00000E+00
    0.82762E-02         0.96909E-02         0.00000E+00
    0.76781E-02         0.89469E-02         0.00000E+00
    0.70738E-02         0.82027E-02         0.00000E+00
    0.64632E-02         0.74582E-02         0.00000E+00
    0.58462E-02         0.67133E-02         0.00000E+00
    0.52229E-02         0.59683E-02         0.00000E+00
    0.45931E-02         0.52229E-02         0.00000E+00
    0.39568E-02         0.44773E-02         0.00000E+00
    0.33140E-02         0.37316E-02         0.00000E+00
    0.26646E-02         0.29856E-02         0.00000E+00
    0.20086E-02         0.22394E-02         0.00000E+00
    0.13458E-02         0.14931E-02         0.00000E+00
    0.67631E-03         0.74658E-03         0.00000E+00
    0.00000E+00         0.00000E+00         0.00000E+00
    0.26251E-01         0.35072E-01         0.00000E+00
    0.25868E-01         0.34376E-01         0.00000E+00
    0.25479E-01         0.33679E-01         0.00000E+00
    0.25085E-01         0.32982E-01         0.00000E+00
    0.24685E-01         0.32285E-01         0.00000E+00
    0.24279E-01         0.31588E-01         0.00000E+00
    0.23868E-01         0.30891E-01         0.00000E+00
    0.23451E-01         0.30194E-01         0.00000E+00
    0.23029E-01         0.29497E-01         0.00000E+00
    0.22601E-01         0.28799E-01         0.00000E+00
    0.22167E-01         0.28102E-01         0.00000E+00
    0.21728E-01         0.27404E-01         0.00000E+00
    0.21283E-01         0.26706E-01         0.00000E+00
    0.20832E-01         0.26008E-01         0.00000E+00
    0.20376E-01         0.25310E-01         0.00000E+00
    0.19914E-01         0.24611E-01         0.00000E+00
    0.19447E-01         0.23913E-01         0.00000E+00
    0.18973E-01         0.23214E-01         0.00000E+00
    0.18494E-01         0.22514E-01         0.00000E+00
    0.18010E-01         0.21815E-01         0.00000E+00
    0.17519E-01         0.21115E-01         0.00000E+00
    0.17023E-01         0.20415E-01         0.00000E+00
    0.16521E-01         0.19715E-01         0.00000E+00
    0.16013E-01         0.19014E-01         0.00000E+00
    0.15500E-01         0.18313E-01         0.00000E+00
    0.14980E-01         0.17612E-01         0.00000E+00
    0.14455E-01         0.16910E-01         0.00000E+00
    0.13924E-01         0.16209E-01         0.00000E+00
    0.13387E-01         0.15507E-01         0.00000E+00
    0.12844E-01         0.14804E-01         0.00000E+00
    0.12295E-01         0.14102E-01         0.00000E+00
    0.11740E-01         0.13399E-01         0.00000E+00
    0.11179E-01         0.12695E-01         0.00000E+00
    0.10611E-01         0.11992E-01         0.00000E+00
    0.10038E-01         0.11288E-01         0.00000E+00
    0.94586E-02         0.10584E-01         0.00000E+00
    0.88729E-02         0.98798E-02         0.00000E+00
    0.82809E-02         0.91753E-02         0.00000E+00
    0.76828E-02         0.84705E-02         0.00000E+00
    0.70782E-02         0.77655E-02         0.00000E+00
    0.64674E-02         0.70603E-02         0.00000E+00
    0.58501E-02         0.63549E-02         0.00000E+00
    0.52264E-02         0.56493E-02         0.00000E+00
    0.45963E-02         0.49435E-02         0.00000E+00
    0.39596E-02         0.42376E-02         0.00000E+00
    0.33163E-02         0.35315E-02         0.00000E+00
    0.26665E-02         0.28254E-02         0.00000E+00
    0.20100E-02         0.21191E-02         0.00000E+00
    0.13467E-02         0.14128E-02         0.00000E+00
    0.67676E-03         0.70641E-03         0.00000E+00
    0.00000E+00         0.00000E+00         0.00000E+00
    0.26125E-01         0.33190E-01         0.00000E+00
    0.25749E-01         0.32529E-01         0.00000E+00
    0.25368E-01         0.31869E-01         0.00000E+00
    0.24980E-01         0.31209E-01         0.00000E+00
    0.24586E-01         0.30549E-01         0.00000E+00
    0.24186E-01         0.29889E-01         0.00000E+00
    0.23781E-01         0.29229E-01         0.00000E+00
    0.23370E-01         0.28568E-01         0.00000E+00
    0.22952E-01         0.27908E-01         0.00000E+00
    0.22529E-01         0.27247E-01         0.00000E+00
    0.22100E-01         0.26586E-01         0.00000E+00
    0.21666E-01         0.25926E-01         0.00000E+00
    0.21225E-01         0.25264E-01         0.00000E+00
    0.20779E-01         0.24603E-01         0.00000E+00
    0.20326E-01         0.23942E-01         0.00000E+00
    0.19868E-01         0.23280E-01         0.00000E+00
    0.19404E-01         0.22619E-01         0.00000E+00
    0.18934E-01         0.21957E-01         0.00000E+00
    0.18458E-01         0.21295E-01         0.00000E+00
    0.17977E-01         0.20632E-01         0.00000E+00
    0.17489E-01         0.19970E-01         0.00000E+00
    0.16995E-01         0.19307E-01         0.00000E+00
    0.16496E-01         0.18644E-01         0.00000E+00
    0.15990E-01         0.17981E-01         0.00000E+00
    0.15479E-01         0.17317E-01         0.00000E+00
    0.14962E-01         0.16653E-01         0.00000E+00
    0.14438E-01         0.15989E-01         0.00000E+00
    0.13909E-01         0.15325E-01         0.00000E+00
    0.13373E-01         0.14661E-01         0.00000E+00
    0.12831E-01         0.13996E-01         0.00000E+00
    0.12284E-01         0.13331E-01         0.00000E+00
    0.11730E-01         0.12666E-01         0.00000E+00
    0.11170E-01         0.12001E-01         0.00000E+00
    0.10603E-01         0.11335E-01         0.00000E+00
    0.10031E-01         0.10670E-01         0.00000E+00
    0.94523E-02         0.10004E-01         0.00000E+00
    0.88673E-02         0.93376E-02         0.00000E+00
    0.82760E-02         0.86713E-02         0.00000E+00
    0.76784E-02         0.80048E-02         0.00000E+00
    0.70744E-02         0.73382E-02         0.00000E+00
    0.64640E-02         0.66715E-02         0.00000E+00
    0.58472E-02         0.60046E-02         0.00000E+00
    0.52239E-02         0.53377E-02         0.00000E+00
    0.45941E-02         0.46706E-02         0.00000E+00
    0.39577E-02         0.40034E-02         0.00000E+00
    0.33148E-02         0.33362E-02         0.00000E+00
    0.26652E-02         0.26690E-02         0.00000E+00
    0.20090E-02         0.20017E-02         0.00000E+00
    0.13461E-02         0.13344E-02         0.00000E+00
    0.67642E-03         0.66720E-03         0.00000E+00
    0.00000E+00         0.00000E+00         0.00000E+00
    0.25983E-01         0.31342E-01         0.00000E+00
    0.25614E-01         0.30718E-01         0.00000E+00
    0.25239E-01         0.30094E-01         0.00000E+00
    0.24857E-01         0.29470E-01         0.00000E+00
    0.24469E-01         0.28846E-01         0.00000E+00
    0.24076E-01         0.28222E-01         0.00000E+00
    0.23676E-01         0.27598E-01         0.00000E+00
    0.23270E-01         0.26973E-01         0.00000E+00
    0.22858E-01         0.26349E-01         0.00000E+00
    0.22440E-01         0.25725E-01         0.00000E+00
    0.22016E-01         0.25100E-01         0.00000E+00
    0.21586E-01         0.24476E-01         0.00000E+00
    0.21150E-01         0.23851E-01         0.00000E+00
    0.20708E-01         0.23226E-01         0.00000E+00
    0.20259E-01         0.22601E-01         0.00000E+00
    0.19805E-01         0.21976E-01         0.00000E+00
    0.19345E-01         0.21350E-01         0.00000E+00
    0.18879E-01         0.20725E-01         0.00000E+00
    0.18406E-01         0.20099E-01         0.00000E+00
    0.17928E-01         0.19473E-01         0.00000E+00
    0.17443E-01         0.18847E-01         0.00000E+00
    0.16952E-01         0.18221E-01         0.00000E+00
    0.16456E-01         0.17595E-01         0.00000E+00
    0.15953E-01         0.16968E-01         0.00000E+00
    0.15444E-01         0.16342E-01         0.00000E+00
    0.14929E-01         0.15715E-01         0.00000E+00
    0.14407E-01         0.15088E-01         0.00000E+00
    0.13880E-01         0.14460E-01         0.00000E+00
    0.13346E-01         0.13833E-01         0.00000E+00
    0.12807E-01         0.13205E-01         0.00000E+00
    0.12261E-01         0.12577E-01         0.00000E+00
    0.11708E-01         0.11949E-01         0.00000E+00
    0.11150E-01         0.11321E-01         0.00000E+00
    0.10585E-01         0.10693E-01         0.00000E+00
    0.10014E-01         0.10065E-01         0.00000E+00
    0.94368E-02         0.94360E-02         0.00000E+00
    0.88531E-02         0.88073E-02         0.00000E+00
    0.82630E-02         0.81785E-02         0.00000E+00
    0.76665E-02         0.75496E-02         0.00000E+00
    0.70636E-02         0.69206E-02         0.00000E+00
    0.64543E-02         0.62915E-02         0.00000E+00
    0.58385E-02         0.56624E-02         0.00000E+00
    0.52162E-02         0.50332E-02         0.00000E+00
    0.45873E-02         0.44040E-02         0.00000E+00
    0.39519E-02         0.37747E-02         0.00000E+00
    0.33099E-02         0.31455E-02         0.00000E+00
    0.26613E-02         0.25163E-02         0.00000E+00
    0.20060E-02         0.18871E-02         0.00000E+00
    0.13441E-02         0.12580E-02         0.00000E+00
    0.67541E-03         0.62893E-03         0.00000E+00
    0.00000E+00         0.00000E+00         0.00000E+00
    0.25828E-01         0.29528E-01         0.00000E+00
    0.25465E-01         0.28939E-01         0.00000E+00
    0.25096E-01         0.28351E-01         0.00000E+00
    0.24721E-01         0.27762E-01         0.00000E+00
    0.24339E-01         0.27174E-01         0.00000E+00
    0.23952E-01         0.26586E-01         0.00000E+00
    0.23557E-01         0.25997E-01         0.00000E+00
    0.23157E-01         0.25408E-01         0.00000E+00
    0.22750E-01         0.24820E-01         0.00000E+00
    0.22337E-01         0.24231E-01         0.00000E+00
    0.21918E-01         0.23642E-01         0.00000E+00
    0.21493E-01         0.23053E-01         0.00000E+00
    0.21061E-01         0.22464E-01         0.00000E+00
    0.20623E-01         0.21875E-01         0.00000E+00
    0.20179E-01         0.21286E-01         0.00000E+00
    0.19729E-01         0.20696E-01         0.00000E+00
    0.19272E-01         0.20107E-01         0.00000E+00
    0.18810E-01         0.19517E-01         0.00000E+00
    0.18341E-01         0.18928E-01         0.00000E+00
    0.17866E-01         0.18338E-01         0.00000E+00
    0.17384E-01         0.17748E-01         0.00000E+00
    0.16897E-01         0.17157E-01         0.00000E+00
    0.16403E-01         0.16567E-01         0.00000E+00
    0.15903E-01         0.15977E-01         0.00000E+00
    0.15397E-01         0.15386E-01         0.00000E+00
    0.14885E-01         0.14795E-01         0.00000E+00
    0.14366E-01         0.14204E-01         0.00000E+00
    0.13841E-01         0.13613E-01         0.00000E+00
    0.13310E-01         0.13022E-01         0.00000E+00
    0.12772E-01         0.12431E-01         0.00000E+00
    0.12228E-01         0.11839E-01         0.00000E+00
    0.11678E-01         0.11248E-01         0.00000E+00
    0.11121E-01         0.10656E-01         0.00000E+00
    0.10559E-01         0.10064E-01         0.00000E+00
    0.99894E-02         0.94726E-02         0.00000E+00
    0.94138E-02         0.88806E-02         0.00000E+00
    0.88318E-02         0.82886E-02         0.00000E+00
    0.82434E-02         0.76965E-02         0.00000E+00
    0.76485E-02         0.71044E-02         0.00000E+00
    0.70472E-02         0.65122E-02         0.00000E+00
    0.64394E-02         0.59200E-02         0.00000E+00
    0.58251E-02         0.53278E-02         0.00000E+00
    0.52042E-02         0.47356E-02         0.00000E+00
    0.45769E-02         0.41434E-02         0.00000E+00
    0.39429E-02         0.35512E-02         0.00000E+00
    0.33024E-02         0.29591E-02         0.00000E+00
    0.26552E-02         0.23670E-02         0.00000E+00
    0.20015E-02         0.17751E-02         0.00000E+00
    0.13410E-02         0.11832E-02         0.00000E+00
    0.67386E-03         0.59155E-03         0.00000E+00
    0.00000E+00         0.00000E+00         0.00000E+00
    0.25664E-01         0.27746E-01         0.00000E+00
    0.25308E-01         0.27193E-01         0.00000E+00
    0.24945E-01         0.26639E-01         0.00000E+00
    0.24576E-01         0.26086E-01         0.00000E+00
    0.24200E-01         0.25533E-01         0.00000E+00
    0.23817E-01         0.24979E-01         0.00000E+00
    0.23429E-01         0.24426E-01         0.00000E+00
    0.23034E-01         0.23872E-01         0.00000E+00
    0.22632E-01         0.23319E-01         0.00000E+00
    0.22224E-01         0.22765E-01         0.00000E+00
    0.21810E-01         0.22211E-01         0.00000E+00
    0.21389E-01         0.21658E-01         0.00000E+00
    0.20962E-01         0.21104E-01         0.00000E+00
    0.20528E-01         0.20550E-01         0.00000E+00
    0.20088E-01         0.19996E-01         0.00000E+00
    0.19642E-01         0.19442E-01         0.00000E+00
    0.19190E-01         0.18887E-01         0.00000E+00
    0.18731E-01         0.18333E-01         0.00000E+00
    0.18266E-01         0.17779E-01         0.00000E+00
    0.17794E-01         0.17224E-01         0.00000E+00
    0.17316E-01         0.16669E-01         0.00000E+00
    0.16832E-01         0.16114E-01         0.00000E+00
    0.16341E-01         0.15560E-01         0.00000E+00
    0.15844E-01         0.15005E-01         0.00000E+00
    0.15341E-01         0.14449E-01         0.00000E+00
    0.14832E-01         0.13894E-01         0.00000E+00
    0.14316E-01         0.13339E-01         0.00000E+00
    0.13793E-01         0.12783E-01         0.00000E+00
    0.13265E-01         0.12228E-01         0.00000E+00
    0.12730E-01         0.11672E-01         0.00000E+00
    0.12188E-01         0.11117E-01         0.00000E+00
    0.11640E-01         0.10561E-01         0.00000E+00
    0.11086E-01         0.10005E-01         0.00000E+00
    0.10525E-01         0.94490E-02         0.00000E+00
    0.99583E-02         0.88930E-02         0.00000E+00
    0.93848E-02         0.83370E-02         0.00000E+00
    0.88049E-02         0.77809E-02         0.00000E+00
    0.82184E-02         0.72248E-02         0.00000E+00
    0.76256E-02         0.66687E-02         0.00000E+00
    0.70262E-02         0.61126E-02         0.00000E+00
    0.64203E-02         0.55565E-02         0.00000E+00
    0.58079E-02         0.50005E-02         0.00000E+00
    0.51889E-02         0.44445E-02         0.00000E+00
    0.45634E-02         0.38885E-02         0.00000E+00
    0.39314E-02         0.33326E-02         0.00000E+00
    0.32927E-02         0.27768E-02         0.00000E+00
    0.26475E-02         0.22212E-02         0.00000E+00
    0.19956E-02         0.16656E-02         0.00000E+00
    0.13371E-02         0.11102E-02         0.00000E+00
    0.67187E-03         0.55502E-03         0.00000E+00
    0.00000E+00         0.00000E+00         0.00000E+00
    0.25495E-01         0.25996E-01         0.00000E+00
    0.25145E-01         0.25477E-01         0.00000E+00
    0.24788E-01         0.24958E-01         0.00000E+00
    0.24424E-01         0.24439E-01         0.00000E+00
    0.24054E-01         0.23921E-01         0.00000E+00
    0.23677E-01         0.23402E-01         0.00000E+00
    0.23293E-01         0.22883E-01         0.00000E+00
    0.22903E-01         0.22364E-01         0.00000E+00
    0.22507E-01         0.21845E-01         0.00000E+00
    0.22104E-01         0.21326E-01         0.00000E+00
    0.21694E-01         0.20807E-01         0.00000E+00
    0.21278E-01         0.20288E-01         0.00000E+00
    0.20855E-01         0.19768E-01         0.00000E+00
    0.20426E-01         0.19249E-01         0.00000E+00
    0.19990E-01         0.18730E-01         0.00000E+00
    0.19548E-01         0.18210E-01         0.00000E+00
    0.19100E-01         0.17691E-01         0.00000E+00
    0.18645E-01         0.17171E-01         0.00000E+00
    0.18183E-01         0.16651E-01         0.00000E+00
    0.17715E-01         0.16131E-01         0.00000E+00
    0.17241E-01         0.15612E-01         0.00000E+00
    0.16760E-01         0.15092E-01         0.00000E+00
    0.16273E-01         0.14571E-01         0.00000E+00
    0.15779E-01         0.14051E-01         0.00000E+00
    0.15279E-01         0.13531E-01         0.00000E+00
    0.14772E-01         0.13011E-01         0.00000E+00
    0.14259E-01         0.12490E-01         0.00000E+00
    0.13740E-01         0.11970E-01         0.00000E+00
    0.13214E-01         0.11449E-01         0.00000E+00
    0.12681E-01         0.10929E-01         0.00000E+00
    0.12142E-01         0.10408E-01         0.00000E+00
    0.11597E-01         0.98875E-02         0.00000E+00
    0.11045E-01         0.93668E-02         0.00000E+00
    0.10487E-01         0.88460E-02         0.00000E+00
    0.99225E-02         0.83253E-02         0.00000E+00
    0.93514E-02         0.78045E-02         0.00000E+00
    0.87737E-02         0.72837E-02         0.00000E+00
    0.81896E-02         0.67629E-02         0.00000E+00
    0.75989E-02         0.62422E-02         0.00000E+00
    0.70018E-02         0.57214E-02         0.00000E+00
    0.63981E-02         0.52007E-02         0.00000E+00
    0.57879E-02         0.46801E-02         0.00000E+00
    0.51711E-02         0.41596E-02         0.00000E+00
    0.45478E-02         0.36391E-02         0.00000E+00
    0.39179E-02         0.31188E-02         0.00000E+00
    0.32814E-02         0.25986E-02         0.00000E+00
    0.26384E-02         0.20785E-02         0.00000E+00
    0.19887E-02         0.15586E-02         0.00000E+00
    0.13325E-02         0.10388E-02         0.00000E+00
    0.66955E-03         0.51930E-03         0.00000E+00
    0.00000E+00         0.00000E+00         0.00000E+00
    0.25324E-01         0.24276E-01         0.00000E+00
    0.24979E-01         0.23791E-01         0.00000E+00
    0.24628E-01         0.23306E-01         0.00000E+00
    0.24270E-01         0.22821E-01         0.00000E+00
    0.23905E-01         0.22337E-01         0.00000E+00
    0.23533E-01         0.21852E-01         0.00000E+00
    0.23155E-01         0.21367E-01         0.00000E+00
    0.22770E-01         0.20882E-01         0.00000E+00
    0.22378E-01         0.20397E-01         0.00000E+00
    0.21979E-01         0.19912E-01         0.00000E+00
    0.21574E-01         0.19427E-01         0.00000E+00
    0.21163E-01         0.18942E-01         0.00000E+00
    0.20744E-01         0.18457E-01         0.00000E+00
    0.20319E-01         0.17972E-01         0.00000E+00
    0.19888E-01         0.17486E-01         0.00000E+00
    0.19450E-01         0.17001E-01         0.00000E+00
    0.19005E-01         0.16516E-01         0.00000E+00
    0.18554E-01         0.16030E-01         0.00000E+00
    0.18096E-01         0.15545E-01         0.00000E+00
    0.17632E-01         0.15059E-01         0.00000E+00
    0.17161E-01         0.14573E-01         0.00000E+00
    0.16683E-01         0.14088E-01         0.00000E+00
    0.16199E-01         0.13602E-01         0.00000E+00
    0.15709E-01         0.13116E-01         0.00000E+00
    0.15212E-01         0.12630E-01         0.00000E+00
    0.14708E-01         0.12144E-01         0.00000E+00
    0.14198E-01         0.11658E-01         0.00000E+00
    0.13682E-01         0.11172E-01         0.00000E+00
    0.13159E-01         0.10686E-01         0.00000E+00
    0.12629E-01         0.10200E-01         0.00000E+00
    0.12093E-01         0.97136E-02         0.00000E+00
    0.11550E-01         0.92274E-02         0.00000E+00
    0.11001E-01         0.87412E-02         0.00000E+00
    0.10446E-01         0.82550E-02         0.00000E+00
    0.98834E-02         0.77688E-02         0.00000E+00
    0.93148E-02         0.72826E-02         0.00000E+00
    0.87396E-02         0.67965E-02         0.00000E+00
    0.81579E-02         0.63103E-02         0.00000E+00
    0.75697E-02         0.58242E-02         0.00000E+00
    0.69750E-02         0.53382E-02         0.00000E+00
    0.63737E-02         0.48522E-02         0.00000E+00
    0.57658E-02         0.43664E-02         0.00000E+00
    0.51515E-02         0.38806E-02         0.00000E+00
    0.45306E-02         0.33949E-02         0.00000E+00
    0.39031E-02         0.29094E-02         0.00000E+00
    0.32690E-02         0.24240E-02         0.00000E+00
    0.26284E-02         0.19388E-02         0.00000E+00
    0.19812E-02         0.14538E-02         0.00000E+00
    0.13274E-02         0.96896E-03         0.00000E+00
    0.66700E-03         0.48436E-03         0.00000E+00
    0.00000E+00         0.00000E+00         0.00000E+00
    0.25153E-01         0.22584E-01         0.00000E+00
    0.24814E-01         0.22133E-01         0.00000E+00
    0.24468E-01         0.21681E-01         0.00000E+00
    0.24115E-01         0.21230E-01         0.00000E+00
    0.23755E-01         0.20779E-01         0.00000E+00
    0.23389E-01         0.20328E-01         0.00000E+00
    0.23015E-01         0.19876E-01         0.00000E+00
    0.22635E-01         0.19425E-01         0.00000E+00
    0.22248E-01         0.18974E-01         0.00000E+00
    0.21854E-01         0.18522E-01         0.00000E+00
    0.21453E-01         0.18071E-01         0.00000E+00
    0.21046E-01         0.17619E-01         0.00000E+00
    0.20632E-01         0.17168E-01         0.00000E+00
    0.20211E-01         0.16716E-01         0.00000E+00
    0.19783E-01         0.16265E-01         0.00000E+00
    0.19349E-01         0.15813E-01         0.00000E+00
    0.18908E-01         0.15361E-01         0.00000E+00
    0.18461E-01         0.14909E-01         0.00000E+00
    0.18007E-01         0.14458E-01         0.00000E+00
    0.17546E-01         0.14006E-01         0.00000E+00
    0.17078E-01         0.13554E-01         0.00000E+00
    0.16604E-01         0.13102E-01         0.00000E+00
    0.16124E-01         0.12650E-01         0.00000E+00
    0.15636E-01         0.12198E-01         0.00000E+00
    0.15142E-01         0.11745E-01         0.00000E+00
    0.14642E-01         0.11293E-01         0.00000E+00
    0.14135E-01         0.10841E-01         0.00000E+00
    0.13621E-01         0.10389E-01         0.00000E+00
    0.13101E-01         0.99366E-02         0.00000E+00
    0.12574E-01         0.94843E-02         0.00000E+00
    0.12041E-01         0.90321E-02         0.00000E+00
    0.11501E-01         0.85798E-02         0.00000E+00
    0.10955E-01         0.81275E-02         0.00000E+00
    0.10402E-01         0.76753E-02         0.00000E+00
    0.98424E-02         0.72230E-02         0.00000E+00
    0.92763E-02         0.67708E-02         0.00000E+00
    0.87037E-02         0.63187E-02         0.00000E+00
    0.81246E-02         0.58666E-02         0.00000E+00
    0.75389E-02         0.54145E-02         0.00000E+00
    0.69467E-02         0.49625E-02         0.00000E+00
    0.63479E-02         0.45106E-02         0.00000E+00
    0.57426E-02         0.40589E-02         0.00000E+00
    0.51308E-02         0.36072E-02         0.00000E+00
    0.45124E-02         0.31557E-02         0.00000E+00
    0.38874E-02         0.27043E-02         0.00000E+00
    0.32559E-02         0.22531E-02         0.00000E+00
    0.26178E-02         0.18020E-02         0.00000E+00
    0.19732E-02         0.13512E-02         0.00000E+00
    0.13220E-02         0.90053E-03         0.00000E+00
    0.66431E-03         0.45014E-03         0.00000E+00
    0.00000E+00         0.00000E+00         0.00000E+00
    0.24986E-01         0.20919E-01         0.00000E+00
    0.24652E-01         0.20501E-01         0.00000E+00
    0.24311E-01         0.20083E-01         0.00000E+00
    0.23964E-01         0.19665E-01         0.00000E+00
    0.23609E-01         0.19247E-01         0.00000E+00
    0.23247E-01         0.18828E-01         0.00000E+00
    0.22878E-01         0.18410E-01         0.00000E+00
    0.22502E-01         0.17992E-01         0.00000E+00
    0.22119E-01         0.17574E-01         0.00000E+00
    0.21730E-01         0.17155E-01         0.00000E+00
    0.21333E-01         0.16737E-01         0.00000E+00
    0.20930E-01         0.16319E-01         0.00000E+00
    0.20520E-01         0.15900E-01         0.00000E+00
    0.20103E-01         0.15482E-01         0.00000E+00
    0.19679E-01         0.15063E-01         0.00000E+00
    0.19249E-01         0.14645E-01         0.00000E+00
    0.18812E-01         0.14226E-01         0.00000E+00
    0.18368E-01         0.13808E-01         0.00000E+00
    0.17917E-01         0.13389E-01         0.00000E+00
    0.17460E-01         0.12970E-01         0.00000E+00
    0.16996E-01         0.12552E-01         0.00000E+00
    0.16525E-01         0.12133E-01         0.00000E+00
    0.16047E-01         0.11714E-01         0.00000E+00
    0.15563E-01         0.11295E-01         0.00000E+00
    0.15072E-01         0.10876E-01         0.00000E+00
    0.14575E-01         0.10457E-01         0.00000E+00
    0.14071E-01         0.10038E-01         0.00000E+00
    0.13560E-01         0.96196E-02         0.00000E+00
    0.13043E-01         0.92007E-02         0.00000E+00
    0.12519E-01         0.87817E-02         0.00000E+00
    0.11989E-01         0.83628E-02         0.00000E+00
    0.11451E-01         0.79439E-02         0.00000E+00
    0.10908E-01         0.75250E-02         0.00000E+00
    0.10357E-01         0.71061E-02         0.00000E+00
    0.98006E-02         0.66873E-02         0.00000E+00
    0.92372E-02         0.62685E-02         0.00000E+00
    0.86672E-02         0.58497E-02         0.00000E+00
    0.80906E-02         0.54311E-02         0.00000E+00
    0.75075E-02         0.50125E-02         0.00000E+00
    0.69179E-02         0.45939E-02         0.00000E+00
    0.63217E-02         0.41755E-02         0.00000E+00
    0.57189E-02         0.37572E-02         0.00000E+00
    0.51096E-02         0.33391E-02         0.00000E+00
    0.44938E-02         0.29210E-02         0.00000E+00
    0.38714E-02         0.25031E-02         0.00000E+00
    0.32425E-02         0.20854E-02         0.00000E+00
    0.26071E-02         0.16679E-02         0.00000E+00
    0.19651E-02         0.12506E-02         0.00000E+00
    0.13166E-02         0.83347E-03         0.00000E+00
    0.66156E-03         0.41660E-03         0.00000E+00
    0.00000E+00         0.00000E+00         0.00000E+00
    0.24826E-01         0.19280E-01         0.00000E+00
    0.24497E-01         0.18894E-01         0.00000E+00
    0.24160E-01         0.18509E-01         0.00000E+00
    0.23817E-01         0.18123E-01         0.00000E+00
    0.23467E-01         0.17738E-01         0.00000E+00
    0.23109E-01         0.17352E-01         0.00000E+00
    0.22745E-01         0.16967E-01         0.00000E+00
    0.22373E-01         0.16581E-01         0.00000E+00
    0.21995E-01         0.16195E-01         0.00000E+00
    0.21609E-01         0.15810E-01         0.00000E+00
    0.21217E-01         0.15424E-01         0.00000E+00
    0.20817E-01         0.15038E-01         0.00000E+00
    0.20411E-01         0.14653E-01         0.00000E+00
    0.19998E-01         0.14267E-01         0.00000E+00
    0.19578E-01         0.13881E-01         0.00000E+00
    0.19151E-01         0.13495E-01         0.00000E+00
    0.18717E-01         0.13110E-01         0.00000E+00
    0.18277E-01         0.12724E-01         0.00000E+00
    0.17829E-01         0.12338E-01         0.00000E+00
    0.17375E-01         0.11952E-01         0.00000E+00
    0.16914E-01         0.11566E-01         0.00000E+00
    0.16447E-01         0.11180E-01         0.00000E+00
    0.15972E-01         0.10794E-01         0.00000E+00
    0.15491E-01         0.10408E-01         0.00000E+00
    0.15004E-01         0.10022E-01         0.00000E+00
    0.14509E-01         0.96355E-02         0.00000E+00
    0.14008E-01         0.92494E-02         0.00000E+00
    0.13500E-01         0.88633E-02         0.00000E+00
    0.12986E-01         0.84772E-02         0.00000E+00
    0.12464E-01         0.80911E-02         0.00000E+00
    0.11937E-01         0.77050E-02         0.00000E+00
    0.11402E-01         0.73190E-02         0.00000E+00
    0.10861E-01         0.69329E-02         0.00000E+00
    0.10313E-01         0.65469E-02         0.00000E+00
    0.97592E-02         0.61609E-02         0.00000E+00
    0.91984E-02         0.57750E-02         0.00000E+00
    0.86310E-02         0.53891E-02         0.00000E+00
    0.80570E-02         0.50033E-02         0.00000E+00
    0.74764E-02         0.46176E-02         0.00000E+00
    0.68893E-02         0.42320E-02         0.00000E+00
    0.62956E-02         0.38465E-02         0.00000E+00
    0.56954E-02         0.34611E-02         0.00000E+00
    0.50886E-02         0.30758E-02         0.00000E+00
    0.44753E-02         0.26907E-02         0.00000E+00
    0.38555E-02         0.23057E-02         0.00000E+00
    0.32292E-02         0.19209E-02         0.00000E+00
    0.25964E-02         0.15363E-02         0.00000E+00
    0.19570E-02         0.11519E-02         0.00000E+00
    0.13112E-02         0.76767E-03         0.00000E+00
    0.65883E-03         0.38371E-03         0.00000E+00
    0.00000E+00         0.00000E+00         0.00000E+00
    0.24673E-01         0.17664E-01         0.00000E+00
    0.24349E-01         0.17311E-01         0.00000E+00
    0.24017E-01         0.16957E-01         0.00000E+00
    0.23678E-01         0.16604E-01         0.00000E+00
    0.23332E-01         0.16251E-01         0.00000E+00
    0.22979E-01         0.15898E-01         0.00000E+00
    0.22618E-01         0.15544E-01         0.00000E+00
    0.22251E-01         0.15191E-01         0.00000E+00
    0.21876E-01         0.14838E-01         0.00000E+00
    0.21494E-01         0.14484E-01         0.00000E+00
    0.21106E-01         0.14131E-01         0.00000E+00
    0.20710E-01         0.13777E-01         0.00000E+00
    0.20307E-01         0.13424E-01         0.00000E+00
    0.19898E-01         0.13070E-01         0.00000E+00
    0.19481E-01         0.12717E-01         0.00000E+00
    0.19057E-01         0.12363E-01         0.00000E+00
    0.18627E-01         0.12010E-01         0.00000E+00
    0.18190E-01         0.11656E-01         0.00000E+00
    0.17746E-01         0.11303E-01         0.00000E+00
    0.17295E-01         0.10949E-01         0.00000E+00
    0.16837E-01         0.10595E-01         0.00000E+00
    0.16372E-01         0.10242E-01         0.00000E+00
    0.15901E-01         0.98880E-02         0.00000E+00
    0.15422E-01         0.95342E-02         0.00000E+00
    0.14938E-01         0.91805E-02         0.00000E+00
    0.14446E-01         0.88267E-02         0.00000E+00
    0.13947E-01         0.84730E-02         0.00000E+00
    0.13442E-01         0.81192E-02         0.00000E+00
    0.12930E-01         0.77654E-02         0.00000E+00
    0.12412E-01         0.74117E-02         0.00000E+00
    0.11887E-01         0.70580E-02         0.00000E+00
    0.11355E-01         0.67042E-02         0.00000E+00
    0.10816E-01         0.63506E-02         0.00000E+00
    0.10271E-01         0.59969E-02         0.00000E+00
    0.97193E-02         0.56433E-02         0.00000E+00
    0.91610E-02         0.52897E-02         0.00000E+00
    0.85960E-02         0.49363E-02         0.00000E+00
    0.80244E-02         0.45828E-02         0.00000E+00
    0.74463E-02         0.42295E-02         0.00000E+00
    0.68616E-02         0.38762E-02         0.00000E+00
    0.62704E-02         0.35231E-02         0.00000E+00
    0.56726E-02         0.31701E-02         0.00000E+00
    0.50683E-02         0.28171E-02         0.00000E+00
    0.44575E-02         0.24644E-02         0.00000E+00
    0.38402E-02         0.21117E-02         0.00000E+00
    0.32163E-02         0.17593E-02         0.00000E+00
    0.25860E-02         0.14070E-02         0.00000E+00
    0.19492E-02         0.10549E-02         0.00000E+00
    0.13059E-02         0.70306E-03         0.00000E+00
    0.65619E-03         0.35141E-03         0.00000E+00
    0.00000E+00         0.00000E+00         0.00000E+00
    0.24532E-01         0.16070E-01         0.00000E+00
    0.24211E-01         0.15749E-01         0.00000E+00
    0.23884E-01         0.15427E-01         0.00000E+00
    0.23549E-01         0.15106E-01         0.00000E+00
    0.23206E-01         0.14784E-01         0.00000E+00
    0.22857E-01         0.14463E-01         0.00000E+00
    0.22500E-01         0.14142E-01         0.00000E+00
    0.22136E-01         0.13820E-01         0.00000E+00
    0.21765E-01         0.13499E-01         0.00000E+00
    0.21387E-01         0.13177E-01         0.00000E+00
    0.21002E-01         0.12856E-01         0.00000E+00
    0.20610E-01         0.12534E-01         0.00000E+00
    0.20210E-01         0.12213E-01         0.00000E+00
    0.19804E-01         0.11891E-01         0.00000E+00
    0.19390E-01         0.11569E-01         0.00000E+00
    0.18970E-01         0.11248E-01         0.00000E+00
    0.18543E-01         0.10926E-01         0.00000E+00
    0.18108E-01         0.10604E-01         0.00000E+00
    0.17667E-01         0.10283E-01         0.00000E+00
    0.17219E-01         0.99608E-02         0.00000E+00
    0.16764E-01         0.96391E-02         0.00000E+00
    0.16302E-01         0.93173E-02         0.00000E+00
    0.15833E-01         0.89955E-02         0.00000E+00
    0.15358E-01         0.86737E-02         0.00000E+00
    0.14876E-01         0.83518E-02         0.00000E+00
    0.14386E-01         0.80300E-02         0.00000E+00
    0.13891E-01         0.77081E-02         0.00000E+00
    0.13388E-01         0.73863E-02         0.00000E+00
    0.12879E-01         0.70644E-02         0.00000E+00
    0.12362E-01         0.67426E-02         0.00000E+00
    0.11840E-01         0.64208E-02         0.00000E+00
    0.11310E-01         0.60990E-02         0.00000E+00
    0.10774E-01         0.57772E-02         0.00000E+00
    0.10231E-01         0.54555E-02         0.00000E+00
    0.96819E-02         0.51338E-02         0.00000E+00
    0.91258E-02         0.48121E-02         0.00000E+00
    0.85631E-02         0.44905E-02         0.00000E+00
    0.79939E-02         0.41690E-02         0.00000E+00
    0.74181E-02         0.38475E-02         0.00000E+00
    0.68357E-02         0.35262E-02         0.00000E+00
    0.62467E-02         0.32049E-02         0.00000E+00
    0.56513E-02         0.28837E-02         0.00000E+00
    0.50492E-02         0.25627E-02         0.00000E+00
    0.44407E-02         0.22418E-02         0.00000E+00
    0.38257E-02         0.19210E-02         0.00000E+00
    0.32042E-02         0.16004E-02         0.00000E+00
    0.25763E-02         0.12799E-02         0.00000E+00
    0.19419E-02         0.95962E-03         0.00000E+00
    0.13010E-02         0.63953E-03         0.00000E+00
    0.65371E-03         0.31965E-03         0.00000E+00
    0.00000E+00         0.00000E+00         0.00000E+00
    0.24403E-01         0.14496E-01         0.00000E+00
    0.24086E-01         0.14206E-01         0.00000E+00
    0.23762E-01         0.13916E-01         0.00000E+00
    0.23431E-01         0.13626E-01         0.00000E+00
    0.23092E-01         0.13337E-01         0.00000E+00
    0.22746E-01         0.13047E-01         0.00000E+00
    0.22393E-01         0.12757E-01         0.00000E+00
    0.22032E-01         0.12467E-01         0.00000E+00
    0.21665E-01         0.12177E-01         0.00000E+00
    0.21290E-01         0.11887E-01         0.00000E+00
    0.20908E-01         0.11597E-01         0.00000E+00
    0.20518E-01         0.11307E-01         0.00000E+00
    0.20122E-01         0.11017E-01         0.00000E+00
    0.19718E-01         0.10727E-01         0.00000E+00
    0.19308E-01         0.10437E-01         0.00000E+00
    0.18890E-01         0.10147E-01         0.00000E+00
    0.18466E-01         0.98565E-02         0.00000E+00
    0.18034E-01         0.95664E-02         0.00000E+00
    0.17596E-01         0.92762E-02         0.00000E+00
    0.17150E-01         0.89860E-02         0.00000E+00
    0.16698E-01         0.86957E-02         0.00000E+00
    0.16238E-01         0.84055E-02         0.00000E+00
    0.15772E-01         0.81152E-02         0.00000E+00
    0.15299E-01         0.78249E-02         0.00000E+00
    0.14819E-01         0.75346E-02         0.00000E+00
    0.14332E-01         0.72443E-02         0.00000E+00
    0.13839E-01         0.69540E-02         0.00000E+00
    0.13338E-01         0.66636E-02         0.00000E+00
    0.12831E-01         0.63733E-02         0.00000E+00
    0.12317E-01         0.60830E-02         0.00000E+00
    0.11797E-01         0.57927E-02         0.00000E+00
    0.11270E-01         0.55024E-02         0.00000E+00
    0.10736E-01         0.52121E-02         0.00000E+00
    0.10195E-01         0.49218E-02         0.00000E+00
    0.96477E-02         0.46316E-02         0.00000E+00
    0.90938E-02         0.43415E-02         0.00000E+00
    0.85332E-02         0.40513E-02         0.00000E+00
    0.79660E-02         0.37613E-02         0.00000E+00
    0.73923E-02         0.34713E-02         0.00000E+00
    0.68120E-02         0.31813E-02         0.00000E+00
    0.62251E-02         0.28915E-02         0.00000E+00
    0.56317E-02         0.26017E-02         0.00000E+00
    0.50318E-02         0.23121E-02         0.00000E+00
    0.44254E-02         0.20226E-02         0.00000E+00
    0.38126E-02         0.17332E-02         0.00000E+00
    0.31932E-02         0.14439E-02         0.00000E+00
    0.25674E-02         0.11548E-02         0.00000E+00
    0.19352E-02         0.86580E-03         0.00000E+00
    0.12965E-02         0.57701E-03         0.00000E+00
    0.65144E-03         0.28840E-03         0.00000E+00
    0.00000E+00         0.00000E+00         0.00000E+00
    0.24288E-01         0.12940E-01         0.00000E+00
    0.23975E-01         0.12682E-01         0.00000E+00
    0.23654E-01         0.12423E-01         0.00000E+00
    0.23326E-01         0.12164E-01         0.00000E+00
    0.22991E-01         0.11906E-01         0.00000E+00
    0.22648E-01         0.11647E-01         0.00000E+00
    0.22298E-01         0.11388E-01         0.00000E+00
    0.21940E-01         0.11130E-01         0.00000E+00
    0.21575E-01         0.10871E-01         0.00000E+00
    0.21203E-01         0.10612E-01         0.00000E+00
    0.20824E-01         0.10353E-01         0.00000E+00
    0.20437E-01         0.10095E-01         0.00000E+00
    0.20044E-01         0.98357E-02         0.00000E+00
    0.19643E-01         0.95769E-02         0.00000E+00
    0.19235E-01         0.93180E-02         0.00000E+00
    0.18820E-01         0.90591E-02         0.00000E+00
    0.18398E-01         0.88002E-02         0.00000E+00
    0.17969E-01         0.85412E-02         0.00000E+00
    0.17533E-01         0.82822E-02         0.00000E+00
    0.17089E-01         0.80232E-02         0.00000E+00
    0.16639E-01         0.77641E-02         0.00000E+00
    0.16182E-01         0.75051E-02         0.00000E+00
    0.15718E-01         0.72460E-02         0.00000E+00
    0.15247E-01         0.69869E-02         0.00000E+00
    0.14769E-01         0.67277E-02         0.00000E+00
    0.14285E-01         0.64686E-02         0.00000E+00
    0.13793E-01         0.62094E-02         0.00000E+00
    0.13295E-01         0.59503E-02         0.00000E+00
    0.12790E-01         0.56911E-02         0.00000E+00
    0.12278E-01         0.54319E-02         0.00000E+00
    0.11759E-01         0.51727E-02         0.00000E+00
    0.11234E-01         0.49136E-02         0.00000E+00
    0.10702E-01         0.46544E-02         0.00000E+00
    0.10163E-01         0.43953E-02         0.00000E+00
    0.96176E-02         0.41362E-02         0.00000E+00
    0.90656E-02         0.38771E-02         0.00000E+00
    0.85068E-02         0.36181E-02         0.00000E+00
    0.79415E-02         0.33591E-02         0.00000E+00
    0.73696E-02         0.31001E-02         0.00000E+00
    0.67912E-02         0.28412E-02         0.00000E+00
    0.62061E-02         0.25824E-02         0.00000E+00
    0.56146E-02         0.23237E-02         0.00000E+00
    0.50165E-02         0.20650E-02         0.00000E+00
    0.44120E-02         0.18064E-02         0.00000E+00
    0.38010E-02         0.15480E-02         0.00000E+00
    0.31835E-02         0.12896E-02         0.00000E+00
    0.25596E-02         0.10314E-02         0.00000E+00
    0.19293E-02         0.77332E-03         0.00000E+00
    0.12925E-02         0.51538E-03         0.00000E+00
    0.64945E-03         0.25761E-03         0.00000E+00
    0.00000E+00         0.00000E+00         0.00000E+00
    0.24189E-01         0.11401E-01         0.00000E+00
    0.23879E-01         0.11173E-01         0.00000E+00
    0.23562E-01         0.10945E-01         0.00000E+00
    0.23236E-01         0.10718E-01         0.00000E+00
    0.22904E-01         0.10490E-01         0.00000E+00
    0.22564E-01         0.10262E-01         0.00000E+00
    0.22216E-01         0.10034E-01         0.00000E+00
    0.21861E-01         0.98067E-02         0.00000E+00
    0.21499E-01         0.95789E-02         0.00000E+00
    0.21129E-01         0.93510E-02         0.00000E+00
    0.20753E-01         0.91232E-02         0.00000E+00
    0.20369E-01         0.88953E-02         0.00000E+00
    0.19977E-01         0.86674E-02         0.00000E+00
    0.19579E-01         0.84394E-02         0.00000E+00
    0.19173E-01         0.82115E-02         0.00000E+00
    0.18760E-01         0.79835E-02         0.00000E+00
    0.18340E-01         0.77554E-02         0.00000E+00
    0.17913E-01         0.75274E-02         0.00000E+00
    0.17479E-01         0.72993E-02         0.00000E+00
    0.17038E-01         0.70712E-02         0.00000E+00
    0.16590E-01         0.68430E-02         0.00000E+00
    0.16135E-01         0.66148E-02         0.00000E+00
    0.15672E-01         0.63866E-02         0.00000E+00
    0.15203E-01         0.61584E-02         0.00000E+00
    0.14727E-01         0.59301E-02         0.00000E+00
    0.14245E-01         0.57018E-02         0.00000E+00
    0.13755E-01         0.54735E-02         0.00000E+00
    0.13258E-01         0.52452E-02         0.00000E+00
    0.12755E-01         0.50169E-02         0.00000E+00
    0.12245E-01         0.47885E-02         0.00000E+00
    0.11728E-01         0.45602E-02         0.00000E+00
    0.11204E-01         0.43318E-02         0.00000E+00
    0.10673E-01         0.41034E-02         0.00000E+00
    0.10136E-01         0.38751E-02         0.00000E+00
    0.95924E-02         0.36467E-02         0.00000E+00
    0.90419E-02         0.34184E-02         0.00000E+00
    0.84847E-02         0.31901E-02         0.00000E+00
    0.79210E-02         0.29618E-02         0.00000E+00
    0.73506E-02         0.27336E-02         0.00000E+00
    0.67737E-02         0.25054E-02         0.00000E+00
    0.61902E-02         0.22772E-02         0.00000E+00
    0.56002E-02         0.20491E-02         0.00000E+00
    0.50037E-02         0.18210E-02         0.00000E+00
    0.44007E-02         0.15931E-02         0.00000E+00
    0.37913E-02         0.13652E-02         0.00000E+00
    0.31754E-02         0.11374E-02         0.00000E+00
    0.25530E-02         0.90966E-03         0.00000E+00
    0.19243E-02         0.68206E-03         0.00000E+00
    0.12892E-02         0.45457E-03         0.00000E+00
    0.64778E-03         0.22722E-03         0.00000E+00
    0.00000E+00         0.00000E+00         0.00000E+00
    0.24108E-01         0.98757E-02         0.00000E+00
    0.23801E-01         0.96786E-02         0.00000E+00
    0.23486E-01         0.94816E-02         0.00000E+00
    0.23163E-01         0.92845E-02         0.00000E+00
    0.22833E-01         0.90875E-02         0.00000E+00
    0.22495E-01         0.88904E-02         0.00000E+00
    0.22150E-01         0.86933E-02         0.00000E+00
    0.21797E-01         0.84962E-02         0.00000E+00
    0.21437E-01         0.82991E-02         0.00000E+00
    0.21070E-01         0.81019E-02         0.00000E+00
    0.20695E-01         0.79047E-02         0.00000E+00
    0.20313E-01         0.77075E-02         0.00000E+00
    0.19924E-01         0.75103E-02         0.00000E+00
    0.19527E-01         0.73130E-02         0.00000E+00
    0.19123E-01         0.71157E-02         0.00000E+00
    0.18712E-01         0.69184E-02         0.00000E+00
    0.18294E-01         0.67210E-02         0.00000E+00
    0.17869E-01         0.65236E-02         0.00000E+00
    0.17436E-01         0.63261E-02         0.00000E+00
    0.16997E-01         0.61286E-02         0.00000E+00
    0.16550E-01         0.59311E-02         0.00000E+00
    0.16097E-01         0.57335E-02         0.00000E+00
    0.15636E-01         0.55359E-02         0.00000E+00
    0.15169E-01         0.53383E-02         0.00000E+00
    0.14694E-01         0.51407E-02         0.00000E+00
    0.14213E-01         0.49430E-02         0.00000E+00
    0.13724E-01         0.47452E-02         0.00000E+00
    0.13229E-01         0.45475E-02         0.00000E+00
    0.12727E-01         0.43497E-02         0.00000E+00
    0.12218E-01         0.41519E-02         0.00000E+00
    0.11703E-01         0.39540E-02         0.00000E+00
    0.11180E-01         0.37562E-02         0.00000E+00
    0.10651E-01         0.35583E-02         0.00000E+00
    0.10115E-01         0.33605E-02         0.00000E+00
    0.95727E-02         0.31626E-02         0.00000E+00
    0.90234E-02         0.29647E-02         0.00000E+00
    0.84675E-02         0.27668E-02         0.00000E+00
    0.79049E-02         0.25689E-02         0.00000E+00
    0.73358E-02         0.23711E-02         0.00000E+00
    0.67601E-02         0.21732E-02         0.00000E+00
    0.61778E-02         0.19754E-02         0.00000E+00
    0.55890E-02         0.17776E-02         0.00000E+00
    0.49937E-02         0.15798E-02         0.00000E+00
    0.43919E-02         0.13821E-02         0.00000E+00
    0.37837E-02         0.11845E-02         0.00000E+00
    0.31690E-02         0.98686E-03         0.00000E+00
    0.25479E-02         0.78932E-03         0.00000E+00
    0.19205E-02         0.59186E-03         0.00000E+00
    0.12866E-02         0.39447E-03         0.00000E+00
    0.64647E-03         0.19719E-03         0.00000E+00
    0.00000E+00         0.00000E+00         0.00000E+00
    0.24046E-01         0.83626E-02         0.00000E+00
    0.23741E-01         0.81961E-02         0.00000E+00
    0.23428E-01         0.80295E-02         0.00000E+00
    0.23107E-01         0.78629E-02         0.00000E+00
    0.22779E-01         0.76963E-02         0.00000E+00
    0.22443E-01         0.75297E-02         0.00000E+00
    0.22100E-01         0.73631E-02         0.00000E+00
    0.21749E-01         0.71965E-02         0.00000E+00
    0.21391E-01         0.70298E-02         0.00000E+00
    0.21025E-01         0.68631E-02         0.00000E+00
    0.20652E-01         0.66964E-02         0.00000E+00
    0.20272E-01         0.65296E-02         0.00000E+00
    0.19884E-01         0.63629E-02         0.00000E+00
    0.19489E-01         0.61960E-02         0.00000E+00
    0.19087E-01         0.60292E-02         0.00000E+00
    0.18677E-01         0.58623E-02         0.00000E+00
    0.18261E-01         0.56953E-02         0.00000E+00
    0.17837E-01         0.55283E-02         0.00000E+00
    0.17406E-01         0.53613E-02         0.00000E+00
    0.16967E-01         0.51942E-02         0.00000E+00
    0.16522E-01         0.50271E-02         0.00000E+00
    0.16070E-01         0.48599E-02         0.00000E+00
    0.15610E-01         0.46927E-02         0.00000E+00
    0.15144E-01         0.45255E-02         0.00000E+00
    0.14671E-01         0.43582E-02         0.00000E+00
    0.14190E-01         0.41908E-02         0.00000E+00
    0.13703E-01         0.40234E-02         0.00000E+00
    0.13209E-01         0.38560E-02         0.00000E+00
    0.12708E-01         0.36885E-02         0.00000E+00
    0.12200E-01         0.35210E-02         0.00000E+00
    0.11685E-01         0.33535E-02         0.00000E+00
    0.11164E-01         0.31859E-02         0.00000E+00
    0.10636E-01         0.30183E-02         0.00000E+00
    0.10101E-01         0.28506E-02         0.00000E+00
    0.95590E-02         0.26829E-02         0.00000E+00
    0.90106E-02         0.25152E-02         0.00000E+00
    0.84556E-02         0.23475E-02         0.00000E+00
    0.78939E-02         0.21798E-02         0.00000E+00
    0.73256E-02         0.20120E-02         0.00000E+00
    0.67507E-02         0.18443E-02         0.00000E+00
    0.61693E-02         0.16765E-02         0.00000E+00
    0.55813E-02         0.15088E-02         0.00000E+00
    0.49868E-02         0.13410E-02         0.00000E+00
    0.43859E-02         0.11733E-02         0.00000E+00
    0.37785E-02         0.10056E-02         0.00000E+00
    0.31647E-02         0.83786E-03         0.00000E+00
    0.25444E-02         0.67020E-03         0.00000E+00
    0.19178E-02         0.50257E-03         0.00000E+00
    0.12849E-02         0.33499E-03         0.00000E+00
    0.64558E-03         0.16747E-03         0.00000E+00
    0.00000E+00         0.00000E+00         0.00000E+00
    0.24004E-01         0.68597E-02         0.00000E+00
    0.23700E-01         0.67234E-02         0.00000E+00
    0.23389E-01         0.65871E-02         0.00000E+00
    0.23070E-01         0.64509E-02         0.00000E+00
    0.22743E-01         0.63146E-02         0.00000E+00
    0.22409E-01         0.61783E-02         0.00000E+00
    0.22067E-01         0.60420E-02         0.00000E+00
    0.21718E-01         0.59056E-02         0.00000E+00
    0.21361E-01         0.57693E-02         0.00000E+00
    0.20997E-01         0.56329E-02         0.00000E+00
    0.20625E-01         0.54964E-02         0.00000E+00
    0.20246E-01         0.53599E-02         0.00000E+00
    0.19860E-01         0.52234E-02         0.00000E+00
    0.19466E-01         0.50869E-02         0.00000E+00
    0.19065E-01         0.49503E-02         0.00000E+00
    0.18656E-01         0.48136E-02         0.00000E+00
    0.18241E-01         0.46770E-02         0.00000E+00
    0.17818E-01         0.45402E-02         0.00000E+00
    0.17388E-01         0.44034E-02         0.00000E+00
    0.16950E-01         0.42666E-02         0.00000E+00
    0.16506E-01         0.41297E-02         0.00000E+00
    0.16054E-01         0.39927E-02         0.00000E+00
    0.15596E-01         0.38557E-02         0.00000E+00
    0.15130E-01         0.37186E-02         0.00000E+00
    0.14658E-01         0.35815E-02         0.00000E+00
    0.14178E-01         0.34443E-02         0.00000E+00
    0.13691E-01         0.33071E-02         0.00000E+00
    0.13198E-01         0.31698E-02         0.00000E+00
    0.12698E-01         0.30324E-02         0.00000E+00
    0.12190E-01         0.28950E-02         0.00000E+00
    0.11676E-01         0.27575E-02         0.00000E+00
    0.11155E-01         0.26200E-02         0.00000E+00
    0.10628E-01         0.24824E-02         0.00000E+00
    0.10093E-01         0.23448E-02         0.00000E+00
    0.95520E-02         0.22071E-02         0.00000E+00
    0.90041E-02         0.20694E-02         0.00000E+00
    0.84495E-02         0.19316E-02         0.00000E+00
    0.78883E-02         0.17938E-02         0.00000E+00
    0.73204E-02         0.16559E-02         0.00000E+00
    0.67460E-02         0.15180E-02         0.00000E+00
    0.61650E-02         0.13801E-02         0.00000E+00
    0.55774E-02         0.12422E-02         0.00000E+00
    0.49834E-02         0.11042E-02         0.00000E+00
    0.43829E-02         0.96618E-03         0.00000E+00
    0.37759E-02         0.82816E-03         0.00000E+00
    0.31625E-02         0.69013E-03         0.00000E+00
    0.25427E-02         0.55210E-03         0.00000E+00
    0.19165E-02         0.41406E-03         0.00000E+00
    0.12840E-02         0.27603E-03         0.00000E+00
    0.64512E-03         0.13801E-03         0.00000E+00
    0.00000E+00         0.00000E+00         0.00000E+00
    0.23983E-01         0.53646E-02         0.00000E+00
    0.23680E-01         0.52585E-02         0.00000E+00
    0.23370E-01         0.51524E-02         0.00000E+00
    0.23053E-01         0.50463E-02         0.00000E+00
    0.22727E-01         0.49402E-02         0.00000E+00
    0.22394E-01         0.48341E-02         0.00000E+00
    0.22053E-01         0.47280E-02         0.00000E+00
    0.21705E-01         0.46218E-02         0.00000E+00
    0.21349E-01         0.45156E-02         0.00000E+00
    0.20986E-01         0.44093E-02         0.00000E+00
    0.20615E-01         0.43030E-02         0.00000E+00
    0.20237E-01         0.41967E-02         0.00000E+00
    0.19851E-01         0.40904E-02         0.00000E+00
    0.19458E-01         0.39839E-02         0.00000E+00
    0.19058E-01         0.38775E-02         0.00000E+00
    0.18650E-01         0.37710E-02         0.00000E+00
    0.18235E-01         0.36644E-02         0.00000E+00
    0.17813E-01         0.35577E-02         0.00000E+00
    0.17383E-01         0.34510E-02         0.00000E+00
    0.16946E-01         0.33443E-02         0.00000E+00
    0.16502E-01         0.32375E-02         0.00000E+00
    0.16051E-01         0.31306E-02         0.00000E+00
    0.15593E-01         0.30236E-02         0.00000E+00
    0.15128E-01         0.29166E-02         0.00000E+00
    0.14656E-01         0.28095E-02         0.00000E+00
    0.14176E-01         0.27023E-02         0.00000E+00
    0.13690E-01         0.25950E-02         0.00000E+00
    0.13197E-01         0.24877E-02         0.00000E+00
    0.12697E-01         0.23803E-02         0.00000E+00
    0.12190E-01         0.22728E-02         0.00000E+00
    0.11676E-01         0.21653E-02         0.00000E+00
    0.11155E-01         0.20576E-02         0.00000E+00
    0.10627E-01         0.19499E-02         0.00000E+00
    0.10093E-01         0.18421E-02         0.00000E+00
    0.95520E-02         0.17343E-02         0.00000E+00
    0.90042E-02         0.16264E-02         0.00000E+00
    0.84497E-02         0.15184E-02         0.00000E+00
    0.78885E-02         0.14103E-02         0.00000E+00
    0.73207E-02         0.13022E-02         0.00000E+00
    0.67462E-02         0.11939E-02         0.00000E+00
    0.61652E-02         0.10857E-02         0.00000E+00
    0.55777E-02         0.97734E-03         0.00000E+00
    0.49836E-02         0.86894E-03         0.00000E+00
    0.43831E-02         0.76049E-03         0.00000E+00
    0.37761E-02         0.65199E-03         0.00000E+00
    0.31626E-02         0.54343E-03         0.00000E+00
    0.25428E-02         0.43482E-03         0.00000E+00
    0.19166E-02         0.32617E-03         0.00000E+00
    0.12840E-02         0.21748E-03         0.00000E+00
    0.64514E-03         0.10876E-03         0.00000E+00
    0.00000E+00         0.00000E+00         0.00000E+00
    0.23983E-01         0.38753E-02         0.00000E+00
    0.23682E-01         0.37993E-02         0.00000E+00
    0.23373E-01         0.37233E-02         0.00000E+00
    0.23056E-01         0.36473E-02         0.00000E+00
    0.22731E-01         0.35713E-02         0.00000E+00
    0.22399E-01         0.34952E-02         0.00000E+00
    0.22059E-01         0.34191E-02         0.00000E+00
    0.21711E-01         0.33430E-02         0.00000E+00
    0.21356E-01         0.32669E-02         0.00000E+00
    0.20993E-01         0.31907E-02         0.00000E+00
    0.20623E-01         0.31145E-02         0.00000E+00
    0.20245E-01         0.30382E-02         0.00000E+00
    0.19860E-01         0.29619E-02         0.00000E+00
    0.19467E-01         0.28855E-02         0.00000E+00
    0.19067E-01         0.28091E-02         0.00000E+00
    0.18659E-01         0.27326E-02         0.00000E+00
    0.18245E-01         0.26560E-02         0.00000E+00
    0.17822E-01         0.25794E-02         0.00000E+00
    0.17393E-01         0.25027E-02         0.00000E+00
    0.16956E-01         0.24259E-02         0.00000E+00
    0.16512E-01         0.23491E-02         0.00000E+00
    0.16061E-01         0.22722E-02         0.00000E+00
    0.15603E-01         0.21951E-02         0.00000E+00
    0.15138E-01         0.21180E-02         0.00000E+00
    0.14666E-01         0.20408E-02         0.00000E+00
    0.14186E-01         0.19636E-02         0.00000E+00
    0.13700E-01         0.18862E-02         0.00000E+00
    0.13206E-01         0.18087E-02         0.00000E+00
    0.12706E-01         0.17312E-02         0.00000E+00
    0.12199E-01         0.16535E-02         0.00000E+00
    0.11685E-01         0.15758E-02         0.00000E+00
    0.11164E-01         0.14979E-02         0.00000E+00
    0.10636E-01         0.14200E-02         0.00000E+00
    0.10101E-01         0.13419E-02         0.00000E+00
    0.95595E-02         0.12637E-02         0.00000E+00
    0.90113E-02         0.11855E-02         0.00000E+00
    0.84564E-02         0.11071E-02         0.00000E+00
    0.78948E-02         0.10287E-02         0.00000E+00
    0.73266E-02         0.95013E-03         0.00000E+00
    0.67517E-02         0.87148E-03         0.00000E+00
    0.61703E-02         0.79272E-03         0.00000E+00
    0.55823E-02         0.71387E-03         0.00000E+00
    0.49877E-02         0.63492E-03         0.00000E+00
    0.43867E-02         0.55587E-03         0.00000E+00
    0.37792E-02         0.47673E-03         0.00000E+00
    0.31652E-02         0.39749E-03         0.00000E+00
    0.25449E-02         0.31817E-03         0.00000E+00
    0.19181E-02         0.23875E-03         0.00000E+00
    0.12851E-02         0.15925E-03         0.00000E+00
    0.64567E-03         0.79667E-04         0.00000E+00
    0.00000E+00         0.00000E+00         0.00000E+00
    0.24007E-01         0.23895E-02         0.00000E+00
    0.23706E-01         0.23436E-02         0.00000E+00
    0.23398E-01         0.22976E-02         0.00000E+00
    0.23081E-01         0.22516E-02         0.00000E+00
    0.22757E-01         0.22056E-02         0.00000E+00
    0.22425E-01         0.21596E-02         0.00000E+00
    0.22085E-01         0.21135E-02         0.00000E+00
    0.21737E-01         0.20674E-02         0.00000E+00
    0.21382E-01         0.20213E-02         0.00000E+00
    0.21019E-01         0.19752E-02         0.00000E+00
    0.20649E-01         0.19289E-02         0.00000E+00
    0.20271E-01         0.18827E-02         0.00000E+00
    0.19886E-01         0.18364E-02         0.00000E+00
    0.19493E-01         0.17900E-02         0.00000E+00
    0.19093E-01         0.17435E-02         0.00000E+00
    0.18685E-01         0.16970E-02         0.00000E+00
    0.18270E-01         0.16504E-02         0.00000E+00
    0.17848E-01         0.16037E-02         0.00000E+00
    0.17418E-01         0.15570E-02         0.00000E+00
    0.16981E-01         0.15101E-02         0.00000E+00
    0.16537E-01         0.14632E-02         0.00000E+00
    0.16085E-01         0.14161E-02         0.00000E+00
    0.15627E-01         0.13690E-02         0.00000E+00
    0.15161E-01         0.13218E-02         0.00000E+00
    0.14688E-01         0.12744E-02         0.00000E+00
    0.14208E-01         0.12270E-02         0.00000E+00
    0.13721E-01         0.11794E-02         0.00000E+00
    0.13227E-01         0.11318E-02         0.00000E+00
    0.12726E-01         0.10840E-02         0.00000E+00
    0.12218E-01         0.10361E-02         0.00000E+00
    0.11703E-01         0.98804E-03         0.00000E+00
    0.11181E-01         0.93989E-03         0.00000E+00
    0.10653E-01         0.89162E-03         0.00000E+00
    0.10117E-01         0.84322E-03         0.00000E+00
    0.95749E-02         0.79469E-03         0.00000E+00
    0.90259E-02         0.74604E-03         0.00000E+00
    0.84701E-02         0.69725E-03         0.00000E+00
    0.79077E-02         0.64833E-03         0.00000E+00
    0.73385E-02         0.59927E-03         0.00000E+00
    0.67627E-02         0.55008E-03         0.00000E+00
    0.61803E-02         0.50076E-03         0.00000E+00
    0.55914E-02         0.45129E-03         0.00000E+00
    0.49959E-02         0.40170E-03         0.00000E+00
    0.43938E-02         0.35196E-03         0.00000E+00
    0.37853E-02         0.30209E-03         0.00000E+00
    0.31704E-02         0.25208E-03         0.00000E+00
    0.25490E-02         0.20193E-03         0.00000E+00
    0.19213E-02         0.15165E-03         0.00000E+00
    0.12871E-02         0.10124E-03         0.00000E+00
    0.64672E-03         0.50685E-04         0.00000E+00
    0.00000E+00         0.00000E+00         0.00000E+00
    0.24055E-01         0.90498E-03         0.00000E+00
    0.23754E-01         0.88904E-03         0.00000E+00
    0.23445E-01         0.87309E-03         0.00000E+00
    0.23128E-01         0.85713E-03         0.00000E+00
    0.22804E-01         0.84115E-03         0.00000E+00
    0.22471E-01         0.82515E-03         0.00000E+00
    0.22131E-01         0.80912E-03         0.00000E+00
    0.21784E-01         0.79304E-03         0.00000E+00
    0.21428E-01         0.77693E-03         0.00000E+00
    0.21065E-01         0.76077E-03         0.00000E+00
    0.20694E-01         0.74456E-03         0.00000E+00
    0.20316E-01         0.72828E-03         0.00000E+00
    0.19930E-01         0.71194E-03         0.00000E+00
    0.19537E-01         0.69553E-03         0.00000E+00
    0.19136E-01         0.67905E-03         0.00000E+00
    0.18727E-01         0.66248E-03         0.00000E+00
    0.18312E-01         0.64583E-03         0.00000E+00
    0.17889E-01         0.62909E-03         0.00000E+00
    0.17458E-01         0.61225E-03         0.00000E+00
    0.17020E-01         0.59531E-03         0.00000E+00
    0.16575E-01         0.57827E-03         0.00000E+00
    0.16123E-01         0.56112E-03         0.00000E+00
    0.15663E-01         0.54385E-03         0.00000E+00
    0.15197E-01         0.52647E-03         0.00000E+00
    0.14723E-01         0.50896E-03         0.00000E+00
    0.14242E-01         0.49133E-03         0.00000E+00
    0.13754E-01         0.47357E-03         0.00000E+00
    0.13259E-01         0.45567E-03         0.00000E+00
    0.12757E-01         0.43764E-03         0.00000E+00
    0.12248E-01         0.41946E-03         0.00000E+00
    0.11732E-01         0.40114E-03         0.00000E+00
    0.11209E-01         0.38267E-03         0.00000E+00
    0.10679E-01         0.36405E-03         0.00000E+00
    0.10142E-01         0.34528E-03         0.00000E+00
    0.95984E-02         0.32634E-03         0.00000E+00
    0.90481E-02         0.30725E-03         0.00000E+00
    0.84910E-02         0.28799E-03         0.00000E+00
    0.79272E-02         0.26857E-03         0.00000E+00
    0.73567E-02         0.24897E-03         0.00000E+00
    0.67795E-02         0.22921E-03         0.00000E+00
    0.61956E-02         0.20927E-03         0.00000E+00
    0.56052E-02         0.18916E-03         0.00000E+00
    0.50082E-02         0.16888E-03         0.00000E+00
    0.44047E-02         0.14841E-03         0.00000E+00
    0.37947E-02         0.12776E-03         0.00000E+00
    0.31782E-02         0.10693E-03         0.00000E+00
    0.25553E-02         0.85915E-04         0.00000E+00
    0.19260E-02         0.64716E-04         0.00000E+00
    0.12903E-02         0.43331E-04         0.00000E+00
    0.64831E-03         0.21760E-04         0.00000E+00
    0.00000E+00         0.00000E+00         0.00000E+00
    0.24126E-01        -0.58060E-03         0.00000E+00
    0.23825E-01        -0.56648E-03         0.00000E+00
    0.23515E-01        -0.55237E-03         0.00000E+00
    0.23198E-01        -0.53827E-03         0.00000E+00
    0.22873E-01        -0.52419E-03         0.00000E+00
    0.22540E-01        -0.51014E-03         0.00000E+00
    0.22199E-01        -0.49613E-03         0.00000E+00
    0.21851E-01        -0.48215E-03         0.00000E+00
    0.21495E-01        -0.46822E-03         0.00000E+00
    0.21131E-01        -0.45435E-03         0.00000E+00
    0.20759E-01        -0.44053E-03         0.00000E+00
    0.20380E-01        -0.42679E-03         0.00000E+00
    0.19993E-01        -0.41311E-03         0.00000E+00
    0.19599E-01        -0.39951E-03         0.00000E+00
    0.19197E-01        -0.38600E-03         0.00000E+00
    0.18787E-01        -0.37258E-03         0.00000E+00
    0.18370E-01        -0.35925E-03         0.00000E+00
    0.17946E-01        -0.34603E-03         0.00000E+00
    0.17514E-01        -0.33291E-03         0.00000E+00
    0.17075E-01        -0.31991E-03         0.00000E+00
    0.16629E-01        -0.30703E-03         0.00000E+00
    0.16175E-01        -0.29427E-03         0.00000E+00
    0.15715E-01        -0.28164E-03         0.00000E+00
    0.15246E-01        -0.26915E-03         0.00000E+00
    0.14771E-01        -0.25680E-03         0.00000E+00
    0.14289E-01        -0.24459E-03         0.00000E+00
    0.13799E-01        -0.23254E-03         0.00000E+00
    0.13302E-01        -0.22064E-03         0.00000E+00
    0.12799E-01        -0.20890E-03         0.00000E+00
    0.12288E-01        -0.19733E-03         0.00000E+00
    0.11770E-01        -0.18592E-03         0.00000E+00
    0.11246E-01        -0.17470E-03         0.00000E+00
    0.10714E-01        -0.16365E-03         0.00000E+00
    0.10176E-01        -0.15278E-03         0.00000E+00
    0.96304E-02        -0.14211E-03         0.00000E+00
    0.90782E-02        -0.13162E-03         0.00000E+00
    0.85193E-02        -0.12134E-03         0.00000E+00
    0.79536E-02        -0.11125E-03         0.00000E+00
    0.73812E-02        -0.10137E-03         0.00000E+00
    0.68021E-02        -0.91690E-04         0.00000E+00
    0.62163E-02        -0.82228E-04         0.00000E+00
    0.56239E-02        -0.72980E-04         0.00000E+00
    0.50250E-02        -0.63952E-04         0.00000E+00
    0.44194E-02        -0.55146E-04         0.00000E+00
    0.38074E-02        -0.46566E-04         0.00000E+00
    0.31889E-02        -0.38215E-04         0.00000E+00
    0.25639E-02        -0.30096E-04         0.00000E+00
    0.19324E-02        -0.22213E-04         0.00000E+00
    0.12946E-02        -0.14567E-04         0.00000E+00
    0.65048E-03        -0.71617E-05         0.00000E+00
    0.00000E+00         0.00000E+00         0.00000E+00
    0.24222E-01        -0.20695E-02         0.00000E+00
    0.23920E-01        -0.20253E-02         0.00000E+00
    0.23610E-01        -0.19810E-02         0.00000E+00
    0.23291E-01        -0.19368E-02         0.00000E+00
    0.22965E-01        -0.18926E-02         0.00000E+00
    0.22631E-01        -0.18484E-02         0.00000E+00
    0.22289E-01        -0.18043E-02         0.00000E+00
    0.21940E-01        -0.17602E-02         0.00000E+00
    0.21582E-01        -0.17161E-02         0.00000E+00
    0.21217E-01        -0.16721E-02         0.00000E+00
    0.20844E-01        -0.16282E-02         0.00000E+00
    0.20463E-01        -0.15844E-02         0.00000E+00
    0.20075E-01        -0.15406E-02         0.00000E+00
    0.19679E-01        -0.14969E-02         0.00000E+00
    0.19276E-01        -0.14533E-02         0.00000E+00
    0.18865E-01        -0.14099E-02         0.00000E+00
    0.18446E-01        -0.13665E-02         0.00000E+00
    0.18020E-01        -0.13232E-02         0.00000E+00
    0.17587E-01        -0.12801E-02         0.00000E+00
    0.17146E-01        -0.12371E-02         0.00000E+00
    0.16698E-01        -0.11942E-02         0.00000E+00
    0.16243E-01        -0.11514E-02         0.00000E+00
    0.15780E-01        -0.11088E-02         0.00000E+00
    0.15310E-01        -0.10664E-02         0.00000E+00
    0.14833E-01        -0.10241E-02         0.00000E+00
    0.14348E-01        -0.98201E-03         0.00000E+00
    0.13857E-01        -0.94007E-03         0.00000E+00
    0.13358E-01        -0.89831E-03         0.00000E+00
    0.12852E-01        -0.85673E-03         0.00000E+00
    0.12340E-01        -0.81534E-03         0.00000E+00
    0.11820E-01        -0.77415E-03         0.00000E+00
    0.11293E-01        -0.73316E-03         0.00000E+00
    0.10759E-01        -0.69238E-03         0.00000E+00
    0.10218E-01        -0.65181E-03         0.00000E+00
    0.96709E-02        -0.61146E-03         0.00000E+00
    0.91164E-02        -0.57133E-03         0.00000E+00
    0.85552E-02        -0.53144E-03         0.00000E+00
    0.79871E-02        -0.49178E-03         0.00000E+00
    0.74123E-02        -0.45236E-03         0.00000E+00
    0.68307E-02        -0.41318E-03         0.00000E+00
    0.62425E-02        -0.37426E-03         0.00000E+00
    0.56477E-02        -0.33560E-03         0.00000E+00
    0.50462E-02        -0.29720E-03         0.00000E+00
    0.44381E-02        -0.25906E-03         0.00000E+00
    0.38234E-02        -0.22120E-03         0.00000E+00
    0.32023E-02        -0.18361E-03         0.00000E+00
    0.25747E-02        -0.14631E-03         0.00000E+00
    0.19406E-02        -0.10929E-03         0.00000E+00
    0.13001E-02        -0.72563E-04         0.00000E+00
    0.65322E-03        -0.36132E-04         0.00000E+00
    0.00000E+00         0.00000E+00         0.00000E+00
    0.24343E-01        -0.35642E-02         0.00000E+00
    0.24040E-01        -0.34896E-02         0.00000E+00
    0.23728E-01        -0.34151E-02         0.00000E+00
    0.23408E-01        -0.33407E-02         0.00000E+00
    0.23081E-01        -0.32662E-02         0.00000E+00
    0.22745E-01        -0.31918E-02         0.00000E+00
    0.22401E-01        -0.31174E-02         0.00000E+00
    0.22050E-01        -0.30430E-02         0.00000E+00
    0.21691E-01        -0.29688E-02         0.00000E+00
    0.21324E-01        -0.28945E-02         0.00000E+00
    0.20949E-01        -0.28204E-02         0.00000E+00
    0.20566E-01        -0.27463E-02         0.00000E+00
    0.20176E-01        -0.26724E-02         0.00000E+00
    0.19778E-01        -0.25985E-02         0.00000E+00
    0.19373E-01        -0.25247E-02         0.00000E+00
    0.18960E-01        -0.24510E-02         0.00000E+00
    0.18540E-01        -0.23775E-02         0.00000E+00
    0.18112E-01        -0.23041E-02         0.00000E+00
    0.17676E-01        -0.22308E-02         0.00000E+00
    0.17233E-01        -0.21576E-02         0.00000E+00
    0.16783E-01        -0.20846E-02         0.00000E+00
    0.16325E-01        -0.20118E-02         0.00000E+00
    0.15860E-01        -0.19391E-02         0.00000E+00
    0.15388E-01        -0.18666E-02         0.00000E+00
    0.14908E-01        -0.17943E-02         0.00000E+00
    0.14421E-01        -0.17222E-02         0.00000E+00
    0.13927E-01        -0.16502E-02         0.00000E+00
    0.13426E-01        -0.15785E-02         0.00000E+00
    0.12918E-01        -0.15070E-02         0.00000E+00
    0.12402E-01        -0.14356E-02         0.00000E+00
    0.11880E-01        -0.13645E-02         0.00000E+00
    0.11350E-01        -0.12937E-02         0.00000E+00
    0.10814E-01        -0.12230E-02         0.00000E+00
    0.10270E-01        -0.11527E-02         0.00000E+00
    0.97201E-02        -0.10825E-02         0.00000E+00
    0.91628E-02        -0.10126E-02         0.00000E+00
    0.85987E-02        -0.94302E-03         0.00000E+00
    0.80278E-02        -0.87368E-03         0.00000E+00
    0.74500E-02        -0.80462E-03         0.00000E+00
    0.68655E-02        -0.73584E-03         0.00000E+00
    0.62743E-02        -0.66735E-03         0.00000E+00
    0.56764E-02        -0.59916E-03         0.00000E+00
    0.50719E-02        -0.53128E-03         0.00000E+00
    0.44607E-02        -0.46371E-03         0.00000E+00
    0.38429E-02        -0.39646E-03         0.00000E+00
    0.32186E-02        -0.32953E-03         0.00000E+00
    0.25878E-02        -0.26293E-03         0.00000E+00
    0.19505E-02        -0.19668E-03         0.00000E+00
    0.13067E-02        -0.13076E-03         0.00000E+00
    0.65654E-03        -0.65204E-04         0.00000E+00
    0.00000E+00         0.00000E+00         0.00000E+00
    0.24490E-01        -0.50668E-02         0.00000E+00
    0.24184E-01        -0.49619E-02         0.00000E+00
    0.23870E-01        -0.48570E-02         0.00000E+00
    0.23549E-01        -0.47521E-02         0.00000E+00
    0.23219E-01        -0.46472E-02         0.00000E+00
    0.22881E-01        -0.45424E-02         0.00000E+00
    0.22536E-01        -0.44376E-02         0.00000E+00
    0.22182E-01        -0.43328E-02         0.00000E+00
    0.21821E-01        -0.42281E-02         0.00000E+00
    0.21452E-01        -0.41235E-02         0.00000E+00
    0.21074E-01        -0.40190E-02         0.00000E+00
    0.20690E-01        -0.39146E-02         0.00000E+00
    0.20297E-01        -0.38102E-02         0.00000E+00
    0.19897E-01        -0.37060E-02         0.00000E+00
    0.19489E-01        -0.36018E-02         0.00000E+00
    0.19074E-01        -0.34978E-02         0.00000E+00
    0.18651E-01        -0.33939E-02         0.00000E+00
    0.18220E-01        -0.32902E-02         0.00000E+00
    0.17782E-01        -0.31866E-02         0.00000E+00
    0.17336E-01        -0.30832E-02         0.00000E+00
    0.16883E-01        -0.29799E-02         0.00000E+00
    0.16423E-01        -0.28768E-02         0.00000E+00
    0.15955E-01        -0.27739E-02         0.00000E+00
    0.15480E-01        -0.26712E-02         0.00000E+00
    0.14997E-01        -0.25686E-02         0.00000E+00
    0.14507E-01        -0.24663E-02         0.00000E+00
    0.14010E-01        -0.23642E-02         0.00000E+00
    0.13506E-01        -0.22623E-02         0.00000E+00
    0.12995E-01        -0.21607E-02         0.00000E+00
    0.12476E-01        -0.20593E-02         0.00000E+00
    0.11951E-01        -0.19581E-02         0.00000E+00
    0.11418E-01        -0.18572E-02         0.00000E+00
    0.10878E-01        -0.17566E-02         0.00000E+00
    0.10332E-01        -0.16562E-02         0.00000E+00
    0.97781E-02        -0.15561E-02         0.00000E+00
    0.92175E-02        -0.14563E-02         0.00000E+00
    0.86501E-02        -0.13568E-02         0.00000E+00
    0.80757E-02        -0.12576E-02         0.00000E+00
    0.74945E-02        -0.11588E-02         0.00000E+00
    0.69065E-02        -0.10602E-02         0.00000E+00
    0.63118E-02        -0.96201E-03         0.00000E+00
    0.57103E-02        -0.86414E-03         0.00000E+00
    0.51021E-02        -0.76662E-03         0.00000E+00
    0.44873E-02        -0.66945E-03         0.00000E+00
    0.38659E-02        -0.57265E-03         0.00000E+00
    0.32378E-02        -0.47623E-03         0.00000E+00
    0.26032E-02        -0.38018E-03         0.00000E+00
    0.19621E-02        -0.28453E-03         0.00000E+00
    0.13145E-02        -0.18928E-03         0.00000E+00
    0.66046E-03        -0.94431E-04         0.00000E+00
    0.00000E+00         0.00000E+00         0.00000E+00
    0.24661E-01        -0.65799E-02         0.00000E+00
    0.24353E-01        -0.64444E-02         0.00000E+00
    0.24037E-01        -0.63088E-02         0.00000E+00
    0.23713E-01        -0.61733E-02         0.00000E+00
    0.23381E-01        -0.60378E-02         0.00000E+00
    0.23041E-01        -0.59023E-02         0.00000E+00
    0.22693E-01        -0.57669E-02         0.00000E+00
    0.22336E-01        -0.56316E-02         0.00000E+00
    0.21972E-01        -0.54963E-02         0.00000E+00
    0.21600E-01        -0.53611E-02         0.00000E+00
    0.21221E-01        -0.52259E-02         0.00000E+00
    0.20833E-01        -0.50909E-02         0.00000E+00
    0.20438E-01        -0.49560E-02         0.00000E+00
    0.20035E-01        -0.48212E-02         0.00000E+00
    0.19624E-01        -0.46865E-02         0.00000E+00
    0.19205E-01        -0.45519E-02         0.00000E+00
    0.18779E-01        -0.44175E-02         0.00000E+00
    0.18346E-01        -0.42832E-02         0.00000E+00
    0.17904E-01        -0.41491E-02         0.00000E+00
    0.17456E-01        -0.40152E-02         0.00000E+00
    0.16999E-01        -0.38814E-02         0.00000E+00
    0.16536E-01        -0.37479E-02         0.00000E+00
    0.16065E-01        -0.36145E-02         0.00000E+00
    0.15586E-01        -0.34813E-02         0.00000E+00
    0.15100E-01        -0.33484E-02         0.00000E+00
    0.14607E-01        -0.32157E-02         0.00000E+00
    0.14107E-01        -0.30832E-02         0.00000E+00
    0.13599E-01        -0.29510E-02         0.00000E+00
    0.13084E-01        -0.28190E-02         0.00000E+00
    0.12562E-01        -0.26873E-02         0.00000E+00
    0.12033E-01        -0.25558E-02         0.00000E+00
    0.11496E-01        -0.24247E-02         0.00000E+00
    0.10953E-01        -0.22938E-02         0.00000E+00
    0.10402E-01        -0.21633E-02         0.00000E+00
    0.98450E-02        -0.20330E-02         0.00000E+00
    0.92806E-02        -0.19031E-02         0.00000E+00
    0.87092E-02        -0.17736E-02         0.00000E+00
    0.81309E-02        -0.16443E-02         0.00000E+00
    0.75457E-02        -0.15154E-02         0.00000E+00
    0.69537E-02        -0.13869E-02         0.00000E+00
    0.63549E-02        -0.12588E-02         0.00000E+00
    0.57493E-02        -0.11310E-02         0.00000E+00
    0.51370E-02        -0.10036E-02         0.00000E+00
    0.45180E-02        -0.87666E-03         0.00000E+00
    0.38923E-02        -0.75010E-03         0.00000E+00
    0.32599E-02        -0.62397E-03         0.00000E+00
    0.26210E-02        -0.49827E-03         0.00000E+00
    0.19755E-02        -0.37301E-03         0.00000E+00
    0.13235E-02        -0.24821E-03         0.00000E+00
    0.66498E-03        -0.12387E-03         0.00000E+00
    0.00000E+00         0.00000E+00         0.00000E+00
    0.24858E-01        -0.81058E-02         0.00000E+00
    0.24547E-01        -0.79394E-02         0.00000E+00
    0.24229E-01        -0.77730E-02         0.00000E+00
    0.23902E-01        -0.76066E-02         0.00000E+00
    0.23566E-01        -0.74402E-02         0.00000E+00
    0.23223E-01        -0.72739E-02         0.00000E+00
    0.22872E-01        -0.71076E-02         0.00000E+00
    0.22513E-01        -0.69414E-02         0.00000E+00
    0.22145E-01        -0.67752E-02         0.00000E+00
    0.21770E-01        -0.66092E-02         0.00000E+00
    0.21387E-01        -0.64432E-02         0.00000E+00
    0.20996E-01        -0.62773E-02         0.00000E+00
    0.20598E-01        -0.61116E-02         0.00000E+00
    0.20191E-01        -0.59459E-02         0.00000E+00
    0.19777E-01        -0.57804E-02         0.00000E+00
    0.19355E-01        -0.56150E-02         0.00000E+00
    0.18926E-01        -0.54498E-02         0.00000E+00
    0.18488E-01        -0.52848E-02         0.00000E+00
    0.18044E-01        -0.51199E-02         0.00000E+00
    0.17591E-01        -0.49552E-02         0.00000E+00
    0.17131E-01        -0.47907E-02         0.00000E+00
    0.16664E-01        -0.46264E-02         0.00000E+00
    0.16189E-01        -0.44624E-02         0.00000E+00
    0.15707E-01        -0.42985E-02         0.00000E+00
    0.15217E-01        -0.41349E-02         0.00000E+00
    0.14720E-01        -0.39715E-02         0.00000E+00
    0.14216E-01        -0.38084E-02         0.00000E+00
    0.13704E-01        -0.36456E-02         0.00000E+00
    0.13185E-01        -0.34830E-02         0.00000E+00
    0.12659E-01        -0.33208E-02         0.00000E+00
    0.12125E-01        -0.31588E-02         0.00000E+00
    0.11585E-01        -0.29971E-02         0.00000E+00
    0.11037E-01        -0.28358E-02         0.00000E+00
    0.10483E-01        -0.26748E-02         0.00000E+00
    0.99208E-02        -0.25142E-02         0.00000E+00
    0.93519E-02        -0.23539E-02         0.00000E+00
    0.87761E-02        -0.21939E-02         0.00000E+00
    0.81934E-02        -0.20344E-02         0.00000E+00
    0.76037E-02        -0.18752E-02         0.00000E+00
    0.70071E-02        -0.17165E-02         0.00000E+00
    0.64037E-02        -0.15581E-02         0.00000E+00
    0.57935E-02        -0.14002E-02         0.00000E+00
    0.51764E-02        -0.12427E-02         0.00000E+00
    0.45527E-02        -0.10857E-02         0.00000E+00
    0.39222E-02        -0.92913E-03         0.00000E+00
    0.32850E-02        -0.77303E-03         0.00000E+00
    0.26411E-02        -0.61741E-03         0.00000E+00
    0.19907E-02        -0.46228E-03         0.00000E+00
    0.13337E-02        -0.30767E-03         0.00000E+00
    0.67008E-03        -0.15357E-03         0.00000E+00
    0.00000E+00         0.00000E+00         0.00000E+00
    0.25080E-01        -0.96470E-02         0.00000E+00
    0.24766E-01        -0.94494E-02         0.00000E+00
    0.24444E-01        -0.92518E-02         0.00000E+00
    0.24114E-01        -0.90542E-02         0.00000E+00
    0.23775E-01        -0.88567E-02         0.00000E+00
    0.23428E-01        -0.86592E-02         0.00000E+00
    0.23073E-01        -0.84617E-02         0.00000E+00
    0.22711E-01        -0.82643E-02         0.00000E+00
    0.22340E-01        -0.80670E-02         0.00000E+00
    0.21961E-01        -0.78698E-02         0.00000E+00
    0.21574E-01        -0.76727E-02         0.00000E+00
    0.21180E-01        -0.74757E-02         0.00000E+00
    0.20777E-01        -0.72788E-02         0.00000E+00
    0.20367E-01        -0.70820E-02         0.00000E+00
    0.19949E-01        -0.68854E-02         0.00000E+00
    0.19523E-01        -0.66889E-02         0.00000E+00
    0.19090E-01        -0.64926E-02         0.00000E+00
    0.18648E-01        -0.62965E-02         0.00000E+00
    0.18199E-01        -0.61006E-02         0.00000E+00
    0.17743E-01        -0.59048E-02         0.00000E+00
    0.17279E-01        -0.57093E-02         0.00000E+00
    0.16807E-01        -0.55140E-02         0.00000E+00
    0.16328E-01        -0.53189E-02         0.00000E+00
    0.15842E-01        -0.51241E-02         0.00000E+00
    0.15348E-01        -0.49295E-02         0.00000E+00
    0.14846E-01        -0.47352E-02         0.00000E+00
    0.14337E-01        -0.45411E-02         0.00000E+00
    0.13821E-01        -0.43474E-02         0.00000E+00
    0.13298E-01        -0.41539E-02         0.00000E+00
    0.12767E-01        -0.39608E-02         0.00000E+00
    0.12229E-01        -0.37680E-02         0.00000E+00
    0.11684E-01        -0.35755E-02         0.00000E+00
    0.11131E-01        -0.33834E-02         0.00000E+00
    0.10572E-01        -0.31917E-02         0.00000E+00
    0.10005E-01        -0.30003E-02         0.00000E+00
    0.94315E-02        -0.28093E-02         0.00000E+00
    0.88508E-02        -0.26187E-02         0.00000E+00
    0.82631E-02        -0.24286E-02         0.00000E+00
    0.76684E-02        -0.22388E-02         0.00000E+00
    0.70667E-02        -0.20495E-02         0.00000E+00
    0.64582E-02        -0.18607E-02         0.00000E+00
    0.58427E-02        -0.16723E-02         0.00000E+00
    0.52204E-02        -0.14844E-02         0.00000E+00
    0.45913E-02        -0.12970E-02         0.00000E+00
    0.39555E-02        -0.11101E-02         0.00000E+00
    0.33129E-02        -0.92367E-03         0.00000E+00
    0.26636E-02        -0.73782E-03         0.00000E+00
    0.20076E-02        -0.55251E-03         0.00000E+00
    0.13450E-02        -0.36776E-03         0.00000E+00
    0.67578E-03        -0.18359E-03         0.00000E+00
    0.00000E+00         0.00000E+00         0.00000E+00
    0.25327E-01        -0.11206E-01         0.00000E+00
    0.25010E-01        -0.10977E-01         0.00000E+00
    0.24683E-01        -0.10747E-01         0.00000E+00
    0.24349E-01        -0.10518E-01         0.00000E+00
    0.24007E-01        -0.10289E-01         0.00000E+00
    0.23656E-01        -0.10060E-01         0.00000E+00
    0.23297E-01        -0.98314E-02         0.00000E+00
    0.22930E-01        -0.96025E-02         0.00000E+00
    0.22555E-01        -0.93737E-02         0.00000E+00
    0.22172E-01        -0.91450E-02         0.00000E+00
    0.21782E-01        -0.89164E-02         0.00000E+00
    0.21383E-01        -0.86879E-02         0.00000E+00
    0.20976E-01        -0.84595E-02         0.00000E+00
    0.20561E-01        -0.82313E-02         0.00000E+00
    0.20139E-01        -0.80032E-02         0.00000E+00
    0.19709E-01        -0.77753E-02         0.00000E+00
    0.19271E-01        -0.75476E-02         0.00000E+00
    0.18825E-01        -0.73200E-02         0.00000E+00
    0.18372E-01        -0.70927E-02         0.00000E+00
    0.17911E-01        -0.68655E-02         0.00000E+00
    0.17442E-01        -0.66386E-02         0.00000E+00
    0.16966E-01        -0.64119E-02         0.00000E+00
    0.16482E-01        -0.61855E-02         0.00000E+00
    0.15990E-01        -0.59593E-02         0.00000E+00
    0.15492E-01        -0.57334E-02         0.00000E+00
    0.14985E-01        -0.55078E-02         0.00000E+00
    0.14472E-01        -0.52825E-02         0.00000E+00
    0.13950E-01        -0.50575E-02         0.00000E+00
    0.13422E-01        -0.48328E-02         0.00000E+00
    0.12886E-01        -0.46084E-02         0.00000E+00
    0.12343E-01        -0.43845E-02         0.00000E+00
    0.11793E-01        -0.41608E-02         0.00000E+00
    0.11235E-01        -0.39376E-02         0.00000E+00
    0.10670E-01        -0.37147E-02         0.00000E+00
    0.10098E-01        -0.34923E-02         0.00000E+00
    0.95193E-02        -0.32702E-02         0.00000E+00
    0.89331E-02        -0.30486E-02         0.00000E+00
    0.83399E-02        -0.28275E-02         0.00000E+00
    0.77396E-02        -0.26068E-02         0.00000E+00
    0.71324E-02        -0.23866E-02         0.00000E+00
    0.65181E-02        -0.21669E-02         0.00000E+00
    0.58970E-02        -0.19477E-02         0.00000E+00
    0.52689E-02        -0.17290E-02         0.00000E+00
    0.46340E-02        -0.15108E-02         0.00000E+00
    0.39922E-02        -0.12932E-02         0.00000E+00
    0.33436E-02        -0.10762E-02         0.00000E+00
    0.26883E-02        -0.85971E-03         0.00000E+00
    0.20263E-02        -0.64385E-03         0.00000E+00
    0.13575E-02        -0.42860E-03         0.00000E+00
    0.68206E-03        -0.21398E-03         0.00000E+00
    0.00000E+00         0.00000E+00         0.00000E+00
    0.25599E-01        -0.12784E-01         0.00000E+00
    0.25277E-01        -0.12523E-01         0.00000E+00
    0.24946E-01        -0.12262E-01         0.00000E+00
    0.24608E-01        -0.12001E-01         0.00000E+00
    0.24261E-01        -0.11741E-01         0.00000E+00
    0.23906E-01        -0.11480E-01         0.00000E+00
    0.23543E-01        -0.11219E-01         0.00000E+00
    0.23171E-01        -0.10958E-01         0.00000E+00
    0.22792E-01        -0.10697E-01         0.00000E+00
    0.22404E-01        -0.10437E-01         0.00000E+00
    0.22009E-01        -0.10176E-01         0.00000E+00
    0.21605E-01        -0.99159E-02         0.00000E+00
    0.21194E-01        -0.96557E-02         0.00000E+00
    0.20774E-01        -0.93956E-02         0.00000E+00
    0.20347E-01        -0.91357E-02         0.00000E+00
    0.19912E-01        -0.88759E-02         0.00000E+00
    0.19469E-01        -0.86164E-02         0.00000E+00
    0.19018E-01        -0.83570E-02         0.00000E+00
    0.18560E-01        -0.80979E-02         0.00000E+00
    0.18094E-01        -0.78389E-02         0.00000E+00
    0.17620E-01        -0.75802E-02         0.00000E+00
    0.17139E-01        -0.73218E-02         0.00000E+00
    0.16650E-01        -0.70636E-02         0.00000E+00
    0.16153E-01        -0.68057E-02         0.00000E+00
    0.15649E-01        -0.65481E-02         0.00000E+00
    0.15137E-01        -0.62907E-02         0.00000E+00
    0.14618E-01        -0.60337E-02         0.00000E+00
    0.14092E-01        -0.57771E-02         0.00000E+00
    0.13558E-01        -0.55208E-02         0.00000E+00
    0.13016E-01        -0.52648E-02         0.00000E+00
    0.12468E-01        -0.50092E-02         0.00000E+00
    0.11912E-01        -0.47540E-02         0.00000E+00
    0.11348E-01        -0.44992E-02         0.00000E+00
    0.10778E-01        -0.42449E-02         0.00000E+00
    0.10200E-01        -0.39909E-02         0.00000E+00
    0.96150E-02        -0.37374E-02         0.00000E+00
    0.90229E-02        -0.34844E-02         0.00000E+00
    0.84236E-02        -0.32319E-02         0.00000E+00
    0.78173E-02        -0.29798E-02         0.00000E+00
    0.72039E-02        -0.27283E-02         0.00000E+00
    0.65835E-02        -0.24773E-02         0.00000E+00
    0.59561E-02        -0.22268E-02         0.00000E+00
    0.53217E-02        -0.19769E-02         0.00000E+00
    0.46804E-02        -0.17276E-02         0.00000E+00
    0.40322E-02        -0.14789E-02         0.00000E+00
    0.33772E-02        -0.12308E-02         0.00000E+00
    0.27153E-02        -0.98331E-03         0.00000E+00
    0.20466E-02        -0.73647E-03         0.00000E+00
    0.13711E-02        -0.49029E-03         0.00000E+00
    0.68891E-03        -0.24480E-03         0.00000E+00
    0.00000E+00         0.00000E+00         0.00000E+00
    0.25895E-01        -0.14386E-01         0.00000E+00
    0.25568E-01        -0.14092E-01         0.00000E+00
    0.25233E-01        -0.13799E-01         0.00000E+00
    0.24889E-01        -0.13506E-01         0.00000E+00
    0.24537E-01        -0.13212E-01         0.00000E+00
    0.24177E-01        -0.12919E-01         0.00000E+00
    0.23809E-01        -0.12626E-01         0.00000E+00
    0.23433E-01        -0.12333E-01         0.00000E+00
    0.23048E-01        -0.12040E-01         0.00000E+00
    0.22656E-01        -0.11747E-01         0.00000E+00
    0.22255E-01        -0.11454E-01         0.00000E+00
    0.21847E-01        -0.11162E-01         0.00000E+00
    0.21430E-01        -0.10869E-01         0.00000E+00
    0.21005E-01        -0.10577E-01         0.00000E+00
    0.20573E-01        -0.10285E-01         0.00000E+00
    0.20132E-01        -0.99925E-02         0.00000E+00
    0.19684E-01        -0.97007E-02         0.00000E+00
    0.19228E-01        -0.94091E-02         0.00000E+00
    0.18764E-01        -0.91177E-02         0.00000E+00
    0.18292E-01        -0.88265E-02         0.00000E+00
    0.17813E-01        -0.85356E-02         0.00000E+00
    0.17326E-01        -0.82450E-02         0.00000E+00
    0.16831E-01        -0.79546E-02         0.00000E+00
    0.16329E-01        -0.76645E-02         0.00000E+00
    0.15819E-01        -0.73747E-02         0.00000E+00
    0.15302E-01        -0.70853E-02         0.00000E+00
    0.14777E-01        -0.67961E-02         0.00000E+00
    0.14244E-01        -0.65074E-02         0.00000E+00
    0.13704E-01        -0.62190E-02         0.00000E+00
    0.13157E-01        -0.59309E-02         0.00000E+00
    0.12602E-01        -0.56433E-02         0.00000E+00
    0.12040E-01        -0.53561E-02         0.00000E+00
    0.11471E-01        -0.50693E-02         0.00000E+00
    0.10894E-01        -0.47830E-02         0.00000E+00
    0.10310E-01        -0.44971E-02         0.00000E+00
    0.97184E-02        -0.42117E-02         0.00000E+00
    0.91199E-02        -0.39268E-02         0.00000E+00
    0.85142E-02        -0.36424E-02         0.00000E+00
    0.79013E-02        -0.33585E-02         0.00000E+00
    0.72813E-02        -0.30752E-02         0.00000E+00
    0.66542E-02        -0.27925E-02         0.00000E+00
    0.60200E-02        -0.25103E-02         0.00000E+00
    0.53788E-02        -0.22287E-02         0.00000E+00
    0.47307E-02        -0.19478E-02         0.00000E+00
    0.40755E-02        -0.16675E-02         0.00000E+00
    0.34134E-02        -0.13878E-02         0.00000E+00
    0.27444E-02        -0.11088E-02         0.00000E+00
    0.20686E-02        -0.83053E-03         0.00000E+00
    0.13858E-02        -0.55295E-03         0.00000E+00
    0.69631E-03        -0.27610E-03         0.00000E+00
    0.00000E+00         0.00000E+00         0.00000E+00
    0.26214E-01        -0.16012E-01         0.00000E+00
    0.25882E-01        -0.15685E-01         0.00000E+00
    0.25541E-01        -0.15359E-01         0.00000E+00
    0.25193E-01        -0.15033E-01         0.00000E+00
    0.24835E-01        -0.14707E-01         0.00000E+00
    0.24470E-01        -0.14381E-01         0.00000E+00
    0.24097E-01        -0.14055E-01         0.00000E+00
    0.23715E-01        -0.13729E-01         0.00000E+00
    0.23325E-01        -0.13404E-01         0.00000E+00
    0.22927E-01        -0.13078E-01         0.00000E+00
    0.22520E-01        -0.12752E-01         0.00000E+00
    0.22106E-01        -0.12427E-01         0.00000E+00
    0.21684E-01        -0.12102E-01         0.00000E+00
    0.21254E-01        -0.11776E-01         0.00000E+00
    0.20815E-01        -0.11452E-01         0.00000E+00
    0.20369E-01        -0.11127E-01         0.00000E+00
    0.19915E-01        -0.10802E-01         0.00000E+00
    0.19453E-01        -0.10478E-01         0.00000E+00
    0.18983E-01        -0.10154E-01         0.00000E+00
    0.18506E-01        -0.98299E-02         0.00000E+00
    0.18020E-01        -0.95063E-02         0.00000E+00
    0.17527E-01        -0.91829E-02         0.00000E+00
    0.17027E-01        -0.88599E-02         0.00000E+00
    0.16518E-01        -0.85371E-02         0.00000E+00
    0.16002E-01        -0.82147E-02         0.00000E+00
    0.15478E-01        -0.78926E-02         0.00000E+00
    0.14947E-01        -0.75709E-02         0.00000E+00
    0.14408E-01        -0.72495E-02         0.00000E+00
    0.13862E-01        -0.69285E-02         0.00000E+00
    0.13308E-01        -0.66079E-02         0.00000E+00
    0.12747E-01        -0.62878E-02         0.00000E+00
    0.12178E-01        -0.59680E-02         0.00000E+00
    0.11602E-01        -0.56487E-02         0.00000E+00
    0.11018E-01        -0.53299E-02         0.00000E+00
    0.10427E-01        -0.50116E-02         0.00000E+00
    0.98293E-02        -0.46938E-02         0.00000E+00
    0.92239E-02        -0.43765E-02         0.00000E+00
    0.86112E-02        -0.40598E-02         0.00000E+00
    0.79913E-02        -0.37436E-02         0.00000E+00
    0.73642E-02        -0.34279E-02         0.00000E+00
    0.67299E-02        -0.31129E-02         0.00000E+00
    0.60885E-02        -0.27985E-02         0.00000E+00
    0.54400E-02        -0.24848E-02         0.00000E+00
    0.47845E-02        -0.21717E-02         0.00000E+00
    0.41219E-02        -0.18592E-02         0.00000E+00
    0.34523E-02        -0.15475E-02         0.00000E+00
    0.27757E-02        -0.12365E-02         0.00000E+00
    0.20921E-02        -0.92620E-03         0.00000E+00
    0.14016E-02        -0.61668E-03         0.00000E+00
    0.70424E-03        -0.30794E-03         0.00000E+00
    0.00000E+00         0.00000E+00         0.00000E+00
    0.26556E-01        -0.17665E-01         0.00000E+00
    0.26218E-01        -0.17305E-01         0.00000E+00
    0.25872E-01        -0.16946E-01         0.00000E+00
    0.25517E-01        -0.16586E-01         0.00000E+00
    0.25154E-01        -0.16227E-01         0.00000E+00
    0.24783E-01        -0.15868E-01         0.00000E+00
    0.24404E-01        -0.15508E-01         0.00000E+00
    0.24016E-01        -0.15149E-01         0.00000E+00
    0.23620E-01        -0.14790E-01         0.00000E+00
    0.23216E-01        -0.14431E-01         0.00000E+00
    0.22804E-01        -0.14072E-01         0.00000E+00
    0.22383E-01        -0.13714E-01         0.00000E+00
    0.21955E-01        -0.13355E-01         0.00000E+00
    0.21519E-01        -0.12997E-01         0.00000E+00
    0.21074E-01        -0.12638E-01         0.00000E+00
    0.20622E-01        -0.12280E-01         0.00000E+00
    0.20161E-01        -0.11923E-01         0.00000E+00
    0.19693E-01        -0.11565E-01         0.00000E+00
    0.19217E-01        -0.11208E-01         0.00000E+00
    0.18733E-01        -0.10851E-01         0.00000E+00
    0.18241E-01        -0.10494E-01         0.00000E+00
    0.17742E-01        -0.10137E-01         0.00000E+00
    0.17234E-01        -0.97809E-02         0.00000E+00
    0.16719E-01        -0.94249E-02         0.00000E+00
    0.16197E-01        -0.90693E-02         0.00000E+00
    0.15666E-01        -0.87141E-02         0.00000E+00
    0.15128E-01        -0.83592E-02         0.00000E+00
    0.14583E-01        -0.80047E-02         0.00000E+00
    0.14029E-01        -0.76505E-02         0.00000E+00
    0.13469E-01        -0.72969E-02         0.00000E+00
    0.12900E-01        -0.69436E-02         0.00000E+00
    0.12325E-01        -0.65908E-02         0.00000E+00
    0.11741E-01        -0.62385E-02         0.00000E+00
    0.11151E-01        -0.58867E-02         0.00000E+00
    0.10553E-01        -0.55353E-02         0.00000E+00
    0.99473E-02        -0.51845E-02         0.00000E+00
    0.93345E-02        -0.48343E-02         0.00000E+00
    0.87144E-02        -0.44846E-02         0.00000E+00
    0.80870E-02        -0.41355E-02         0.00000E+00
    0.74524E-02        -0.37870E-02         0.00000E+00
    0.68105E-02        -0.34392E-02         0.00000E+00
    0.61614E-02        -0.30920E-02         0.00000E+00
    0.55052E-02        -0.27455E-02         0.00000E+00
    0.48417E-02        -0.23996E-02         0.00000E+00
    0.41712E-02        -0.20545E-02         0.00000E+00
    0.34936E-02        -0.17101E-02         0.00000E+00
    0.28089E-02        -0.13665E-02         0.00000E+00
    0.21171E-02        -0.10236E-02         0.00000E+00
    0.14184E-02        -0.68159E-03         0.00000E+00
    0.71268E-03        -0.34037E-03         0.00000E+00
    0.00000E+00         0.00000E+00         0.00000E+00
    0.26919E-01        -0.19347E-01         0.00000E+00
    0.26575E-01        -0.18954E-01         0.00000E+00
    0.26223E-01        -0.18561E-01         0.00000E+00
    0.25862E-01        -0.18167E-01         0.00000E+00
    0.25493E-01        -0.17774E-01         0.00000E+00
    0.25116E-01        -0.17381E-01         0.00000E+00
    0.24730E-01        -0.16988E-01         0.00000E+00
    0.24336E-01        -0.16595E-01         0.00000E+00
    0.23933E-01        -0.16202E-01         0.00000E+00
    0.23523E-01        -0.15809E-01         0.00000E+00
    0.23104E-01        -0.15416E-01         0.00000E+00
    0.22677E-01        -0.15024E-01         0.00000E+00
    0.22243E-01        -0.14631E-01         0.00000E+00
    0.21800E-01        -0.14239E-01         0.00000E+00
    0.21349E-01        -0.13847E-01         0.00000E+00
    0.20889E-01        -0.13455E-01         0.00000E+00
    0.20422E-01        -0.13064E-01         0.00000E+00
    0.19947E-01        -0.12672E-01         0.00000E+00
    0.19465E-01        -0.12281E-01         0.00000E+00
    0.18974E-01        -0.11890E-01         0.00000E+00
    0.18475E-01        -0.11499E-01         0.00000E+00
    0.17969E-01        -0.11109E-01         0.00000E+00
    0.17454E-01        -0.10719E-01         0.00000E+00
    0.16932E-01        -0.10329E-01         0.00000E+00
    0.16403E-01        -0.99399E-02         0.00000E+00
    0.15865E-01        -0.95509E-02         0.00000E+00
    0.15320E-01        -0.91622E-02         0.00000E+00
    0.14767E-01        -0.87740E-02         0.00000E+00
    0.14207E-01        -0.83862E-02         0.00000E+00
    0.13639E-01        -0.79988E-02         0.00000E+00
    0.13063E-01        -0.76119E-02         0.00000E+00
    0.12480E-01        -0.72254E-02         0.00000E+00
    0.11889E-01        -0.68394E-02         0.00000E+00
    0.11291E-01        -0.64540E-02         0.00000E+00
    0.10685E-01        -0.60691E-02         0.00000E+00
    0.10072E-01        -0.56847E-02         0.00000E+00
    0.94514E-02        -0.53009E-02         0.00000E+00
    0.88235E-02        -0.49177E-02         0.00000E+00
    0.81882E-02        -0.45351E-02         0.00000E+00
    0.75456E-02        -0.41531E-02         0.00000E+00
    0.68956E-02        -0.37718E-02         0.00000E+00
    0.62384E-02        -0.33912E-02         0.00000E+00
    0.55739E-02        -0.30113E-02         0.00000E+00
    0.49022E-02        -0.26321E-02         0.00000E+00
    0.42233E-02        -0.22536E-02         0.00000E+00
    0.35372E-02        -0.18760E-02         0.00000E+00
    0.28440E-02        -0.14991E-02         0.00000E+00
    0.21436E-02        -0.11230E-02         0.00000E+00
    0.14361E-02        -0.74780E-03         0.00000E+00
    0.72159E-03        -0.37345E-03         0.00000E+00
    0.00000E+00         0.00000E+00         0.00000E+00
    0.27303E-01        -0.21062E-01         0.00000E+00
    0.26953E-01        -0.20634E-01         0.00000E+00
    0.26594E-01        -0.20206E-01         0.00000E+00
    0.26226E-01        -0.19779E-01         0.00000E+00
    0.25851E-01        -0.19351E-01         0.00000E+00
    0.25466E-01        -0.18923E-01         0.00000E+00
    0.25074E-01        -0.18496E-01         0.00000E+00
    0.24673E-01        -0.18068E-01         0.00000E+00
    0.24264E-01        -0.17641E-01         0.00000E+00
    0.23847E-01        -0.17213E-01         0.00000E+00
    0.23421E-01        -0.16786E-01         0.00000E+00
    0.22987E-01        -0.16359E-01         0.00000E+00
    0.22545E-01        -0.15932E-01         0.00000E+00
    0.22095E-01        -0.15506E-01         0.00000E+00
    0.21637E-01        -0.15079E-01         0.00000E+00
    0.21171E-01        -0.14653E-01         0.00000E+00
    0.20697E-01        -0.14227E-01         0.00000E+00
    0.20215E-01        -0.13801E-01         0.00000E+00
    0.19725E-01        -0.13375E-01         0.00000E+00
    0.19227E-01        -0.12950E-01         0.00000E+00
    0.18721E-01        -0.12525E-01         0.00000E+00
    0.18207E-01        -0.12100E-01         0.00000E+00
    0.17686E-01        -0.11676E-01         0.00000E+00
    0.17156E-01        -0.11251E-01         0.00000E+00
    0.16619E-01        -0.10828E-01         0.00000E+00
    0.16074E-01        -0.10404E-01         0.00000E+00
    0.15521E-01        -0.99813E-02         0.00000E+00
    0.14961E-01        -0.95587E-02         0.00000E+00
    0.14393E-01        -0.91366E-02         0.00000E+00
    0.13817E-01        -0.87148E-02         0.00000E+00
    0.13234E-01        -0.82936E-02         0.00000E+00
    0.12643E-01        -0.78728E-02         0.00000E+00
    0.12044E-01        -0.74526E-02         0.00000E+00
    0.11438E-01        -0.70328E-02         0.00000E+00
    0.10824E-01        -0.66136E-02         0.00000E+00
    0.10203E-01        -0.61950E-02         0.00000E+00
    0.95742E-02        -0.57770E-02         0.00000E+00
    0.89380E-02        -0.53596E-02         0.00000E+00
    0.82944E-02        -0.49429E-02         0.00000E+00
    0.76434E-02        -0.45267E-02         0.00000E+00
    0.69850E-02        -0.41113E-02         0.00000E+00
    0.63193E-02        -0.36966E-02         0.00000E+00
    0.56462E-02        -0.32826E-02         0.00000E+00
    0.49657E-02        -0.28694E-02         0.00000E+00
    0.42780E-02        -0.24569E-02         0.00000E+00
    0.35831E-02        -0.20453E-02         0.00000E+00
    0.28808E-02        -0.16345E-02         0.00000E+00
    0.21714E-02        -0.12245E-02         0.00000E+00
    0.14548E-02        -0.81542E-03         0.00000E+00
    0.73095E-03        -0.40724E-03         0.00000E+00
    0.00000E+00         0.00000E+00         0.00000E+00
    0.27707E-01        -0.22811E-01         0.00000E+00
    0.27349E-01        -0.22348E-01         0.00000E+00
    0.26983E-01        -0.21885E-01         0.00000E+00
    0.26609E-01        -0.21422E-01         0.00000E+00
    0.26226E-01        -0.20959E-01         0.00000E+00
    0.25834E-01        -0.20496E-01         0.00000E+00
    0.25435E-01        -0.20034E-01         0.00000E+00
    0.25027E-01        -0.19571E-01         0.00000E+00
    0.24610E-01        -0.19109E-01         0.00000E+00
    0.24186E-01        -0.18646E-01         0.00000E+00
    0.23753E-01        -0.18184E-01         0.00000E+00
    0.23312E-01        -0.17722E-01         0.00000E+00
    0.22863E-01        -0.17260E-01         0.00000E+00
    0.22405E-01        -0.16798E-01         0.00000E+00
    0.21940E-01        -0.16336E-01         0.00000E+00
    0.21466E-01        -0.15875E-01         0.00000E+00
    0.20985E-01        -0.15414E-01         0.00000E+00
    0.20495E-01        -0.14953E-01         0.00000E+00
    0.19997E-01        -0.14492E-01         0.00000E+00
    0.19492E-01        -0.14032E-01         0.00000E+00
    0.18978E-01        -0.13571E-01         0.00000E+00
    0.18457E-01        -0.13112E-01         0.00000E+00
    0.17928E-01        -0.12652E-01         0.00000E+00
    0.17390E-01        -0.12193E-01         0.00000E+00
    0.16845E-01        -0.11734E-01         0.00000E+00
    0.16292E-01        -0.11276E-01         0.00000E+00
    0.15732E-01        -0.10818E-01         0.00000E+00
    0.15163E-01        -0.10360E-01         0.00000E+00
    0.14587E-01        -0.99027E-02         0.00000E+00
    0.14003E-01        -0.94460E-02         0.00000E+00
    0.13412E-01        -0.89897E-02         0.00000E+00
    0.12813E-01        -0.85340E-02         0.00000E+00
    0.12206E-01        -0.80787E-02         0.00000E+00
    0.11591E-01        -0.76240E-02         0.00000E+00
    0.10969E-01        -0.71699E-02         0.00000E+00
    0.10340E-01        -0.67164E-02         0.00000E+00
    0.97023E-02        -0.62634E-02         0.00000E+00
    0.90575E-02        -0.58111E-02         0.00000E+00
    0.84053E-02        -0.53595E-02         0.00000E+00
    0.77455E-02        -0.49085E-02         0.00000E+00
    0.70783E-02        -0.44582E-02         0.00000E+00
    0.64036E-02        -0.40087E-02         0.00000E+00
    0.57215E-02        -0.35599E-02         0.00000E+00
    0.50320E-02        -0.31119E-02         0.00000E+00
    0.43351E-02        -0.26647E-02         0.00000E+00
    0.36309E-02        -0.22184E-02         0.00000E+00
    0.29193E-02        -0.17729E-02         0.00000E+00
    0.22004E-02        -0.13282E-02         0.00000E+00
    0.14742E-02        -0.88454E-03         0.00000E+00
    0.74072E-03        -0.44179E-03         0.00000E+00
    0.00000E+00         0.00000E+00         0.00000E+00
    0.28129E-01        -0.24596E-01         0.00000E+00
    0.27764E-01        -0.24097E-01         0.00000E+00
    0.27390E-01        -0.23599E-01         0.00000E+00
    0.27008E-01        -0.23100E-01         0.00000E+00
    0.26617E-01        -0.22601E-01         0.00000E+00
    0.26218E-01        -0.22103E-01         0.00000E+00
    0.25811E-01        -0.21604E-01         0.00000E+00
    0.25395E-01        -0.21106E-01         0.00000E+00
    0.24971E-01        -0.20607E-01         0.00000E+00
    0.24539E-01        -0.20109E-01         0.00000E+00
    0.24099E-01        -0.19611E-01         0.00000E+00
    0.23650E-01        -0.19113E-01         0.00000E+00
    0.23193E-01        -0.18615E-01         0.00000E+00
    0.22728E-01        -0.18118E-01         0.00000E+00
    0.22254E-01        -0.17620E-01         0.00000E+00
    0.21773E-01        -0.17123E-01         0.00000E+00
    0.21284E-01        -0.16626E-01         0.00000E+00
    0.20786E-01        -0.16129E-01         0.00000E+00
    0.20281E-01        -0.15633E-01         0.00000E+00
    0.19767E-01        -0.15137E-01         0.00000E+00
    0.19246E-01        -0.14641E-01         0.00000E+00
    0.18716E-01        -0.14145E-01         0.00000E+00
    0.18179E-01        -0.13650E-01         0.00000E+00
    0.17633E-01        -0.13155E-01         0.00000E+00
    0.17080E-01        -0.12660E-01         0.00000E+00
    0.16519E-01        -0.12166E-01         0.00000E+00
    0.15950E-01        -0.11672E-01         0.00000E+00
    0.15374E-01        -0.11179E-01         0.00000E+00
    0.14789E-01        -0.10686E-01         0.00000E+00
    0.14197E-01        -0.10193E-01         0.00000E+00
    0.13597E-01        -0.97014E-02         0.00000E+00
    0.12989E-01        -0.92099E-02         0.00000E+00
    0.12374E-01        -0.87189E-02         0.00000E+00
    0.11751E-01        -0.82285E-02         0.00000E+00
    0.11120E-01        -0.77387E-02         0.00000E+00
    0.10481E-01        -0.72494E-02         0.00000E+00
    0.98352E-02        -0.67608E-02         0.00000E+00
    0.91815E-02        -0.62728E-02         0.00000E+00
    0.85202E-02        -0.57856E-02         0.00000E+00
    0.78514E-02        -0.52990E-02         0.00000E+00
    0.71750E-02        -0.48131E-02         0.00000E+00
    0.64910E-02        -0.43279E-02         0.00000E+00
    0.57996E-02        -0.38436E-02         0.00000E+00
    0.51007E-02        -0.33600E-02         0.00000E+00
    0.43943E-02        -0.28773E-02         0.00000E+00
    0.36804E-02        -0.23955E-02         0.00000E+00
    0.29591E-02        -0.19145E-02         0.00000E+00
    0.22304E-02        -0.14344E-02         0.00000E+00
    0.14943E-02        -0.95529E-03         0.00000E+00
    0.75085E-03        -0.47714E-03         0.00000E+00
    0.00000E+00         0.00000E+00         0.00000E+00
    0.28567E-01        -0.26420E-01         0.00000E+00
    0.28194E-01        -0.25885E-01         0.00000E+00
    0.27812E-01        -0.25349E-01         0.00000E+00
    0.27422E-01        -0.24814E-01         0.00000E+00
    0.27023E-01        -0.24279E-01         0.00000E+00
    0.26616E-01        -0.23744E-01         0.00000E+00
    0.26201E-01        -0.23209E-01         0.00000E+00
    0.25777E-01        -0.22674E-01         0.00000E+00
    0.25345E-01        -0.22139E-01         0.00000E+00
    0.24905E-01        -0.21604E-01         0.00000E+00
    0.24457E-01        -0.21070E-01         0.00000E+00
    0.24000E-01        -0.20535E-01         0.00000E+00
    0.23535E-01        -0.20001E-01         0.00000E+00
    0.23061E-01        -0.19467E-01         0.00000E+00
    0.22580E-01        -0.18933E-01         0.00000E+00
    0.22091E-01        -0.18399E-01         0.00000E+00
    0.21593E-01        -0.17866E-01         0.00000E+00
    0.21087E-01        -0.17332E-01         0.00000E+00
    0.20573E-01        -0.16799E-01         0.00000E+00
    0.20052E-01        -0.16267E-01         0.00000E+00
    0.19522E-01        -0.15734E-01         0.00000E+00
    0.18984E-01        -0.15202E-01         0.00000E+00
    0.18438E-01        -0.14670E-01         0.00000E+00
    0.17884E-01        -0.14139E-01         0.00000E+00
    0.17323E-01        -0.13607E-01         0.00000E+00
    0.16753E-01        -0.13077E-01         0.00000E+00
    0.16176E-01        -0.12546E-01         0.00000E+00
    0.15591E-01        -0.12016E-01         0.00000E+00
    0.14997E-01        -0.11487E-01         0.00000E+00
    0.14396E-01        -0.10958E-01         0.00000E+00
    0.13788E-01        -0.10429E-01         0.00000E+00
    0.13171E-01        -0.99014E-02         0.00000E+00
    0.12547E-01        -0.93740E-02         0.00000E+00
    0.11915E-01        -0.88471E-02         0.00000E+00
    0.11275E-01        -0.83207E-02         0.00000E+00
    0.10627E-01        -0.77950E-02         0.00000E+00
    0.99722E-02        -0.72699E-02         0.00000E+00
    0.93093E-02        -0.67455E-02         0.00000E+00
    0.86387E-02        -0.62217E-02         0.00000E+00
    0.79605E-02        -0.56987E-02         0.00000E+00
    0.72746E-02        -0.51764E-02         0.00000E+00
    0.65812E-02        -0.46548E-02         0.00000E+00
    0.58801E-02        -0.41341E-02         0.00000E+00
    0.51715E-02        -0.36141E-02         0.00000E+00
    0.44553E-02        -0.30951E-02         0.00000E+00
    0.37315E-02        -0.25768E-02         0.00000E+00
    0.30002E-02        -0.20595E-02         0.00000E+00
    0.22614E-02        -0.15432E-02         0.00000E+00
    0.15151E-02        -0.10278E-02         0.00000E+00
    0.76129E-03        -0.51337E-03         0.00000E+00
    0.00000E+00         0.00000E+00         0.00000E+00
    0.29019E-01        -0.28285E-01         0.00000E+00
    0.28638E-01        -0.27712E-01         0.00000E+00
    0.28248E-01        -0.27140E-01         0.00000E+00
    0.27850E-01        -0.26567E-01         0.00000E+00
    0.27443E-01        -0.25995E-01         0.00000E+00
    0.27027E-01        -0.25422E-01         0.00000E+00
    0.26604E-01        -0.24850E-01         0.00000E+00
    0.26171E-01        -0.24278E-01         0.00000E+00
    0.25731E-01        -0.23706E-01         0.00000E+00
    0.25282E-01        -0.23134E-01         0.00000E+00
    0.24825E-01        -0.22562E-01         0.00000E+00
    0.24360E-01        -0.21990E-01         0.00000E+00
    0.23887E-01        -0.21418E-01         0.00000E+00
    0.23405E-01        -0.20847E-01         0.00000E+00
    0.22915E-01        -0.20276E-01         0.00000E+00
    0.22417E-01        -0.19705E-01         0.00000E+00
    0.21911E-01        -0.19134E-01         0.00000E+00
    0.21397E-01        -0.18563E-01         0.00000E+00
    0.20874E-01        -0.17993E-01         0.00000E+00
    0.20344E-01        -0.17423E-01         0.00000E+00
    0.19805E-01        -0.16853E-01         0.00000E+00
    0.19259E-01        -0.16284E-01         0.00000E+00
    0.18705E-01        -0.15714E-01         0.00000E+00
    0.18142E-01        -0.15145E-01         0.00000E+00
    0.17572E-01        -0.14577E-01         0.00000E+00
    0.16993E-01        -0.14009E-01         0.00000E+00
    0.16407E-01        -0.13441E-01         0.00000E+00
    0.15813E-01        -0.12874E-01         0.00000E+00
    0.15211E-01        -0.12307E-01         0.00000E+00
    0.14601E-01        -0.11741E-01         0.00000E+00
    0.13983E-01        -0.11175E-01         0.00000E+00
    0.13358E-01        -0.10610E-01         0.00000E+00
    0.12724E-01        -0.10045E-01         0.00000E+00
    0.12083E-01        -0.94805E-02         0.00000E+00
    0.11434E-01        -0.89169E-02         0.00000E+00
    0.10777E-01        -0.83538E-02         0.00000E+00
    0.10113E-01        -0.77914E-02         0.00000E+00
    0.94402E-02        -0.72297E-02         0.00000E+00
    0.87601E-02        -0.66686E-02         0.00000E+00
    0.80723E-02        -0.61083E-02         0.00000E+00
    0.73768E-02        -0.55486E-02         0.00000E+00
    0.66736E-02        -0.49898E-02         0.00000E+00
    0.59626E-02        -0.44318E-02         0.00000E+00
    0.52440E-02        -0.38746E-02         0.00000E+00
    0.45178E-02        -0.33182E-02         0.00000E+00
    0.37839E-02        -0.27628E-02         0.00000E+00
    0.30423E-02        -0.22083E-02         0.00000E+00
    0.22932E-02        -0.16547E-02         0.00000E+00
    0.15364E-02        -0.11021E-02         0.00000E+00
    0.77198E-03        -0.55052E-03         0.00000E+00
    0.00000E+00         0.00000E+00         0.00000E+00
    0.29485E-01        -0.30192E-01         0.00000E+00
    0.29095E-01        -0.29582E-01         0.00000E+00
    0.28696E-01        -0.28971E-01         0.00000E+00
    0.28289E-01        -0.28361E-01         0.00000E+00
    0.27873E-01        -0.27750E-01         0.00000E+00
    0.27449E-01        -0.27140E-01         0.00000E+00
    0.27016E-01        -0.26529E-01         0.00000E+00
    0.26575E-01        -0.25919E-01         0.00000E+00
    0.26126E-01        -0.25309E-01         0.00000E+00
    0.25669E-01        -0.24699E-01         0.00000E+00
    0.25203E-01        -0.24089E-01         0.00000E+00
    0.24729E-01        -0.23479E-01         0.00000E+00
    0.24247E-01        -0.22869E-01         0.00000E+00
    0.23756E-01        -0.22260E-01         0.00000E+00
    0.23258E-01        -0.21650E-01         0.00000E+00
    0.22751E-01        -0.21041E-01         0.00000E+00
    0.22236E-01        -0.20432E-01         0.00000E+00
    0.21713E-01        -0.19823E-01         0.00000E+00
    0.21182E-01        -0.19215E-01         0.00000E+00
    0.20643E-01        -0.18607E-01         0.00000E+00
    0.20095E-01        -0.17999E-01         0.00000E+00
    0.19540E-01        -0.17391E-01         0.00000E+00
    0.18977E-01        -0.16784E-01         0.00000E+00
    0.18405E-01        -0.16177E-01         0.00000E+00
    0.17826E-01        -0.15570E-01         0.00000E+00
    0.17239E-01        -0.14964E-01         0.00000E+00
    0.16643E-01        -0.14358E-01         0.00000E+00
    0.16040E-01        -0.13752E-01         0.00000E+00
    0.15429E-01        -0.13147E-01         0.00000E+00
    0.14810E-01        -0.12543E-01         0.00000E+00
    0.14183E-01        -0.11939E-01         0.00000E+00
    0.13548E-01        -0.11335E-01         0.00000E+00
    0.12905E-01        -0.10732E-01         0.00000E+00
    0.12255E-01        -0.10130E-01         0.00000E+00
    0.11596E-01        -0.95279E-02         0.00000E+00
    0.10930E-01        -0.89267E-02         0.00000E+00
    0.10256E-01        -0.83260E-02         0.00000E+00
    0.95736E-02        -0.77261E-02         0.00000E+00
    0.88838E-02        -0.71268E-02         0.00000E+00
    0.81862E-02        -0.65282E-02         0.00000E+00
    0.74808E-02        -0.59304E-02         0.00000E+00
    0.67676E-02        -0.53334E-02         0.00000E+00
    0.60466E-02        -0.47371E-02         0.00000E+00
    0.53179E-02        -0.41417E-02         0.00000E+00
    0.45814E-02        -0.35472E-02         0.00000E+00
    0.38372E-02        -0.29535E-02         0.00000E+00
    0.30852E-02        -0.23608E-02         0.00000E+00
    0.23255E-02        -0.17691E-02         0.00000E+00
    0.15580E-02        -0.11784E-02         0.00000E+00
    0.78287E-03        -0.58864E-03         0.00000E+00
    0.00000E+00         0.00000E+00         0.00000E+00
    0.29961E-01        -0.32145E-01         0.00000E+00
    0.29561E-01        -0.31496E-01         0.00000E+00
    0.29153E-01        -0.30846E-01         0.00000E+00
    0.28737E-01        -0.30197E-01         0.00000E+00
    0.28312E-01        -0.29548E-01         0.00000E+00
    0.27879E-01        -0.28898E-01         0.00000E+00
    0.27437E-01        -0.28249E-01         0.00000E+00
    0.26987E-01        -0.27600E-01         0.00000E+00
    0.26529E-01        -0.26951E-01         0.00000E+00
    0.26062E-01        -0.26302E-01         0.00000E+00
    0.25588E-01        -0.25653E-01         0.00000E+00
    0.25105E-01        -0.25004E-01         0.00000E+00
    0.24613E-01        -0.24355E-01         0.00000E+00
    0.24114E-01        -0.23707E-01         0.00000E+00
    0.23606E-01        -0.23058E-01         0.00000E+00
    0.23090E-01        -0.22410E-01         0.00000E+00
    0.22566E-01        -0.21762E-01         0.00000E+00
    0.22034E-01        -0.21114E-01         0.00000E+00
    0.21494E-01        -0.20467E-01         0.00000E+00
    0.20946E-01        -0.19820E-01         0.00000E+00
    0.20389E-01        -0.19173E-01         0.00000E+00
    0.19825E-01        -0.18526E-01         0.00000E+00
    0.19252E-01        -0.17880E-01         0.00000E+00
    0.18672E-01        -0.17234E-01         0.00000E+00
    0.18083E-01        -0.16588E-01         0.00000E+00
    0.17487E-01        -0.15943E-01         0.00000E+00
    0.16882E-01        -0.15298E-01         0.00000E+00
    0.16270E-01        -0.14653E-01         0.00000E+00
    0.15650E-01        -0.14009E-01         0.00000E+00
    0.15021E-01        -0.13365E-01         0.00000E+00
    0.14385E-01        -0.12722E-01         0.00000E+00
    0.13741E-01        -0.12079E-01         0.00000E+00
    0.13088E-01        -0.11437E-01         0.00000E+00
    0.12428E-01        -0.10796E-01         0.00000E+00
    0.11760E-01        -0.10155E-01         0.00000E+00
    0.11084E-01        -0.95143E-02         0.00000E+00
    0.10400E-01        -0.88745E-02         0.00000E+00
    0.97085E-02        -0.82353E-02         0.00000E+00
    0.90089E-02        -0.75969E-02         0.00000E+00
    0.83014E-02        -0.69591E-02         0.00000E+00
    0.75860E-02        -0.63221E-02         0.00000E+00
    0.68627E-02        -0.56859E-02         0.00000E+00
    0.61316E-02        -0.50505E-02         0.00000E+00
    0.53926E-02        -0.44159E-02         0.00000E+00
    0.46458E-02        -0.37822E-02         0.00000E+00
    0.38911E-02        -0.31494E-02         0.00000E+00
    0.31286E-02        -0.25175E-02         0.00000E+00
    0.23582E-02        -0.18866E-02         0.00000E+00
    0.15800E-02        -0.12567E-02         0.00000E+00
    0.79389E-03        -0.62780E-03         0.00000E+00
    0.00000E+00         0.00000E+00         0.00000E+00
    0.30445E-01        -0.34145E-01         0.00000E+00
    0.30036E-01        -0.33456E-01         0.00000E+00
    0.29618E-01        -0.32767E-01         0.00000E+00
    0.29192E-01        -0.32078E-01         0.00000E+00
    0.28758E-01        -0.31388E-01         0.00000E+00
    0.28315E-01        -0.30699E-01         0.00000E+00
    0.27864E-01        -0.30010E-01         0.00000E+00
    0.27405E-01        -0.29321E-01         0.00000E+00
    0.26937E-01        -0.28632E-01         0.00000E+00
    0.26461E-01        -0.27943E-01         0.00000E+00
    0.25977E-01        -0.27255E-01         0.00000E+00
    0.25485E-01        -0.26566E-01         0.00000E+00
    0.24984E-01        -0.25878E-01         0.00000E+00
    0.24475E-01        -0.25189E-01         0.00000E+00
    0.23958E-01        -0.24501E-01         0.00000E+00
    0.23433E-01        -0.23813E-01         0.00000E+00
    0.22900E-01        -0.23125E-01         0.00000E+00
    0.22359E-01        -0.22438E-01         0.00000E+00
    0.21809E-01        -0.21750E-01         0.00000E+00
    0.21252E-01        -0.21063E-01         0.00000E+00
    0.20686E-01        -0.20376E-01         0.00000E+00
    0.20112E-01        -0.19690E-01         0.00000E+00
    0.19531E-01        -0.19003E-01         0.00000E+00
    0.18941E-01        -0.18317E-01         0.00000E+00
    0.18343E-01        -0.17632E-01         0.00000E+00
    0.17737E-01        -0.16946E-01         0.00000E+00
    0.17123E-01        -0.16261E-01         0.00000E+00
    0.16502E-01        -0.15577E-01         0.00000E+00
    0.15872E-01        -0.14893E-01         0.00000E+00
    0.15234E-01        -0.14209E-01         0.00000E+00
    0.14588E-01        -0.13526E-01         0.00000E+00
    0.13934E-01        -0.12843E-01         0.00000E+00
    0.13272E-01        -0.12161E-01         0.00000E+00
    0.12603E-01        -0.11479E-01         0.00000E+00
    0.11925E-01        -0.10798E-01         0.00000E+00
    0.11239E-01        -0.10117E-01         0.00000E+00
    0.10546E-01        -0.94374E-02         0.00000E+00
    0.98442E-02        -0.87581E-02         0.00000E+00
    0.91346E-02        -0.80795E-02         0.00000E+00
    0.84171E-02        -0.74016E-02         0.00000E+00
    0.76917E-02        -0.67244E-02         0.00000E+00
    0.69583E-02        -0.60480E-02         0.00000E+00
    0.62170E-02        -0.53723E-02         0.00000E+00
    0.54677E-02        -0.46975E-02         0.00000E+00
    0.47104E-02        -0.40236E-02         0.00000E+00
    0.39453E-02        -0.33506E-02         0.00000E+00
    0.31721E-02        -0.26784E-02         0.00000E+00
    0.23910E-02        -0.20073E-02         0.00000E+00
    0.16020E-02        -0.13371E-02         0.00000E+00
    0.80496E-03        -0.66804E-03         0.00000E+00
    0.00000E+00         0.00000E+00         0.00000E+00
    0.30934E-01        -0.36194E-01         0.00000E+00
    0.30515E-01        -0.35464E-01         0.00000E+00
    0.30088E-01        -0.34735E-01         0.00000E+00
    0.29652E-01        -0.34005E-01         0.00000E+00
    0.29208E-01        -0.33275E-01         0.00000E+00
    0.28755E-01        -0.32545E-01         0.00000E+00
    0.28294E-01        -0.31815E-01         0.00000E+00
    0.27825E-01        -0.31086E-01         0.00000E+00
    0.27348E-01        -0.30356E-01         0.00000E+00
    0.26863E-01        -0.29626E-01         0.00000E+00
    0.26369E-01        -0.28897E-01         0.00000E+00
    0.25867E-01        -0.28168E-01         0.00000E+00
    0.25357E-01        -0.27438E-01         0.00000E+00
    0.24838E-01        -0.26709E-01         0.00000E+00
    0.24312E-01        -0.25980E-01         0.00000E+00
    0.23777E-01        -0.25252E-01         0.00000E+00
    0.23235E-01        -0.24523E-01         0.00000E+00
    0.22684E-01        -0.23795E-01         0.00000E+00
    0.22125E-01        -0.23066E-01         0.00000E+00
    0.21558E-01        -0.22338E-01         0.00000E+00
    0.20983E-01        -0.21611E-01         0.00000E+00
    0.20400E-01        -0.20883E-01         0.00000E+00
    0.19809E-01        -0.20156E-01         0.00000E+00
    0.19210E-01        -0.19429E-01         0.00000E+00
    0.18603E-01        -0.18702E-01         0.00000E+00
    0.17987E-01        -0.17976E-01         0.00000E+00
    0.17364E-01        -0.17250E-01         0.00000E+00
    0.16733E-01        -0.16525E-01         0.00000E+00
    0.16094E-01        -0.15799E-01         0.00000E+00
    0.15446E-01        -0.15075E-01         0.00000E+00
    0.14791E-01        -0.14350E-01         0.00000E+00
    0.14128E-01        -0.13627E-01         0.00000E+00
    0.13456E-01        -0.12903E-01         0.00000E+00
    0.12777E-01        -0.12181E-01         0.00000E+00
    0.12090E-01        -0.11458E-01         0.00000E+00
    0.11394E-01        -0.10737E-01         0.00000E+00
    0.10691E-01        -0.10015E-01         0.00000E+00
    0.99795E-02        -0.92950E-02         0.00000E+00
    0.92600E-02        -0.85751E-02         0.00000E+00
    0.85326E-02        -0.78560E-02         0.00000E+00
    0.77971E-02        -0.71376E-02         0.00000E+00
    0.70536E-02        -0.64199E-02         0.00000E+00
    0.63021E-02        -0.57030E-02         0.00000E+00
    0.55425E-02        -0.49869E-02         0.00000E+00
    0.47749E-02        -0.42717E-02         0.00000E+00
    0.39993E-02        -0.35573E-02         0.00000E+00
    0.32155E-02        -0.28439E-02         0.00000E+00
    0.24238E-02        -0.21314E-02         0.00000E+00
    0.16239E-02        -0.14199E-02         0.00000E+00
    0.81600E-03        -0.70941E-03         0.00000E+00
    0.00000E+00         0.00000E+00         0.00000E+00
    0.31426E-01        -0.38294E-01         0.00000E+00
    0.30997E-01        -0.37523E-01         0.00000E+00
    0.30559E-01        -0.36751E-01         0.00000E+00
    0.30113E-01        -0.35980E-01         0.00000E+00
    0.29659E-01        -0.35208E-01         0.00000E+00
    0.29196E-01        -0.34437E-01         0.00000E+00
    0.28725E-01        -0.33666E-01         0.00000E+00
    0.28246E-01        -0.32894E-01         0.00000E+00
    0.27759E-01        -0.32123E-01         0.00000E+00
    0.27264E-01        -0.31352E-01         0.00000E+00
    0.26760E-01        -0.30581E-01         0.00000E+00
    0.26248E-01        -0.29810E-01         0.00000E+00
    0.25729E-01        -0.29039E-01         0.00000E+00
    0.25201E-01        -0.28268E-01         0.00000E+00
    0.24665E-01        -0.27497E-01         0.00000E+00
    0.24120E-01        -0.26727E-01         0.00000E+00
    0.23568E-01        -0.25957E-01         0.00000E+00
    0.23008E-01        -0.25186E-01         0.00000E+00
    0.22440E-01        -0.24416E-01         0.00000E+00
    0.21863E-01        -0.23647E-01         0.00000E+00
    0.21279E-01        -0.22877E-01         0.00000E+00
    0.20686E-01        -0.22108E-01         0.00000E+00
    0.20086E-01        -0.21339E-01         0.00000E+00
    0.19477E-01        -0.20570E-01         0.00000E+00
    0.18860E-01        -0.19801E-01         0.00000E+00
    0.18236E-01        -0.19033E-01         0.00000E+00
    0.17603E-01        -0.18265E-01         0.00000E+00
    0.16962E-01        -0.17498E-01         0.00000E+00
    0.16314E-01        -0.16730E-01         0.00000E+00
    0.15657E-01        -0.15964E-01         0.00000E+00
    0.14992E-01        -0.15197E-01         0.00000E+00
    0.14319E-01        -0.14431E-01         0.00000E+00
    0.13638E-01        -0.13666E-01         0.00000E+00
    0.12950E-01        -0.12901E-01         0.00000E+00
    0.12253E-01        -0.12137E-01         0.00000E+00
    0.11548E-01        -0.11373E-01         0.00000E+00
    0.10835E-01        -0.10609E-01         0.00000E+00
    0.10113E-01        -0.98466E-02         0.00000E+00
    0.93841E-02        -0.90845E-02         0.00000E+00
    0.86468E-02        -0.83230E-02         0.00000E+00
    0.79014E-02        -0.75623E-02         0.00000E+00
    0.71479E-02        -0.68022E-02         0.00000E+00
    0.63863E-02        -0.60429E-02         0.00000E+00
    0.56166E-02        -0.52844E-02         0.00000E+00
    0.48387E-02        -0.45268E-02         0.00000E+00
    0.40527E-02        -0.37699E-02         0.00000E+00
    0.32585E-02        -0.30140E-02         0.00000E+00
    0.24562E-02        -0.22590E-02         0.00000E+00
    0.16456E-02        -0.15050E-02         0.00000E+00
    0.82692E-03        -0.75197E-03         0.00000E+00
    0.00000E+00         0.00000E+00         0.00000E+00
    0.31917E-01        -0.40447E-01         0.00000E+00
    0.31477E-01        -0.39633E-01         0.00000E+00
    0.31029E-01        -0.38819E-01         0.00000E+00
    0.30573E-01        -0.38005E-01         0.00000E+00
    0.30108E-01        -0.37191E-01         0.00000E+00
    0.29635E-01        -0.36377E-01         0.00000E+00
    0.29154E-01        -0.35563E-01         0.00000E+00
    0.28665E-01        -0.34749E-01         0.00000E+00
    0.28167E-01        -0.33935E-01         0.00000E+00
    0.27662E-01        -0.33122E-01         0.00000E+00
    0.27148E-01        -0.32308E-01         0.00000E+00
    0.26627E-01        -0.31494E-01         0.00000E+00
    0.26097E-01        -0.30681E-01         0.00000E+00
    0.25559E-01        -0.29867E-01         0.00000E+00
    0.25013E-01        -0.29054E-01         0.00000E+00
    0.24460E-01        -0.28241E-01         0.00000E+00
    0.23898E-01        -0.27428E-01         0.00000E+00
    0.23328E-01        -0.26615E-01         0.00000E+00
    0.22750E-01        -0.25802E-01         0.00000E+00
    0.22164E-01        -0.24989E-01         0.00000E+00
    0.21570E-01        -0.24177E-01         0.00000E+00
    0.20968E-01        -0.23365E-01         0.00000E+00
    0.20358E-01        -0.22553E-01         0.00000E+00
    0.19740E-01        -0.21741E-01         0.00000E+00
    0.19114E-01        -0.20929E-01         0.00000E+00
    0.18480E-01        -0.20118E-01         0.00000E+00
    0.17838E-01        -0.19307E-01         0.00000E+00
    0.17188E-01        -0.18497E-01         0.00000E+00
    0.16530E-01        -0.17687E-01         0.00000E+00
    0.15864E-01        -0.16877E-01         0.00000E+00
    0.15190E-01        -0.16067E-01         0.00000E+00
    0.14507E-01        -0.15258E-01         0.00000E+00
    0.13817E-01        -0.14449E-01         0.00000E+00
    0.13119E-01        -0.13641E-01         0.00000E+00
    0.12412E-01        -0.12834E-01         0.00000E+00
    0.11698E-01        -0.12026E-01         0.00000E+00
    0.10975E-01        -0.11220E-01         0.00000E+00
    0.10245E-01        -0.10414E-01         0.00000E+00
    0.95058E-02        -0.96080E-02         0.00000E+00
    0.87588E-02        -0.88031E-02         0.00000E+00
    0.80036E-02        -0.79989E-02         0.00000E+00
    0.72403E-02        -0.71953E-02         0.00000E+00
    0.64688E-02        -0.63925E-02         0.00000E+00
    0.56891E-02        -0.55904E-02         0.00000E+00
    0.49012E-02        -0.47891E-02         0.00000E+00
    0.41050E-02        -0.39886E-02         0.00000E+00
    0.33006E-02        -0.31890E-02         0.00000E+00
    0.24879E-02        -0.23903E-02         0.00000E+00
    0.16669E-02        -0.15926E-02         0.00000E+00
    0.83762E-03        -0.79577E-03         0.00000E+00
    0.00000E+00         0.00000E+00         0.00000E+00
    0.32404E-01        -0.42654E-01         0.00000E+00
    0.31953E-01        -0.41796E-01         0.00000E+00
    0.31494E-01        -0.40939E-01         0.00000E+00
    0.31027E-01        -0.40081E-01         0.00000E+00
    0.30552E-01        -0.39224E-01         0.00000E+00
    0.30068E-01        -0.38366E-01         0.00000E+00
    0.29577E-01        -0.37509E-01         0.00000E+00
    0.29077E-01        -0.36651E-01         0.00000E+00
    0.28569E-01        -0.35794E-01         0.00000E+00
    0.28054E-01        -0.34937E-01         0.00000E+00
    0.27530E-01        -0.34079E-01         0.00000E+00
    0.26998E-01        -0.33222E-01         0.00000E+00
    0.26459E-01        -0.32365E-01         0.00000E+00
    0.25911E-01        -0.31508E-01         0.00000E+00
    0.25356E-01        -0.30651E-01         0.00000E+00
    0.24792E-01        -0.29794E-01         0.00000E+00
    0.24220E-01        -0.28937E-01         0.00000E+00
    0.23641E-01        -0.28080E-01         0.00000E+00
    0.23053E-01        -0.27224E-01         0.00000E+00
    0.22458E-01        -0.26367E-01         0.00000E+00
    0.21855E-01        -0.25511E-01         0.00000E+00
    0.21243E-01        -0.24655E-01         0.00000E+00
    0.20624E-01        -0.23799E-01         0.00000E+00
    0.19997E-01        -0.22943E-01         0.00000E+00
    0.19361E-01        -0.22088E-01         0.00000E+00
    0.18718E-01        -0.21233E-01         0.00000E+00
    0.18067E-01        -0.20378E-01         0.00000E+00
    0.17408E-01        -0.19523E-01         0.00000E+00
    0.16740E-01        -0.18669E-01         0.00000E+00
    0.16065E-01        -0.17815E-01         0.00000E+00
    0.15382E-01        -0.16961E-01         0.00000E+00
    0.14690E-01        -0.16108E-01         0.00000E+00
    0.13991E-01        -0.15255E-01         0.00000E+00
    0.13283E-01        -0.14402E-01         0.00000E+00
    0.12568E-01        -0.13550E-01         0.00000E+00
    0.11844E-01        -0.12698E-01         0.00000E+00
    0.11112E-01        -0.11847E-01         0.00000E+00
    0.10372E-01        -0.10996E-01         0.00000E+00
    0.96238E-02        -0.10146E-01         0.00000E+00
    0.88674E-02        -0.92968E-02         0.00000E+00
    0.81027E-02        -0.84479E-02         0.00000E+00
    0.73299E-02        -0.75996E-02         0.00000E+00
    0.65488E-02        -0.67520E-02         0.00000E+00
    0.57594E-02        -0.59051E-02         0.00000E+00
    0.49617E-02        -0.50590E-02         0.00000E+00
    0.41557E-02        -0.42137E-02         0.00000E+00
    0.33414E-02        -0.33691E-02         0.00000E+00
    0.25187E-02        -0.25255E-02         0.00000E+00
    0.16875E-02        -0.16827E-02         0.00000E+00
    0.84799E-03        -0.84085E-03         0.00000E+00
    0.00000E+00         0.00000E+00         0.00000E+00
    0.32884E-01        -0.44917E-01         0.00000E+00
    0.32421E-01        -0.44015E-01         0.00000E+00
    0.31951E-01        -0.43113E-01         0.00000E+00
    0.31473E-01        -0.42211E-01         0.00000E+00
    0.30986E-01        -0.41309E-01         0.00000E+00
    0.30492E-01        -0.40407E-01         0.00000E+00
    0.29990E-01        -0.39505E-01         0.00000E+00
    0.29480E-01        -0.38603E-01         0.00000E+00
    0.28962E-01        -0.37701E-01         0.00000E+00
    0.28436E-01        -0.36799E-01         0.00000E+00
    0.27902E-01        -0.35897E-01         0.00000E+00
    0.27360E-01        -0.34995E-01         0.00000E+00
    0.26811E-01        -0.34093E-01         0.00000E+00
    0.26253E-01        -0.33191E-01         0.00000E+00
    0.25688E-01        -0.32290E-01         0.00000E+00
    0.25114E-01        -0.31388E-01         0.00000E+00
    0.24533E-01        -0.30486E-01         0.00000E+00
    0.23944E-01        -0.29585E-01         0.00000E+00
    0.23347E-01        -0.28683E-01         0.00000E+00
    0.22742E-01        -0.27782E-01         0.00000E+00
    0.22130E-01        -0.26881E-01         0.00000E+00
    0.21509E-01        -0.25980E-01         0.00000E+00
    0.20881E-01        -0.25079E-01         0.00000E+00
    0.20244E-01        -0.24178E-01         0.00000E+00
    0.19600E-01        -0.23278E-01         0.00000E+00
    0.18947E-01        -0.22377E-01         0.00000E+00
    0.18287E-01        -0.21477E-01         0.00000E+00
    0.17619E-01        -0.20577E-01         0.00000E+00
    0.16943E-01        -0.19678E-01         0.00000E+00
    0.16258E-01        -0.18778E-01         0.00000E+00
    0.15566E-01        -0.17879E-01         0.00000E+00
    0.14866E-01        -0.16981E-01         0.00000E+00
    0.14157E-01        -0.16082E-01         0.00000E+00
    0.13441E-01        -0.15184E-01         0.00000E+00
    0.12716E-01        -0.14286E-01         0.00000E+00
    0.11984E-01        -0.13389E-01         0.00000E+00
    0.11243E-01        -0.12492E-01         0.00000E+00
    0.10494E-01        -0.11596E-01         0.00000E+00
    0.97368E-02        -0.10700E-01         0.00000E+00
    0.89713E-02        -0.98046E-02         0.00000E+00
    0.81976E-02        -0.89098E-02         0.00000E+00
    0.74156E-02        -0.80155E-02         0.00000E+00
    0.66253E-02        -0.71220E-02         0.00000E+00
    0.58267E-02        -0.62290E-02         0.00000E+00
    0.50197E-02        -0.53368E-02         0.00000E+00
    0.42043E-02        -0.44453E-02         0.00000E+00
    0.33804E-02        -0.35545E-02         0.00000E+00
    0.25481E-02        -0.26646E-02         0.00000E+00
    0.17073E-02        -0.17755E-02         0.00000E+00
    0.85792E-03        -0.88728E-03         0.00000E+00
    0.00000E+00         0.00000E+00         0.00000E+00
    0.33351E-01        -0.47237E-01         0.00000E+00
    0.32877E-01        -0.46290E-01         0.00000E+00
    0.32395E-01        -0.45342E-01         0.00000E+00
    0.31906E-01        -0.44395E-01         0.00000E+00
    0.31408E-01        -0.43447E-01         0.00000E+00
    0.30903E-01        -0.42499E-01         0.00000E+00
    0.30390E-01        -0.41552E-01         0.00000E+00
    0.29869E-01        -0.40604E-01         0.00000E+00
    0.29341E-01        -0.39657E-01         0.00000E+00
    0.28804E-01        -0.38709E-01         0.00000E+00
    0.28260E-01        -0.37762E-01         0.00000E+00
    0.27708E-01        -0.36814E-01         0.00000E+00
    0.27149E-01        -0.35866E-01         0.00000E+00
    0.26581E-01        -0.34919E-01         0.00000E+00
    0.26006E-01        -0.33971E-01         0.00000E+00
    0.25423E-01        -0.33024E-01         0.00000E+00
    0.24832E-01        -0.32077E-01         0.00000E+00
    0.24234E-01        -0.31129E-01         0.00000E+00
    0.23628E-01        -0.30182E-01         0.00000E+00
    0.23014E-01        -0.29235E-01         0.00000E+00
    0.22392E-01        -0.28288E-01         0.00000E+00
    0.21762E-01        -0.27340E-01         0.00000E+00
    0.21125E-01        -0.26394E-01         0.00000E+00
    0.20479E-01        -0.25447E-01         0.00000E+00
    0.19826E-01        -0.24500E-01         0.00000E+00
    0.19165E-01        -0.23553E-01         0.00000E+00
    0.18496E-01        -0.22607E-01         0.00000E+00
    0.17819E-01        -0.21661E-01         0.00000E+00
    0.17134E-01        -0.20715E-01         0.00000E+00
    0.16442E-01        -0.19769E-01         0.00000E+00
    0.15741E-01        -0.18823E-01         0.00000E+00
    0.15032E-01        -0.17878E-01         0.00000E+00
    0.14315E-01        -0.16933E-01         0.00000E+00
    0.13590E-01        -0.15988E-01         0.00000E+00
    0.12857E-01        -0.15043E-01         0.00000E+00
    0.12116E-01        -0.14099E-01         0.00000E+00
    0.11367E-01        -0.13156E-01         0.00000E+00
    0.10609E-01        -0.12212E-01         0.00000E+00
    0.98434E-02        -0.11269E-01         0.00000E+00
    0.90694E-02        -0.10327E-01         0.00000E+00
    0.82871E-02        -0.93849E-02         0.00000E+00
    0.74965E-02        -0.84435E-02         0.00000E+00
    0.66975E-02        -0.75026E-02         0.00000E+00
    0.58901E-02        -0.65623E-02         0.00000E+00
    0.50743E-02        -0.56227E-02         0.00000E+00
    0.42500E-02        -0.46837E-02         0.00000E+00
    0.34172E-02        -0.37454E-02         0.00000E+00
    0.25758E-02        -0.28078E-02         0.00000E+00
    0.17259E-02        -0.18710E-02         0.00000E+00
    0.86728E-03        -0.93509E-03         0.00000E+00
    0.00000E+00         0.00000E+00         0.00000E+00
    0.33801E-01        -0.49616E-01         0.00000E+00
    0.33315E-01        -0.48622E-01         0.00000E+00
    0.32822E-01        -0.47628E-01         0.00000E+00
    0.32321E-01        -0.46634E-01         0.00000E+00
    0.31812E-01        -0.45640E-01         0.00000E+00
    0.31296E-01        -0.44646E-01         0.00000E+00
    0.30772E-01        -0.43652E-01         0.00000E+00
    0.30241E-01        -0.42657E-01         0.00000E+00
    0.29702E-01        -0.41663E-01         0.00000E+00
    0.29155E-01        -0.40669E-01         0.00000E+00
    0.28601E-01        -0.39675E-01         0.00000E+00
    0.28039E-01        -0.38680E-01         0.00000E+00
    0.27469E-01        -0.37686E-01         0.00000E+00
    0.26892E-01        -0.36692E-01         0.00000E+00
    0.26307E-01        -0.35698E-01         0.00000E+00
    0.25715E-01        -0.34703E-01         0.00000E+00
    0.25115E-01        -0.33709E-01         0.00000E+00
    0.24507E-01        -0.32715E-01         0.00000E+00
    0.23892E-01        -0.31720E-01         0.00000E+00
    0.23269E-01        -0.30726E-01         0.00000E+00
    0.22638E-01        -0.29732E-01         0.00000E+00
    0.21999E-01        -0.28738E-01         0.00000E+00
    0.21353E-01        -0.27743E-01         0.00000E+00
    0.20699E-01        -0.26749E-01         0.00000E+00
    0.20038E-01        -0.25755E-01         0.00000E+00
    0.19368E-01        -0.24761E-01         0.00000E+00
    0.18691E-01        -0.23767E-01         0.00000E+00
    0.18006E-01        -0.22774E-01         0.00000E+00
    0.17313E-01        -0.21780E-01         0.00000E+00
    0.16612E-01        -0.20787E-01         0.00000E+00
    0.15903E-01        -0.19793E-01         0.00000E+00
    0.15186E-01        -0.18800E-01         0.00000E+00
    0.14461E-01        -0.17807E-01         0.00000E+00
    0.13728E-01        -0.16814E-01         0.00000E+00
    0.12987E-01        -0.15822E-01         0.00000E+00
    0.12238E-01        -0.14830E-01         0.00000E+00
    0.11481E-01        -0.13838E-01         0.00000E+00
    0.10716E-01        -0.12846E-01         0.00000E+00
    0.99420E-02        -0.11855E-01         0.00000E+00
    0.91601E-02        -0.10864E-01         0.00000E+00
    0.83698E-02        -0.98739E-02         0.00000E+00
    0.75712E-02        -0.88839E-02         0.00000E+00
    0.67642E-02        -0.78944E-02         0.00000E+00
    0.59488E-02        -0.69054E-02         0.00000E+00
    0.51248E-02        -0.59170E-02         0.00000E+00
    0.42923E-02        -0.49291E-02         0.00000E+00
    0.34512E-02        -0.39419E-02         0.00000E+00
    0.26015E-02        -0.29553E-02         0.00000E+00
    0.17431E-02        -0.19695E-02         0.00000E+00
    0.87593E-03        -0.98434E-03         0.00000E+00
    0.00000E+00         0.00000E+00         0.00000E+00
    0.34230E-01        -0.52056E-01         0.00000E+00
    0.33732E-01        -0.51014E-01         0.00000E+00
    0.33227E-01        -0.49972E-01         0.00000E+00
    0.32715E-01        -0.48931E-01         0.00000E+00
    0.32195E-01        -0.47889E-01         0.00000E+00
    0.31667E-01        -0.46847E-01         0.00000E+00
    0.31132E-01        -0.45805E-01         0.00000E+00
    0.30590E-01        -0.44763E-01         0.00000E+00
    0.30040E-01        -0.43721E-01         0.00000E+00
    0.29483E-01        -0.42680E-01         0.00000E+00
    0.28919E-01        -0.41638E-01         0.00000E+00
    0.28347E-01        -0.40596E-01         0.00000E+00
    0.27768E-01        -0.39553E-01         0.00000E+00
    0.27181E-01        -0.38511E-01         0.00000E+00
    0.26587E-01        -0.37469E-01         0.00000E+00
    0.25985E-01        -0.36427E-01         0.00000E+00
    0.25376E-01        -0.35385E-01         0.00000E+00
    0.24759E-01        -0.34342E-01         0.00000E+00
    0.24135E-01        -0.33300E-01         0.00000E+00
    0.23503E-01        -0.32257E-01         0.00000E+00
    0.22864E-01        -0.31215E-01         0.00000E+00
    0.22217E-01        -0.30172E-01         0.00000E+00
    0.21563E-01        -0.29130E-01         0.00000E+00
    0.20901E-01        -0.28087E-01         0.00000E+00
    0.20231E-01        -0.27045E-01         0.00000E+00
    0.19554E-01        -0.26002E-01         0.00000E+00
    0.18869E-01        -0.24960E-01         0.00000E+00
    0.18176E-01        -0.23917E-01         0.00000E+00
    0.17475E-01        -0.22875E-01         0.00000E+00
    0.16767E-01        -0.21833E-01         0.00000E+00
    0.16050E-01        -0.20790E-01         0.00000E+00
    0.15326E-01        -0.19748E-01         0.00000E+00
    0.14594E-01        -0.18706E-01         0.00000E+00
    0.13854E-01        -0.17664E-01         0.00000E+00
    0.13105E-01        -0.16622E-01         0.00000E+00
    0.12349E-01        -0.15581E-01         0.00000E+00
    0.11585E-01        -0.14540E-01         0.00000E+00
    0.10812E-01        -0.13499E-01         0.00000E+00
    0.10031E-01        -0.12458E-01         0.00000E+00
    0.92419E-02        -0.11417E-01         0.00000E+00
    0.84444E-02        -0.10377E-01         0.00000E+00
    0.76386E-02        -0.93371E-02         0.00000E+00
    0.68243E-02        -0.82976E-02         0.00000E+00
    0.60016E-02        -0.72586E-02         0.00000E+00
    0.51703E-02        -0.62200E-02         0.00000E+00
    0.43304E-02        -0.51818E-02         0.00000E+00
    0.34819E-02        -0.41443E-02         0.00000E+00
    0.26246E-02        -0.31072E-02         0.00000E+00
    0.17586E-02        -0.20708E-02         0.00000E+00
    0.88374E-03        -0.10351E-02         0.00000E+00
    0.00000E+00         0.00000E+00         0.00000E+00
    0.34632E-01        -0.54556E-01         0.00000E+00
    0.34122E-01        -0.53466E-01         0.00000E+00
    0.33605E-01        -0.52375E-01         0.00000E+00
    0.33081E-01        -0.51285E-01         0.00000E+00
    0.32549E-01        -0.50195E-01         0.00000E+00
    0.32011E-01        -0.49104E-01         0.00000E+00
    0.31465E-01        -0.48014E-01         0.00000E+00
    0.30912E-01        -0.46923E-01         0.00000E+00
    0.30352E-01        -0.45833E-01         0.00000E+00
    0.29784E-01        -0.44742E-01         0.00000E+00
    0.29210E-01        -0.43651E-01         0.00000E+00
    0.28628E-01        -0.42560E-01         0.00000E+00
    0.28039E-01        -0.41469E-01         0.00000E+00
    0.27443E-01        -0.40378E-01         0.00000E+00
    0.26840E-01        -0.39287E-01         0.00000E+00
    0.26229E-01        -0.38196E-01         0.00000E+00
    0.25611E-01        -0.37104E-01         0.00000E+00
    0.24986E-01        -0.36013E-01         0.00000E+00
    0.24353E-01        -0.34921E-01         0.00000E+00
    0.23713E-01        -0.33829E-01         0.00000E+00
    0.23066E-01        -0.32738E-01         0.00000E+00
    0.22412E-01        -0.31646E-01         0.00000E+00
    0.21749E-01        -0.30554E-01         0.00000E+00
    0.21080E-01        -0.29461E-01         0.00000E+00
    0.20403E-01        -0.28369E-01         0.00000E+00
    0.19718E-01        -0.27277E-01         0.00000E+00
    0.19026E-01        -0.26185E-01         0.00000E+00
    0.18326E-01        -0.25092E-01         0.00000E+00
    0.17618E-01        -0.24000E-01         0.00000E+00
    0.16903E-01        -0.22908E-01         0.00000E+00
    0.16180E-01        -0.21815E-01         0.00000E+00
    0.15449E-01        -0.20723E-01         0.00000E+00
    0.14710E-01        -0.19630E-01         0.00000E+00
    0.13963E-01        -0.18538E-01         0.00000E+00
    0.13208E-01        -0.17446E-01         0.00000E+00
    0.12446E-01        -0.16353E-01         0.00000E+00
    0.11675E-01        -0.15261E-01         0.00000E+00
    0.10896E-01        -0.14169E-01         0.00000E+00
    0.10109E-01        -0.13078E-01         0.00000E+00
    0.93132E-02        -0.11986E-01         0.00000E+00
    0.85094E-02        -0.10895E-01         0.00000E+00
    0.76973E-02        -0.98035E-02         0.00000E+00
    0.68767E-02        -0.87126E-02         0.00000E+00
    0.60476E-02        -0.76221E-02         0.00000E+00
    0.52099E-02        -0.65319E-02         0.00000E+00
    0.43635E-02        -0.54420E-02         0.00000E+00
    0.35085E-02        -0.43526E-02         0.00000E+00
    0.26447E-02        -0.32637E-02         0.00000E+00
    0.17721E-02        -0.21752E-02         0.00000E+00
    0.89053E-03        -0.10873E-02         0.00000E+00
    0.00000E+00         0.00000E+00         0.00000E+00
    0.35001E-01        -0.57119E-01         0.00000E+00
    0.34479E-01        -0.55979E-01         0.00000E+00
    0.33950E-01        -0.54839E-01         0.00000E+00
    0.33414E-01        -0.53699E-01         0.00000E+00
    0.32871E-01        -0.52558E-01         0.00000E+00
    0.32321E-01        -0.51418E-01         0.00000E+00
    0.31764E-01        -0.50278E-01         0.00000E+00
    0.31201E-01        -0.49138E-01         0.00000E+00
    0.30630E-01        -0.47997E-01         0.00000E+00
    0.30053E-01        -0.46857E-01         0.00000E+00
    0.29468E-01        -0.45716E-01         0.00000E+00
    0.28877E-01        -0.44575E-01         0.00000E+00
    0.28279E-01        -0.43434E-01         0.00000E+00
    0.27674E-01        -0.42293E-01         0.00000E+00
    0.27062E-01        -0.41152E-01         0.00000E+00
    0.26442E-01        -0.40011E-01         0.00000E+00
    0.25816E-01        -0.38869E-01         0.00000E+00
    0.25183E-01        -0.37727E-01         0.00000E+00
    0.24542E-01        -0.36585E-01         0.00000E+00
    0.23895E-01        -0.35443E-01         0.00000E+00
    0.23240E-01        -0.34301E-01         0.00000E+00
    0.22578E-01        -0.33158E-01         0.00000E+00
    0.21909E-01        -0.32015E-01         0.00000E+00
    0.21232E-01        -0.30873E-01         0.00000E+00
    0.20549E-01        -0.29730E-01         0.00000E+00
    0.19857E-01        -0.28586E-01         0.00000E+00
    0.19159E-01        -0.27443E-01         0.00000E+00
    0.18452E-01        -0.26300E-01         0.00000E+00
    0.17739E-01        -0.25156E-01         0.00000E+00
    0.17017E-01        -0.24012E-01         0.00000E+00
    0.16288E-01        -0.22868E-01         0.00000E+00
    0.15551E-01        -0.21724E-01         0.00000E+00
    0.14807E-01        -0.20580E-01         0.00000E+00
    0.14055E-01        -0.19436E-01         0.00000E+00
    0.13294E-01        -0.18292E-01         0.00000E+00
    0.12526E-01        -0.17148E-01         0.00000E+00
    0.11750E-01        -0.16004E-01         0.00000E+00
    0.10965E-01        -0.14859E-01         0.00000E+00
    0.10173E-01        -0.13715E-01         0.00000E+00
    0.93722E-02        -0.12571E-01         0.00000E+00
    0.85632E-02        -0.11427E-01         0.00000E+00
    0.77458E-02        -0.10283E-01         0.00000E+00
    0.69199E-02        -0.91397E-02         0.00000E+00
    0.60855E-02        -0.79962E-02         0.00000E+00
    0.52426E-02        -0.68529E-02         0.00000E+00
    0.43909E-02        -0.57099E-02         0.00000E+00
    0.35305E-02        -0.45672E-02         0.00000E+00
    0.26613E-02        -0.34248E-02         0.00000E+00
    0.17832E-02        -0.22828E-02         0.00000E+00
    0.89615E-03        -0.11411E-02         0.00000E+00
    0.00000E+00         0.00000E+00         0.00000E+00
    0.35331E-01        -0.59744E-01         0.00000E+00
    0.34796E-01        -0.58553E-01         0.00000E+00
    0.34255E-01        -0.57363E-01         0.00000E+00
    0.33707E-01        -0.56172E-01         0.00000E+00
    0.33153E-01        -0.54981E-01         0.00000E+00
    0.32592E-01        -0.53790E-01         0.00000E+00
    0.32024E-01        -0.52599E-01         0.00000E+00
    0.31450E-01        -0.51408E-01         0.00000E+00
    0.30870E-01        -0.50217E-01         0.00000E+00
    0.30282E-01        -0.49025E-01         0.00000E+00
    0.29689E-01        -0.47834E-01         0.00000E+00
    0.29088E-01        -0.46642E-01         0.00000E+00
    0.28481E-01        -0.45450E-01         0.00000E+00
    0.27867E-01        -0.44258E-01         0.00000E+00
    0.27247E-01        -0.43065E-01         0.00000E+00
    0.26620E-01        -0.41872E-01         0.00000E+00
    0.25986E-01        -0.40680E-01         0.00000E+00
    0.25345E-01        -0.39486E-01         0.00000E+00
    0.24697E-01        -0.38293E-01         0.00000E+00
    0.24043E-01        -0.37099E-01         0.00000E+00
    0.23381E-01        -0.35905E-01         0.00000E+00
    0.22713E-01        -0.34711E-01         0.00000E+00
    0.22037E-01        -0.33516E-01         0.00000E+00
    0.21354E-01        -0.32322E-01         0.00000E+00
    0.20665E-01        -0.31126E-01         0.00000E+00
    0.19968E-01        -0.29931E-01         0.00000E+00
    0.19263E-01        -0.28735E-01         0.00000E+00
    0.18552E-01        -0.27540E-01         0.00000E+00
    0.17833E-01        -0.26343E-01         0.00000E+00
    0.17106E-01        -0.25147E-01         0.00000E+00
    0.16372E-01        -0.23950E-01         0.00000E+00
    0.15631E-01        -0.22754E-01         0.00000E+00
    0.14882E-01        -0.21557E-01         0.00000E+00
    0.14125E-01        -0.20359E-01         0.00000E+00
    0.13360E-01        -0.19162E-01         0.00000E+00
    0.12588E-01        -0.17964E-01         0.00000E+00
    0.11807E-01        -0.16767E-01         0.00000E+00
    0.11018E-01        -0.15569E-01         0.00000E+00
    0.10222E-01        -0.14371E-01         0.00000E+00
    0.94170E-02        -0.13173E-01         0.00000E+00
    0.86039E-02        -0.11975E-01         0.00000E+00
    0.77825E-02        -0.10777E-01         0.00000E+00
    0.69526E-02        -0.95792E-02         0.00000E+00
    0.61143E-02        -0.83812E-02         0.00000E+00
    0.52673E-02        -0.71834E-02         0.00000E+00
    0.44116E-02        -0.59856E-02         0.00000E+00
    0.35472E-02        -0.47880E-02         0.00000E+00
    0.26739E-02        -0.35907E-02         0.00000E+00
    0.17917E-02        -0.23935E-02         0.00000E+00
    0.90041E-03        -0.11966E-02         0.00000E+00
    0.00000E+00         0.00000E+00         0.00000E+00
    0.35615E-01        -0.62433E-01         0.00000E+00
    0.35067E-01        -0.61191E-01         0.00000E+00
    0.34514E-01        -0.59948E-01         0.00000E+00
    0.33954E-01        -0.58706E-01         0.00000E+00
    0.33389E-01        -0.57463E-01         0.00000E+00
    0.32817E-01        -0.56221E-01         0.00000E+00
    0.32239E-01        -0.54978E-01         0.00000E+00
    0.31654E-01        -0.53735E-01         0.00000E+00
    0.31064E-01        -0.52491E-01         0.00000E+00
    0.30467E-01        -0.51248E-01         0.00000E+00
    0.29864E-01        -0.50004E-01         0.00000E+00
    0.29255E-01        -0.48761E-01         0.00000E+00
    0.28640E-01        -0.47516E-01         0.00000E+00
    0.28018E-01        -0.46272E-01         0.00000E+00
    0.27390E-01        -0.45027E-01         0.00000E+00
    0.26755E-01        -0.43782E-01         0.00000E+00
    0.26114E-01        -0.42537E-01         0.00000E+00
    0.25466E-01        -0.41291E-01         0.00000E+00
    0.24812E-01        -0.40045E-01         0.00000E+00
    0.24151E-01        -0.38798E-01         0.00000E+00
    0.23484E-01        -0.37552E-01         0.00000E+00
    0.22810E-01        -0.36304E-01         0.00000E+00
    0.22129E-01        -0.35057E-01         0.00000E+00
    0.21441E-01        -0.33809E-01         0.00000E+00
    0.20746E-01        -0.32560E-01         0.00000E+00
    0.20045E-01        -0.31312E-01         0.00000E+00
    0.19336E-01        -0.30063E-01         0.00000E+00
    0.18620E-01        -0.28813E-01         0.00000E+00
    0.17897E-01        -0.27563E-01         0.00000E+00
    0.17167E-01        -0.26313E-01         0.00000E+00
    0.16429E-01        -0.25062E-01         0.00000E+00
    0.15684E-01        -0.23811E-01         0.00000E+00
    0.14931E-01        -0.22560E-01         0.00000E+00
    0.14171E-01        -0.21308E-01         0.00000E+00
    0.13403E-01        -0.20056E-01         0.00000E+00
    0.12628E-01        -0.18804E-01         0.00000E+00
    0.11844E-01        -0.17551E-01         0.00000E+00
    0.11053E-01        -0.16299E-01         0.00000E+00
    0.10253E-01        -0.15045E-01         0.00000E+00
    0.94457E-02        -0.13792E-01         0.00000E+00
    0.86299E-02        -0.12539E-01         0.00000E+00
    0.78059E-02        -0.11285E-01         0.00000E+00
    0.69735E-02        -0.10031E-01         0.00000E+00
    0.61325E-02        -0.87774E-02         0.00000E+00
    0.52830E-02        -0.75234E-02         0.00000E+00
    0.44248E-02        -0.62694E-02         0.00000E+00
    0.35578E-02        -0.50154E-02         0.00000E+00
    0.26819E-02        -0.37614E-02         0.00000E+00
    0.17971E-02        -0.25075E-02         0.00000E+00
    0.90314E-03        -0.12537E-02         0.00000E+00
    0.00000E+00         0.00000E+00         0.00000E+00
    0.35844E-01        -0.65187E-01         0.00000E+00
    0.35284E-01        -0.63892E-01         0.00000E+00
    0.34719E-01        -0.62596E-01         0.00000E+00
    0.34148E-01        -0.61301E-01         0.00000E+00
    0.33571E-01        -0.60006E-01         0.00000E+00
    0.32988E-01        -0.58710E-01         0.00000E+00
    0.32400E-01        -0.57414E-01         0.00000E+00
    0.31805E-01        -0.56118E-01         0.00000E+00
    0.31206E-01        -0.54822E-01         0.00000E+00
    0.30600E-01        -0.53526E-01         0.00000E+00
    0.29988E-01        -0.52229E-01         0.00000E+00
    0.29371E-01        -0.50932E-01         0.00000E+00
    0.28748E-01        -0.49634E-01         0.00000E+00
    0.28119E-01        -0.48337E-01         0.00000E+00
    0.27483E-01        -0.47039E-01         0.00000E+00
    0.26842E-01        -0.45740E-01         0.00000E+00
    0.26195E-01        -0.44441E-01         0.00000E+00
    0.25541E-01        -0.43142E-01         0.00000E+00
    0.24882E-01        -0.41842E-01         0.00000E+00
    0.24216E-01        -0.40541E-01         0.00000E+00
    0.23543E-01        -0.39241E-01         0.00000E+00
    0.22864E-01        -0.37939E-01         0.00000E+00
    0.22179E-01        -0.36637E-01         0.00000E+00
    0.21487E-01        -0.35335E-01         0.00000E+00
    0.20789E-01        -0.34032E-01         0.00000E+00
    0.20084E-01        -0.32729E-01         0.00000E+00
    0.19372E-01        -0.31425E-01         0.00000E+00
    0.18653E-01        -0.30120E-01         0.00000E+00
    0.17927E-01        -0.28815E-01         0.00000E+00
    0.17194E-01        -0.27510E-01         0.00000E+00
    0.16454E-01        -0.26204E-01         0.00000E+00
    0.15707E-01        -0.24898E-01         0.00000E+00
    0.14952E-01        -0.23591E-01         0.00000E+00
    0.14190E-01        -0.22283E-01         0.00000E+00
    0.13420E-01        -0.20975E-01         0.00000E+00
    0.12643E-01        -0.19667E-01         0.00000E+00
    0.11858E-01        -0.18358E-01         0.00000E+00
    0.11065E-01        -0.17048E-01         0.00000E+00
    0.10265E-01        -0.15739E-01         0.00000E+00
    0.94560E-02        -0.14429E-01         0.00000E+00
    0.86392E-02        -0.13118E-01         0.00000E+00
    0.78142E-02        -0.11807E-01         0.00000E+00
    0.69808E-02        -0.10496E-01         0.00000E+00
    0.61389E-02        -0.91849E-02         0.00000E+00
    0.52885E-02        -0.78733E-02         0.00000E+00
    0.44294E-02        -0.65614E-02         0.00000E+00
    0.35616E-02        -0.52494E-02         0.00000E+00
    0.26848E-02        -0.39372E-02         0.00000E+00
    0.17990E-02        -0.26248E-02         0.00000E+00
    0.90413E-03        -0.13124E-02         0.00000E+00
    0.00000E+00         0.00000E+00         0.00000E+00
    0.36012E-01        -0.68004E-01         0.00000E+00
    0.35439E-01        -0.66655E-01         0.00000E+00
    0.34861E-01        -0.65306E-01         0.00000E+00
    0.34279E-01        -0.63957E-01         0.00000E+00
    0.33691E-01        -0.62608E-01         0.00000E+00
    0.33098E-01        -0.61259E-01         0.00000E+00
    0.32499E-01        -0.59909E-01         0.00000E+00
    0.31896E-01        -0.58559E-01         0.00000E+00
    0.31287E-01        -0.57209E-01         0.00000E+00
    0.30673E-01        -0.55858E-01         0.00000E+00
    0.30053E-01        -0.54507E-01         0.00000E+00
    0.29429E-01        -0.53156E-01         0.00000E+00
    0.28798E-01        -0.51804E-01         0.00000E+00
    0.28163E-01        -0.50452E-01         0.00000E+00
    0.27521E-01        -0.49100E-01         0.00000E+00
    0.26874E-01        -0.47747E-01         0.00000E+00
    0.26222E-01        -0.46393E-01         0.00000E+00
    0.25563E-01        -0.45039E-01         0.00000E+00
    0.24899E-01        -0.43684E-01         0.00000E+00
    0.24229E-01        -0.42328E-01         0.00000E+00
    0.23553E-01        -0.40972E-01         0.00000E+00
    0.22871E-01        -0.39616E-01         0.00000E+00
    0.22182E-01        -0.38259E-01         0.00000E+00
    0.21488E-01        -0.36901E-01         0.00000E+00
    0.20787E-01        -0.35542E-01         0.00000E+00
    0.20079E-01        -0.34183E-01         0.00000E+00
    0.19366E-01        -0.32823E-01         0.00000E+00
    0.18645E-01        -0.31462E-01         0.00000E+00
    0.17918E-01        -0.30101E-01         0.00000E+00
    0.17184E-01        -0.28739E-01         0.00000E+00
    0.16443E-01        -0.27376E-01         0.00000E+00
    0.15695E-01        -0.26013E-01         0.00000E+00
    0.14940E-01        -0.24649E-01         0.00000E+00
    0.14178E-01        -0.23284E-01         0.00000E+00
    0.13408E-01        -0.21919E-01         0.00000E+00
    0.12631E-01        -0.20553E-01         0.00000E+00
    0.11846E-01        -0.19186E-01         0.00000E+00
    0.11054E-01        -0.17819E-01         0.00000E+00
    0.10254E-01        -0.16451E-01         0.00000E+00
    0.94459E-02        -0.15083E-01         0.00000E+00
    0.86298E-02        -0.13714E-01         0.00000E+00
    0.78055E-02        -0.12344E-01         0.00000E+00
    0.69730E-02        -0.10974E-01         0.00000E+00
    0.61320E-02        -0.96040E-02         0.00000E+00
    0.52826E-02        -0.82330E-02         0.00000E+00
    0.44245E-02        -0.68617E-02         0.00000E+00
    0.35576E-02        -0.54900E-02         0.00000E+00
    0.26819E-02        -0.41179E-02         0.00000E+00
    0.17971E-02        -0.27456E-02         0.00000E+00
    0.90319E-03        -0.13729E-02         0.00000E+00
    0.00000E+00         0.00000E+00         0.00000E+00
    0.36107E-01        -0.70886E-01         0.00000E+00
    0.35522E-01        -0.69483E-01         0.00000E+00
    0.34932E-01        -0.68079E-01         0.00000E+00
    0.34338E-01        -0.66675E-01         0.00000E+00
    0.33740E-01        -0.65271E-01         0.00000E+00
    0.33137E-01        -0.63866E-01         0.00000E+00
    0.32529E-01        -0.62462E-01         0.00000E+00
    0.31917E-01        -0.61057E-01         0.00000E+00
    0.31300E-01        -0.59652E-01         0.00000E+00
    0.30678E-01        -0.58246E-01         0.00000E+00
    0.30051E-01        -0.56840E-01         0.00000E+00
    0.29420E-01        -0.55434E-01         0.00000E+00
    0.28783E-01        -0.54026E-01         0.00000E+00
    0.28142E-01        -0.52619E-01         0.00000E+00
    0.27496E-01        -0.51211E-01         0.00000E+00
    0.26844E-01        -0.49802E-01         0.00000E+00
    0.26187E-01        -0.48392E-01         0.00000E+00
    0.25525E-01        -0.46982E-01         0.00000E+00
    0.24858E-01        -0.45571E-01         0.00000E+00
    0.24185E-01        -0.44160E-01         0.00000E+00
    0.23507E-01        -0.42747E-01         0.00000E+00
    0.22822E-01        -0.41334E-01         0.00000E+00
    0.22132E-01        -0.39920E-01         0.00000E+00
    0.21437E-01        -0.38506E-01         0.00000E+00
    0.20735E-01        -0.37090E-01         0.00000E+00
    0.20027E-01        -0.35674E-01         0.00000E+00
    0.19313E-01        -0.34257E-01         0.00000E+00
    0.18593E-01        -0.32838E-01         0.00000E+00
    0.17866E-01        -0.31419E-01         0.00000E+00
    0.17133E-01        -0.30000E-01         0.00000E+00
    0.16393E-01        -0.28579E-01         0.00000E+00
    0.15646E-01        -0.27157E-01         0.00000E+00
    0.14892E-01        -0.25735E-01         0.00000E+00
    0.14131E-01        -0.24312E-01         0.00000E+00
    0.13364E-01        -0.22888E-01         0.00000E+00
    0.12589E-01        -0.21463E-01         0.00000E+00
    0.11806E-01        -0.20037E-01         0.00000E+00
    0.11016E-01        -0.18610E-01         0.00000E+00
    0.10218E-01        -0.17183E-01         0.00000E+00
    0.94129E-02        -0.15755E-01         0.00000E+00
    0.85995E-02        -0.14326E-01         0.00000E+00
    0.77781E-02        -0.12896E-01         0.00000E+00
    0.69484E-02        -0.11466E-01         0.00000E+00
    0.61104E-02        -0.10035E-01         0.00000E+00
    0.52640E-02        -0.86028E-02         0.00000E+00
    0.44090E-02        -0.71704E-02         0.00000E+00
    0.35452E-02        -0.57374E-02         0.00000E+00
    0.26726E-02        -0.43038E-02         0.00000E+00
    0.17909E-02        -0.28697E-02         0.00000E+00
    0.90011E-03        -0.14351E-02         0.00000E+00
    0.00000E+00         0.00000E+00         0.00000E+00
    0.36120E-01        -0.73832E-01         0.00000E+00
    0.35522E-01        -0.72372E-01         0.00000E+00
    0.34921E-01        -0.70913E-01         0.00000E+00
    0.34317E-01        -0.69453E-01         0.00000E+00
    0.33708E-01        -0.67993E-01         0.00000E+00
    0.33095E-01        -0.66533E-01         0.00000E+00
    0.32479E-01        -0.65073E-01         0.00000E+00
    0.31858E-01        -0.63612E-01         0.00000E+00
    0.31234E-01        -0.62151E-01         0.00000E+00
    0.30605E-01        -0.60689E-01         0.00000E+00
    0.29973E-01        -0.59227E-01         0.00000E+00
    0.29336E-01        -0.57764E-01         0.00000E+00
    0.28694E-01        -0.56300E-01         0.00000E+00
    0.28049E-01        -0.54836E-01         0.00000E+00
    0.27398E-01        -0.53371E-01         0.00000E+00
    0.26744E-01        -0.51906E-01         0.00000E+00
    0.26084E-01        -0.50440E-01         0.00000E+00
    0.25420E-01        -0.48972E-01         0.00000E+00
    0.24751E-01        -0.47504E-01         0.00000E+00
    0.24077E-01        -0.46035E-01         0.00000E+00
    0.23397E-01        -0.44566E-01         0.00000E+00
    0.22713E-01        -0.43095E-01         0.00000E+00
    0.22023E-01        -0.41623E-01         0.00000E+00
    0.21328E-01        -0.40150E-01         0.00000E+00
    0.20627E-01        -0.38677E-01         0.00000E+00
    0.19920E-01        -0.37202E-01         0.00000E+00
    0.19208E-01        -0.35726E-01         0.00000E+00
    0.18490E-01        -0.34249E-01         0.00000E+00
    0.17765E-01        -0.32771E-01         0.00000E+00
    0.17035E-01        -0.31292E-01         0.00000E+00
    0.16298E-01        -0.29812E-01         0.00000E+00
    0.15554E-01        -0.28331E-01         0.00000E+00
    0.14804E-01        -0.26849E-01         0.00000E+00
    0.14047E-01        -0.25366E-01         0.00000E+00
    0.13283E-01        -0.23882E-01         0.00000E+00
    0.12512E-01        -0.22396E-01         0.00000E+00
    0.11734E-01        -0.20910E-01         0.00000E+00
    0.10948E-01        -0.19422E-01         0.00000E+00
    0.10155E-01        -0.17934E-01         0.00000E+00
    0.93547E-02        -0.16444E-01         0.00000E+00
    0.85462E-02        -0.14954E-01         0.00000E+00
    0.77298E-02        -0.13463E-01         0.00000E+00
    0.69053E-02        -0.11970E-01         0.00000E+00
    0.60726E-02        -0.10477E-01         0.00000E+00
    0.52315E-02        -0.89826E-02         0.00000E+00
    0.43818E-02        -0.74875E-02         0.00000E+00
    0.35234E-02        -0.59915E-02         0.00000E+00
    0.26562E-02        -0.44948E-02         0.00000E+00
    0.17800E-02        -0.29973E-02         0.00000E+00
    0.89467E-03        -0.14990E-02         0.00000E+00
    0.00000E+00         0.00000E+00         0.00000E+00
    0.36039E-01        -0.76840E-01         0.00000E+00
    0.35429E-01        -0.75324E-01         0.00000E+00
    0.34817E-01        -0.73808E-01         0.00000E+00
    0.34202E-01        -0.72291E-01         0.00000E+00
    0.33584E-01        -0.70775E-01         0.00000E+00
    0.32963E-01        -0.69258E-01         0.00000E+00
    0.32338E-01        -0.67741E-01         0.00000E+00
    0.31711E-01        -0.66223E-01         0.00000E+00
    0.31080E-01        -0.64705E-01         0.00000E+00
    0.30445E-01        -0.63186E-01         0.00000E+00
    0.29808E-01        -0.61666E-01         0.00000E+00
    0.29166E-01        -0.60146E-01         0.00000E+00
    0.28522E-01        -0.58625E-01         0.00000E+00
    0.27873E-01        -0.57104E-01         0.00000E+00
    0.27220E-01        -0.55581E-01         0.00000E+00
    0.26564E-01        -0.54058E-01         0.00000E+00
    0.25903E-01        -0.52534E-01         0.00000E+00
    0.25239E-01        -0.51008E-01         0.00000E+00
    0.24570E-01        -0.49482E-01         0.00000E+00
    0.23896E-01        -0.47955E-01         0.00000E+00
    0.23218E-01        -0.46426E-01         0.00000E+00
    0.22535E-01        -0.44897E-01         0.00000E+00
    0.21847E-01        -0.43366E-01         0.00000E+00
    0.21155E-01        -0.41834E-01         0.00000E+00
    0.20457E-01        -0.40301E-01         0.00000E+00
    0.19754E-01        -0.38767E-01         0.00000E+00
    0.19045E-01        -0.37231E-01         0.00000E+00
    0.18331E-01        -0.35694E-01         0.00000E+00
    0.17611E-01        -0.34156E-01         0.00000E+00
    0.16885E-01        -0.32617E-01         0.00000E+00
    0.16153E-01        -0.31076E-01         0.00000E+00
    0.15415E-01        -0.29534E-01         0.00000E+00
    0.14671E-01        -0.27991E-01         0.00000E+00
    0.13920E-01        -0.26446E-01         0.00000E+00
    0.13162E-01        -0.24900E-01         0.00000E+00
    0.12398E-01        -0.23353E-01         0.00000E+00
    0.11627E-01        -0.21805E-01         0.00000E+00
    0.10848E-01        -0.20255E-01         0.00000E+00
    0.10062E-01        -0.18704E-01         0.00000E+00
    0.92687E-02        -0.17152E-01         0.00000E+00
    0.84677E-02        -0.15598E-01         0.00000E+00
    0.76588E-02        -0.14044E-01         0.00000E+00
    0.68420E-02        -0.12488E-01         0.00000E+00
    0.60170E-02        -0.10931E-01         0.00000E+00
    0.51837E-02        -0.93723E-02         0.00000E+00
    0.43419E-02        -0.78129E-02         0.00000E+00
    0.34915E-02        -0.62524E-02         0.00000E+00
    0.26322E-02        -0.46908E-02         0.00000E+00
    0.17640E-02        -0.31282E-02         0.00000E+00
    0.88666E-03        -0.15646E-02         0.00000E+00
    0.00000E+00         0.00000E+00         0.00000E+00
    0.35851E-01        -0.79910E-01         0.00000E+00
    0.35230E-01        -0.78336E-01         0.00000E+00
    0.34607E-01        -0.76762E-01         0.00000E+00
    0.33982E-01        -0.75188E-01         0.00000E+00
    0.33355E-01        -0.73614E-01         0.00000E+00
    0.32726E-01        -0.72039E-01         0.00000E+00
    0.32095E-01        -0.70464E-01         0.00000E+00
    0.31462E-01        -0.68889E-01         0.00000E+00
    0.30826E-01        -0.67312E-01         0.00000E+00
    0.30187E-01        -0.65736E-01         0.00000E+00
    0.29546E-01        -0.64158E-01         0.00000E+00
    0.28902E-01        -0.62580E-01         0.00000E+00
    0.28255E-01        -0.61001E-01         0.00000E+00
    0.27605E-01        -0.59420E-01         0.00000E+00
    0.26952E-01        -0.57839E-01         0.00000E+00
    0.26296E-01        -0.56257E-01         0.00000E+00
    0.25636E-01        -0.54674E-01         0.00000E+00
    0.24973E-01        -0.53089E-01         0.00000E+00
    0.24306E-01        -0.51504E-01         0.00000E+00
    0.23635E-01        -0.49917E-01         0.00000E+00
    0.22960E-01        -0.48329E-01         0.00000E+00
    0.22281E-01        -0.46739E-01         0.00000E+00
    0.21598E-01        -0.45148E-01         0.00000E+00
    0.20910E-01        -0.43556E-01         0.00000E+00
    0.20218E-01        -0.41962E-01         0.00000E+00
    0.19520E-01        -0.40367E-01         0.00000E+00
    0.18818E-01        -0.38771E-01         0.00000E+00
    0.18110E-01        -0.37173E-01         0.00000E+00
    0.17398E-01        -0.35573E-01         0.00000E+00
    0.16679E-01        -0.33972E-01         0.00000E+00
    0.15955E-01        -0.32369E-01         0.00000E+00
    0.15225E-01        -0.30765E-01         0.00000E+00
    0.14489E-01        -0.29160E-01         0.00000E+00
    0.13747E-01        -0.27552E-01         0.00000E+00
    0.12998E-01        -0.25943E-01         0.00000E+00
    0.12243E-01        -0.24333E-01         0.00000E+00
    0.11481E-01        -0.22721E-01         0.00000E+00
    0.10712E-01        -0.21108E-01         0.00000E+00
    0.99360E-02        -0.19493E-01         0.00000E+00
    0.91526E-02        -0.17876E-01         0.00000E+00
    0.83617E-02        -0.16258E-01         0.00000E+00
    0.75630E-02        -0.14639E-01         0.00000E+00
    0.67566E-02        -0.13018E-01         0.00000E+00
    0.59420E-02        -0.11395E-01         0.00000E+00
    0.51193E-02        -0.97716E-02         0.00000E+00
    0.42881E-02        -0.81464E-02         0.00000E+00
    0.34484E-02        -0.65197E-02         0.00000E+00
    0.25999E-02        -0.48918E-02         0.00000E+00
    0.17425E-02        -0.32625E-02         0.00000E+00
    0.87588E-03        -0.16319E-02         0.00000E+00
    0.00000E+00         0.00000E+00         0.00000E+00
    0.35541E-01        -0.83037E-01         0.00000E+00
    0.34909E-01        -0.81405E-01         0.00000E+00
    0.34277E-01        -0.79773E-01         0.00000E+00
    0.33644E-01        -0.78141E-01         0.00000E+00
    0.33009E-01        -0.76508E-01         0.00000E+00
    0.32374E-01        -0.74875E-01         0.00000E+00
    0.31737E-01        -0.73241E-01         0.00000E+00
    0.31099E-01        -0.71607E-01         0.00000E+00
    0.30459E-01        -0.69972E-01         0.00000E+00
    0.29818E-01        -0.68336E-01         0.00000E+00
    0.29175E-01        -0.66700E-01         0.00000E+00
    0.28530E-01        -0.65062E-01         0.00000E+00
    0.27883E-01        -0.63423E-01         0.00000E+00
    0.27234E-01        -0.61784E-01         0.00000E+00
    0.26583E-01        -0.60143E-01         0.00000E+00
    0.25929E-01        -0.58501E-01         0.00000E+00
    0.25273E-01        -0.56858E-01         0.00000E+00
    0.24613E-01        -0.55213E-01         0.00000E+00
    0.23951E-01        -0.53567E-01         0.00000E+00
    0.23285E-01        -0.51920E-01         0.00000E+00
    0.22616E-01        -0.50271E-01         0.00000E+00
    0.21943E-01        -0.48620E-01         0.00000E+00
    0.21267E-01        -0.46968E-01         0.00000E+00
    0.20587E-01        -0.45314E-01         0.00000E+00
    0.19902E-01        -0.43659E-01         0.00000E+00
    0.19214E-01        -0.42002E-01         0.00000E+00
    0.18520E-01        -0.40343E-01         0.00000E+00
    0.17822E-01        -0.38683E-01         0.00000E+00
    0.17119E-01        -0.37021E-01         0.00000E+00
    0.16411E-01        -0.35357E-01         0.00000E+00
    0.15698E-01        -0.33691E-01         0.00000E+00
    0.14979E-01        -0.32023E-01         0.00000E+00
    0.14254E-01        -0.30354E-01         0.00000E+00
    0.13523E-01        -0.28683E-01         0.00000E+00
    0.12787E-01        -0.27010E-01         0.00000E+00
    0.12044E-01        -0.25335E-01         0.00000E+00
    0.11294E-01        -0.23658E-01         0.00000E+00
    0.10538E-01        -0.21980E-01         0.00000E+00
    0.97742E-02        -0.20299E-01         0.00000E+00
    0.90037E-02        -0.18617E-01         0.00000E+00
    0.82258E-02        -0.16933E-01         0.00000E+00
    0.74405E-02        -0.15248E-01         0.00000E+00
    0.66473E-02        -0.13560E-01         0.00000E+00
    0.58463E-02        -0.11871E-01         0.00000E+00
    0.50371E-02        -0.10180E-01         0.00000E+00
    0.42195E-02        -0.84876E-02         0.00000E+00
    0.33935E-02        -0.67934E-02         0.00000E+00
    0.25587E-02        -0.50974E-02         0.00000E+00
    0.17149E-02        -0.33999E-02         0.00000E+00
    0.86212E-03        -0.17007E-02         0.00000E+00
    0.00000E+00         0.00000E+00         0.00000E+00
    0.35094E-01        -0.86220E-01         0.00000E+00
    0.34452E-01        -0.84529E-01         0.00000E+00
    0.33811E-01        -0.82837E-01         0.00000E+00
    0.33171E-01        -0.81146E-01         0.00000E+00
    0.32530E-01        -0.79454E-01         0.00000E+00
    0.31890E-01        -0.77761E-01         0.00000E+00
    0.31249E-01        -0.76068E-01         0.00000E+00
    0.30608E-01        -0.74374E-01         0.00000E+00
    0.29967E-01        -0.72680E-01         0.00000E+00
    0.29325E-01        -0.70984E-01         0.00000E+00
    0.28683E-01        -0.69288E-01         0.00000E+00
    0.28039E-01        -0.67590E-01         0.00000E+00
    0.27395E-01        -0.65891E-01         0.00000E+00
    0.26749E-01        -0.64191E-01         0.00000E+00
    0.26102E-01        -0.62490E-01         0.00000E+00
    0.25453E-01        -0.60787E-01         0.00000E+00
    0.24802E-01        -0.59083E-01         0.00000E+00
    0.24149E-01        -0.57377E-01         0.00000E+00
    0.23494E-01        -0.55670E-01         0.00000E+00
    0.22836E-01        -0.53961E-01         0.00000E+00
    0.22176E-01        -0.52250E-01         0.00000E+00
    0.21513E-01        -0.50538E-01         0.00000E+00
    0.20847E-01        -0.48823E-01         0.00000E+00
    0.20177E-01        -0.47107E-01         0.00000E+00
    0.19504E-01        -0.45389E-01         0.00000E+00
    0.18826E-01        -0.43669E-01         0.00000E+00
    0.18145E-01        -0.41947E-01         0.00000E+00
    0.17460E-01        -0.40223E-01         0.00000E+00
    0.16770E-01        -0.38497E-01         0.00000E+00
    0.16075E-01        -0.36769E-01         0.00000E+00
    0.15376E-01        -0.35039E-01         0.00000E+00
    0.14671E-01        -0.33307E-01         0.00000E+00
    0.13961E-01        -0.31573E-01         0.00000E+00
    0.13245E-01        -0.29836E-01         0.00000E+00
    0.12523E-01        -0.28098E-01         0.00000E+00
    0.11796E-01        -0.26357E-01         0.00000E+00
    0.11062E-01        -0.24614E-01         0.00000E+00
    0.10321E-01        -0.22870E-01         0.00000E+00
    0.95737E-02        -0.21123E-01         0.00000E+00
    0.88194E-02        -0.19374E-01         0.00000E+00
    0.80579E-02        -0.17623E-01         0.00000E+00
    0.72890E-02        -0.15869E-01         0.00000E+00
    0.65125E-02        -0.14114E-01         0.00000E+00
    0.57281E-02        -0.12357E-01         0.00000E+00
    0.49357E-02        -0.10597E-01         0.00000E+00
    0.41350E-02        -0.88361E-02         0.00000E+00
    0.33258E-02        -0.70728E-02         0.00000E+00
    0.25079E-02        -0.53075E-02         0.00000E+00
    0.16811E-02        -0.35402E-02         0.00000E+00
    0.84520E-03        -0.17711E-02         0.00000E+00
    0.00000E+00         0.00000E+00         0.00000E+00
    0.34491E-01        -0.89452E-01         0.00000E+00
    0.33841E-01        -0.87701E-01         0.00000E+00
    0.33193E-01        -0.85950E-01         0.00000E+00
    0.32546E-01        -0.84198E-01         0.00000E+00
    0.31902E-01        -0.82446E-01         0.00000E+00
    0.31258E-01        -0.80693E-01         0.00000E+00
    0.30616E-01        -0.78940E-01         0.00000E+00
    0.29974E-01        -0.77186E-01         0.00000E+00
    0.29334E-01        -0.75431E-01         0.00000E+00
    0.28694E-01        -0.73675E-01         0.00000E+00
    0.28054E-01        -0.71917E-01         0.00000E+00
    0.27415E-01        -0.70159E-01         0.00000E+00
    0.26776E-01        -0.68399E-01         0.00000E+00
    0.26136E-01        -0.66638E-01         0.00000E+00
    0.25496E-01        -0.64875E-01         0.00000E+00
    0.24855E-01        -0.63111E-01         0.00000E+00
    0.24213E-01        -0.61345E-01         0.00000E+00
    0.23570E-01        -0.59577E-01         0.00000E+00
    0.22926E-01        -0.57807E-01         0.00000E+00
    0.22279E-01        -0.56036E-01         0.00000E+00
    0.21631E-01        -0.54263E-01         0.00000E+00
    0.20981E-01        -0.52487E-01         0.00000E+00
    0.20328E-01        -0.50710E-01         0.00000E+00
    0.19672E-01        -0.48930E-01         0.00000E+00
    0.19013E-01        -0.47148E-01         0.00000E+00
    0.18351E-01        -0.45364E-01         0.00000E+00
    0.17686E-01        -0.43578E-01         0.00000E+00
    0.17017E-01        -0.41790E-01         0.00000E+00
    0.16343E-01        -0.39999E-01         0.00000E+00
    0.15666E-01        -0.38206E-01         0.00000E+00
    0.14984E-01        -0.36410E-01         0.00000E+00
    0.14297E-01        -0.34612E-01         0.00000E+00
    0.13605E-01        -0.32812E-01         0.00000E+00
    0.12907E-01        -0.31010E-01         0.00000E+00
    0.12204E-01        -0.29205E-01         0.00000E+00
    0.11496E-01        -0.27397E-01         0.00000E+00
    0.10781E-01        -0.25588E-01         0.00000E+00
    0.10060E-01        -0.23775E-01         0.00000E+00
    0.93319E-02        -0.21961E-01         0.00000E+00
    0.85974E-02        -0.20144E-01         0.00000E+00
    0.78557E-02        -0.18324E-01         0.00000E+00
    0.71068E-02        -0.16502E-01         0.00000E+00
    0.63504E-02        -0.14678E-01         0.00000E+00
    0.55862E-02        -0.12851E-01         0.00000E+00
    0.48139E-02        -0.11022E-01         0.00000E+00
    0.40335E-02        -0.91910E-02         0.00000E+00
    0.32446E-02        -0.73574E-02         0.00000E+00
    0.24470E-02        -0.55214E-02         0.00000E+00
    0.16405E-02        -0.36832E-02         0.00000E+00
    0.82493E-03        -0.18427E-02         0.00000E+00
    0.00000E+00         0.00000E+00         0.00000E+00
    0.33712E-01        -0.92727E-01         0.00000E+00
    0.33055E-01        -0.90915E-01         0.00000E+00
    0.32402E-01        -0.89103E-01         0.00000E+00
    0.31752E-01        -0.87291E-01         0.00000E+00
    0.31105E-01        -0.85478E-01         0.00000E+00
    0.30461E-01        -0.83664E-01         0.00000E+00
    0.29820E-01        -0.81850E-01         0.00000E+00
    0.29181E-01        -0.80035E-01         0.00000E+00
    0.28544E-01        -0.78219E-01         0.00000E+00
    0.27909E-01        -0.76401E-01         0.00000E+00
    0.27275E-01        -0.74582E-01         0.00000E+00
    0.26643E-01        -0.72762E-01         0.00000E+00
    0.26013E-01        -0.70941E-01         0.00000E+00
    0.25383E-01        -0.69118E-01         0.00000E+00
    0.24753E-01        -0.67293E-01         0.00000E+00
    0.24124E-01        -0.65466E-01         0.00000E+00
    0.23494E-01        -0.63637E-01         0.00000E+00
    0.22865E-01        -0.61807E-01         0.00000E+00
    0.22235E-01        -0.59974E-01         0.00000E+00
    0.21603E-01        -0.58139E-01         0.00000E+00
    0.20971E-01        -0.56303E-01         0.00000E+00
    0.20337E-01        -0.54463E-01         0.00000E+00
    0.19702E-01        -0.52622E-01         0.00000E+00
    0.19064E-01        -0.50778E-01         0.00000E+00
    0.18424E-01        -0.48932E-01         0.00000E+00
    0.17781E-01        -0.47083E-01         0.00000E+00
    0.17135E-01        -0.45232E-01         0.00000E+00
    0.16486E-01        -0.43378E-01         0.00000E+00
    0.15833E-01        -0.41521E-01         0.00000E+00
    0.15177E-01        -0.39662E-01         0.00000E+00
    0.14516E-01        -0.37801E-01         0.00000E+00
    0.13851E-01        -0.35936E-01         0.00000E+00
    0.13181E-01        -0.34069E-01         0.00000E+00
    0.12506E-01        -0.32200E-01         0.00000E+00
    0.11826E-01        -0.30327E-01         0.00000E+00
    0.11140E-01        -0.28452E-01         0.00000E+00
    0.10448E-01        -0.26574E-01         0.00000E+00
    0.97502E-02        -0.24694E-01         0.00000E+00
    0.90459E-02        -0.22811E-01         0.00000E+00
    0.83349E-02        -0.20925E-01         0.00000E+00
    0.76170E-02        -0.19036E-01         0.00000E+00
    0.68919E-02        -0.17144E-01         0.00000E+00
    0.61593E-02        -0.15250E-01         0.00000E+00
    0.54189E-02        -0.13353E-01         0.00000E+00
    0.46707E-02        -0.11453E-01         0.00000E+00
    0.39141E-02        -0.95511E-02         0.00000E+00
    0.31492E-02        -0.76461E-02         0.00000E+00
    0.23755E-02        -0.57385E-02         0.00000E+00
    0.15929E-02        -0.38283E-02         0.00000E+00
    0.80114E-03        -0.19154E-02         0.00000E+00
    0.00000E+00         0.00000E+00         0.00000E+00
    0.32735E-01        -0.96034E-01         0.00000E+00
    0.32074E-01        -0.94161E-01         0.00000E+00
    0.31418E-01        -0.92287E-01         0.00000E+00
    0.30767E-01        -0.90414E-01         0.00000E+00
    0.30121E-01        -0.88539E-01         0.00000E+00
    0.29480E-01        -0.86665E-01         0.00000E+00
    0.28842E-01        -0.84789E-01         0.00000E+00
    0.28209E-01        -0.82912E-01         0.00000E+00
    0.27579E-01        -0.81034E-01         0.00000E+00
    0.26953E-01        -0.79155E-01         0.00000E+00
    0.26329E-01        -0.77274E-01         0.00000E+00
    0.25708E-01        -0.75391E-01         0.00000E+00
    0.25090E-01        -0.73507E-01         0.00000E+00
    0.24473E-01        -0.71622E-01         0.00000E+00
    0.23859E-01        -0.69734E-01         0.00000E+00
    0.23245E-01        -0.67844E-01         0.00000E+00
    0.22633E-01        -0.65952E-01         0.00000E+00
    0.22021E-01        -0.64058E-01         0.00000E+00
    0.21409E-01        -0.62162E-01         0.00000E+00
    0.20797E-01        -0.60263E-01         0.00000E+00
    0.20185E-01        -0.58362E-01         0.00000E+00
    0.19572E-01        -0.56459E-01         0.00000E+00
    0.18958E-01        -0.54552E-01         0.00000E+00
    0.18343E-01        -0.52644E-01         0.00000E+00
    0.17726E-01        -0.50732E-01         0.00000E+00
    0.17107E-01        -0.48818E-01         0.00000E+00
    0.16485E-01        -0.46901E-01         0.00000E+00
    0.15860E-01        -0.44981E-01         0.00000E+00
    0.15233E-01        -0.43059E-01         0.00000E+00
    0.14602E-01        -0.41133E-01         0.00000E+00
    0.13967E-01        -0.39205E-01         0.00000E+00
    0.13328E-01        -0.37273E-01         0.00000E+00
    0.12684E-01        -0.35339E-01         0.00000E+00
    0.12036E-01        -0.33401E-01         0.00000E+00
    0.11383E-01        -0.31461E-01         0.00000E+00
    0.10724E-01        -0.29517E-01         0.00000E+00
    0.10060E-01        -0.27571E-01         0.00000E+00
    0.93895E-02        -0.25621E-01         0.00000E+00
    0.87128E-02        -0.23669E-01         0.00000E+00
    0.80296E-02        -0.21713E-01         0.00000E+00
    0.73395E-02        -0.19754E-01         0.00000E+00
    0.66422E-02        -0.17793E-01         0.00000E+00
    0.59375E-02        -0.15828E-01         0.00000E+00
    0.52251E-02        -0.13860E-01         0.00000E+00
    0.45047E-02        -0.11889E-01         0.00000E+00
    0.37760E-02        -0.99149E-02         0.00000E+00
    0.30388E-02        -0.79379E-02         0.00000E+00
    0.22929E-02        -0.59579E-02         0.00000E+00
    0.15379E-02        -0.39749E-02         0.00000E+00
    0.77369E-03        -0.19889E-02         0.00000E+00
    0.00000E+00         0.00000E+00         0.00000E+00
    0.31534E-01        -0.99360E-01         0.00000E+00
    0.30871E-01        -0.97425E-01         0.00000E+00
    0.30216E-01        -0.95490E-01         0.00000E+00
    0.29568E-01        -0.93555E-01         0.00000E+00
    0.28927E-01        -0.91618E-01         0.00000E+00
    0.28292E-01        -0.89681E-01         0.00000E+00
    0.27663E-01        -0.87744E-01         0.00000E+00
    0.27039E-01        -0.85804E-01         0.00000E+00
    0.26421E-01        -0.83864E-01         0.00000E+00
    0.25808E-01        -0.81922E-01         0.00000E+00
    0.25198E-01        -0.79979E-01         0.00000E+00
    0.24593E-01        -0.78034E-01         0.00000E+00
    0.23992E-01        -0.76087E-01         0.00000E+00
    0.23394E-01        -0.74138E-01         0.00000E+00
    0.22798E-01        -0.72187E-01         0.00000E+00
    0.22205E-01        -0.70233E-01         0.00000E+00
    0.21615E-01        -0.68278E-01         0.00000E+00
    0.21025E-01        -0.66320E-01         0.00000E+00
    0.20437E-01        -0.64359E-01         0.00000E+00
    0.19850E-01        -0.62396E-01         0.00000E+00
    0.19263E-01        -0.60430E-01         0.00000E+00
    0.18676E-01        -0.58462E-01         0.00000E+00
    0.18089E-01        -0.56491E-01         0.00000E+00
    0.17501E-01        -0.54517E-01         0.00000E+00
    0.16912E-01        -0.52540E-01         0.00000E+00
    0.16321E-01        -0.50560E-01         0.00000E+00
    0.15728E-01        -0.48577E-01         0.00000E+00
    0.15133E-01        -0.46591E-01         0.00000E+00
    0.14535E-01        -0.44601E-01         0.00000E+00
    0.13935E-01        -0.42609E-01         0.00000E+00
    0.13330E-01        -0.40613E-01         0.00000E+00
    0.12722E-01        -0.38615E-01         0.00000E+00
    0.12110E-01        -0.36612E-01         0.00000E+00
    0.11493E-01        -0.34607E-01         0.00000E+00
    0.10872E-01        -0.32598E-01         0.00000E+00
    0.10245E-01        -0.30586E-01         0.00000E+00
    0.96125E-02        -0.28571E-01         0.00000E+00
    0.89743E-02        -0.26552E-01         0.00000E+00
    0.83298E-02        -0.24530E-01         0.00000E+00
    0.76788E-02        -0.22505E-01         0.00000E+00
    0.70209E-02        -0.20476E-01         0.00000E+00
    0.63559E-02        -0.18443E-01         0.00000E+00
    0.56834E-02        -0.16408E-01         0.00000E+00
    0.50031E-02        -0.14369E-01         0.00000E+00
    0.43147E-02        -0.12326E-01         0.00000E+00
    0.36181E-02        -0.10280E-01         0.00000E+00
    0.29128E-02        -0.82308E-02         0.00000E+00
    0.21986E-02        -0.61781E-02         0.00000E+00
    0.14752E-02        -0.41221E-02         0.00000E+00
    0.74243E-03        -0.20627E-02         0.00000E+00
    0.00000E+00         0.00000E+00         0.00000E+00
    0.30081E-01        -0.10269E+00         0.00000E+00
    0.29422E-01        -0.10069E+00         0.00000E+00
    0.28772E-01        -0.98694E-01         0.00000E+00
    0.28131E-01        -0.96696E-01         0.00000E+00
    0.27499E-01        -0.94697E-01         0.00000E+00
    0.26875E-01        -0.92698E-01         0.00000E+00
    0.26259E-01        -0.90697E-01         0.00000E+00
    0.25651E-01        -0.88696E-01         0.00000E+00
    0.25049E-01        -0.86692E-01         0.00000E+00
    0.24454E-01        -0.84688E-01         0.00000E+00
    0.23864E-01        -0.82681E-01         0.00000E+00
    0.23281E-01        -0.80673E-01         0.00000E+00
    0.22702E-01        -0.78662E-01         0.00000E+00
    0.22127E-01        -0.76650E-01         0.00000E+00
    0.21557E-01        -0.74635E-01         0.00000E+00
    0.20990E-01        -0.72618E-01         0.00000E+00
    0.20427E-01        -0.70598E-01         0.00000E+00
    0.19865E-01        -0.68576E-01         0.00000E+00
    0.19306E-01        -0.66551E-01         0.00000E+00
    0.18749E-01        -0.64523E-01         0.00000E+00
    0.18193E-01        -0.62493E-01         0.00000E+00
    0.17638E-01        -0.60459E-01         0.00000E+00
    0.17083E-01        -0.58423E-01         0.00000E+00
    0.16527E-01        -0.56384E-01         0.00000E+00
    0.15972E-01        -0.54341E-01         0.00000E+00
    0.15415E-01        -0.52295E-01         0.00000E+00
    0.14857E-01        -0.50246E-01         0.00000E+00
    0.14296E-01        -0.48194E-01         0.00000E+00
    0.13734E-01        -0.46138E-01         0.00000E+00
    0.13169E-01        -0.44079E-01         0.00000E+00
    0.12600E-01        -0.42017E-01         0.00000E+00
    0.12028E-01        -0.39951E-01         0.00000E+00
    0.11453E-01        -0.37881E-01         0.00000E+00
    0.10872E-01        -0.35808E-01         0.00000E+00
    0.10288E-01        -0.33731E-01         0.00000E+00
    0.96977E-02        -0.31651E-01         0.00000E+00
    0.91023E-02        -0.29567E-01         0.00000E+00
    0.85010E-02        -0.27479E-01         0.00000E+00
    0.78936E-02        -0.25388E-01         0.00000E+00
    0.72796E-02        -0.23293E-01         0.00000E+00
    0.66587E-02        -0.21194E-01         0.00000E+00
    0.60306E-02        -0.19092E-01         0.00000E+00
    0.53949E-02        -0.16985E-01         0.00000E+00
    0.47514E-02        -0.14875E-01         0.00000E+00
    0.40996E-02        -0.12762E-01         0.00000E+00
    0.34393E-02        -0.10644E-01         0.00000E+00
    0.27702E-02        -0.85227E-02         0.00000E+00
    0.20920E-02        -0.63977E-02         0.00000E+00
    0.14044E-02        -0.42688E-02         0.00000E+00
    0.70718E-03        -0.21363E-02         0.00000E+00
    0.00000E+00         0.00000E+00         0.00000E+00
    0.28347E-01        -0.10600E+00         0.00000E+00
    0.27695E-01        -0.10394E+00         0.00000E+00
    0.27056E-01        -0.10188E+00         0.00000E+00
    0.26428E-01        -0.99815E-01         0.00000E+00
    0.25811E-01        -0.97754E-01         0.00000E+00
    0.25205E-01        -0.95691E-01         0.00000E+00
    0.24608E-01        -0.93628E-01         0.00000E+00
    0.24021E-01        -0.91563E-01         0.00000E+00
    0.23442E-01        -0.89497E-01         0.00000E+00
    0.22871E-01        -0.87429E-01         0.00000E+00
    0.22308E-01        -0.85359E-01         0.00000E+00
    0.21752E-01        -0.83287E-01         0.00000E+00
    0.21202E-01        -0.81213E-01         0.00000E+00
    0.20658E-01        -0.79137E-01         0.00000E+00
    0.20119E-01        -0.77058E-01         0.00000E+00
    0.19585E-01        -0.74977E-01         0.00000E+00
    0.19055E-01        -0.72893E-01         0.00000E+00
    0.18528E-01        -0.70807E-01         0.00000E+00
    0.18004E-01        -0.68717E-01         0.00000E+00
    0.17483E-01        -0.66625E-01         0.00000E+00
    0.16964E-01        -0.64530E-01         0.00000E+00
    0.16446E-01        -0.62432E-01         0.00000E+00
    0.15930E-01        -0.60331E-01         0.00000E+00
    0.15413E-01        -0.58226E-01         0.00000E+00
    0.14897E-01        -0.56118E-01         0.00000E+00
    0.14380E-01        -0.54007E-01         0.00000E+00
    0.13862E-01        -0.51893E-01         0.00000E+00
    0.13342E-01        -0.49775E-01         0.00000E+00
    0.12821E-01        -0.47653E-01         0.00000E+00
    0.12297E-01        -0.45528E-01         0.00000E+00
    0.11770E-01        -0.43400E-01         0.00000E+00
    0.11240E-01        -0.41267E-01         0.00000E+00
    0.10706E-01        -0.39131E-01         0.00000E+00
    0.10168E-01        -0.36991E-01         0.00000E+00
    0.96253E-02        -0.34848E-01         0.00000E+00
    0.90776E-02        -0.32700E-01         0.00000E+00
    0.85245E-02        -0.30548E-01         0.00000E+00
    0.79655E-02        -0.28393E-01         0.00000E+00
    0.74004E-02        -0.26233E-01         0.00000E+00
    0.68286E-02        -0.24070E-01         0.00000E+00
    0.62499E-02        -0.21902E-01         0.00000E+00
    0.56637E-02        -0.19731E-01         0.00000E+00
    0.50699E-02        -0.17555E-01         0.00000E+00
    0.44679E-02        -0.15375E-01         0.00000E+00
    0.38576E-02        -0.13191E-01         0.00000E+00
    0.32384E-02        -0.11003E-01         0.00000E+00
    0.26102E-02        -0.88108E-02         0.00000E+00
    0.19725E-02        -0.66143E-02         0.00000E+00
    0.13251E-02        -0.44137E-02         0.00000E+00
    0.66772E-03        -0.22089E-02         0.00000E+00
    0.00000E+00         0.00000E+00         0.00000E+00
    0.26297E-01        -0.10925E+00         0.00000E+00
    0.25661E-01        -0.10713E+00         0.00000E+00
    0.25039E-01        -0.10501E+00         0.00000E+00
    0.24432E-01        -0.10288E+00         0.00000E+00
    0.23837E-01        -0.10076E+00         0.00000E+00
    0.23256E-01        -0.98633E-01         0.00000E+00
    0.22686E-01        -0.96506E-01         0.00000E+00
    0.22127E-01        -0.94378E-01         0.00000E+00
    0.21579E-01        -0.92248E-01         0.00000E+00
    0.21040E-01        -0.90117E-01         0.00000E+00
    0.20510E-01        -0.87983E-01         0.00000E+00
    0.19989E-01        -0.85848E-01         0.00000E+00
    0.19475E-01        -0.83710E-01         0.00000E+00
    0.18969E-01        -0.81570E-01         0.00000E+00
    0.18469E-01        -0.79428E-01         0.00000E+00
    0.17974E-01        -0.77283E-01         0.00000E+00
    0.17485E-01        -0.75135E-01         0.00000E+00
    0.16999E-01        -0.72985E-01         0.00000E+00
    0.16518E-01        -0.70832E-01         0.00000E+00
    0.16040E-01        -0.68676E-01         0.00000E+00
    0.15565E-01        -0.66517E-01         0.00000E+00
    0.15091E-01        -0.64355E-01         0.00000E+00
    0.14619E-01        -0.62189E-01         0.00000E+00
    0.14148E-01        -0.60021E-01         0.00000E+00
    0.13677E-01        -0.57849E-01         0.00000E+00
    0.13206E-01        -0.55674E-01         0.00000E+00
    0.12735E-01        -0.53495E-01         0.00000E+00
    0.12262E-01        -0.51313E-01         0.00000E+00
    0.11788E-01        -0.49127E-01         0.00000E+00
    0.11311E-01        -0.46938E-01         0.00000E+00
    0.10832E-01        -0.44744E-01         0.00000E+00
    0.10349E-01        -0.42547E-01         0.00000E+00
    0.98633E-02        -0.40346E-01         0.00000E+00
    0.93731E-02        -0.38141E-01         0.00000E+00
    0.88784E-02        -0.35933E-01         0.00000E+00
    0.83788E-02        -0.33720E-01         0.00000E+00
    0.78737E-02        -0.31502E-01         0.00000E+00
    0.73627E-02        -0.29281E-01         0.00000E+00
    0.68454E-02        -0.27055E-01         0.00000E+00
    0.63214E-02        -0.24826E-01         0.00000E+00
    0.57903E-02        -0.22591E-01         0.00000E+00
    0.52516E-02        -0.20353E-01         0.00000E+00
    0.47050E-02        -0.18109E-01         0.00000E+00
    0.41500E-02        -0.15862E-01         0.00000E+00
    0.35863E-02        -0.13610E-01         0.00000E+00
    0.30134E-02        -0.11353E-01         0.00000E+00
    0.24311E-02        -0.90914E-02         0.00000E+00
    0.18389E-02        -0.68255E-02         0.00000E+00
    0.12366E-02        -0.45549E-02         0.00000E+00
    0.62371E-03        -0.22798E-02         0.00000E+00
    0.00000E+00         0.00000E+00         0.00000E+00
    0.23898E-01        -0.11242E+00         0.00000E+00
    0.23285E-01        -0.11023E+00         0.00000E+00
    0.22690E-01        -0.10805E+00         0.00000E+00
    0.22112E-01        -0.10586E+00         0.00000E+00
    0.21549E-01        -0.10367E+00         0.00000E+00
    0.21001E-01        -0.10148E+00         0.00000E+00
    0.20467E-01        -0.99294E-01         0.00000E+00
    0.19946E-01        -0.97102E-01         0.00000E+00
    0.19437E-01        -0.94909E-01         0.00000E+00
    0.18939E-01        -0.92714E-01         0.00000E+00
    0.18452E-01        -0.90517E-01         0.00000E+00
    0.17974E-01        -0.88319E-01         0.00000E+00
    0.17505E-01        -0.86118E-01         0.00000E+00
    0.17045E-01        -0.83914E-01         0.00000E+00
    0.16591E-01        -0.81709E-01         0.00000E+00
    0.16144E-01        -0.79501E-01         0.00000E+00
    0.15703E-01        -0.77290E-01         0.00000E+00
    0.15267E-01        -0.75077E-01         0.00000E+00
    0.14836E-01        -0.72861E-01         0.00000E+00
    0.14408E-01        -0.70642E-01         0.00000E+00
    0.13983E-01        -0.68420E-01         0.00000E+00
    0.13561E-01        -0.66195E-01         0.00000E+00
    0.13141E-01        -0.63968E-01         0.00000E+00
    0.12722E-01        -0.61737E-01         0.00000E+00
    0.12303E-01        -0.59503E-01         0.00000E+00
    0.11885E-01        -0.57266E-01         0.00000E+00
    0.11466E-01        -0.55025E-01         0.00000E+00
    0.11047E-01        -0.52781E-01         0.00000E+00
    0.10625E-01        -0.50533E-01         0.00000E+00
    0.10202E-01        -0.48282E-01         0.00000E+00
    0.97767E-02        -0.46027E-01         0.00000E+00
    0.93480E-02        -0.43768E-01         0.00000E+00
    0.89158E-02        -0.41505E-01         0.00000E+00
    0.84796E-02        -0.39238E-01         0.00000E+00
    0.80390E-02        -0.36967E-01         0.00000E+00
    0.75934E-02        -0.34692E-01         0.00000E+00
    0.71423E-02        -0.32412E-01         0.00000E+00
    0.66853E-02        -0.30128E-01         0.00000E+00
    0.62220E-02        -0.27840E-01         0.00000E+00
    0.57518E-02        -0.25547E-01         0.00000E+00
    0.52743E-02        -0.23249E-01         0.00000E+00
    0.47890E-02        -0.20947E-01         0.00000E+00
    0.42955E-02        -0.18639E-01         0.00000E+00
    0.37934E-02        -0.16327E-01         0.00000E+00
    0.32821E-02        -0.14010E-01         0.00000E+00
    0.27614E-02        -0.11688E-01         0.00000E+00
    0.22306E-02        -0.93603E-02         0.00000E+00
    0.16895E-02        -0.70279E-02         0.00000E+00
    0.11376E-02        -0.46904E-02         0.00000E+00
    0.57459E-03        -0.23478E-02         0.00000E+00
    0.00000E+00         0.00000E+00         0.00000E+00
    0.21110E-01        -0.11545E+00         0.00000E+00
    0.20533E-01        -0.11320E+00         0.00000E+00
    0.19976E-01        -0.11095E+00         0.00000E+00
    0.19438E-01        -0.10870E+00         0.00000E+00
    0.18918E-01        -0.10645E+00         0.00000E+00
    0.18415E-01        -0.10420E+00         0.00000E+00
    0.17928E-01        -0.10194E+00         0.00000E+00
    0.17455E-01        -0.99688E-01         0.00000E+00
    0.16996E-01        -0.97431E-01         0.00000E+00
    0.16550E-01        -0.95173E-01         0.00000E+00
    0.16115E-01        -0.92913E-01         0.00000E+00
    0.15691E-01        -0.90652E-01         0.00000E+00
    0.15277E-01        -0.88388E-01         0.00000E+00
    0.14871E-01        -0.86122E-01         0.00000E+00
    0.14474E-01        -0.83854E-01         0.00000E+00
    0.14083E-01        -0.81584E-01         0.00000E+00
    0.13699E-01        -0.79312E-01         0.00000E+00
    0.13320E-01        -0.77037E-01         0.00000E+00
    0.12946E-01        -0.74760E-01         0.00000E+00
    0.12576E-01        -0.72480E-01         0.00000E+00
    0.12209E-01        -0.70198E-01         0.00000E+00
    0.11845E-01        -0.67914E-01         0.00000E+00
    0.11483E-01        -0.65626E-01         0.00000E+00
    0.11123E-01        -0.63336E-01         0.00000E+00
    0.10763E-01        -0.61043E-01         0.00000E+00
    0.10404E-01        -0.58747E-01         0.00000E+00
    0.10045E-01        -0.56448E-01         0.00000E+00
    0.96842E-02        -0.54145E-01         0.00000E+00
    0.93226E-02        -0.51840E-01         0.00000E+00
    0.89591E-02        -0.49530E-01         0.00000E+00
    0.85932E-02        -0.47218E-01         0.00000E+00
    0.82244E-02        -0.44901E-01         0.00000E+00
    0.78523E-02        -0.42581E-01         0.00000E+00
    0.74762E-02        -0.40256E-01         0.00000E+00
    0.70958E-02        -0.37928E-01         0.00000E+00
    0.67105E-02        -0.35595E-01         0.00000E+00
    0.63198E-02        -0.33258E-01         0.00000E+00
    0.59232E-02        -0.30916E-01         0.00000E+00
    0.55202E-02        -0.28570E-01         0.00000E+00
    0.51103E-02        -0.26218E-01         0.00000E+00
    0.46930E-02        -0.23862E-01         0.00000E+00
    0.42678E-02        -0.21500E-01         0.00000E+00
    0.38342E-02        -0.19134E-01         0.00000E+00
    0.33915E-02        -0.16762E-01         0.00000E+00
    0.29395E-02        -0.14384E-01         0.00000E+00
    0.24774E-02        -0.12001E-01         0.00000E+00
    0.20049E-02        -0.96123E-02         0.00000E+00
    0.15214E-02        -0.72179E-02         0.00000E+00
    0.10264E-02        -0.48177E-02         0.00000E+00
    0.51940E-03        -0.24118E-02         0.00000E+00
    0.00000E+00         0.00000E+00         0.00000E+00
    0.17897E-01        -0.11828E+00         0.00000E+00
    0.17369E-01        -0.11596E+00         0.00000E+00
    0.16864E-01        -0.11365E+00         0.00000E+00
    0.16381E-01        -0.11134E+00         0.00000E+00
    0.15918E-01        -0.10902E+00         0.00000E+00
    0.15474E-01        -0.10671E+00         0.00000E+00
    0.15047E-01        -0.10439E+00         0.00000E+00
    0.14636E-01        -0.10207E+00         0.00000E+00
    0.14240E-01        -0.99752E-01         0.00000E+00
    0.13857E-01        -0.97431E-01         0.00000E+00
    0.13487E-01        -0.95109E-01         0.00000E+00
    0.13127E-01        -0.92786E-01         0.00000E+00
    0.12778E-01        -0.90460E-01         0.00000E+00
    0.12437E-01        -0.88134E-01         0.00000E+00
    0.12105E-01        -0.85805E-01         0.00000E+00
    0.11780E-01        -0.83475E-01         0.00000E+00
    0.11461E-01        -0.81144E-01         0.00000E+00
    0.11147E-01        -0.78810E-01         0.00000E+00
    0.10838E-01        -0.76475E-01         0.00000E+00
    0.10533E-01        -0.74138E-01         0.00000E+00
    0.10232E-01        -0.71800E-01         0.00000E+00
    0.99325E-02        -0.69459E-01         0.00000E+00
    0.96355E-02        -0.67116E-01         0.00000E+00
    0.93399E-02        -0.64771E-01         0.00000E+00
    0.90452E-02        -0.62423E-01         0.00000E+00
    0.87509E-02        -0.60073E-01         0.00000E+00
    0.84563E-02        -0.57721E-01         0.00000E+00
    0.81610E-02        -0.55365E-01         0.00000E+00
    0.78646E-02        -0.53007E-01         0.00000E+00
    0.75664E-02        -0.50646E-01         0.00000E+00
    0.72661E-02        -0.48282E-01         0.00000E+00
    0.69630E-02        -0.45914E-01         0.00000E+00
    0.66568E-02        -0.43542E-01         0.00000E+00
    0.63470E-02        -0.41167E-01         0.00000E+00
    0.60330E-02        -0.38787E-01         0.00000E+00
    0.57144E-02        -0.36403E-01         0.00000E+00
    0.53906E-02        -0.34015E-01         0.00000E+00
    0.50611E-02        -0.31622E-01         0.00000E+00
    0.47254E-02        -0.29225E-01         0.00000E+00
    0.43830E-02        -0.26822E-01         0.00000E+00
    0.40332E-02        -0.24413E-01         0.00000E+00
    0.36755E-02        -0.22000E-01         0.00000E+00
    0.33094E-02        -0.19580E-01         0.00000E+00
    0.29341E-02        -0.17155E-01         0.00000E+00
    0.25491E-02        -0.14723E-01         0.00000E+00
    0.21538E-02        -0.12286E-01         0.00000E+00
    0.17476E-02        -0.98416E-02         0.00000E+00
    0.13297E-02        -0.73911E-02         0.00000E+00
    0.89953E-03        -0.49341E-02         0.00000E+00
    0.45650E-03        -0.24704E-02         0.00000E+00
    0.00000E+00         0.00000E+00         0.00000E+00
    0.14216E-01        -0.12082E+00         0.00000E+00
    0.13757E-01        -0.11844E+00         0.00000E+00
    0.13324E-01        -0.11606E+00         0.00000E+00
    0.12914E-01        -0.11369E+00         0.00000E+00
    0.12526E-01        -0.11131E+00         0.00000E+00
    0.12158E-01        -0.10893E+00         0.00000E+00
    0.11808E-01        -0.10655E+00         0.00000E+00
    0.11475E-01        -0.10417E+00         0.00000E+00
    0.11157E-01        -0.10179E+00         0.00000E+00
    0.10851E-01        -0.99408E-01         0.00000E+00
    0.10558E-01        -0.97026E-01         0.00000E+00
    0.10275E-01        -0.94642E-01         0.00000E+00
    0.10002E-01        -0.92258E-01         0.00000E+00
    0.97367E-02        -0.89873E-01         0.00000E+00
    0.94788E-02        -0.87488E-01         0.00000E+00
    0.92274E-02        -0.85102E-01         0.00000E+00
    0.89815E-02        -0.82715E-01         0.00000E+00
    0.87403E-02        -0.80328E-01         0.00000E+00
    0.85033E-02        -0.77940E-01         0.00000E+00
    0.82697E-02        -0.75551E-01         0.00000E+00
    0.80390E-02        -0.73161E-01         0.00000E+00
    0.78105E-02        -0.70770E-01         0.00000E+00
    0.75837E-02        -0.68378E-01         0.00000E+00
    0.73582E-02        -0.65984E-01         0.00000E+00
    0.71333E-02        -0.63590E-01         0.00000E+00
    0.69088E-02        -0.61193E-01         0.00000E+00
    0.66840E-02        -0.58794E-01         0.00000E+00
    0.64587E-02        -0.56394E-01         0.00000E+00
    0.62322E-02        -0.53991E-01         0.00000E+00
    0.60044E-02        -0.51586E-01         0.00000E+00
    0.57746E-02        -0.49178E-01         0.00000E+00
    0.55425E-02        -0.46766E-01         0.00000E+00
    0.53076E-02        -0.44352E-01         0.00000E+00
    0.50696E-02        -0.41934E-01         0.00000E+00
    0.48279E-02        -0.39512E-01         0.00000E+00
    0.45822E-02        -0.37086E-01         0.00000E+00
    0.43318E-02        -0.34656E-01         0.00000E+00
    0.40764E-02        -0.32221E-01         0.00000E+00
    0.38153E-02        -0.29781E-01         0.00000E+00
    0.35480E-02        -0.27335E-01         0.00000E+00
    0.32739E-02        -0.24884E-01         0.00000E+00
    0.29924E-02        -0.22427E-01         0.00000E+00
    0.27028E-02        -0.19964E-01         0.00000E+00
    0.24043E-02        -0.17494E-01         0.00000E+00
    0.20963E-02        -0.15017E-01         0.00000E+00
    0.17778E-02        -0.12533E-01         0.00000E+00
    0.14481E-02        -0.10042E-01         0.00000E+00
    0.11063E-02        -0.75429E-02         0.00000E+00
    0.75167E-03        -0.50365E-02         0.00000E+00
    0.38323E-03        -0.25222E-02         0.00000E+00
    0.00000E+00         0.00000E+00         0.00000E+00
    0.10031E-01        -0.12296E+00         0.00000E+00
    0.96660E-02        -0.12052E+00         0.00000E+00
    0.93292E-02        -0.11808E+00         0.00000E+00
    0.90180E-02        -0.11564E+00         0.00000E+00
    0.87292E-02        -0.11320E+00         0.00000E+00
    0.84602E-02        -0.11076E+00         0.00000E+00
    0.82082E-02        -0.10832E+00         0.00000E+00
    0.79711E-02        -0.10588E+00         0.00000E+00
    0.77469E-02        -0.10344E+00         0.00000E+00
    0.75338E-02        -0.10100E+00         0.00000E+00
    0.73305E-02        -0.98558E-01         0.00000E+00
    0.71356E-02        -0.96119E-01         0.00000E+00
    0.69481E-02        -0.93681E-01         0.00000E+00
    0.67669E-02        -0.91245E-01         0.00000E+00
    0.65914E-02        -0.88809E-01         0.00000E+00
    0.64206E-02        -0.86374E-01         0.00000E+00
    0.62540E-02        -0.83941E-01         0.00000E+00
    0.60909E-02        -0.81507E-01         0.00000E+00
    0.59308E-02        -0.79075E-01         0.00000E+00
    0.57732E-02        -0.76643E-01         0.00000E+00
    0.56176E-02        -0.74211E-01         0.00000E+00
    0.54636E-02        -0.71780E-01         0.00000E+00
    0.53109E-02        -0.69348E-01         0.00000E+00
    0.51589E-02        -0.66916E-01         0.00000E+00
    0.50075E-02        -0.64483E-01         0.00000E+00
    0.48562E-02        -0.62050E-01         0.00000E+00
    0.47048E-02        -0.59616E-01         0.00000E+00
    0.45529E-02        -0.57180E-01         0.00000E+00
    0.44001E-02        -0.54743E-01         0.00000E+00
    0.42463E-02        -0.52303E-01         0.00000E+00
    0.40910E-02        -0.49862E-01         0.00000E+00
    0.39339E-02        -0.47418E-01         0.00000E+00
    0.37748E-02        -0.44971E-01         0.00000E+00
    0.36134E-02        -0.42521E-01         0.00000E+00
    0.34491E-02        -0.40068E-01         0.00000E+00
    0.32817E-02        -0.37611E-01         0.00000E+00
    0.31109E-02        -0.35149E-01         0.00000E+00
    0.29360E-02        -0.32683E-01         0.00000E+00
    0.27568E-02        -0.30212E-01         0.00000E+00
    0.25726E-02        -0.27735E-01         0.00000E+00
    0.23830E-02        -0.25252E-01         0.00000E+00
    0.21873E-02        -0.22763E-01         0.00000E+00
    0.19847E-02        -0.20267E-01         0.00000E+00
    0.17746E-02        -0.17764E-01         0.00000E+00
    0.15559E-02        -0.15253E-01         0.00000E+00
    0.13276E-02        -0.12734E-01         0.00000E+00
    0.10886E-02        -0.10206E-01         0.00000E+00
    0.83762E-03        -0.76684E-02         0.00000E+00
    0.57328E-03        -0.51218E-02         0.00000E+00
    0.29432E-03        -0.25656E-02         0.00000E+00
    0.00000E+00         0.00000E+00         0.00000E+00
    0.52968E-02        -0.12455E+00         0.00000E+00
    0.50688E-02        -0.12204E+00         0.00000E+00
    0.48713E-02        -0.11954E+00         0.00000E+00
    0.46964E-02        -0.11703E+00         0.00000E+00
    0.45390E-02        -0.11453E+00         0.00000E+00
    0.43953E-02        -0.11203E+00         0.00000E+00
    0.42629E-02        -0.10953E+00         0.00000E+00
    0.41396E-02        -0.10704E+00         0.00000E+00
    0.40240E-02        -0.10455E+00         0.00000E+00
    0.39149E-02        -0.10206E+00         0.00000E+00
    0.38112E-02        -0.99573E-01         0.00000E+00
    0.37122E-02        -0.97092E-01         0.00000E+00
    0.36173E-02        -0.94613E-01         0.00000E+00
    0.35257E-02        -0.92138E-01         0.00000E+00
    0.34372E-02        -0.89666E-01         0.00000E+00
    0.33511E-02        -0.87196E-01         0.00000E+00
    0.32673E-02        -0.84729E-01         0.00000E+00
    0.31852E-02        -0.82264E-01         0.00000E+00
    0.31048E-02        -0.79801E-01         0.00000E+00
    0.30256E-02        -0.77339E-01         0.00000E+00
    0.29474E-02        -0.74879E-01         0.00000E+00
    0.28701E-02        -0.72420E-01         0.00000E+00
    0.27934E-02        -0.69963E-01         0.00000E+00
    0.27171E-02        -0.67505E-01         0.00000E+00
    0.26410E-02        -0.65048E-01         0.00000E+00
    0.25650E-02        -0.62591E-01         0.00000E+00
    0.24889E-02        -0.60134E-01         0.00000E+00
    0.24125E-02        -0.57675E-01         0.00000E+00
    0.23357E-02        -0.55216E-01         0.00000E+00
    0.22582E-02        -0.52756E-01         0.00000E+00
    0.21800E-02        -0.50293E-01         0.00000E+00
    0.21008E-02        -0.47829E-01         0.00000E+00
    0.20205E-02        -0.45362E-01         0.00000E+00
    0.19389E-02        -0.42893E-01         0.00000E+00
    0.18559E-02        -0.40420E-01         0.00000E+00
    0.17711E-02        -0.37943E-01         0.00000E+00
    0.16844E-02        -0.35463E-01         0.00000E+00
    0.15955E-02        -0.32978E-01         0.00000E+00
    0.15041E-02        -0.30488E-01         0.00000E+00
    0.14100E-02        -0.27992E-01         0.00000E+00
    0.13128E-02        -0.25491E-01         0.00000E+00
    0.12120E-02        -0.22983E-01         0.00000E+00
    0.11072E-02        -0.20468E-01         0.00000E+00
    0.99768E-03        -0.17945E-01         0.00000E+00
    0.88281E-03        -0.15414E-01         0.00000E+00
    0.76163E-03        -0.12873E-01         0.00000E+00
    0.63294E-03        -0.10322E-01         0.00000E+00
    0.49514E-03        -0.77609E-02         0.00000E+00
    0.34606E-03        -0.51873E-02         0.00000E+00
    0.18257E-03        -0.26007E-02         0.00000E+00
    0.00000E+00         0.00000E+00         0.00000E+00
    0.00000E+00        -0.12524E+00         0.00000E+00
    0.00000E+00        -0.12268E+00         0.00000E+00
    0.00000E+00        -0.12012E+00         0.00000E+00
    0.00000E+00        -0.11758E+00         0.00000E+00
    0.00000E+00        -0.11504E+00         0.00000E+00
    0.00000E+00        -0.11251E+00         0.00000E+00
    0.00000E+00        -0.10998E+00         0.00000E+00
    0.00000E+00        -0.10746E+00         0.00000E+00
    0.00000E+00        -0.10495E+00         0.00000E+00
    0.00000E+00        -0.10244E+00         0.00000E+00
    0.00000E+00        -0.99934E-01         0.00000E+00
    0.00000E+00        -0.97435E-01         0.00000E+00
    0.00000E+00        -0.94941E-01         0.00000E+00
    0.00000E+00        -0.92451E-01         0.00000E+00
    0.00000E+00        -0.89964E-01         0.00000E+00
    0.00000E+00        -0.87482E-01         0.00000E+00
    0.00000E+00        -0.85002E-01         0.00000E+00
    0.00000E+00        -0.82525E-01         0.00000E+00
    0.00000E+00        -0.80051E-01         0.00000E+00
    0.00000E+00        -0.77579E-01         0.00000E+00
    0.00000E+00        -0.75109E-01         0.00000E+00
    0.00000E+00        -0.72641E-01         0.00000E+00
    0.00000E+00        -0.70174E-01         0.00000E+00
    0.00000E+00        -0.67707E-01         0.00000E+00
    0.00000E+00        -0.65242E-01         0.00000E+00
    0.00000E+00        -0.62776E-01         0.00000E+00
    0.00000E+00        -0.60311E-01         0.00000E+00
    0.00000E+00        -0.57845E-01         0.00000E+00
    0.00000E+00        -0.55378E-01         0.00000E+00
    0.00000E+00        -0.52910E-01         0.00000E+00
    0.00000E+00        -0.50441E-01         0.00000E+00
    0.00000E+00        -0.47970E-01         0.00000E+00
    0.00000E+00        -0.45496E-01         0.00000E+00
    0.00000E+00        -0.43020E-01         0.00000E+00
    0.00000E+00        -0.40541E-01         0.00000E+00
    0.00000E+00        -0.38058E-01         0.00000E+00
    0.00000E+00        -0.35571E-01         0.00000E+00
    0.00000E+00        -0.33080E-01         0.00000E+00
    0.00000E+00        -0.30584E-01         0.00000E+00
    0.00000E+00        -0.28082E-01         0.00000E+00
    0.00000E+00        -0.25575E-01         0.00000E+00
    0.00000E+00        -0.23061E-01         0.00000E+00
    0.00000E+00        -0.20540E-01         0.00000E+00
    0.00000E+00        -0.18010E-01         0.00000E+00
    0.00000E+00        -0.15473E-01         0.00000E+00
    0.00000E+00        -0.12925E-01         0.00000E+00
    0.00000E+00        -0.10367E-01         0.00000E+00
    0.00000E+00        -0.77977E-02         0.00000E+00
    0.00000E+00        -0.52147E-02         0.00000E+00
    0.00000E+00        -0.26164E-02         0.00000E+00
    0.00000E+00         0.00000E+00         0.00000E+00
CELL_DATA       5000
VECTORS vDarcy double 
    0.51545E-07        -0.48026E-11         0.00000E+00
    0.51549E-07        -0.12952E-10         0.00000E+00
    0.51555E-07        -0.19345E-10         0.00000E+00
    0.51564E-07        -0.24399E-10         0.00000E+00
    0.51574E-07        -0.28414E-10         0.00000E+00
    0.51586E-07        -0.31609E-10         0.00000E+00
    0.51600E-07        -0.34150E-10         0.00000E+00
    0.51614E-07        -0.36160E-10         0.00000E+00
    0.51628E-07        -0.37736E-10         0.00000E+00
    0.51644E-07        -0.38953E-10         0.00000E+00
    0.51659E-07        -0.39870E-10         0.00000E+00
    0.51676E-07        -0.40536E-10         0.00000E+00
    0.51692E-07        -0.40989E-10         0.00000E+00
    0.51708E-07        -0.41262E-10         0.00000E+00
    0.51725E-07        -0.41380E-10         0.00000E+00
    0.51741E-07        -0.41366E-10         0.00000E+00
    0.51758E-07        -0.41238E-10         0.00000E+00
    0.51774E-07        -0.41011E-10         0.00000E+00
    0.51791E-07        -0.40698E-10         0.00000E+00
    0.51807E-07        -0.40311E-10         0.00000E+00
    0.51823E-07        -0.39857E-10         0.00000E+00
    0.51839E-07        -0.39346E-10         0.00000E+00
    0.51854E-07        -0.38784E-10         0.00000E+00
    0.51870E-07        -0.38176E-10         0.00000E+00
    0.51885E-07        -0.37526E-10         0.00000E+00
    0.51900E-07        -0.36839E-10         0.00000E+00
    0.51914E-07        -0.36116E-10         0.00000E+00
    0.51929E-07        -0.35361E-10         0.00000E+00
    0.51943E-07        -0.34574E-10         0.00000E+00
    0.51956E-07        -0.33757E-10         0.00000E+00
    0.51970E-07        -0.32910E-10         0.00000E+00
    0.51983E-07        -0.32031E-10         0.00000E+00
    0.51995E-07        -0.31120E-10         0.00000E+00
    0.52008E-07        -0.30174E-10         0.00000E+00
    0.52019E-07        -0.29192E-10         0.00000E+00
    0.52031E-07        -0.28169E-10         0.00000E+00
    0.52042E-07        -0.27100E-10         0.00000E+00
    0.52053E-07        -0.25979E-10         0.00000E+00
    0.52063E-07        -0.24800E-10         0.00000E+00
    0.52072E-07        -0.23552E-10         0.00000E+00
    0.52082E-07        -0.22225E-10         0.00000E+00
    0.52090E-07        -0.20803E-10         0.00000E+00
    0.52098E-07        -0.19269E-10         0.00000E+00
    0.52106E-07        -0.17599E-10         0.00000E+00
    0.52112E-07        -0.15764E-10         0.00000E+00
    0.52118E-07        -0.13723E-10         0.00000E+00
    0.52123E-07        -0.11425E-10         0.00000E+00
    0.52127E-07        -0.87982E-11         0.00000E+00
    0.52130E-07        -0.57436E-11         0.00000E+00
    0.52132E-07        -0.21210E-11         0.00000E+00
    0.51845E-07        -0.97661E-11         0.00000E+00
    0.51845E-07        -0.27167E-10         0.00000E+00
    0.51846E-07        -0.41757E-10         0.00000E+00
    0.51847E-07        -0.53973E-10         0.00000E+00
    0.51850E-07        -0.64181E-10         0.00000E+00
    0.51853E-07        -0.72687E-10         0.00000E+00
    0.51857E-07        -0.79748E-10         0.00000E+00
    0.51862E-07        -0.85575E-10         0.00000E+00
    0.51868E-07        -0.90347E-10         0.00000E+00
    0.51874E-07        -0.94213E-10         0.00000E+00
    0.51881E-07        -0.97297E-10         0.00000E+00
    0.51888E-07        -0.99706E-10         0.00000E+00
    0.51896E-07        -0.10153E-09         0.00000E+00
    0.51904E-07        -0.10284E-09         0.00000E+00
    0.51912E-07        -0.10371E-09         0.00000E+00
    0.51921E-07        -0.10419E-09         0.00000E+00
    0.51929E-07        -0.10432E-09         0.00000E+00
    0.51938E-07        -0.10416E-09         0.00000E+00
    0.51947E-07        -0.10372E-09         0.00000E+00
    0.51956E-07        -0.10306E-09         0.00000E+00
    0.51965E-07        -0.10218E-09         0.00000E+00
    0.51974E-07        -0.10111E-09         0.00000E+00
    0.51983E-07        -0.99868E-10         0.00000E+00
    0.51992E-07        -0.98474E-10         0.00000E+00
    0.52001E-07        -0.96940E-10         0.00000E+00
    0.52009E-07        -0.95275E-10         0.00000E+00
    0.52018E-07        -0.93489E-10         0.00000E+00
    0.52026E-07        -0.91588E-10         0.00000E+00
    0.52034E-07        -0.89576E-10         0.00000E+00
    0.52043E-07        -0.87457E-10         0.00000E+00
    0.52050E-07        -0.85231E-10         0.00000E+00
    0.52058E-07        -0.82898E-10         0.00000E+00
    0.52065E-07        -0.80455E-10         0.00000E+00
    0.52073E-07        -0.77897E-10         0.00000E+00
    0.52079E-07        -0.75218E-10         0.00000E+00
    0.52086E-07        -0.72408E-10         0.00000E+00
    0.52092E-07        -0.69456E-10         0.00000E+00
    0.52098E-07        -0.66347E-10         0.00000E+00
    0.52104E-07        -0.63063E-10         0.00000E+00
    0.52109E-07        -0.59584E-10         0.00000E+00
    0.52114E-07        -0.55883E-10         0.00000E+00
    0.52118E-07        -0.51928E-10         0.00000E+00
    0.52122E-07        -0.47682E-10         0.00000E+00
    0.52125E-07        -0.43100E-10         0.00000E+00
    0.52128E-07        -0.38127E-10         0.00000E+00
    0.52131E-07        -0.32696E-10         0.00000E+00
    0.52133E-07        -0.26728E-10         0.00000E+00
    0.52134E-07        -0.20127E-10         0.00000E+00
    0.52135E-07        -0.12778E-10         0.00000E+00
    0.52135E-07        -0.45441E-11         0.00000E+00
    0.52038E-07        -0.96330E-11         0.00000E+00
    0.52037E-07        -0.27664E-10         0.00000E+00
    0.52037E-07        -0.43844E-10         0.00000E+00
    0.52037E-07        -0.58228E-10         0.00000E+00
    0.52036E-07        -0.70914E-10         0.00000E+00
    0.52036E-07        -0.82022E-10         0.00000E+00
    0.52036E-07        -0.91680E-10         0.00000E+00
    0.52037E-07        -0.10002E-09         0.00000E+00
    0.52037E-07        -0.10716E-09         0.00000E+00
    0.52038E-07        -0.11322E-09         0.00000E+00
    0.52039E-07        -0.11831E-09         0.00000E+00
    0.52041E-07        -0.12252E-09         0.00000E+00
    0.52043E-07        -0.12595E-09         0.00000E+00
    0.52045E-07        -0.12867E-09         0.00000E+00
    0.52047E-07        -0.13075E-09         0.00000E+00
    0.52050E-07        -0.13226E-09         0.00000E+00
    0.52052E-07        -0.13325E-09         0.00000E+00
    0.52055E-07        -0.13378E-09         0.00000E+00
    0.52058E-07        -0.13389E-09         0.00000E+00
    0.52062E-07        -0.13362E-09         0.00000E+00
    0.52065E-07        -0.13300E-09         0.00000E+00
    0.52068E-07        -0.13207E-09         0.00000E+00
    0.52072E-07        -0.13085E-09         0.00000E+00
    0.52075E-07        -0.12936E-09         0.00000E+00
    0.52079E-07        -0.12762E-09         0.00000E+00
    0.52082E-07        -0.12564E-09         0.00000E+00
    0.52086E-07        -0.12345E-09         0.00000E+00
    0.52089E-07        -0.12106E-09         0.00000E+00
    0.52093E-07        -0.11846E-09         0.00000E+00
    0.52096E-07        -0.11567E-09         0.00000E+00
    0.52099E-07        -0.11268E-09         0.00000E+00
    0.52102E-07        -0.10951E-09         0.00000E+00
    0.52105E-07        -0.10614E-09         0.00000E+00
    0.52108E-07        -0.10257E-09         0.00000E+00
    0.52111E-07        -0.98805E-10         0.00000E+00
    0.52114E-07        -0.94823E-10         0.00000E+00
    0.52116E-07        -0.90617E-10         0.00000E+00
    0.52118E-07        -0.86171E-10         0.00000E+00
    0.52120E-07        -0.81467E-10         0.00000E+00
    0.52122E-07        -0.76485E-10         0.00000E+00
    0.52124E-07        -0.71202E-10         0.00000E+00
    0.52125E-07        -0.65589E-10         0.00000E+00
    0.52127E-07        -0.59617E-10         0.00000E+00
    0.52128E-07        -0.53253E-10         0.00000E+00
    0.52128E-07        -0.46461E-10         0.00000E+00
    0.52129E-07        -0.39205E-10         0.00000E+00
    0.52129E-07        -0.31450E-10         0.00000E+00
    0.52130E-07        -0.23163E-10         0.00000E+00
    0.52130E-07        -0.14323E-10         0.00000E+00
    0.52130E-07        -0.49242E-11         0.00000E+00
    0.52144E-07        -0.86313E-11         0.00000E+00
    0.52144E-07        -0.24966E-10         0.00000E+00
    0.52143E-07        -0.39947E-10         0.00000E+00
    0.52142E-07        -0.53619E-10         0.00000E+00
    0.52140E-07        -0.66027E-10         0.00000E+00
    0.52138E-07        -0.77217E-10         0.00000E+00
    0.52136E-07        -0.87246E-10         0.00000E+00
    0.52134E-07        -0.96173E-10         0.00000E+00
    0.52132E-07        -0.10406E-09         0.00000E+00
    0.52130E-07        -0.11097E-09         0.00000E+00
    0.52128E-07        -0.11697E-09         0.00000E+00
    0.52127E-07        -0.12213E-09         0.00000E+00
    0.52125E-07        -0.12649E-09         0.00000E+00
    0.52123E-07        -0.13013E-09         0.00000E+00
    0.52122E-07        -0.13310E-09         0.00000E+00
    0.52120E-07        -0.13544E-09         0.00000E+00
    0.52119E-07        -0.13720E-09         0.00000E+00
    0.52118E-07        -0.13844E-09         0.00000E+00
    0.52116E-07        -0.13918E-09         0.00000E+00
    0.52116E-07        -0.13947E-09         0.00000E+00
    0.52115E-07        -0.13934E-09         0.00000E+00
    0.52114E-07        -0.13882E-09         0.00000E+00
    0.52113E-07        -0.13794E-09         0.00000E+00
    0.52113E-07        -0.13671E-09         0.00000E+00
    0.52112E-07        -0.13516E-09         0.00000E+00
    0.52112E-07        -0.13331E-09         0.00000E+00
    0.52111E-07        -0.13117E-09         0.00000E+00
    0.52111E-07        -0.12876E-09         0.00000E+00
    0.52110E-07        -0.12608E-09         0.00000E+00
    0.52110E-07        -0.12314E-09         0.00000E+00
    0.52110E-07        -0.11995E-09         0.00000E+00
    0.52110E-07        -0.11651E-09         0.00000E+00
    0.52109E-07        -0.11283E-09         0.00000E+00
    0.52109E-07        -0.10889E-09         0.00000E+00
    0.52109E-07        -0.10470E-09         0.00000E+00
    0.52108E-07        -0.10026E-09         0.00000E+00
    0.52108E-07        -0.95549E-10         0.00000E+00
    0.52107E-07        -0.90565E-10         0.00000E+00
    0.52107E-07        -0.85297E-10         0.00000E+00
    0.52107E-07        -0.79733E-10         0.00000E+00
    0.52106E-07        -0.73859E-10         0.00000E+00
    0.52106E-07        -0.67662E-10         0.00000E+00
    0.52105E-07        -0.61126E-10         0.00000E+00
    0.52105E-07        -0.54237E-10         0.00000E+00
    0.52104E-07        -0.46980E-10         0.00000E+00
    0.52104E-07        -0.39343E-10         0.00000E+00
    0.52103E-07        -0.31315E-10         0.00000E+00
    0.52103E-07        -0.22888E-10         0.00000E+00
    0.52103E-07        -0.14053E-10         0.00000E+00
    0.52102E-07        -0.48026E-11         0.00000E+00
    0.52174E-07        -0.70583E-11         0.00000E+00
    0.52173E-07        -0.20566E-10         0.00000E+00
    0.52172E-07        -0.33157E-10         0.00000E+00
    0.52170E-07        -0.44837E-10         0.00000E+00
    0.52168E-07        -0.55619E-10         0.00000E+00
    0.52165E-07        -0.65519E-10         0.00000E+00
    0.52162E-07        -0.74560E-10         0.00000E+00
    0.52159E-07        -0.82767E-10         0.00000E+00
    0.52156E-07        -0.90168E-10         0.00000E+00
    0.52152E-07        -0.96796E-10         0.00000E+00
    0.52148E-07        -0.10268E-09         0.00000E+00
    0.52145E-07        -0.10786E-09         0.00000E+00
    0.52141E-07        -0.11237E-09         0.00000E+00
    0.52137E-07        -0.11624E-09         0.00000E+00
    0.52133E-07        -0.11950E-09         0.00000E+00
    0.52129E-07        -0.12219E-09         0.00000E+00
    0.52125E-07        -0.12435E-09         0.00000E+00
    0.52121E-07        -0.12600E-09         0.00000E+00
    0.52117E-07        -0.12717E-09         0.00000E+00
    0.52114E-07        -0.12789E-09         0.00000E+00
    0.52110E-07        -0.12819E-09         0.00000E+00
    0.52106E-07        -0.12809E-09         0.00000E+00
    0.52103E-07        -0.12760E-09         0.00000E+00
    0.52099E-07        -0.12676E-09         0.00000E+00
    0.52096E-07        -0.12558E-09         0.00000E+00
    0.52093E-07        -0.12407E-09         0.00000E+00
    0.52089E-07        -0.12225E-09         0.00000E+00
    0.52086E-07        -0.12014E-09         0.00000E+00
    0.52083E-07        -0.11773E-09         0.00000E+00
    0.52080E-07        -0.11504E-09         0.00000E+00
    0.52077E-07        -0.11208E-09         0.00000E+00
    0.52075E-07        -0.10886E-09         0.00000E+00
    0.52072E-07        -0.10536E-09         0.00000E+00
    0.52069E-07        -0.10161E-09         0.00000E+00
    0.52067E-07        -0.97594E-10         0.00000E+00
    0.52064E-07        -0.93317E-10         0.00000E+00
    0.52062E-07        -0.88777E-10         0.00000E+00
    0.52060E-07        -0.83972E-10         0.00000E+00
    0.52057E-07        -0.78897E-10         0.00000E+00
    0.52055E-07        -0.73550E-10         0.00000E+00
    0.52053E-07        -0.67926E-10         0.00000E+00
    0.52052E-07        -0.62021E-10         0.00000E+00
    0.52050E-07        -0.55829E-10         0.00000E+00
    0.52048E-07        -0.49348E-10         0.00000E+00
    0.52047E-07        -0.42574E-10         0.00000E+00
    0.52046E-07        -0.35504E-10         0.00000E+00
    0.52045E-07        -0.28136E-10         0.00000E+00
    0.52044E-07        -0.20469E-10         0.00000E+00
    0.52044E-07        -0.12506E-10         0.00000E+00
    0.52043E-07        -0.42483E-11         0.00000E+00
    0.52132E-07        -0.52551E-11         0.00000E+00
    0.52131E-07        -0.15400E-10         0.00000E+00
    0.52130E-07        -0.24986E-10         0.00000E+00
    0.52128E-07        -0.34004E-10         0.00000E+00
    0.52125E-07        -0.42446E-10         0.00000E+00
    0.52122E-07        -0.50310E-10         0.00000E+00
    0.52119E-07        -0.57598E-10         0.00000E+00
    0.52115E-07        -0.64313E-10         0.00000E+00
    0.52111E-07        -0.70465E-10         0.00000E+00
    0.52106E-07        -0.76062E-10         0.00000E+00
    0.52102E-07        -0.81117E-10         0.00000E+00
    0.52097E-07        -0.85644E-10         0.00000E+00
    0.52092E-07        -0.89660E-10         0.00000E+00
    0.52087E-07        -0.93181E-10         0.00000E+00
    0.52081E-07        -0.96225E-10         0.00000E+00
    0.52076E-07        -0.98809E-10         0.00000E+00
    0.52070E-07        -0.10095E-09         0.00000E+00
    0.52065E-07        -0.10267E-09         0.00000E+00
    0.52059E-07        -0.10398E-09         0.00000E+00
    0.52054E-07        -0.10491E-09         0.00000E+00
    0.52048E-07        -0.10547E-09         0.00000E+00
    0.52043E-07        -0.10567E-09         0.00000E+00
    0.52038E-07        -0.10552E-09         0.00000E+00
    0.52032E-07        -0.10506E-09         0.00000E+00
    0.52027E-07        -0.10428E-09         0.00000E+00
    0.52022E-07        -0.10320E-09         0.00000E+00
    0.52017E-07        -0.10183E-09         0.00000E+00
    0.52012E-07        -0.10018E-09         0.00000E+00
    0.52007E-07        -0.98265E-10         0.00000E+00
    0.52002E-07        -0.96085E-10         0.00000E+00
    0.51998E-07        -0.93649E-10         0.00000E+00
    0.51993E-07        -0.90965E-10         0.00000E+00
    0.51989E-07        -0.88037E-10         0.00000E+00
    0.51985E-07        -0.84870E-10         0.00000E+00
    0.51981E-07        -0.81466E-10         0.00000E+00
    0.51977E-07        -0.77829E-10         0.00000E+00
    0.51973E-07        -0.73962E-10         0.00000E+00
    0.51970E-07        -0.69865E-10         0.00000E+00
    0.51966E-07        -0.65541E-10         0.00000E+00
    0.51963E-07        -0.60991E-10         0.00000E+00
    0.51960E-07        -0.56216E-10         0.00000E+00
    0.51958E-07        -0.51216E-10         0.00000E+00
    0.51955E-07        -0.45995E-10         0.00000E+00
    0.51953E-07        -0.40552E-10         0.00000E+00
    0.51951E-07        -0.34891E-10         0.00000E+00
    0.51949E-07        -0.29014E-10         0.00000E+00
    0.51948E-07        -0.22924E-10         0.00000E+00
    0.51947E-07        -0.16626E-10         0.00000E+00
    0.51946E-07        -0.10125E-10         0.00000E+00
    0.51946E-07        -0.34282E-11         0.00000E+00
    0.52023E-07        -0.33704E-11         0.00000E+00
    0.52022E-07        -0.99530E-11         0.00000E+00
    0.52021E-07        -0.16280E-10         0.00000E+00
    0.52019E-07        -0.22330E-10         0.00000E+00
    0.52016E-07        -0.28084E-10         0.00000E+00
    0.52013E-07        -0.33529E-10         0.00000E+00
    0.52009E-07        -0.38653E-10         0.00000E+00
    0.52005E-07        -0.43447E-10         0.00000E+00
    0.52001E-07        -0.47906E-10         0.00000E+00
    0.51996E-07        -0.52025E-10         0.00000E+00
    0.51991E-07        -0.55805E-10         0.00000E+00
    0.51985E-07        -0.59245E-10         0.00000E+00
    0.51980E-07        -0.62349E-10         0.00000E+00
    0.51974E-07        -0.65120E-10         0.00000E+00
    0.51968E-07        -0.67563E-10         0.00000E+00
    0.51962E-07        -0.69686E-10         0.00000E+00
    0.51955E-07        -0.71494E-10         0.00000E+00
    0.51949E-07        -0.72995E-10         0.00000E+00
    0.51943E-07        -0.74199E-10         0.00000E+00
    0.51936E-07        -0.75112E-10         0.00000E+00
    0.51930E-07        -0.75744E-10         0.00000E+00
    0.51923E-07        -0.76104E-10         0.00000E+00
    0.51917E-07        -0.76200E-10         0.00000E+00
    0.51911E-07        -0.76040E-10         0.00000E+00
    0.51904E-07        -0.75633E-10         0.00000E+00
    0.51898E-07        -0.74986E-10         0.00000E+00
    0.51892E-07        -0.74108E-10         0.00000E+00
    0.51886E-07        -0.73005E-10         0.00000E+00
    0.51880E-07        -0.71685E-10         0.00000E+00
    0.51874E-07        -0.70152E-10         0.00000E+00
    0.51869E-07        -0.68414E-10         0.00000E+00
    0.51863E-07        -0.66476E-10         0.00000E+00
    0.51858E-07        -0.64343E-10         0.00000E+00
    0.51853E-07        -0.62020E-10         0.00000E+00
    0.51848E-07        -0.59512E-10         0.00000E+00
    0.51843E-07        -0.56822E-10         0.00000E+00
    0.51838E-07        -0.53954E-10         0.00000E+00
    0.51834E-07        -0.50914E-10         0.00000E+00
    0.51830E-07        -0.47703E-10         0.00000E+00
    0.51826E-07        -0.44327E-10         0.00000E+00
    0.51823E-07        -0.40790E-10         0.00000E+00
    0.51820E-07        -0.37094E-10         0.00000E+00
    0.51817E-07        -0.33244E-10         0.00000E+00
    0.51814E-07        -0.29246E-10         0.00000E+00
    0.51812E-07        -0.25103E-10         0.00000E+00
    0.51810E-07        -0.20822E-10         0.00000E+00
    0.51808E-07        -0.16407E-10         0.00000E+00
    0.51807E-07        -0.11865E-10         0.00000E+00
    0.51806E-07        -0.72041E-11         0.00000E+00
    0.51806E-07        -0.24304E-11         0.00000E+00
    0.51851E-07        -0.15044E-11         0.00000E+00
    0.51850E-07        -0.45289E-11         0.00000E+00
    0.51849E-07        -0.75542E-11         0.00000E+00
    0.51847E-07        -0.10553E-10         0.00000E+00
    0.51844E-07        -0.13499E-10         0.00000E+00
    0.51841E-07        -0.16370E-10         0.00000E+00
    0.51838E-07        -0.19148E-10         0.00000E+00
    0.51833E-07        -0.21816E-10         0.00000E+00
    0.51829E-07        -0.24358E-10         0.00000E+00
    0.51824E-07        -0.26762E-10         0.00000E+00
    0.51819E-07        -0.29019E-10         0.00000E+00
    0.51813E-07        -0.31120E-10         0.00000E+00
    0.51807E-07        -0.33058E-10         0.00000E+00
    0.51801E-07        -0.34828E-10         0.00000E+00
    0.51795E-07        -0.36428E-10         0.00000E+00
    0.51789E-07        -0.37854E-10         0.00000E+00
    0.51782E-07        -0.39106E-10         0.00000E+00
    0.51775E-07        -0.40183E-10         0.00000E+00
    0.51769E-07        -0.41085E-10         0.00000E+00
    0.51762E-07        -0.41816E-10         0.00000E+00
    0.51755E-07        -0.42375E-10         0.00000E+00
    0.51748E-07        -0.42767E-10         0.00000E+00
    0.51741E-07        -0.42993E-10         0.00000E+00
    0.51734E-07        -0.43058E-10         0.00000E+00
    0.51727E-07        -0.42964E-10         0.00000E+00
    0.51721E-07        -0.42716E-10         0.00000E+00
    0.51714E-07        -0.42317E-10         0.00000E+00
    0.51707E-07        -0.41772E-10         0.00000E+00
    0.51701E-07        -0.41083E-10         0.00000E+00
    0.51695E-07        -0.40256E-10         0.00000E+00
    0.51688E-07        -0.39295E-10         0.00000E+00
    0.51682E-07        -0.38203E-10         0.00000E+00
    0.51677E-07        -0.36985E-10         0.00000E+00
    0.51671E-07        -0.35645E-10         0.00000E+00
    0.51666E-07        -0.34187E-10         0.00000E+00
    0.51660E-07        -0.32615E-10         0.00000E+00
    0.51655E-07        -0.30934E-10         0.00000E+00
    0.51651E-07        -0.29147E-10         0.00000E+00
    0.51646E-07        -0.27260E-10         0.00000E+00
    0.51642E-07        -0.25276E-10         0.00000E+00
    0.51638E-07        -0.23201E-10         0.00000E+00
    0.51635E-07        -0.21040E-10         0.00000E+00
    0.51632E-07        -0.18797E-10         0.00000E+00
    0.51629E-07        -0.16479E-10         0.00000E+00
    0.51626E-07        -0.14091E-10         0.00000E+00
    0.51624E-07        -0.11639E-10         0.00000E+00
    0.51623E-07        -0.91302E-11         0.00000E+00
    0.51621E-07        -0.65708E-11         0.00000E+00
    0.51620E-07        -0.39684E-11         0.00000E+00
    0.51620E-07        -0.13306E-11         0.00000E+00
    0.51620E-07         0.28216E-12         0.00000E+00
    0.51619E-07         0.68392E-12         0.00000E+00
    0.51617E-07         0.86683E-12         0.00000E+00
    0.51616E-07         0.86262E-12         0.00000E+00
    0.51613E-07         0.70052E-12         0.00000E+00
    0.51610E-07         0.40732E-12         0.00000E+00
    0.51606E-07         0.74678E-14         0.00000E+00
    0.51603E-07        -0.47683E-12         0.00000E+00
    0.51598E-07        -0.10255E-11         0.00000E+00
    0.51593E-07        -0.16204E-11         0.00000E+00
    0.51588E-07        -0.22454E-11         0.00000E+00
    0.51583E-07        -0.28862E-11         0.00000E+00
    0.51577E-07        -0.35300E-11         0.00000E+00
    0.51571E-07        -0.41657E-11         0.00000E+00
    0.51565E-07        -0.47837E-11         0.00000E+00
    0.51558E-07        -0.53755E-11         0.00000E+00
    0.51552E-07        -0.59341E-11         0.00000E+00
    0.51545E-07        -0.64536E-11         0.00000E+00
    0.51538E-07        -0.69289E-11         0.00000E+00
    0.51532E-07        -0.73562E-11         0.00000E+00
    0.51525E-07        -0.77324E-11         0.00000E+00
    0.51518E-07        -0.80550E-11         0.00000E+00
    0.51511E-07        -0.83225E-11         0.00000E+00
    0.51504E-07        -0.85338E-11         0.00000E+00
    0.51497E-07        -0.86884E-11         0.00000E+00
    0.51490E-07        -0.87865E-11         0.00000E+00
    0.51483E-07        -0.88286E-11         0.00000E+00
    0.51476E-07        -0.88155E-11         0.00000E+00
    0.51470E-07        -0.87486E-11         0.00000E+00
    0.51463E-07        -0.86294E-11         0.00000E+00
    0.51457E-07        -0.84600E-11         0.00000E+00
    0.51451E-07        -0.82425E-11         0.00000E+00
    0.51445E-07        -0.79794E-11         0.00000E+00
    0.51439E-07        -0.76735E-11         0.00000E+00
    0.51433E-07        -0.73278E-11         0.00000E+00
    0.51428E-07        -0.69455E-11         0.00000E+00
    0.51423E-07        -0.65302E-11         0.00000E+00
    0.51418E-07        -0.60855E-11         0.00000E+00
    0.51414E-07        -0.56155E-11         0.00000E+00
    0.51409E-07        -0.51243E-11         0.00000E+00
    0.51406E-07        -0.46166E-11         0.00000E+00
    0.51402E-07        -0.40971E-11         0.00000E+00
    0.51399E-07        -0.35709E-11         0.00000E+00
    0.51396E-07        -0.30433E-11         0.00000E+00
    0.51393E-07        -0.25199E-11         0.00000E+00
    0.51391E-07        -0.20067E-11         0.00000E+00
    0.51389E-07        -0.15100E-11         0.00000E+00
    0.51388E-07        -0.10362E-11         0.00000E+00
    0.51387E-07        -0.59231E-12         0.00000E+00
    0.51387E-07        -0.18532E-12         0.00000E+00
    0.51332E-07         0.19518E-11         0.00000E+00
    0.51331E-07         0.55687E-11         0.00000E+00
    0.51330E-07         0.87820E-11         0.00000E+00
    0.51328E-07         0.11625E-10         0.00000E+00
    0.51326E-07         0.14129E-10         0.00000E+00
    0.51323E-07         0.16324E-10         0.00000E+00
    0.51320E-07         0.18238E-10         0.00000E+00
    0.51316E-07         0.19894E-10         0.00000E+00
    0.51312E-07         0.21317E-10         0.00000E+00
    0.51307E-07         0.22529E-10         0.00000E+00
    0.51302E-07         0.23550E-10         0.00000E+00
    0.51297E-07         0.24397E-10         0.00000E+00
    0.51292E-07         0.25089E-10         0.00000E+00
    0.51286E-07         0.25639E-10         0.00000E+00
    0.51280E-07         0.26062E-10         0.00000E+00
    0.51274E-07         0.26370E-10         0.00000E+00
    0.51268E-07         0.26576E-10         0.00000E+00
    0.51261E-07         0.26688E-10         0.00000E+00
    0.51255E-07         0.26716E-10         0.00000E+00
    0.51248E-07         0.26667E-10         0.00000E+00
    0.51241E-07         0.26550E-10         0.00000E+00
    0.51235E-07         0.26369E-10         0.00000E+00
    0.51228E-07         0.26131E-10         0.00000E+00
    0.51221E-07         0.25839E-10         0.00000E+00
    0.51214E-07         0.25497E-10         0.00000E+00
    0.51208E-07         0.25109E-10         0.00000E+00
    0.51201E-07         0.24677E-10         0.00000E+00
    0.51194E-07         0.24202E-10         0.00000E+00
    0.51188E-07         0.23686E-10         0.00000E+00
    0.51181E-07         0.23129E-10         0.00000E+00
    0.51175E-07         0.22533E-10         0.00000E+00
    0.51169E-07         0.21896E-10         0.00000E+00
    0.51163E-07         0.21217E-10         0.00000E+00
    0.51158E-07         0.20497E-10         0.00000E+00
    0.51152E-07         0.19733E-10         0.00000E+00
    0.51147E-07         0.18924E-10         0.00000E+00
    0.51142E-07         0.18067E-10         0.00000E+00
    0.51137E-07         0.17160E-10         0.00000E+00
    0.51133E-07         0.16200E-10         0.00000E+00
    0.51128E-07         0.15183E-10         0.00000E+00
    0.51125E-07         0.14106E-10         0.00000E+00
    0.51121E-07         0.12965E-10         0.00000E+00
    0.51118E-07         0.11756E-10         0.00000E+00
    0.51115E-07         0.10474E-10         0.00000E+00
    0.51112E-07         0.91142E-11         0.00000E+00
    0.51110E-07         0.76718E-11         0.00000E+00
    0.51109E-07         0.61412E-11         0.00000E+00
    0.51107E-07         0.45167E-11         0.00000E+00
    0.51106E-07         0.27923E-11         0.00000E+00
    0.51106E-07         0.96183E-12         0.00000E+00
    0.50992E-07         0.34829E-11         0.00000E+00
    0.50991E-07         0.10058E-10         0.00000E+00
    0.50990E-07         0.16073E-10         0.00000E+00
    0.50989E-07         0.21562E-10         0.00000E+00
    0.50986E-07         0.26557E-10         0.00000E+00
    0.50984E-07         0.31090E-10         0.00000E+00
    0.50981E-07         0.35188E-10         0.00000E+00
    0.50977E-07         0.38879E-10         0.00000E+00
    0.50973E-07         0.42189E-10         0.00000E+00
    0.50969E-07         0.45141E-10         0.00000E+00
    0.50965E-07         0.47757E-10         0.00000E+00
    0.50960E-07         0.50059E-10         0.00000E+00
    0.50955E-07         0.52065E-10         0.00000E+00
    0.50950E-07         0.53794E-10         0.00000E+00
    0.50944E-07         0.55263E-10         0.00000E+00
    0.50938E-07         0.56486E-10         0.00000E+00
    0.50932E-07         0.57478E-10         0.00000E+00
    0.50926E-07         0.58252E-10         0.00000E+00
    0.50920E-07         0.58819E-10         0.00000E+00
    0.50914E-07         0.59192E-10         0.00000E+00
    0.50908E-07         0.59379E-10         0.00000E+00
    0.50901E-07         0.59389E-10         0.00000E+00
    0.50895E-07         0.59231E-10         0.00000E+00
    0.50888E-07         0.58912E-10         0.00000E+00
    0.50882E-07         0.58438E-10         0.00000E+00
    0.50876E-07         0.57814E-10         0.00000E+00
    0.50869E-07         0.57045E-10         0.00000E+00
    0.50863E-07         0.56136E-10         0.00000E+00
    0.50857E-07         0.55090E-10         0.00000E+00
    0.50851E-07         0.53910E-10         0.00000E+00
    0.50845E-07         0.52598E-10         0.00000E+00
    0.50839E-07         0.51155E-10         0.00000E+00
    0.50833E-07         0.49584E-10         0.00000E+00
    0.50828E-07         0.47884E-10         0.00000E+00
    0.50823E-07         0.46057E-10         0.00000E+00
    0.50818E-07         0.44100E-10         0.00000E+00
    0.50813E-07         0.42015E-10         0.00000E+00
    0.50808E-07         0.39798E-10         0.00000E+00
    0.50804E-07         0.37450E-10         0.00000E+00
    0.50800E-07         0.34968E-10         0.00000E+00
    0.50796E-07         0.32349E-10         0.00000E+00
    0.50793E-07         0.29591E-10         0.00000E+00
    0.50790E-07         0.26691E-10         0.00000E+00
    0.50787E-07         0.23645E-10         0.00000E+00
    0.50784E-07         0.20450E-10         0.00000E+00
    0.50782E-07         0.17101E-10         0.00000E+00
    0.50781E-07         0.13594E-10         0.00000E+00
    0.50779E-07         0.99245E-11         0.00000E+00
    0.50779E-07         0.60878E-11         0.00000E+00
    0.50778E-07         0.20785E-11         0.00000E+00
    0.50603E-07         0.48650E-11         0.00000E+00
    0.50603E-07         0.14117E-10         0.00000E+00
    0.50602E-07         0.22677E-10         0.00000E+00
    0.50600E-07         0.30580E-10         0.00000E+00
    0.50598E-07         0.37857E-10         0.00000E+00
    0.50596E-07         0.44540E-10         0.00000E+00
    0.50593E-07         0.50658E-10         0.00000E+00
    0.50590E-07         0.56239E-10         0.00000E+00
    0.50586E-07         0.61308E-10         0.00000E+00
    0.50583E-07         0.65892E-10         0.00000E+00
    0.50579E-07         0.70013E-10         0.00000E+00
    0.50574E-07         0.73693E-10         0.00000E+00
    0.50570E-07         0.76954E-10         0.00000E+00
    0.50565E-07         0.79816E-10         0.00000E+00
    0.50560E-07         0.82296E-10         0.00000E+00
    0.50554E-07         0.84411E-10         0.00000E+00
    0.50549E-07         0.86179E-10         0.00000E+00
    0.50543E-07         0.87614E-10         0.00000E+00
    0.50538E-07         0.88729E-10         0.00000E+00
    0.50532E-07         0.89539E-10         0.00000E+00
    0.50526E-07         0.90054E-10         0.00000E+00
    0.50520E-07         0.90285E-10         0.00000E+00
    0.50514E-07         0.90243E-10         0.00000E+00
    0.50508E-07         0.89938E-10         0.00000E+00
    0.50502E-07         0.89376E-10         0.00000E+00
    0.50496E-07         0.88566E-10         0.00000E+00
    0.50490E-07         0.87515E-10         0.00000E+00
    0.50485E-07         0.86228E-10         0.00000E+00
    0.50479E-07         0.84712E-10         0.00000E+00
    0.50473E-07         0.82970E-10         0.00000E+00
    0.50468E-07         0.81007E-10         0.00000E+00
    0.50462E-07         0.78826E-10         0.00000E+00
    0.50457E-07         0.76430E-10         0.00000E+00
    0.50452E-07         0.73821E-10         0.00000E+00
    0.50447E-07         0.71001E-10         0.00000E+00
    0.50442E-07         0.67971E-10         0.00000E+00
    0.50438E-07         0.64732E-10         0.00000E+00
    0.50433E-07         0.61285E-10         0.00000E+00
    0.50429E-07         0.57628E-10         0.00000E+00
    0.50426E-07         0.53762E-10         0.00000E+00
    0.50422E-07         0.49684E-10         0.00000E+00
    0.50419E-07         0.45394E-10         0.00000E+00
    0.50416E-07         0.40891E-10         0.00000E+00
    0.50413E-07         0.36170E-10         0.00000E+00
    0.50411E-07         0.31231E-10         0.00000E+00
    0.50409E-07         0.26070E-10         0.00000E+00
    0.50408E-07         0.20685E-10         0.00000E+00
    0.50406E-07         0.15070E-10         0.00000E+00
    0.50406E-07         0.92238E-11         0.00000E+00
    0.50405E-07         0.31412E-11         0.00000E+00
    0.50169E-07         0.60948E-11         0.00000E+00
    0.50169E-07         0.17733E-10         0.00000E+00
    0.50168E-07         0.28571E-10         0.00000E+00
    0.50167E-07         0.38641E-10         0.00000E+00
    0.50165E-07         0.47974E-10         0.00000E+00
    0.50163E-07         0.56601E-10         0.00000E+00
    0.50160E-07         0.64552E-10         0.00000E+00
    0.50158E-07         0.71854E-10         0.00000E+00
    0.50154E-07         0.78533E-10         0.00000E+00
    0.50151E-07         0.84614E-10         0.00000E+00
    0.50147E-07         0.90123E-10         0.00000E+00
    0.50143E-07         0.95081E-10         0.00000E+00
    0.50139E-07         0.99511E-10         0.00000E+00
    0.50135E-07         0.10343E-09         0.00000E+00
    0.50130E-07         0.10686E-09         0.00000E+00
    0.50126E-07         0.10983E-09         0.00000E+00
    0.50121E-07         0.11234E-09         0.00000E+00
    0.50116E-07         0.11441E-09         0.00000E+00
    0.50111E-07         0.11606E-09         0.00000E+00
    0.50105E-07         0.11730E-09         0.00000E+00
    0.50100E-07         0.11815E-09         0.00000E+00
    0.50095E-07         0.11862E-09         0.00000E+00
    0.50089E-07         0.11872E-09         0.00000E+00
    0.50084E-07         0.11846E-09         0.00000E+00
    0.50078E-07         0.11784E-09         0.00000E+00
    0.50073E-07         0.11689E-09         0.00000E+00
    0.50068E-07         0.11561E-09         0.00000E+00
    0.50062E-07         0.11400E-09         0.00000E+00
    0.50057E-07         0.11207E-09         0.00000E+00
    0.50052E-07         0.10984E-09         0.00000E+00
    0.50047E-07         0.10729E-09         0.00000E+00
    0.50042E-07         0.10445E-09         0.00000E+00
    0.50037E-07         0.10131E-09         0.00000E+00
    0.50032E-07         0.97873E-10         0.00000E+00
    0.50028E-07         0.94149E-10         0.00000E+00
    0.50023E-07         0.90137E-10         0.00000E+00
    0.50019E-07         0.85840E-10         0.00000E+00
    0.50015E-07         0.81259E-10         0.00000E+00
    0.50012E-07         0.76396E-10         0.00000E+00
    0.50008E-07         0.71250E-10         0.00000E+00
    0.50005E-07         0.65823E-10         0.00000E+00
    0.50002E-07         0.60114E-10         0.00000E+00
    0.49999E-07         0.54122E-10         0.00000E+00
    0.49997E-07         0.47846E-10         0.00000E+00
    0.49995E-07         0.41285E-10         0.00000E+00
    0.49993E-07         0.34437E-10         0.00000E+00
    0.49992E-07         0.27301E-10         0.00000E+00
    0.49990E-07         0.19873E-10         0.00000E+00
    0.49990E-07         0.12152E-10         0.00000E+00
    0.49989E-07         0.41338E-11         0.00000E+00
    0.49694E-07         0.71738E-11         0.00000E+00
    0.49694E-07         0.20911E-10         0.00000E+00
    0.49693E-07         0.33756E-10         0.00000E+00
    0.49692E-07         0.45742E-10         0.00000E+00
    0.49690E-07         0.56899E-10         0.00000E+00
    0.49689E-07         0.67257E-10         0.00000E+00
    0.49686E-07         0.76843E-10         0.00000E+00
    0.49684E-07         0.85686E-10         0.00000E+00
    0.49681E-07         0.93812E-10         0.00000E+00
    0.49678E-07         0.10124E-09         0.00000E+00
    0.49675E-07         0.10801E-09         0.00000E+00
    0.49672E-07         0.11413E-09         0.00000E+00
    0.49668E-07         0.11963E-09         0.00000E+00
    0.49664E-07         0.12452E-09         0.00000E+00
    0.49660E-07         0.12883E-09         0.00000E+00
    0.49656E-07         0.13258E-09         0.00000E+00
    0.49651E-07         0.13578E-09         0.00000E+00
    0.49647E-07         0.13845E-09         0.00000E+00
    0.49642E-07         0.14061E-09         0.00000E+00
    0.49638E-07         0.14227E-09         0.00000E+00
    0.49633E-07         0.14345E-09         0.00000E+00
    0.49628E-07         0.14415E-09         0.00000E+00
    0.49623E-07         0.14440E-09         0.00000E+00
    0.49618E-07         0.14421E-09         0.00000E+00
    0.49614E-07         0.14358E-09         0.00000E+00
    0.49609E-07         0.14252E-09         0.00000E+00
    0.49604E-07         0.14105E-09         0.00000E+00
    0.49599E-07         0.13917E-09         0.00000E+00
    0.49594E-07         0.13690E-09         0.00000E+00
    0.49590E-07         0.13423E-09         0.00000E+00
    0.49585E-07         0.13118E-09         0.00000E+00
    0.49581E-07         0.12775E-09         0.00000E+00
    0.49576E-07         0.12395E-09         0.00000E+00
    0.49572E-07         0.11978E-09         0.00000E+00
    0.49568E-07         0.11525E-09         0.00000E+00
    0.49564E-07         0.11035E-09         0.00000E+00
    0.49560E-07         0.10510E-09         0.00000E+00
    0.49557E-07         0.99499E-10         0.00000E+00
    0.49553E-07         0.93544E-10         0.00000E+00
    0.49550E-07         0.87239E-10         0.00000E+00
    0.49547E-07         0.80585E-10         0.00000E+00
    0.49545E-07         0.73584E-10         0.00000E+00
    0.49542E-07         0.66236E-10         0.00000E+00
    0.49540E-07         0.58541E-10         0.00000E+00
    0.49538E-07         0.50499E-10         0.00000E+00
    0.49537E-07         0.42108E-10         0.00000E+00
    0.49535E-07         0.33369E-10         0.00000E+00
    0.49534E-07         0.24280E-10         0.00000E+00
    0.49534E-07         0.14840E-10         0.00000E+00
    0.49533E-07         0.50453E-11         0.00000E+00
    0.49182E-07         0.81068E-11         0.00000E+00
    0.49182E-07         0.23661E-10         0.00000E+00
    0.49181E-07         0.38251E-10         0.00000E+00
    0.49180E-07         0.51906E-10         0.00000E+00
    0.49179E-07         0.64656E-10         0.00000E+00
    0.49177E-07         0.76529E-10         0.00000E+00
    0.49175E-07         0.87553E-10         0.00000E+00
    0.49173E-07         0.97754E-10         0.00000E+00
    0.49171E-07         0.10716E-09         0.00000E+00
    0.49168E-07         0.11579E-09         0.00000E+00
    0.49165E-07         0.12367E-09         0.00000E+00
    0.49162E-07         0.13083E-09         0.00000E+00
    0.49159E-07         0.13728E-09         0.00000E+00
    0.49156E-07         0.14305E-09         0.00000E+00
    0.49152E-07         0.14816E-09         0.00000E+00
    0.49149E-07         0.15262E-09         0.00000E+00
    0.49145E-07         0.15645E-09         0.00000E+00
    0.49141E-07         0.15967E-09         0.00000E+00
    0.49137E-07         0.16230E-09         0.00000E+00
    0.49133E-07         0.16436E-09         0.00000E+00
    0.49129E-07         0.16585E-09         0.00000E+00
    0.49124E-07         0.16679E-09         0.00000E+00
    0.49120E-07         0.16720E-09         0.00000E+00
    0.49116E-07         0.16708E-09         0.00000E+00
    0.49112E-07         0.16646E-09         0.00000E+00
    0.49107E-07         0.16533E-09         0.00000E+00
    0.49103E-07         0.16371E-09         0.00000E+00
    0.49099E-07         0.16162E-09         0.00000E+00
    0.49095E-07         0.15905E-09         0.00000E+00
    0.49090E-07         0.15602E-09         0.00000E+00
    0.49086E-07         0.15253E-09         0.00000E+00
    0.49082E-07         0.14859E-09         0.00000E+00
    0.49079E-07         0.14422E-09         0.00000E+00
    0.49075E-07         0.13940E-09         0.00000E+00
    0.49071E-07         0.13416E-09         0.00000E+00
    0.49068E-07         0.12849E-09         0.00000E+00
    0.49064E-07         0.12239E-09         0.00000E+00
    0.49061E-07         0.11588E-09         0.00000E+00
    0.49058E-07         0.10895E-09         0.00000E+00
    0.49055E-07         0.10162E-09         0.00000E+00
    0.49053E-07         0.93867E-10         0.00000E+00
    0.49050E-07         0.85711E-10         0.00000E+00
    0.49048E-07         0.77148E-10         0.00000E+00
    0.49046E-07         0.68180E-10         0.00000E+00
    0.49045E-07         0.58807E-10         0.00000E+00
    0.49043E-07         0.49029E-10         0.00000E+00
    0.49042E-07         0.38847E-10         0.00000E+00
    0.49041E-07         0.28260E-10         0.00000E+00
    0.49041E-07         0.17268E-10         0.00000E+00
    0.49040E-07         0.58693E-11         0.00000E+00
    0.48636E-07         0.89002E-11         0.00000E+00
    0.48636E-07         0.26003E-10         0.00000E+00
    0.48636E-07         0.42083E-10         0.00000E+00
    0.48635E-07         0.57168E-10         0.00000E+00
    0.48634E-07         0.71286E-10         0.00000E+00
    0.48632E-07         0.84465E-10         0.00000E+00
    0.48631E-07         0.96732E-10         0.00000E+00
    0.48629E-07         0.10811E-09         0.00000E+00
    0.48627E-07         0.11863E-09         0.00000E+00
    0.48625E-07         0.12830E-09         0.00000E+00
    0.48622E-07         0.13716E-09         0.00000E+00
    0.48620E-07         0.14523E-09         0.00000E+00
    0.48617E-07         0.15253E-09         0.00000E+00
    0.48614E-07         0.15907E-09         0.00000E+00
    0.48611E-07         0.16488E-09         0.00000E+00
    0.48608E-07         0.16998E-09         0.00000E+00
    0.48605E-07         0.17438E-09         0.00000E+00
    0.48601E-07         0.17810E-09         0.00000E+00
    0.48598E-07         0.18116E-09         0.00000E+00
    0.48594E-07         0.18358E-09         0.00000E+00
    0.48591E-07         0.18536E-09         0.00000E+00
    0.48587E-07         0.18653E-09         0.00000E+00
    0.48583E-07         0.18709E-09         0.00000E+00
    0.48580E-07         0.18707E-09         0.00000E+00
    0.48576E-07         0.18646E-09         0.00000E+00
    0.48572E-07         0.18529E-09         0.00000E+00
    0.48569E-07         0.18357E-09         0.00000E+00
    0.48565E-07         0.18129E-09         0.00000E+00
    0.48561E-07         0.17848E-09         0.00000E+00
    0.48558E-07         0.17515E-09         0.00000E+00
    0.48554E-07         0.17129E-09         0.00000E+00
    0.48551E-07         0.16693E-09         0.00000E+00
    0.48547E-07         0.16206E-09         0.00000E+00
    0.48544E-07         0.15669E-09         0.00000E+00
    0.48541E-07         0.15083E-09         0.00000E+00
    0.48538E-07         0.14448E-09         0.00000E+00
    0.48535E-07         0.13766E-09         0.00000E+00
    0.48532E-07         0.13035E-09         0.00000E+00
    0.48530E-07         0.12258E-09         0.00000E+00
    0.48527E-07         0.11433E-09         0.00000E+00
    0.48525E-07         0.10562E-09         0.00000E+00
    0.48523E-07         0.96451E-10         0.00000E+00
    0.48521E-07         0.86818E-10         0.00000E+00
    0.48519E-07         0.76726E-10         0.00000E+00
    0.48518E-07         0.66178E-10         0.00000E+00
    0.48516E-07         0.55173E-10         0.00000E+00
    0.48515E-07         0.43712E-10         0.00000E+00
    0.48515E-07         0.31797E-10         0.00000E+00
    0.48514E-07         0.19427E-10         0.00000E+00
    0.48514E-07         0.66023E-11         0.00000E+00
    0.48062E-07         0.95616E-11         0.00000E+00
    0.48062E-07         0.27958E-10         0.00000E+00
    0.48061E-07         0.45286E-10         0.00000E+00
    0.48060E-07         0.61573E-10         0.00000E+00
    0.48059E-07         0.76845E-10         0.00000E+00
    0.48058E-07         0.91129E-10         0.00000E+00
    0.48057E-07         0.10445E-09         0.00000E+00
    0.48056E-07         0.11683E-09         0.00000E+00
    0.48054E-07         0.12829E-09         0.00000E+00
    0.48052E-07         0.13887E-09         0.00000E+00
    0.48050E-07         0.14857E-09         0.00000E+00
    0.48048E-07         0.15742E-09         0.00000E+00
    0.48046E-07         0.16544E-09         0.00000E+00
    0.48043E-07         0.17266E-09         0.00000E+00
    0.48041E-07         0.17908E-09         0.00000E+00
    0.48038E-07         0.18474E-09         0.00000E+00
    0.48035E-07         0.18964E-09         0.00000E+00
    0.48032E-07         0.19381E-09         0.00000E+00
    0.48030E-07         0.19725E-09         0.00000E+00
    0.48027E-07         0.19999E-09         0.00000E+00
    0.48024E-07         0.20205E-09         0.00000E+00
    0.48020E-07         0.20342E-09         0.00000E+00
    0.48017E-07         0.20414E-09         0.00000E+00
    0.48014E-07         0.20421E-09         0.00000E+00
    0.48011E-07         0.20364E-09         0.00000E+00
    0.48008E-07         0.20245E-09         0.00000E+00
    0.48005E-07         0.20064E-09         0.00000E+00
    0.48002E-07         0.19823E-09         0.00000E+00
    0.47999E-07         0.19523E-09         0.00000E+00
    0.47995E-07         0.19165E-09         0.00000E+00
    0.47992E-07         0.18749E-09         0.00000E+00
    0.47989E-07         0.18277E-09         0.00000E+00
    0.47987E-07         0.17748E-09         0.00000E+00
    0.47984E-07         0.17165E-09         0.00000E+00
    0.47981E-07         0.16527E-09         0.00000E+00
    0.47978E-07         0.15835E-09         0.00000E+00
    0.47976E-07         0.15089E-09         0.00000E+00
    0.47974E-07         0.14291E-09         0.00000E+00
    0.47971E-07         0.13441E-09         0.00000E+00
    0.47969E-07         0.12539E-09         0.00000E+00
    0.47967E-07         0.11585E-09         0.00000E+00
    0.47965E-07         0.10580E-09         0.00000E+00
    0.47964E-07         0.95240E-10         0.00000E+00
    0.47962E-07         0.84175E-10         0.00000E+00
    0.47961E-07         0.72605E-10         0.00000E+00
    0.47960E-07         0.60533E-10         0.00000E+00
    0.47959E-07         0.47960E-10         0.00000E+00
    0.47958E-07         0.34887E-10         0.00000E+00
    0.47958E-07         0.21314E-10         0.00000E+00
    0.47958E-07         0.72434E-11         0.00000E+00
    0.47462E-07         0.10099E-10         0.00000E+00
    0.47462E-07         0.29550E-10         0.00000E+00
    0.47462E-07         0.47899E-10         0.00000E+00
    0.47461E-07         0.65171E-10         0.00000E+00
    0.47460E-07         0.81394E-10         0.00000E+00
    0.47459E-07         0.96589E-10         0.00000E+00
    0.47458E-07         0.11078E-09         0.00000E+00
    0.47457E-07         0.12400E-09         0.00000E+00
    0.47456E-07         0.13625E-09         0.00000E+00
    0.47454E-07         0.14758E-09         0.00000E+00
    0.47453E-07         0.15798E-09         0.00000E+00
    0.47451E-07         0.16750E-09         0.00000E+00
    0.47449E-07         0.17614E-09         0.00000E+00
    0.47447E-07         0.18393E-09         0.00000E+00
    0.47445E-07         0.19088E-09         0.00000E+00
    0.47443E-07         0.19702E-09         0.00000E+00
    0.47441E-07         0.20235E-09         0.00000E+00
    0.47438E-07         0.20690E-09         0.00000E+00
    0.47436E-07         0.21069E-09         0.00000E+00
    0.47433E-07         0.21372E-09         0.00000E+00
    0.47431E-07         0.21601E-09         0.00000E+00
    0.47428E-07         0.21758E-09         0.00000E+00
    0.47426E-07         0.21844E-09         0.00000E+00
    0.47423E-07         0.21860E-09         0.00000E+00
    0.47421E-07         0.21808E-09         0.00000E+00
    0.47418E-07         0.21688E-09         0.00000E+00
    0.47415E-07         0.21503E-09         0.00000E+00
    0.47413E-07         0.21252E-09         0.00000E+00
    0.47410E-07         0.20937E-09         0.00000E+00
    0.47408E-07         0.20559E-09         0.00000E+00
    0.47405E-07         0.20119E-09         0.00000E+00
    0.47403E-07         0.19617E-09         0.00000E+00
    0.47400E-07         0.19055E-09         0.00000E+00
    0.47398E-07         0.18433E-09         0.00000E+00
    0.47396E-07         0.17752E-09         0.00000E+00
    0.47393E-07         0.17012E-09         0.00000E+00
    0.47391E-07         0.16215E-09         0.00000E+00
    0.47389E-07         0.15360E-09         0.00000E+00
    0.47387E-07         0.14449E-09         0.00000E+00
    0.47386E-07         0.13481E-09         0.00000E+00
    0.47384E-07         0.12457E-09         0.00000E+00
    0.47382E-07         0.11378E-09         0.00000E+00
    0.47381E-07         0.10243E-09         0.00000E+00
    0.47380E-07         0.90540E-10         0.00000E+00
    0.47379E-07         0.78101E-10         0.00000E+00
    0.47378E-07         0.65120E-10         0.00000E+00
    0.47377E-07         0.51596E-10         0.00000E+00
    0.47377E-07         0.37534E-10         0.00000E+00
    0.47376E-07         0.22932E-10         0.00000E+00
    0.47376E-07         0.77932E-11         0.00000E+00
    0.46842E-07         0.10521E-10         0.00000E+00
    0.46842E-07         0.30802E-10         0.00000E+00
    0.46842E-07         0.49958E-10         0.00000E+00
    0.46841E-07         0.68015E-10         0.00000E+00
    0.46841E-07         0.84995E-10         0.00000E+00
    0.46840E-07         0.10092E-09         0.00000E+00
    0.46839E-07         0.11582E-09         0.00000E+00
    0.46838E-07         0.12971E-09         0.00000E+00
    0.46837E-07         0.14261E-09         0.00000E+00
    0.46836E-07         0.15454E-09         0.00000E+00
    0.46835E-07         0.16553E-09         0.00000E+00
    0.46833E-07         0.17559E-09         0.00000E+00
    0.46832E-07         0.18475E-09         0.00000E+00
    0.46830E-07         0.19301E-09         0.00000E+00
    0.46828E-07         0.20040E-09         0.00000E+00
    0.46827E-07         0.20694E-09         0.00000E+00
    0.46825E-07         0.21264E-09         0.00000E+00
    0.46823E-07         0.21752E-09         0.00000E+00
    0.46821E-07         0.22159E-09         0.00000E+00
    0.46819E-07         0.22488E-09         0.00000E+00
    0.46817E-07         0.22738E-09         0.00000E+00
    0.46815E-07         0.22912E-09         0.00000E+00
    0.46813E-07         0.23012E-09         0.00000E+00
    0.46811E-07         0.23037E-09         0.00000E+00
    0.46809E-07         0.22990E-09         0.00000E+00
    0.46807E-07         0.22872E-09         0.00000E+00
    0.46805E-07         0.22683E-09         0.00000E+00
    0.46803E-07         0.22426E-09         0.00000E+00
    0.46801E-07         0.22100E-09         0.00000E+00
    0.46798E-07         0.21707E-09         0.00000E+00
    0.46796E-07         0.21248E-09         0.00000E+00
    0.46794E-07         0.20724E-09         0.00000E+00
    0.46792E-07         0.20135E-09         0.00000E+00
    0.46791E-07         0.19482E-09         0.00000E+00
    0.46789E-07         0.18767E-09         0.00000E+00
    0.46787E-07         0.17988E-09         0.00000E+00
    0.46785E-07         0.17149E-09         0.00000E+00
    0.46784E-07         0.16247E-09         0.00000E+00
    0.46782E-07         0.15286E-09         0.00000E+00
    0.46781E-07         0.14264E-09         0.00000E+00
    0.46779E-07         0.13183E-09         0.00000E+00
    0.46778E-07         0.12042E-09         0.00000E+00
    0.46777E-07         0.10843E-09         0.00000E+00
    0.46776E-07         0.95850E-10         0.00000E+00
    0.46775E-07         0.82690E-10         0.00000E+00
    0.46774E-07         0.68952E-10         0.00000E+00
    0.46774E-07         0.54637E-10         0.00000E+00
    0.46773E-07         0.39748E-10         0.00000E+00
    0.46773E-07         0.24287E-10         0.00000E+00
    0.46773E-07         0.82540E-11         0.00000E+00
    0.46205E-07         0.10836E-10         0.00000E+00
    0.46205E-07         0.31738E-10         0.00000E+00
    0.46205E-07         0.51504E-10         0.00000E+00
    0.46204E-07         0.70155E-10         0.00000E+00
    0.46204E-07         0.87716E-10         0.00000E+00
    0.46204E-07         0.10421E-09         0.00000E+00
    0.46203E-07         0.11965E-09         0.00000E+00
    0.46202E-07         0.13406E-09         0.00000E+00
    0.46201E-07         0.14747E-09         0.00000E+00
    0.46201E-07         0.15988E-09         0.00000E+00
    0.46200E-07         0.17133E-09         0.00000E+00
    0.46199E-07         0.18183E-09         0.00000E+00
    0.46198E-07         0.19139E-09         0.00000E+00
    0.46196E-07         0.20004E-09         0.00000E+00
    0.46195E-07         0.20779E-09         0.00000E+00
    0.46194E-07         0.21465E-09         0.00000E+00
    0.46192E-07         0.22066E-09         0.00000E+00
    0.46191E-07         0.22581E-09         0.00000E+00
    0.46190E-07         0.23012E-09         0.00000E+00
    0.46188E-07         0.23362E-09         0.00000E+00
    0.46187E-07         0.23631E-09         0.00000E+00
    0.46185E-07         0.23820E-09         0.00000E+00
    0.46183E-07         0.23931E-09         0.00000E+00
    0.46182E-07         0.23966E-09         0.00000E+00
    0.46180E-07         0.23924E-09         0.00000E+00
    0.46179E-07         0.23809E-09         0.00000E+00
    0.46177E-07         0.23620E-09         0.00000E+00
    0.46175E-07         0.23358E-09         0.00000E+00
    0.46174E-07         0.23025E-09         0.00000E+00
    0.46172E-07         0.22622E-09         0.00000E+00
    0.46170E-07         0.22149E-09         0.00000E+00
    0.46169E-07         0.21608E-09         0.00000E+00
    0.46167E-07         0.20999E-09         0.00000E+00
    0.46166E-07         0.20322E-09         0.00000E+00
    0.46164E-07         0.19580E-09         0.00000E+00
    0.46163E-07         0.18772E-09         0.00000E+00
    0.46162E-07         0.17899E-09         0.00000E+00
    0.46160E-07         0.16961E-09         0.00000E+00
    0.46159E-07         0.15960E-09         0.00000E+00
    0.46158E-07         0.14896E-09         0.00000E+00
    0.46157E-07         0.13768E-09         0.00000E+00
    0.46156E-07         0.12579E-09         0.00000E+00
    0.46155E-07         0.11328E-09         0.00000E+00
    0.46154E-07         0.10015E-09         0.00000E+00
    0.46154E-07         0.86407E-10         0.00000E+00
    0.46153E-07         0.72058E-10         0.00000E+00
    0.46152E-07         0.57104E-10         0.00000E+00
    0.46152E-07         0.41546E-10         0.00000E+00
    0.46152E-07         0.25387E-10         0.00000E+00
    0.46152E-07         0.86286E-11         0.00000E+00
    0.45556E-07         0.11051E-10         0.00000E+00
    0.45556E-07         0.32383E-10         0.00000E+00
    0.45556E-07         0.52574E-10         0.00000E+00
    0.45555E-07         0.71646E-10         0.00000E+00
    0.45555E-07         0.89620E-10         0.00000E+00
    0.45555E-07         0.10652E-09         0.00000E+00
    0.45554E-07         0.12235E-09         0.00000E+00
    0.45554E-07         0.13715E-09         0.00000E+00
    0.45553E-07         0.15093E-09         0.00000E+00
    0.45553E-07         0.16371E-09         0.00000E+00
    0.45552E-07         0.17550E-09         0.00000E+00
    0.45552E-07         0.18632E-09         0.00000E+00
    0.45551E-07         0.19620E-09         0.00000E+00
    0.45550E-07         0.20515E-09         0.00000E+00
    0.45549E-07         0.21317E-09         0.00000E+00
    0.45548E-07         0.22030E-09         0.00000E+00
    0.45547E-07         0.22654E-09         0.00000E+00
    0.45546E-07         0.23191E-09         0.00000E+00
    0.45545E-07         0.23643E-09         0.00000E+00
    0.45544E-07         0.24010E-09         0.00000E+00
    0.45543E-07         0.24294E-09         0.00000E+00
    0.45542E-07         0.24496E-09         0.00000E+00
    0.45541E-07         0.24618E-09         0.00000E+00
    0.45540E-07         0.24661E-09         0.00000E+00
    0.45538E-07         0.24626E-09         0.00000E+00
    0.45537E-07         0.24514E-09         0.00000E+00
    0.45536E-07         0.24326E-09         0.00000E+00
    0.45535E-07         0.24063E-09         0.00000E+00
    0.45534E-07         0.23726E-09         0.00000E+00
    0.45533E-07         0.23316E-09         0.00000E+00
    0.45531E-07         0.22834E-09         0.00000E+00
    0.45530E-07         0.22281E-09         0.00000E+00
    0.45529E-07         0.21657E-09         0.00000E+00
    0.45528E-07         0.20964E-09         0.00000E+00
    0.45527E-07         0.20202E-09         0.00000E+00
    0.45526E-07         0.19372E-09         0.00000E+00
    0.45525E-07         0.18475E-09         0.00000E+00
    0.45524E-07         0.17510E-09         0.00000E+00
    0.45523E-07         0.16479E-09         0.00000E+00
    0.45522E-07         0.15383E-09         0.00000E+00
    0.45521E-07         0.14221E-09         0.00000E+00
    0.45521E-07         0.12994E-09         0.00000E+00
    0.45520E-07         0.11703E-09         0.00000E+00
    0.45519E-07         0.10348E-09         0.00000E+00
    0.45519E-07         0.89291E-10         0.00000E+00
    0.45518E-07         0.74472E-10         0.00000E+00
    0.45518E-07         0.59023E-10         0.00000E+00
    0.45518E-07         0.42946E-10         0.00000E+00
    0.45517E-07         0.26245E-10         0.00000E+00
    0.45517E-07         0.89210E-11         0.00000E+00
    0.44898E-07         0.11175E-10         0.00000E+00
    0.44898E-07         0.32759E-10         0.00000E+00
    0.44898E-07         0.53206E-10         0.00000E+00
    0.44898E-07         0.72538E-10         0.00000E+00
    0.44898E-07         0.90772E-10         0.00000E+00
    0.44898E-07         0.10793E-09         0.00000E+00
    0.44898E-07         0.12402E-09         0.00000E+00
    0.44897E-07         0.13908E-09         0.00000E+00
    0.44897E-07         0.15311E-09         0.00000E+00
    0.44897E-07         0.16613E-09         0.00000E+00
    0.44896E-07         0.17816E-09         0.00000E+00
    0.44896E-07         0.18922E-09         0.00000E+00
    0.44896E-07         0.19932E-09         0.00000E+00
    0.44895E-07         0.20848E-09         0.00000E+00
    0.44895E-07         0.21671E-09         0.00000E+00
    0.44894E-07         0.22403E-09         0.00000E+00
    0.44894E-07         0.23046E-09         0.00000E+00
    0.44893E-07         0.23599E-09         0.00000E+00
    0.44892E-07         0.24066E-09         0.00000E+00
    0.44892E-07         0.24447E-09         0.00000E+00
    0.44891E-07         0.24744E-09         0.00000E+00
    0.44890E-07         0.24957E-09         0.00000E+00
    0.44889E-07         0.25089E-09         0.00000E+00
    0.44889E-07         0.25139E-09         0.00000E+00
    0.44888E-07         0.25110E-09         0.00000E+00
    0.44887E-07         0.25002E-09         0.00000E+00
    0.44886E-07         0.24816E-09         0.00000E+00
    0.44886E-07         0.24554E-09         0.00000E+00
    0.44885E-07         0.24216E-09         0.00000E+00
    0.44884E-07         0.23803E-09         0.00000E+00
    0.44883E-07         0.23316E-09         0.00000E+00
    0.44883E-07         0.22756E-09         0.00000E+00
    0.44882E-07         0.22124E-09         0.00000E+00
    0.44881E-07         0.21420E-09         0.00000E+00
    0.44880E-07         0.20646E-09         0.00000E+00
    0.44880E-07         0.19801E-09         0.00000E+00
    0.44879E-07         0.18887E-09         0.00000E+00
    0.44878E-07         0.17904E-09         0.00000E+00
    0.44878E-07         0.16852E-09         0.00000E+00
    0.44877E-07         0.15733E-09         0.00000E+00
    0.44877E-07         0.14547E-09         0.00000E+00
    0.44876E-07         0.13294E-09         0.00000E+00
    0.44876E-07         0.11975E-09         0.00000E+00
    0.44875E-07         0.10590E-09         0.00000E+00
    0.44875E-07         0.91389E-10         0.00000E+00
    0.44875E-07         0.76230E-10         0.00000E+00
    0.44874E-07         0.60422E-10         0.00000E+00
    0.44874E-07         0.43969E-10         0.00000E+00
    0.44874E-07         0.26873E-10         0.00000E+00
    0.44874E-07         0.91351E-11         0.00000E+00
    0.44237E-07         0.11216E-10         0.00000E+00
    0.44237E-07         0.32890E-10         0.00000E+00
    0.44237E-07         0.53438E-10         0.00000E+00
    0.44237E-07         0.72880E-10         0.00000E+00
    0.44237E-07         0.91234E-10         0.00000E+00
    0.44237E-07         0.10852E-09         0.00000E+00
    0.44237E-07         0.12474E-09         0.00000E+00
    0.44237E-07         0.13993E-09         0.00000E+00
    0.44237E-07         0.15410E-09         0.00000E+00
    0.44236E-07         0.16727E-09         0.00000E+00
    0.44236E-07         0.17944E-09         0.00000E+00
    0.44236E-07         0.19064E-09         0.00000E+00
    0.44236E-07         0.20088E-09         0.00000E+00
    0.44236E-07         0.21018E-09         0.00000E+00
    0.44236E-07         0.21855E-09         0.00000E+00
    0.44236E-07         0.22600E-09         0.00000E+00
    0.44235E-07         0.23255E-09         0.00000E+00
    0.44235E-07         0.23820E-09         0.00000E+00
    0.44235E-07         0.24299E-09         0.00000E+00
    0.44234E-07         0.24690E-09         0.00000E+00
    0.44234E-07         0.24997E-09         0.00000E+00
    0.44234E-07         0.25219E-09         0.00000E+00
    0.44233E-07         0.25358E-09         0.00000E+00
    0.44233E-07         0.25416E-09         0.00000E+00
    0.44233E-07         0.25392E-09         0.00000E+00
    0.44232E-07         0.25289E-09         0.00000E+00
    0.44232E-07         0.25107E-09         0.00000E+00
    0.44232E-07         0.24847E-09         0.00000E+00
    0.44231E-07         0.24511E-09         0.00000E+00
    0.44231E-07         0.24098E-09         0.00000E+00
    0.44230E-07         0.23610E-09         0.00000E+00
    0.44230E-07         0.23048E-09         0.00000E+00
    0.44230E-07         0.22412E-09         0.00000E+00
    0.44229E-07         0.21703E-09         0.00000E+00
    0.44229E-07         0.20922E-09         0.00000E+00
    0.44228E-07         0.20069E-09         0.00000E+00
    0.44228E-07         0.19146E-09         0.00000E+00
    0.44228E-07         0.18153E-09         0.00000E+00
    0.44227E-07         0.17089E-09         0.00000E+00
    0.44227E-07         0.15957E-09         0.00000E+00
    0.44227E-07         0.14756E-09         0.00000E+00
    0.44226E-07         0.13487E-09         0.00000E+00
    0.44226E-07         0.12150E-09         0.00000E+00
    0.44226E-07         0.10746E-09         0.00000E+00
    0.44226E-07         0.92747E-10         0.00000E+00
    0.44225E-07         0.77372E-10         0.00000E+00
    0.44225E-07         0.61334E-10         0.00000E+00
    0.44225E-07         0.44637E-10         0.00000E+00
    0.44225E-07         0.27284E-10         0.00000E+00
    0.44225E-07         0.92757E-11         0.00000E+00
    0.43575E-07         0.11181E-10         0.00000E+00
    0.43575E-07         0.32797E-10         0.00000E+00
    0.43575E-07         0.53305E-10         0.00000E+00
    0.43575E-07         0.72723E-10         0.00000E+00
    0.43575E-07         0.91067E-10         0.00000E+00
    0.43575E-07         0.10835E-09         0.00000E+00
    0.43575E-07         0.12460E-09         0.00000E+00
    0.43576E-07         0.13981E-09         0.00000E+00
    0.43576E-07         0.15402E-09         0.00000E+00
    0.43576E-07         0.16723E-09         0.00000E+00
    0.43576E-07         0.17946E-09         0.00000E+00
    0.43576E-07         0.19071E-09         0.00000E+00
    0.43576E-07         0.20102E-09         0.00000E+00
    0.43576E-07         0.21038E-09         0.00000E+00
    0.43576E-07         0.21882E-09         0.00000E+00
    0.43576E-07         0.22634E-09         0.00000E+00
    0.43577E-07         0.23297E-09         0.00000E+00
    0.43577E-07         0.23870E-09         0.00000E+00
    0.43577E-07         0.24355E-09         0.00000E+00
    0.43577E-07         0.24754E-09         0.00000E+00
    0.43577E-07         0.25068E-09         0.00000E+00
    0.43577E-07         0.25297E-09         0.00000E+00
    0.43577E-07         0.25443E-09         0.00000E+00
    0.43577E-07         0.25506E-09         0.00000E+00
    0.43577E-07         0.25489E-09         0.00000E+00
    0.43577E-07         0.25391E-09         0.00000E+00
    0.43577E-07         0.25214E-09         0.00000E+00
    0.43577E-07         0.24958E-09         0.00000E+00
    0.43577E-07         0.24625E-09         0.00000E+00
    0.43577E-07         0.24215E-09         0.00000E+00
    0.43577E-07         0.23730E-09         0.00000E+00
    0.43576E-07         0.23169E-09         0.00000E+00
    0.43576E-07         0.22534E-09         0.00000E+00
    0.43576E-07         0.21825E-09         0.00000E+00
    0.43576E-07         0.21043E-09         0.00000E+00
    0.43576E-07         0.20189E-09         0.00000E+00
    0.43576E-07         0.19263E-09         0.00000E+00
    0.43576E-07         0.18266E-09         0.00000E+00
    0.43576E-07         0.17199E-09         0.00000E+00
    0.43576E-07         0.16062E-09         0.00000E+00
    0.43576E-07         0.14855E-09         0.00000E+00
    0.43576E-07         0.13579E-09         0.00000E+00
    0.43575E-07         0.12235E-09         0.00000E+00
    0.43575E-07         0.10822E-09         0.00000E+00
    0.43575E-07         0.93417E-10         0.00000E+00
    0.43575E-07         0.77939E-10         0.00000E+00
    0.43575E-07         0.61790E-10         0.00000E+00
    0.43575E-07         0.44974E-10         0.00000E+00
    0.43575E-07         0.27492E-10         0.00000E+00
    0.43575E-07         0.93475E-11         0.00000E+00
    0.42917E-07         0.11077E-10         0.00000E+00
    0.42917E-07         0.32501E-10         0.00000E+00
    0.42917E-07         0.52842E-10         0.00000E+00
    0.42917E-07         0.72113E-10         0.00000E+00
    0.42917E-07         0.90331E-10         0.00000E+00
    0.42918E-07         0.10751E-09         0.00000E+00
    0.42918E-07         0.12366E-09         0.00000E+00
    0.42918E-07         0.13881E-09         0.00000E+00
    0.42918E-07         0.15296E-09         0.00000E+00
    0.42919E-07         0.16612E-09         0.00000E+00
    0.42919E-07         0.17832E-09         0.00000E+00
    0.42919E-07         0.18956E-09         0.00000E+00
    0.42920E-07         0.19986E-09         0.00000E+00
    0.42920E-07         0.20922E-09         0.00000E+00
    0.42920E-07         0.21767E-09         0.00000E+00
    0.42921E-07         0.22521E-09         0.00000E+00
    0.42921E-07         0.23186E-09         0.00000E+00
    0.42922E-07         0.23762E-09         0.00000E+00
    0.42922E-07         0.24251E-09         0.00000E+00
    0.42922E-07         0.24655E-09         0.00000E+00
    0.42923E-07         0.24973E-09         0.00000E+00
    0.42923E-07         0.25207E-09         0.00000E+00
    0.42923E-07         0.25358E-09         0.00000E+00
    0.42924E-07         0.25427E-09         0.00000E+00
    0.42924E-07         0.25415E-09         0.00000E+00
    0.42924E-07         0.25322E-09         0.00000E+00
    0.42925E-07         0.25151E-09         0.00000E+00
    0.42925E-07         0.24901E-09         0.00000E+00
    0.42925E-07         0.24573E-09         0.00000E+00
    0.42925E-07         0.24169E-09         0.00000E+00
    0.42926E-07         0.23689E-09         0.00000E+00
    0.42926E-07         0.23133E-09         0.00000E+00
    0.42926E-07         0.22503E-09         0.00000E+00
    0.42926E-07         0.21799E-09         0.00000E+00
    0.42926E-07         0.21021E-09         0.00000E+00
    0.42927E-07         0.20171E-09         0.00000E+00
    0.42927E-07         0.19249E-09         0.00000E+00
    0.42927E-07         0.18256E-09         0.00000E+00
    0.42927E-07         0.17192E-09         0.00000E+00
    0.42927E-07         0.16057E-09         0.00000E+00
    0.42927E-07         0.14853E-09         0.00000E+00
    0.42927E-07         0.13579E-09         0.00000E+00
    0.42927E-07         0.12236E-09         0.00000E+00
    0.42928E-07         0.10824E-09         0.00000E+00
    0.42928E-07         0.93447E-10         0.00000E+00
    0.42928E-07         0.77973E-10         0.00000E+00
    0.42928E-07         0.61824E-10         0.00000E+00
    0.42928E-07         0.45003E-10         0.00000E+00
    0.42928E-07         0.27512E-10         0.00000E+00
    0.42928E-07         0.93554E-11         0.00000E+00
    0.42266E-07         0.10912E-10         0.00000E+00
    0.42266E-07         0.32024E-10         0.00000E+00
    0.42266E-07         0.52081E-10         0.00000E+00
    0.42267E-07         0.71096E-10         0.00000E+00
    0.42267E-07         0.89082E-10         0.00000E+00
    0.42267E-07         0.10605E-09         0.00000E+00
    0.42268E-07         0.12202E-09         0.00000E+00
    0.42268E-07         0.13700E-09         0.00000E+00
    0.42268E-07         0.15101E-09         0.00000E+00
    0.42269E-07         0.16405E-09         0.00000E+00
    0.42269E-07         0.17614E-09         0.00000E+00
    0.42270E-07         0.18729E-09         0.00000E+00
    0.42271E-07         0.19752E-09         0.00000E+00
    0.42271E-07         0.20682E-09         0.00000E+00
    0.42272E-07         0.21523E-09         0.00000E+00
    0.42272E-07         0.22274E-09         0.00000E+00
    0.42273E-07         0.22937E-09         0.00000E+00
    0.42274E-07         0.23512E-09         0.00000E+00
    0.42274E-07         0.24002E-09         0.00000E+00
    0.42275E-07         0.24406E-09         0.00000E+00
    0.42275E-07         0.24727E-09         0.00000E+00
    0.42276E-07         0.24964E-09         0.00000E+00
    0.42277E-07         0.25119E-09         0.00000E+00
    0.42277E-07         0.25192E-09         0.00000E+00
    0.42278E-07         0.25186E-09         0.00000E+00
    0.42279E-07         0.25099E-09         0.00000E+00
    0.42279E-07         0.24934E-09         0.00000E+00
    0.42280E-07         0.24691E-09         0.00000E+00
    0.42280E-07         0.24370E-09         0.00000E+00
    0.42281E-07         0.23974E-09         0.00000E+00
    0.42281E-07         0.23501E-09         0.00000E+00
    0.42282E-07         0.22954E-09         0.00000E+00
    0.42282E-07         0.22332E-09         0.00000E+00
    0.42283E-07         0.21637E-09         0.00000E+00
    0.42283E-07         0.20869E-09         0.00000E+00
    0.42284E-07         0.20028E-09         0.00000E+00
    0.42284E-07         0.19115E-09         0.00000E+00
    0.42284E-07         0.18131E-09         0.00000E+00
    0.42285E-07         0.17077E-09         0.00000E+00
    0.42285E-07         0.15952E-09         0.00000E+00
    0.42285E-07         0.14757E-09         0.00000E+00
    0.42286E-07         0.13493E-09         0.00000E+00
    0.42286E-07         0.12160E-09         0.00000E+00
    0.42286E-07         0.10759E-09         0.00000E+00
    0.42286E-07         0.92890E-10         0.00000E+00
    0.42286E-07         0.77516E-10         0.00000E+00
    0.42287E-07         0.61468E-10         0.00000E+00
    0.42287E-07         0.44748E-10         0.00000E+00
    0.42287E-07         0.27359E-10         0.00000E+00
    0.42287E-07         0.93043E-11         0.00000E+00
    0.41626E-07         0.10691E-10         0.00000E+00
    0.41626E-07         0.31385E-10         0.00000E+00
    0.41627E-07         0.51055E-10         0.00000E+00
    0.41627E-07         0.69714E-10         0.00000E+00
    0.41627E-07         0.87375E-10         0.00000E+00
    0.41628E-07         0.10405E-09         0.00000E+00
    0.41628E-07         0.11975E-09         0.00000E+00
    0.41629E-07         0.13448E-09         0.00000E+00
    0.41629E-07         0.14827E-09         0.00000E+00
    0.41630E-07         0.16111E-09         0.00000E+00
    0.41631E-07         0.17303E-09         0.00000E+00
    0.41631E-07         0.18403E-09         0.00000E+00
    0.41632E-07         0.19412E-09         0.00000E+00
    0.41633E-07         0.20332E-09         0.00000E+00
    0.41634E-07         0.21163E-09         0.00000E+00
    0.41635E-07         0.21906E-09         0.00000E+00
    0.41635E-07         0.22563E-09         0.00000E+00
    0.41636E-07         0.23134E-09         0.00000E+00
    0.41637E-07         0.23621E-09         0.00000E+00
    0.41638E-07         0.24024E-09         0.00000E+00
    0.41639E-07         0.24345E-09         0.00000E+00
    0.41640E-07         0.24583E-09         0.00000E+00
    0.41641E-07         0.24741E-09         0.00000E+00
    0.41642E-07         0.24818E-09         0.00000E+00
    0.41643E-07         0.24816E-09         0.00000E+00
    0.41643E-07         0.24735E-09         0.00000E+00
    0.41644E-07         0.24577E-09         0.00000E+00
    0.41645E-07         0.24342E-09         0.00000E+00
    0.41646E-07         0.24030E-09         0.00000E+00
    0.41647E-07         0.23643E-09         0.00000E+00
    0.41647E-07         0.23181E-09         0.00000E+00
    0.41648E-07         0.22644E-09         0.00000E+00
    0.41649E-07         0.22035E-09         0.00000E+00
    0.41650E-07         0.21352E-09         0.00000E+00
    0.41650E-07         0.20597E-09         0.00000E+00
    0.41651E-07         0.19770E-09         0.00000E+00
    0.41652E-07         0.18872E-09         0.00000E+00
    0.41652E-07         0.17903E-09         0.00000E+00
    0.41653E-07         0.16864E-09         0.00000E+00
    0.41653E-07         0.15755E-09         0.00000E+00
    0.41654E-07         0.14577E-09         0.00000E+00
    0.41654E-07         0.13330E-09         0.00000E+00
    0.41654E-07         0.12014E-09         0.00000E+00
    0.41655E-07         0.10631E-09         0.00000E+00
    0.41655E-07         0.91795E-10         0.00000E+00
    0.41655E-07         0.76611E-10         0.00000E+00
    0.41656E-07         0.60756E-10         0.00000E+00
    0.41656E-07         0.44234E-10         0.00000E+00
    0.41656E-07         0.27047E-10         0.00000E+00
    0.41656E-07         0.91990E-11         0.00000E+00
    0.41001E-07         0.10422E-10         0.00000E+00
    0.41001E-07         0.30603E-10         0.00000E+00
    0.41001E-07         0.49795E-10         0.00000E+00
    0.41002E-07         0.68011E-10         0.00000E+00
    0.41002E-07         0.85261E-10         0.00000E+00
    0.41003E-07         0.10156E-09         0.00000E+00
    0.41003E-07         0.11691E-09         0.00000E+00
    0.41004E-07         0.13133E-09         0.00000E+00
    0.41005E-07         0.14482E-09         0.00000E+00
    0.41005E-07         0.15741E-09         0.00000E+00
    0.41006E-07         0.16909E-09         0.00000E+00
    0.41007E-07         0.17988E-09         0.00000E+00
    0.41008E-07         0.18978E-09         0.00000E+00
    0.41009E-07         0.19882E-09         0.00000E+00
    0.41010E-07         0.20699E-09         0.00000E+00
    0.41011E-07         0.21431E-09         0.00000E+00
    0.41012E-07         0.22078E-09         0.00000E+00
    0.41013E-07         0.22642E-09         0.00000E+00
    0.41014E-07         0.23123E-09         0.00000E+00
    0.41015E-07         0.23522E-09         0.00000E+00
    0.41017E-07         0.23840E-09         0.00000E+00
    0.41018E-07         0.24079E-09         0.00000E+00
    0.41019E-07         0.24237E-09         0.00000E+00
    0.41020E-07         0.24318E-09         0.00000E+00
    0.41021E-07         0.24320E-09         0.00000E+00
    0.41022E-07         0.24245E-09         0.00000E+00
    0.41023E-07         0.24094E-09         0.00000E+00
    0.41024E-07         0.23867E-09         0.00000E+00
    0.41025E-07         0.23566E-09         0.00000E+00
    0.41026E-07         0.23190E-09         0.00000E+00
    0.41027E-07         0.22740E-09         0.00000E+00
    0.41028E-07         0.22217E-09         0.00000E+00
    0.41029E-07         0.21622E-09         0.00000E+00
    0.41030E-07         0.20955E-09         0.00000E+00
    0.41031E-07         0.20217E-09         0.00000E+00
    0.41032E-07         0.19408E-09         0.00000E+00
    0.41033E-07         0.18529E-09         0.00000E+00
    0.41034E-07         0.17580E-09         0.00000E+00
    0.41034E-07         0.16561E-09         0.00000E+00
    0.41035E-07         0.15474E-09         0.00000E+00
    0.41036E-07         0.14319E-09         0.00000E+00
    0.41036E-07         0.13095E-09         0.00000E+00
    0.41037E-07         0.11804E-09         0.00000E+00
    0.41037E-07         0.10446E-09         0.00000E+00
    0.41037E-07         0.90212E-10         0.00000E+00
    0.41038E-07         0.75296E-10         0.00000E+00
    0.41038E-07         0.59719E-10         0.00000E+00
    0.41038E-07         0.43483E-10         0.00000E+00
    0.41038E-07         0.26591E-10         0.00000E+00
    0.41038E-07         0.90445E-11         0.00000E+00
    0.40394E-07         0.10111E-10         0.00000E+00
    0.40394E-07         0.29695E-10         0.00000E+00
    0.40394E-07         0.48329E-10         0.00000E+00
    0.40394E-07         0.66024E-10         0.00000E+00
    0.40395E-07         0.82790E-10         0.00000E+00
    0.40395E-07         0.98637E-10         0.00000E+00
    0.40396E-07         0.11357E-09         0.00000E+00
    0.40397E-07         0.12761E-09         0.00000E+00
    0.40398E-07         0.14075E-09         0.00000E+00
    0.40398E-07         0.15302E-09         0.00000E+00
    0.40399E-07         0.16441E-09         0.00000E+00
    0.40400E-07         0.17494E-09         0.00000E+00
    0.40402E-07         0.18461E-09         0.00000E+00
    0.40403E-07         0.19344E-09         0.00000E+00
    0.40404E-07         0.20143E-09         0.00000E+00
    0.40405E-07         0.20860E-09         0.00000E+00
    0.40406E-07         0.21494E-09         0.00000E+00
    0.40408E-07         0.22047E-09         0.00000E+00
    0.40409E-07         0.22520E-09         0.00000E+00
    0.40410E-07         0.22913E-09         0.00000E+00
    0.40412E-07         0.23227E-09         0.00000E+00
    0.40413E-07         0.23464E-09         0.00000E+00
    0.40414E-07         0.23623E-09         0.00000E+00
    0.40416E-07         0.23705E-09         0.00000E+00
    0.40417E-07         0.23711E-09         0.00000E+00
    0.40418E-07         0.23642E-09         0.00000E+00
    0.40419E-07         0.23499E-09         0.00000E+00
    0.40421E-07         0.23281E-09         0.00000E+00
    0.40422E-07         0.22991E-09         0.00000E+00
    0.40423E-07         0.22627E-09         0.00000E+00
    0.40424E-07         0.22192E-09         0.00000E+00
    0.40426E-07         0.21685E-09         0.00000E+00
    0.40427E-07         0.21107E-09         0.00000E+00
    0.40428E-07         0.20459E-09         0.00000E+00
    0.40429E-07         0.19741E-09         0.00000E+00
    0.40430E-07         0.18953E-09         0.00000E+00
    0.40431E-07         0.18097E-09         0.00000E+00
    0.40432E-07         0.17172E-09         0.00000E+00
    0.40433E-07         0.16179E-09         0.00000E+00
    0.40434E-07         0.15119E-09         0.00000E+00
    0.40434E-07         0.13992E-09         0.00000E+00
    0.40435E-07         0.12798E-09         0.00000E+00
    0.40436E-07         0.11537E-09         0.00000E+00
    0.40436E-07         0.10211E-09         0.00000E+00
    0.40437E-07         0.88187E-10         0.00000E+00
    0.40437E-07         0.73613E-10         0.00000E+00
    0.40437E-07         0.58389E-10         0.00000E+00
    0.40438E-07         0.42519E-10         0.00000E+00
    0.40438E-07         0.26003E-10         0.00000E+00
    0.40438E-07         0.88455E-11         0.00000E+00
    0.39807E-07         0.97626E-11         0.00000E+00
    0.39807E-07         0.28678E-10         0.00000E+00
    0.39807E-07         0.46685E-10         0.00000E+00
    0.39808E-07         0.63792E-10         0.00000E+00
    0.39808E-07         0.80009E-10         0.00000E+00
    0.39809E-07         0.95344E-10         0.00000E+00
    0.39810E-07         0.10981E-09         0.00000E+00
    0.39810E-07         0.12340E-09         0.00000E+00
    0.39811E-07         0.13615E-09         0.00000E+00
    0.39812E-07         0.14804E-09         0.00000E+00
    0.39813E-07         0.15909E-09         0.00000E+00
    0.39815E-07         0.16931E-09         0.00000E+00
    0.39816E-07         0.17871E-09         0.00000E+00
    0.39817E-07         0.18730E-09         0.00000E+00
    0.39818E-07         0.19507E-09         0.00000E+00
    0.39820E-07         0.20205E-09         0.00000E+00
    0.39821E-07         0.20823E-09         0.00000E+00
    0.39823E-07         0.21363E-09         0.00000E+00
    0.39824E-07         0.21825E-09         0.00000E+00
    0.39826E-07         0.22210E-09         0.00000E+00
    0.39827E-07         0.22519E-09         0.00000E+00
    0.39829E-07         0.22751E-09         0.00000E+00
    0.39830E-07         0.22909E-09         0.00000E+00
    0.39832E-07         0.22993E-09         0.00000E+00
    0.39833E-07         0.23003E-09         0.00000E+00
    0.39835E-07         0.22940E-09         0.00000E+00
    0.39836E-07         0.22804E-09         0.00000E+00
    0.39838E-07         0.22596E-09         0.00000E+00
    0.39839E-07         0.22317E-09         0.00000E+00
    0.39840E-07         0.21968E-09         0.00000E+00
    0.39842E-07         0.21548E-09         0.00000E+00
    0.39843E-07         0.21059E-09         0.00000E+00
    0.39845E-07         0.20500E-09         0.00000E+00
    0.39846E-07         0.19873E-09         0.00000E+00
    0.39847E-07         0.19178E-09         0.00000E+00
    0.39848E-07         0.18415E-09         0.00000E+00
    0.39849E-07         0.17585E-09         0.00000E+00
    0.39850E-07         0.16689E-09         0.00000E+00
    0.39851E-07         0.15726E-09         0.00000E+00
    0.39852E-07         0.14697E-09         0.00000E+00
    0.39853E-07         0.13602E-09         0.00000E+00
    0.39854E-07         0.12443E-09         0.00000E+00
    0.39855E-07         0.11218E-09         0.00000E+00
    0.39855E-07         0.99295E-10         0.00000E+00
    0.39856E-07         0.85766E-10         0.00000E+00
    0.39856E-07         0.71599E-10         0.00000E+00
    0.39857E-07         0.56797E-10         0.00000E+00
    0.39857E-07         0.41362E-10         0.00000E+00
    0.39857E-07         0.25298E-10         0.00000E+00
    0.39857E-07         0.86063E-11         0.00000E+00
    0.39244E-07         0.93828E-11         0.00000E+00
    0.39244E-07         0.27568E-10         0.00000E+00
    0.39244E-07         0.44887E-10         0.00000E+00
    0.39245E-07         0.61349E-10         0.00000E+00
    0.39245E-07         0.76961E-10         0.00000E+00
    0.39246E-07         0.91731E-10         0.00000E+00
    0.39247E-07         0.10567E-09         0.00000E+00
    0.39248E-07         0.11878E-09         0.00000E+00
    0.39249E-07         0.13107E-09         0.00000E+00
    0.39250E-07         0.14254E-09         0.00000E+00
    0.39251E-07         0.15322E-09         0.00000E+00
    0.39252E-07         0.16309E-09         0.00000E+00
    0.39254E-07         0.17218E-09         0.00000E+00
    0.39255E-07         0.18048E-09         0.00000E+00
    0.39257E-07         0.18801E-09         0.00000E+00
    0.39258E-07         0.19477E-09         0.00000E+00
    0.39260E-07         0.20076E-09         0.00000E+00
    0.39261E-07         0.20600E-09         0.00000E+00
    0.39263E-07         0.21050E-09         0.00000E+00
    0.39265E-07         0.21424E-09         0.00000E+00
    0.39266E-07         0.21726E-09         0.00000E+00
    0.39268E-07         0.21954E-09         0.00000E+00
    0.39270E-07         0.22110E-09         0.00000E+00
    0.39271E-07         0.22194E-09         0.00000E+00
    0.39273E-07         0.22207E-09         0.00000E+00
    0.39275E-07         0.22149E-09         0.00000E+00
    0.39276E-07         0.22021E-09         0.00000E+00
    0.39278E-07         0.21824E-09         0.00000E+00
    0.39279E-07         0.21557E-09         0.00000E+00
    0.39281E-07         0.21223E-09         0.00000E+00
    0.39283E-07         0.20820E-09         0.00000E+00
    0.39284E-07         0.20350E-09         0.00000E+00
    0.39286E-07         0.19812E-09         0.00000E+00
    0.39287E-07         0.19209E-09         0.00000E+00
    0.39288E-07         0.18539E-09         0.00000E+00
    0.39290E-07         0.17804E-09         0.00000E+00
    0.39291E-07         0.17003E-09         0.00000E+00
    0.39292E-07         0.16138E-09         0.00000E+00
    0.39293E-07         0.15208E-09         0.00000E+00
    0.39294E-07         0.14215E-09         0.00000E+00
    0.39295E-07         0.13158E-09         0.00000E+00
    0.39296E-07         0.12037E-09         0.00000E+00
    0.39297E-07         0.10854E-09         0.00000E+00
    0.39298E-07         0.96076E-10         0.00000E+00
    0.39298E-07         0.82993E-10         0.00000E+00
    0.39299E-07         0.69290E-10         0.00000E+00
    0.39299E-07         0.54970E-10         0.00000E+00
    0.39300E-07         0.40035E-10         0.00000E+00
    0.39300E-07         0.24488E-10         0.00000E+00
    0.39300E-07         0.83314E-11         0.00000E+00
    0.38708E-07         0.89764E-11         0.00000E+00
    0.38708E-07         0.26379E-10         0.00000E+00
    0.38708E-07         0.42960E-10         0.00000E+00
    0.38709E-07         0.58727E-10         0.00000E+00
    0.38709E-07         0.73687E-10         0.00000E+00
    0.38710E-07         0.87846E-10         0.00000E+00
    0.38711E-07         0.10121E-09         0.00000E+00
    0.38712E-07         0.11379E-09         0.00000E+00
    0.38713E-07         0.12559E-09         0.00000E+00
    0.38714E-07         0.13661E-09         0.00000E+00
    0.38716E-07         0.14687E-09         0.00000E+00
    0.38717E-07         0.15636E-09         0.00000E+00
    0.38718E-07         0.16510E-09         0.00000E+00
    0.38720E-07         0.17309E-09         0.00000E+00
    0.38721E-07         0.18034E-09         0.00000E+00
    0.38723E-07         0.18686E-09         0.00000E+00
    0.38725E-07         0.19264E-09         0.00000E+00
    0.38726E-07         0.19770E-09         0.00000E+00
    0.38728E-07         0.20204E-09         0.00000E+00
    0.38730E-07         0.20567E-09         0.00000E+00
    0.38732E-07         0.20860E-09         0.00000E+00
    0.38733E-07         0.21082E-09         0.00000E+00
    0.38735E-07         0.21235E-09         0.00000E+00
    0.38737E-07         0.21319E-09         0.00000E+00
    0.38739E-07         0.21334E-09         0.00000E+00
    0.38741E-07         0.21282E-09         0.00000E+00
    0.38742E-07         0.21162E-09         0.00000E+00
    0.38744E-07         0.20975E-09         0.00000E+00
    0.38746E-07         0.20721E-09         0.00000E+00
    0.38748E-07         0.20402E-09         0.00000E+00
    0.38749E-07         0.20017E-09         0.00000E+00
    0.38751E-07         0.19568E-09         0.00000E+00
    0.38753E-07         0.19053E-09         0.00000E+00
    0.38754E-07         0.18475E-09         0.00000E+00
    0.38756E-07         0.17833E-09         0.00000E+00
    0.38757E-07         0.17128E-09         0.00000E+00
    0.38759E-07         0.16359E-09         0.00000E+00
    0.38760E-07         0.15528E-09         0.00000E+00
    0.38761E-07         0.14635E-09         0.00000E+00
    0.38762E-07         0.13680E-09         0.00000E+00
    0.38763E-07         0.12664E-09         0.00000E+00
    0.38764E-07         0.11587E-09         0.00000E+00
    0.38765E-07         0.10448E-09         0.00000E+00
    0.38766E-07         0.92498E-10         0.00000E+00
    0.38767E-07         0.79908E-10         0.00000E+00
    0.38767E-07         0.66720E-10         0.00000E+00
    0.38768E-07         0.52935E-10         0.00000E+00
    0.38768E-07         0.38556E-10         0.00000E+00
    0.38768E-07         0.23585E-10         0.00000E+00
    0.38769E-07         0.80248E-11         0.00000E+00
    0.38201E-07         0.85480E-11         0.00000E+00
    0.38201E-07         0.25124E-10         0.00000E+00
    0.38201E-07         0.40924E-10         0.00000E+00
    0.38202E-07         0.55955E-10         0.00000E+00
    0.38203E-07         0.70222E-10         0.00000E+00
    0.38203E-07         0.83731E-10         0.00000E+00
    0.38204E-07         0.96488E-10         0.00000E+00
    0.38205E-07         0.10850E-09         0.00000E+00
    0.38206E-07         0.11977E-09         0.00000E+00
    0.38208E-07         0.13030E-09         0.00000E+00
    0.38209E-07         0.14011E-09         0.00000E+00
    0.38210E-07         0.14919E-09         0.00000E+00
    0.38212E-07         0.15756E-09         0.00000E+00
    0.38213E-07         0.16521E-09         0.00000E+00
    0.38215E-07         0.17216E-09         0.00000E+00
    0.38217E-07         0.17841E-09         0.00000E+00
    0.38219E-07         0.18396E-09         0.00000E+00
    0.38220E-07         0.18882E-09         0.00000E+00
    0.38222E-07         0.19300E-09         0.00000E+00
    0.38224E-07         0.19649E-09         0.00000E+00
    0.38226E-07         0.19931E-09         0.00000E+00
    0.38228E-07         0.20147E-09         0.00000E+00
    0.38230E-07         0.20295E-09         0.00000E+00
    0.38232E-07         0.20378E-09         0.00000E+00
    0.38234E-07         0.20396E-09         0.00000E+00
    0.38236E-07         0.20348E-09         0.00000E+00
    0.38238E-07         0.20236E-09         0.00000E+00
    0.38240E-07         0.20060E-09         0.00000E+00
    0.38241E-07         0.19820E-09         0.00000E+00
    0.38243E-07         0.19517E-09         0.00000E+00
    0.38245E-07         0.19151E-09         0.00000E+00
    0.38247E-07         0.18723E-09         0.00000E+00
    0.38249E-07         0.18233E-09         0.00000E+00
    0.38250E-07         0.17681E-09         0.00000E+00
    0.38252E-07         0.17068E-09         0.00000E+00
    0.38253E-07         0.16395E-09         0.00000E+00
    0.38255E-07         0.15661E-09         0.00000E+00
    0.38256E-07         0.14867E-09         0.00000E+00
    0.38258E-07         0.14013E-09         0.00000E+00
    0.38259E-07         0.13100E-09         0.00000E+00
    0.38260E-07         0.12128E-09         0.00000E+00
    0.38261E-07         0.11097E-09         0.00000E+00
    0.38262E-07         0.10008E-09         0.00000E+00
    0.38263E-07         0.88604E-10         0.00000E+00
    0.38264E-07         0.76550E-10         0.00000E+00
    0.38264E-07         0.63921E-10         0.00000E+00
    0.38265E-07         0.50718E-10         0.00000E+00
    0.38265E-07         0.36943E-10         0.00000E+00
    0.38266E-07         0.22600E-10         0.00000E+00
    0.38266E-07         0.76903E-11         0.00000E+00
    0.37726E-07         0.81016E-11         0.00000E+00
    0.37726E-07         0.23816E-10         0.00000E+00
    0.37726E-07         0.38800E-10         0.00000E+00
    0.37727E-07         0.53060E-10         0.00000E+00
    0.37727E-07         0.66601E-10         0.00000E+00
    0.37728E-07         0.79426E-10         0.00000E+00
    0.37729E-07         0.91543E-10         0.00000E+00
    0.37730E-07         0.10296E-09         0.00000E+00
    0.37731E-07         0.11367E-09         0.00000E+00
    0.37733E-07         0.12369E-09         0.00000E+00
    0.37734E-07         0.13302E-09         0.00000E+00
    0.37736E-07         0.14166E-09         0.00000E+00
    0.37737E-07         0.14963E-09         0.00000E+00
    0.37739E-07         0.15692E-09         0.00000E+00
    0.37741E-07         0.16354E-09         0.00000E+00
    0.37742E-07         0.16950E-09         0.00000E+00
    0.37744E-07         0.17480E-09         0.00000E+00
    0.37746E-07         0.17945E-09         0.00000E+00
    0.37748E-07         0.18344E-09         0.00000E+00
    0.37750E-07         0.18679E-09         0.00000E+00
    0.37752E-07         0.18950E-09         0.00000E+00
    0.37754E-07         0.19157E-09         0.00000E+00
    0.37756E-07         0.19301E-09         0.00000E+00
    0.37758E-07         0.19382E-09         0.00000E+00
    0.37760E-07         0.19401E-09         0.00000E+00
    0.37762E-07         0.19358E-09         0.00000E+00
    0.37764E-07         0.19253E-09         0.00000E+00
    0.37766E-07         0.19088E-09         0.00000E+00
    0.37768E-07         0.18862E-09         0.00000E+00
    0.37770E-07         0.18575E-09         0.00000E+00
    0.37772E-07         0.18229E-09         0.00000E+00
    0.37774E-07         0.17823E-09         0.00000E+00
    0.37776E-07         0.17359E-09         0.00000E+00
    0.37777E-07         0.16835E-09         0.00000E+00
    0.37779E-07         0.16253E-09         0.00000E+00
    0.37781E-07         0.15613E-09         0.00000E+00
    0.37782E-07         0.14916E-09         0.00000E+00
    0.37784E-07         0.14161E-09         0.00000E+00
    0.37785E-07         0.13349E-09         0.00000E+00
    0.37787E-07         0.12480E-09         0.00000E+00
    0.37788E-07         0.11555E-09         0.00000E+00
    0.37789E-07         0.10573E-09         0.00000E+00
    0.37790E-07         0.95363E-10         0.00000E+00
    0.37791E-07         0.84435E-10         0.00000E+00
    0.37792E-07         0.72954E-10         0.00000E+00
    0.37792E-07         0.60922E-10         0.00000E+00
    0.37793E-07         0.48341E-10         0.00000E+00
    0.37793E-07         0.35214E-10         0.00000E+00
    0.37794E-07         0.21544E-10         0.00000E+00
    0.37794E-07         0.73313E-11         0.00000E+00
    0.37284E-07         0.76408E-11         0.00000E+00
    0.37285E-07         0.22464E-10         0.00000E+00
    0.37285E-07         0.36605E-10         0.00000E+00
    0.37285E-07         0.50066E-10         0.00000E+00
    0.37286E-07         0.62852E-10         0.00000E+00
    0.37287E-07         0.74968E-10         0.00000E+00
    0.37288E-07         0.86418E-10         0.00000E+00
    0.37289E-07         0.97206E-10         0.00000E+00
    0.37290E-07         0.10734E-09         0.00000E+00
    0.37292E-07         0.11682E-09         0.00000E+00
    0.37293E-07         0.12564E-09         0.00000E+00
    0.37295E-07         0.13383E-09         0.00000E+00
    0.37296E-07         0.14138E-09         0.00000E+00
    0.37298E-07         0.14829E-09         0.00000E+00
    0.37300E-07         0.15457E-09         0.00000E+00
    0.37302E-07         0.16022E-09         0.00000E+00
    0.37304E-07         0.16525E-09         0.00000E+00
    0.37305E-07         0.16966E-09         0.00000E+00
    0.37307E-07         0.17346E-09         0.00000E+00
    0.37310E-07         0.17665E-09         0.00000E+00
    0.37312E-07         0.17923E-09         0.00000E+00
    0.37314E-07         0.18121E-09         0.00000E+00
    0.37316E-07         0.18259E-09         0.00000E+00
    0.37318E-07         0.18338E-09         0.00000E+00
    0.37320E-07         0.18358E-09         0.00000E+00
    0.37322E-07         0.18319E-09         0.00000E+00
    0.37324E-07         0.18222E-09         0.00000E+00
    0.37326E-07         0.18067E-09         0.00000E+00
    0.37329E-07         0.17855E-09         0.00000E+00
    0.37331E-07         0.17586E-09         0.00000E+00
    0.37333E-07         0.17260E-09         0.00000E+00
    0.37335E-07         0.16877E-09         0.00000E+00
    0.37336E-07         0.16439E-09         0.00000E+00
    0.37338E-07         0.15944E-09         0.00000E+00
    0.37340E-07         0.15394E-09         0.00000E+00
    0.37342E-07         0.14790E-09         0.00000E+00
    0.37343E-07         0.14130E-09         0.00000E+00
    0.37345E-07         0.13416E-09         0.00000E+00
    0.37346E-07         0.12648E-09         0.00000E+00
    0.37348E-07         0.11825E-09         0.00000E+00
    0.37349E-07         0.10949E-09         0.00000E+00
    0.37350E-07         0.10020E-09         0.00000E+00
    0.37351E-07         0.90379E-10         0.00000E+00
    0.37352E-07         0.80028E-10         0.00000E+00
    0.37353E-07         0.69150E-10         0.00000E+00
    0.37354E-07         0.57749E-10         0.00000E+00
    0.37355E-07         0.45826E-10         0.00000E+00
    0.37355E-07         0.33384E-10         0.00000E+00
    0.37355E-07         0.20425E-10         0.00000E+00
    0.37355E-07         0.69511E-11         0.00000E+00
    0.36879E-07         0.71687E-11         0.00000E+00
    0.36879E-07         0.21079E-10         0.00000E+00
    0.36880E-07         0.34353E-10         0.00000E+00
    0.36880E-07         0.46992E-10         0.00000E+00
    0.36881E-07         0.59002E-10         0.00000E+00
    0.36882E-07         0.70386E-10         0.00000E+00
    0.36883E-07         0.81147E-10         0.00000E+00
    0.36884E-07         0.91290E-10         0.00000E+00
    0.36885E-07         0.10082E-09         0.00000E+00
    0.36887E-07         0.10974E-09         0.00000E+00
    0.36888E-07         0.11805E-09         0.00000E+00
    0.36890E-07         0.12575E-09         0.00000E+00
    0.36891E-07         0.13286E-09         0.00000E+00
    0.36893E-07         0.13937E-09         0.00000E+00
    0.36895E-07         0.14529E-09         0.00000E+00
    0.36897E-07         0.15062E-09         0.00000E+00
    0.36899E-07         0.15537E-09         0.00000E+00
    0.36901E-07         0.15953E-09         0.00000E+00
    0.36903E-07         0.16312E-09         0.00000E+00
    0.36905E-07         0.16614E-09         0.00000E+00
    0.36907E-07         0.16859E-09         0.00000E+00
    0.36909E-07         0.17047E-09         0.00000E+00
    0.36912E-07         0.17178E-09         0.00000E+00
    0.36914E-07         0.17254E-09         0.00000E+00
    0.36916E-07         0.17275E-09         0.00000E+00
    0.36918E-07         0.17240E-09         0.00000E+00
    0.36920E-07         0.17150E-09         0.00000E+00
    0.36923E-07         0.17006E-09         0.00000E+00
    0.36925E-07         0.16808E-09         0.00000E+00
    0.36927E-07         0.16556E-09         0.00000E+00
    0.36929E-07         0.16250E-09         0.00000E+00
    0.36931E-07         0.15891E-09         0.00000E+00
    0.36933E-07         0.15480E-09         0.00000E+00
    0.36935E-07         0.15015E-09         0.00000E+00
    0.36937E-07         0.14499E-09         0.00000E+00
    0.36938E-07         0.13930E-09         0.00000E+00
    0.36940E-07         0.13310E-09         0.00000E+00
    0.36942E-07         0.12638E-09         0.00000E+00
    0.36943E-07         0.11915E-09         0.00000E+00
    0.36945E-07         0.11141E-09         0.00000E+00
    0.36946E-07         0.10317E-09         0.00000E+00
    0.36947E-07         0.94416E-10         0.00000E+00
    0.36948E-07         0.85166E-10         0.00000E+00
    0.36949E-07         0.75415E-10         0.00000E+00
    0.36950E-07         0.65168E-10         0.00000E+00
    0.36951E-07         0.54427E-10         0.00000E+00
    0.36952E-07         0.43192E-10         0.00000E+00
    0.36952E-07         0.31467E-10         0.00000E+00
    0.36952E-07         0.19253E-10         0.00000E+00
    0.36953E-07         0.65524E-11         0.00000E+00
    0.36512E-07         0.66879E-11         0.00000E+00
    0.36512E-07         0.19668E-10         0.00000E+00
    0.36513E-07         0.32057E-10         0.00000E+00
    0.36513E-07         0.43858E-10         0.00000E+00
    0.36514E-07         0.55073E-10         0.00000E+00
    0.36515E-07         0.65707E-10         0.00000E+00
    0.36516E-07         0.75763E-10         0.00000E+00
    0.36517E-07         0.85242E-10         0.00000E+00
    0.36518E-07         0.94150E-10         0.00000E+00
    0.36520E-07         0.10249E-09         0.00000E+00
    0.36521E-07         0.11026E-09         0.00000E+00
    0.36523E-07         0.11747E-09         0.00000E+00
    0.36524E-07         0.12413E-09         0.00000E+00
    0.36526E-07         0.13023E-09         0.00000E+00
    0.36528E-07         0.13577E-09         0.00000E+00
    0.36530E-07         0.14077E-09         0.00000E+00
    0.36532E-07         0.14522E-09         0.00000E+00
    0.36534E-07         0.14913E-09         0.00000E+00
    0.36536E-07         0.15250E-09         0.00000E+00
    0.36538E-07         0.15533E-09         0.00000E+00
    0.36541E-07         0.15763E-09         0.00000E+00
    0.36543E-07         0.15941E-09         0.00000E+00
    0.36545E-07         0.16065E-09         0.00000E+00
    0.36547E-07         0.16138E-09         0.00000E+00
    0.36550E-07         0.16158E-09         0.00000E+00
    0.36552E-07         0.16127E-09         0.00000E+00
    0.36554E-07         0.16044E-09         0.00000E+00
    0.36556E-07         0.15911E-09         0.00000E+00
    0.36559E-07         0.15727E-09         0.00000E+00
    0.36561E-07         0.15492E-09         0.00000E+00
    0.36563E-07         0.15207E-09         0.00000E+00
    0.36565E-07         0.14872E-09         0.00000E+00
    0.36567E-07         0.14488E-09         0.00000E+00
    0.36569E-07         0.14054E-09         0.00000E+00
    0.36571E-07         0.13571E-09         0.00000E+00
    0.36573E-07         0.13040E-09         0.00000E+00
    0.36575E-07         0.12460E-09         0.00000E+00
    0.36576E-07         0.11832E-09         0.00000E+00
    0.36578E-07         0.11156E-09         0.00000E+00
    0.36579E-07         0.10432E-09         0.00000E+00
    0.36581E-07         0.96602E-10         0.00000E+00
    0.36582E-07         0.88414E-10         0.00000E+00
    0.36583E-07         0.79755E-10         0.00000E+00
    0.36584E-07         0.70628E-10         0.00000E+00
    0.36585E-07         0.61034E-10         0.00000E+00
    0.36586E-07         0.50976E-10         0.00000E+00
    0.36587E-07         0.40455E-10         0.00000E+00
    0.36587E-07         0.29474E-10         0.00000E+00
    0.36587E-07         0.18035E-10         0.00000E+00
    0.36587E-07         0.61380E-11         0.00000E+00
    0.36185E-07         0.62009E-11         0.00000E+00
    0.36185E-07         0.18237E-10         0.00000E+00
    0.36185E-07         0.29728E-10         0.00000E+00
    0.36186E-07         0.40676E-10         0.00000E+00
    0.36186E-07         0.51084E-10         0.00000E+00
    0.36187E-07         0.60954E-10         0.00000E+00
    0.36188E-07         0.70289E-10         0.00000E+00
    0.36190E-07         0.79092E-10         0.00000E+00
    0.36191E-07         0.87366E-10         0.00000E+00
    0.36192E-07         0.95113E-10         0.00000E+00
    0.36194E-07         0.10234E-09         0.00000E+00
    0.36196E-07         0.10904E-09         0.00000E+00
    0.36197E-07         0.11523E-09         0.00000E+00
    0.36199E-07         0.12090E-09         0.00000E+00
    0.36201E-07         0.12606E-09         0.00000E+00
    0.36203E-07         0.13071E-09         0.00000E+00
    0.36205E-07         0.13485E-09         0.00000E+00
    0.36207E-07         0.13849E-09         0.00000E+00
    0.36209E-07         0.14163E-09         0.00000E+00
    0.36212E-07         0.14428E-09         0.00000E+00
    0.36214E-07         0.14642E-09         0.00000E+00
    0.36216E-07         0.14808E-09         0.00000E+00
    0.36218E-07         0.14925E-09         0.00000E+00
    0.36221E-07         0.14993E-09         0.00000E+00
    0.36223E-07         0.15014E-09         0.00000E+00
    0.36225E-07         0.14986E-09         0.00000E+00
    0.36228E-07         0.14910E-09         0.00000E+00
    0.36230E-07         0.14787E-09         0.00000E+00
    0.36232E-07         0.14616E-09         0.00000E+00
    0.36234E-07         0.14399E-09         0.00000E+00
    0.36237E-07         0.14135E-09         0.00000E+00
    0.36239E-07         0.13825E-09         0.00000E+00
    0.36241E-07         0.13468E-09         0.00000E+00
    0.36243E-07         0.13066E-09         0.00000E+00
    0.36245E-07         0.12618E-09         0.00000E+00
    0.36247E-07         0.12124E-09         0.00000E+00
    0.36249E-07         0.11585E-09         0.00000E+00
    0.36250E-07         0.11002E-09         0.00000E+00
    0.36252E-07         0.10374E-09         0.00000E+00
    0.36253E-07         0.97008E-10         0.00000E+00
    0.36255E-07         0.89837E-10         0.00000E+00
    0.36256E-07         0.82226E-10         0.00000E+00
    0.36257E-07         0.74176E-10         0.00000E+00
    0.36258E-07         0.65689E-10         0.00000E+00
    0.36259E-07         0.56768E-10         0.00000E+00
    0.36260E-07         0.47415E-10         0.00000E+00
    0.36261E-07         0.37630E-10         0.00000E+00
    0.36261E-07         0.27417E-10         0.00000E+00
    0.36262E-07         0.16776E-10         0.00000E+00
    0.36262E-07         0.57099E-11         0.00000E+00
    0.35899E-07         0.57092E-11         0.00000E+00
    0.35899E-07         0.16793E-10         0.00000E+00
    0.35899E-07         0.27376E-10         0.00000E+00
    0.35900E-07         0.37460E-10         0.00000E+00
    0.35901E-07         0.47049E-10         0.00000E+00
    0.35902E-07         0.56143E-10         0.00000E+00
    0.35903E-07         0.64747E-10         0.00000E+00
    0.35904E-07         0.72861E-10         0.00000E+00
    0.35905E-07         0.80489E-10         0.00000E+00
    0.35907E-07         0.87634E-10         0.00000E+00
    0.35908E-07         0.94296E-10         0.00000E+00
    0.35910E-07         0.10048E-09         0.00000E+00
    0.35912E-07         0.10619E-09         0.00000E+00
    0.35913E-07         0.11142E-09         0.00000E+00
    0.35915E-07         0.11618E-09         0.00000E+00
    0.35917E-07         0.12048E-09         0.00000E+00
    0.35919E-07         0.12430E-09         0.00000E+00
    0.35922E-07         0.12767E-09         0.00000E+00
    0.35924E-07         0.13057E-09         0.00000E+00
    0.35926E-07         0.13302E-09         0.00000E+00
    0.35928E-07         0.13501E-09         0.00000E+00
    0.35931E-07         0.13654E-09         0.00000E+00
    0.35933E-07         0.13763E-09         0.00000E+00
    0.35935E-07         0.13827E-09         0.00000E+00
    0.35938E-07         0.13846E-09         0.00000E+00
    0.35940E-07         0.13821E-09         0.00000E+00
    0.35942E-07         0.13751E-09         0.00000E+00
    0.35945E-07         0.13638E-09         0.00000E+00
    0.35947E-07         0.13482E-09         0.00000E+00
    0.35949E-07         0.13282E-09         0.00000E+00
    0.35952E-07         0.13039E-09         0.00000E+00
    0.35954E-07         0.12753E-09         0.00000E+00
    0.35956E-07         0.12425E-09         0.00000E+00
    0.35958E-07         0.12054E-09         0.00000E+00
    0.35960E-07         0.11641E-09         0.00000E+00
    0.35962E-07         0.11186E-09         0.00000E+00
    0.35964E-07         0.10690E-09         0.00000E+00
    0.35966E-07         0.10152E-09         0.00000E+00
    0.35967E-07         0.95721E-10         0.00000E+00
    0.35969E-07         0.89515E-10         0.00000E+00
    0.35970E-07         0.82901E-10         0.00000E+00
    0.35972E-07         0.75879E-10         0.00000E+00
    0.35973E-07         0.68452E-10         0.00000E+00
    0.35974E-07         0.60622E-10         0.00000E+00
    0.35975E-07         0.52391E-10         0.00000E+00
    0.35976E-07         0.43759E-10         0.00000E+00
    0.35976E-07         0.34730E-10         0.00000E+00
    0.35977E-07         0.25304E-10         0.00000E+00
    0.35977E-07         0.15484E-10         0.00000E+00
    0.35977E-07         0.52701E-11         0.00000E+00
    0.35656E-07         0.52142E-11         0.00000E+00
    0.35656E-07         0.15338E-10         0.00000E+00
    0.35657E-07         0.25005E-10         0.00000E+00
    0.35657E-07         0.34218E-10         0.00000E+00
    0.35658E-07         0.42979E-10         0.00000E+00
    0.35659E-07         0.51290E-10         0.00000E+00
    0.35660E-07         0.59153E-10         0.00000E+00
    0.35661E-07         0.66569E-10         0.00000E+00
    0.35662E-07         0.73542E-10         0.00000E+00
    0.35664E-07         0.80074E-10         0.00000E+00
    0.35665E-07         0.86166E-10         0.00000E+00
    0.35667E-07         0.91820E-10         0.00000E+00
    0.35669E-07         0.97040E-10         0.00000E+00
    0.35671E-07         0.10183E-09         0.00000E+00
    0.35673E-07         0.10618E-09         0.00000E+00
    0.35675E-07         0.11011E-09         0.00000E+00
    0.35677E-07         0.11362E-09         0.00000E+00
    0.35679E-07         0.11669E-09         0.00000E+00
    0.35681E-07         0.11935E-09         0.00000E+00
    0.35684E-07         0.12159E-09         0.00000E+00
    0.35686E-07         0.12341E-09         0.00000E+00
    0.35688E-07         0.12482E-09         0.00000E+00
    0.35691E-07         0.12582E-09         0.00000E+00
    0.35693E-07         0.12641E-09         0.00000E+00
    0.35695E-07         0.12659E-09         0.00000E+00
    0.35698E-07         0.12636E-09         0.00000E+00
    0.35700E-07         0.12573E-09         0.00000E+00
    0.35702E-07         0.12470E-09         0.00000E+00
    0.35705E-07         0.12327E-09         0.00000E+00
    0.35707E-07         0.12145E-09         0.00000E+00
    0.35709E-07         0.11923E-09         0.00000E+00
    0.35712E-07         0.11662E-09         0.00000E+00
    0.35714E-07         0.11362E-09         0.00000E+00
    0.35716E-07         0.11023E-09         0.00000E+00
    0.35718E-07         0.10646E-09         0.00000E+00
    0.35720E-07         0.10230E-09         0.00000E+00
    0.35722E-07         0.97758E-10         0.00000E+00
    0.35724E-07         0.92838E-10         0.00000E+00
    0.35725E-07         0.87540E-10         0.00000E+00
    0.35727E-07         0.81866E-10         0.00000E+00
    0.35728E-07         0.75818E-10         0.00000E+00
    0.35730E-07         0.69397E-10         0.00000E+00
    0.35731E-07         0.62605E-10         0.00000E+00
    0.35732E-07         0.55444E-10         0.00000E+00
    0.35733E-07         0.47916E-10         0.00000E+00
    0.35734E-07         0.40022E-10         0.00000E+00
    0.35735E-07         0.31764E-10         0.00000E+00
    0.35735E-07         0.23144E-10         0.00000E+00
    0.35735E-07         0.14162E-10         0.00000E+00
    0.35736E-07         0.48202E-11         0.00000E+00
    0.35457E-07         0.47169E-11         0.00000E+00
    0.35458E-07         0.13875E-10         0.00000E+00
    0.35458E-07         0.22621E-10         0.00000E+00
    0.35459E-07         0.30956E-10         0.00000E+00
    0.35459E-07         0.38883E-10         0.00000E+00
    0.35460E-07         0.46403E-10         0.00000E+00
    0.35461E-07         0.53517E-10         0.00000E+00
    0.35462E-07         0.60229E-10         0.00000E+00
    0.35464E-07         0.66539E-10         0.00000E+00
    0.35465E-07         0.72449E-10         0.00000E+00
    0.35467E-07         0.77962E-10         0.00000E+00
    0.35469E-07         0.83080E-10         0.00000E+00
    0.35470E-07         0.87804E-10         0.00000E+00
    0.35472E-07         0.92137E-10         0.00000E+00
    0.35474E-07         0.96080E-10         0.00000E+00
    0.35476E-07         0.99636E-10         0.00000E+00
    0.35478E-07         0.10281E-09         0.00000E+00
    0.35481E-07         0.10559E-09         0.00000E+00
    0.35483E-07         0.10800E-09         0.00000E+00
    0.35485E-07         0.11003E-09         0.00000E+00
    0.35488E-07         0.11168E-09         0.00000E+00
    0.35490E-07         0.11295E-09         0.00000E+00
    0.35492E-07         0.11385E-09         0.00000E+00
    0.35495E-07         0.11439E-09         0.00000E+00
    0.35497E-07         0.11455E-09         0.00000E+00
    0.35500E-07         0.11435E-09         0.00000E+00
    0.35502E-07         0.11378E-09         0.00000E+00
    0.35504E-07         0.11285E-09         0.00000E+00
    0.35507E-07         0.11155E-09         0.00000E+00
    0.35509E-07         0.10990E-09         0.00000E+00
    0.35511E-07         0.10789E-09         0.00000E+00
    0.35514E-07         0.10553E-09         0.00000E+00
    0.35516E-07         0.10282E-09         0.00000E+00
    0.35518E-07         0.99750E-10         0.00000E+00
    0.35520E-07         0.96334E-10         0.00000E+00
    0.35522E-07         0.92571E-10         0.00000E+00
    0.35524E-07         0.88463E-10         0.00000E+00
    0.35526E-07         0.84010E-10         0.00000E+00
    0.35528E-07         0.79216E-10         0.00000E+00
    0.35529E-07         0.74081E-10         0.00000E+00
    0.35531E-07         0.68607E-10         0.00000E+00
    0.35532E-07         0.62796E-10         0.00000E+00
    0.35533E-07         0.56650E-10         0.00000E+00
    0.35535E-07         0.50170E-10         0.00000E+00
    0.35536E-07         0.43358E-10         0.00000E+00
    0.35536E-07         0.36215E-10         0.00000E+00
    0.35537E-07         0.28742E-10         0.00000E+00
    0.35538E-07         0.20941E-10         0.00000E+00
    0.35538E-07         0.12814E-10         0.00000E+00
    0.35538E-07         0.43613E-11         0.00000E+00
    0.35305E-07         0.42178E-11         0.00000E+00
    0.35305E-07         0.12407E-10         0.00000E+00
    0.35305E-07         0.20227E-10         0.00000E+00
    0.35306E-07         0.27679E-10         0.00000E+00
    0.35306E-07         0.34766E-10         0.00000E+00
    0.35307E-07         0.41488E-10         0.00000E+00
    0.35308E-07         0.47849E-10         0.00000E+00
    0.35310E-07         0.53848E-10         0.00000E+00
    0.35311E-07         0.59488E-10         0.00000E+00
    0.35312E-07         0.64771E-10         0.00000E+00
    0.35314E-07         0.69698E-10         0.00000E+00
    0.35316E-07         0.74271E-10         0.00000E+00
    0.35318E-07         0.78492E-10         0.00000E+00
    0.35319E-07         0.82364E-10         0.00000E+00
    0.35321E-07         0.85887E-10         0.00000E+00
    0.35324E-07         0.89063E-10         0.00000E+00
    0.35326E-07         0.91895E-10         0.00000E+00
    0.35328E-07         0.94384E-10         0.00000E+00
    0.35330E-07         0.96532E-10         0.00000E+00
    0.35333E-07         0.98342E-10         0.00000E+00
    0.35335E-07         0.99814E-10         0.00000E+00
    0.35337E-07         0.10095E-09         0.00000E+00
    0.35340E-07         0.10175E-09         0.00000E+00
    0.35342E-07         0.10223E-09         0.00000E+00
    0.35345E-07         0.10237E-09         0.00000E+00
    0.35347E-07         0.10218E-09         0.00000E+00
    0.35349E-07         0.10167E-09         0.00000E+00
    0.35352E-07         0.10084E-09         0.00000E+00
    0.35354E-07         0.99681E-10         0.00000E+00
    0.35357E-07         0.98203E-10         0.00000E+00
    0.35359E-07         0.96406E-10         0.00000E+00
    0.35361E-07         0.94292E-10         0.00000E+00
    0.35364E-07         0.91864E-10         0.00000E+00
    0.35366E-07         0.89121E-10         0.00000E+00
    0.35368E-07         0.86067E-10         0.00000E+00
    0.35370E-07         0.82702E-10         0.00000E+00
    0.35372E-07         0.79029E-10         0.00000E+00
    0.35374E-07         0.75049E-10         0.00000E+00
    0.35375E-07         0.70764E-10         0.00000E+00
    0.35377E-07         0.66175E-10         0.00000E+00
    0.35379E-07         0.61284E-10         0.00000E+00
    0.35380E-07         0.56092E-10         0.00000E+00
    0.35381E-07         0.50600E-10         0.00000E+00
    0.35382E-07         0.44811E-10         0.00000E+00
    0.35383E-07         0.38725E-10         0.00000E+00
    0.35384E-07         0.32344E-10         0.00000E+00
    0.35385E-07         0.25669E-10         0.00000E+00
    0.35386E-07         0.18702E-10         0.00000E+00
    0.35386E-07         0.11443E-10         0.00000E+00
    0.35386E-07         0.38947E-11         0.00000E+00
    0.35198E-07         0.37170E-11         0.00000E+00
    0.35199E-07         0.10933E-10         0.00000E+00
    0.35199E-07         0.17823E-10         0.00000E+00
    0.35199E-07         0.24388E-10         0.00000E+00
    0.35200E-07         0.30629E-10         0.00000E+00
    0.35201E-07         0.36549E-10         0.00000E+00
    0.35202E-07         0.42149E-10         0.00000E+00
    0.35203E-07         0.47430E-10         0.00000E+00
    0.35205E-07         0.52394E-10         0.00000E+00
    0.35206E-07         0.57043E-10         0.00000E+00
    0.35208E-07         0.61378E-10         0.00000E+00
    0.35210E-07         0.65400E-10         0.00000E+00
    0.35211E-07         0.69113E-10         0.00000E+00
    0.35213E-07         0.72516E-10         0.00000E+00
    0.35215E-07         0.75612E-10         0.00000E+00
    0.35217E-07         0.78403E-10         0.00000E+00
    0.35220E-07         0.80890E-10         0.00000E+00
    0.35222E-07         0.83075E-10         0.00000E+00
    0.35224E-07         0.84960E-10         0.00000E+00
    0.35227E-07         0.86546E-10         0.00000E+00
    0.35229E-07         0.87836E-10         0.00000E+00
    0.35231E-07         0.88830E-10         0.00000E+00
    0.35234E-07         0.89531E-10         0.00000E+00
    0.35236E-07         0.89941E-10         0.00000E+00
    0.35239E-07         0.90060E-10         0.00000E+00
    0.35241E-07         0.89891E-10         0.00000E+00
    0.35244E-07         0.89435E-10         0.00000E+00
    0.35246E-07         0.88695E-10         0.00000E+00
    0.35249E-07         0.87671E-10         0.00000E+00
    0.35251E-07         0.86365E-10         0.00000E+00
    0.35253E-07         0.84779E-10         0.00000E+00
    0.35256E-07         0.82915E-10         0.00000E+00
    0.35258E-07         0.80774E-10         0.00000E+00
    0.35260E-07         0.78358E-10         0.00000E+00
    0.35262E-07         0.75667E-10         0.00000E+00
    0.35264E-07         0.72705E-10         0.00000E+00
    0.35266E-07         0.69471E-10         0.00000E+00
    0.35268E-07         0.65968E-10         0.00000E+00
    0.35270E-07         0.62198E-10         0.00000E+00
    0.35272E-07         0.58161E-10         0.00000E+00
    0.35273E-07         0.53858E-10         0.00000E+00
    0.35275E-07         0.49292E-10         0.00000E+00
    0.35276E-07         0.44464E-10         0.00000E+00
    0.35277E-07         0.39374E-10         0.00000E+00
    0.35278E-07         0.34024E-10         0.00000E+00
    0.35279E-07         0.28416E-10         0.00000E+00
    0.35280E-07         0.22551E-10         0.00000E+00
    0.35280E-07         0.16429E-10         0.00000E+00
    0.35280E-07         0.10052E-10         0.00000E+00
    0.35281E-07         0.34209E-11         0.00000E+00
    0.35140E-07         0.32145E-11         0.00000E+00
    0.35140E-07         0.94535E-11         0.00000E+00
    0.35140E-07         0.15409E-10         0.00000E+00
    0.35141E-07         0.21081E-10         0.00000E+00
    0.35142E-07         0.26473E-10         0.00000E+00
    0.35143E-07         0.31585E-10         0.00000E+00
    0.35144E-07         0.36419E-10         0.00000E+00
    0.35145E-07         0.40976E-10         0.00000E+00
    0.35146E-07         0.45258E-10         0.00000E+00
    0.35148E-07         0.49267E-10         0.00000E+00
    0.35149E-07         0.53003E-10         0.00000E+00
    0.35151E-07         0.56469E-10         0.00000E+00
    0.35153E-07         0.59666E-10         0.00000E+00
    0.35155E-07         0.62595E-10         0.00000E+00
    0.35157E-07         0.65259E-10         0.00000E+00
    0.35159E-07         0.67658E-10         0.00000E+00
    0.35161E-07         0.69795E-10         0.00000E+00
    0.35164E-07         0.71671E-10         0.00000E+00
    0.35166E-07         0.73288E-10         0.00000E+00
    0.35168E-07         0.74646E-10         0.00000E+00
    0.35171E-07         0.75749E-10         0.00000E+00
    0.35173E-07         0.76596E-10         0.00000E+00
    0.35176E-07         0.77191E-10         0.00000E+00
    0.35178E-07         0.77534E-10         0.00000E+00
    0.35181E-07         0.77627E-10         0.00000E+00
    0.35183E-07         0.77472E-10         0.00000E+00
    0.35186E-07         0.77070E-10         0.00000E+00
    0.35188E-07         0.76422E-10         0.00000E+00
    0.35190E-07         0.75531E-10         0.00000E+00
    0.35193E-07         0.74397E-10         0.00000E+00
    0.35195E-07         0.73022E-10         0.00000E+00
    0.35198E-07         0.71408E-10         0.00000E+00
    0.35200E-07         0.69556E-10         0.00000E+00
    0.35202E-07         0.67468E-10         0.00000E+00
    0.35204E-07         0.65144E-10         0.00000E+00
    0.35206E-07         0.62586E-10         0.00000E+00
    0.35208E-07         0.59796E-10         0.00000E+00
    0.35210E-07         0.56775E-10         0.00000E+00
    0.35212E-07         0.53524E-10         0.00000E+00
    0.35214E-07         0.50044E-10         0.00000E+00
    0.35215E-07         0.46337E-10         0.00000E+00
    0.35217E-07         0.42404E-10         0.00000E+00
    0.35218E-07         0.38246E-10         0.00000E+00
    0.35219E-07         0.33865E-10         0.00000E+00
    0.35220E-07         0.29261E-10         0.00000E+00
    0.35221E-07         0.24435E-10         0.00000E+00
    0.35222E-07         0.19390E-10         0.00000E+00
    0.35222E-07         0.14124E-10         0.00000E+00
    0.35223E-07         0.86411E-11         0.00000E+00
    0.35223E-07         0.29405E-11         0.00000E+00
    0.35130E-07         0.27097E-11         0.00000E+00
    0.35130E-07         0.79671E-11         0.00000E+00
    0.35130E-07         0.12983E-10         0.00000E+00
    0.35131E-07         0.17758E-10         0.00000E+00
    0.35132E-07         0.22294E-10         0.00000E+00
    0.35133E-07         0.26592E-10         0.00000E+00
    0.35134E-07         0.30654E-10         0.00000E+00
    0.35135E-07         0.34481E-10         0.00000E+00
    0.35136E-07         0.38075E-10         0.00000E+00
    0.35138E-07         0.41437E-10         0.00000E+00
    0.35140E-07         0.44569E-10         0.00000E+00
    0.35141E-07         0.47472E-10         0.00000E+00
    0.35143E-07         0.50148E-10         0.00000E+00
    0.35145E-07         0.52598E-10         0.00000E+00
    0.35147E-07         0.54824E-10         0.00000E+00
    0.35149E-07         0.56826E-10         0.00000E+00
    0.35152E-07         0.58608E-10         0.00000E+00
    0.35154E-07         0.60170E-10         0.00000E+00
    0.35156E-07         0.61513E-10         0.00000E+00
    0.35159E-07         0.62639E-10         0.00000E+00
    0.35161E-07         0.63551E-10         0.00000E+00
    0.35163E-07         0.64248E-10         0.00000E+00
    0.35166E-07         0.64733E-10         0.00000E+00
    0.35168E-07         0.65007E-10         0.00000E+00
    0.35171E-07         0.65071E-10         0.00000E+00
    0.35173E-07         0.64928E-10         0.00000E+00
    0.35176E-07         0.64577E-10         0.00000E+00
    0.35178E-07         0.64022E-10         0.00000E+00
    0.35181E-07         0.63262E-10         0.00000E+00
    0.35183E-07         0.62300E-10         0.00000E+00
    0.35186E-07         0.61137E-10         0.00000E+00
    0.35188E-07         0.59774E-10         0.00000E+00
    0.35190E-07         0.58213E-10         0.00000E+00
    0.35193E-07         0.56454E-10         0.00000E+00
    0.35195E-07         0.54499E-10         0.00000E+00
    0.35197E-07         0.52350E-10         0.00000E+00
    0.35199E-07         0.50007E-10         0.00000E+00
    0.35201E-07         0.47472E-10         0.00000E+00
    0.35203E-07         0.44745E-10         0.00000E+00
    0.35204E-07         0.41829E-10         0.00000E+00
    0.35206E-07         0.38724E-10         0.00000E+00
    0.35208E-07         0.35431E-10         0.00000E+00
    0.35209E-07         0.31952E-10         0.00000E+00
    0.35210E-07         0.28287E-10         0.00000E+00
    0.35211E-07         0.24437E-10         0.00000E+00
    0.35212E-07         0.20404E-10         0.00000E+00
    0.35213E-07         0.16188E-10         0.00000E+00
    0.35213E-07         0.11790E-10         0.00000E+00
    0.35214E-07         0.72119E-11         0.00000E+00
    0.35214E-07         0.24537E-11         0.00000E+00
    0.35169E-07         0.22020E-11         0.00000E+00
    0.35170E-07         0.64718E-11         0.00000E+00
    0.35170E-07         0.10542E-10         0.00000E+00
    0.35170E-07         0.14413E-10         0.00000E+00
    0.35171E-07         0.18086E-10         0.00000E+00
    0.35172E-07         0.21565E-10         0.00000E+00
    0.35173E-07         0.24848E-10         0.00000E+00
    0.35175E-07         0.27939E-10         0.00000E+00
    0.35176E-07         0.30839E-10         0.00000E+00
    0.35177E-07         0.33548E-10         0.00000E+00
    0.35179E-07         0.36069E-10         0.00000E+00
    0.35181E-07         0.38403E-10         0.00000E+00
    0.35183E-07         0.40552E-10         0.00000E+00
    0.35185E-07         0.42517E-10         0.00000E+00
    0.35187E-07         0.44298E-10         0.00000E+00
    0.35189E-07         0.45899E-10         0.00000E+00
    0.35191E-07         0.47320E-10         0.00000E+00
    0.35193E-07         0.48563E-10         0.00000E+00
    0.35196E-07         0.49629E-10         0.00000E+00
    0.35198E-07         0.50519E-10         0.00000E+00
    0.35201E-07         0.51235E-10         0.00000E+00
    0.35203E-07         0.51779E-10         0.00000E+00
    0.35206E-07         0.52151E-10         0.00000E+00
    0.35208E-07         0.52353E-10         0.00000E+00
    0.35211E-07         0.52387E-10         0.00000E+00
    0.35213E-07         0.52253E-10         0.00000E+00
    0.35216E-07         0.51954E-10         0.00000E+00
    0.35218E-07         0.51490E-10         0.00000E+00
    0.35221E-07         0.50862E-10         0.00000E+00
    0.35223E-07         0.50072E-10         0.00000E+00
    0.35226E-07         0.49121E-10         0.00000E+00
    0.35228E-07         0.48011E-10         0.00000E+00
    0.35231E-07         0.46742E-10         0.00000E+00
    0.35233E-07         0.45315E-10         0.00000E+00
    0.35235E-07         0.43733E-10         0.00000E+00
    0.35237E-07         0.41995E-10         0.00000E+00
    0.35239E-07         0.40104E-10         0.00000E+00
    0.35241E-07         0.38059E-10         0.00000E+00
    0.35243E-07         0.35863E-10         0.00000E+00
    0.35245E-07         0.33516E-10         0.00000E+00
    0.35246E-07         0.31019E-10         0.00000E+00
    0.35248E-07         0.28373E-10         0.00000E+00
    0.35249E-07         0.25580E-10         0.00000E+00
    0.35250E-07         0.22639E-10         0.00000E+00
    0.35251E-07         0.19553E-10         0.00000E+00
    0.35252E-07         0.16321E-10         0.00000E+00
    0.35253E-07         0.12946E-10         0.00000E+00
    0.35254E-07         0.94263E-11         0.00000E+00
    0.35254E-07         0.57644E-11         0.00000E+00
    0.35254E-07         0.19607E-11         0.00000E+00
    0.35259E-07         0.16904E-11         0.00000E+00
    0.35259E-07         0.49650E-11         0.00000E+00
    0.35259E-07         0.80812E-11         0.00000E+00
    0.35260E-07         0.11041E-10         0.00000E+00
    0.35261E-07         0.13845E-10         0.00000E+00
    0.35262E-07         0.16495E-10         0.00000E+00
    0.35263E-07         0.18993E-10         0.00000E+00
    0.35264E-07         0.21340E-10         0.00000E+00
    0.35265E-07         0.23538E-10         0.00000E+00
    0.35267E-07         0.25588E-10         0.00000E+00
    0.35269E-07         0.27492E-10         0.00000E+00
    0.35270E-07         0.29250E-10         0.00000E+00
    0.35272E-07         0.30866E-10         0.00000E+00
    0.35274E-07         0.32339E-10         0.00000E+00
    0.35276E-07         0.33671E-10         0.00000E+00
    0.35279E-07         0.34865E-10         0.00000E+00
    0.35281E-07         0.35920E-10         0.00000E+00
    0.35283E-07         0.36839E-10         0.00000E+00
    0.35286E-07         0.37624E-10         0.00000E+00
    0.35288E-07         0.38274E-10         0.00000E+00
    0.35290E-07         0.38792E-10         0.00000E+00
    0.35293E-07         0.39178E-10         0.00000E+00
    0.35295E-07         0.39435E-10         0.00000E+00
    0.35298E-07         0.39564E-10         0.00000E+00
    0.35301E-07         0.39565E-10         0.00000E+00
    0.35303E-07         0.39440E-10         0.00000E+00
    0.35306E-07         0.39191E-10         0.00000E+00
    0.35308E-07         0.38818E-10         0.00000E+00
    0.35311E-07         0.38322E-10         0.00000E+00
    0.35313E-07         0.37705E-10         0.00000E+00
    0.35316E-07         0.36968E-10         0.00000E+00
    0.35318E-07         0.36112E-10         0.00000E+00
    0.35321E-07         0.35137E-10         0.00000E+00
    0.35323E-07         0.34046E-10         0.00000E+00
    0.35325E-07         0.32839E-10         0.00000E+00
    0.35327E-07         0.31518E-10         0.00000E+00
    0.35329E-07         0.30082E-10         0.00000E+00
    0.35331E-07         0.28533E-10         0.00000E+00
    0.35333E-07         0.26873E-10         0.00000E+00
    0.35335E-07         0.25101E-10         0.00000E+00
    0.35337E-07         0.23220E-10         0.00000E+00
    0.35338E-07         0.21229E-10         0.00000E+00
    0.35339E-07         0.19129E-10         0.00000E+00
    0.35341E-07         0.16922E-10         0.00000E+00
    0.35342E-07         0.14608E-10         0.00000E+00
    0.35343E-07         0.12188E-10         0.00000E+00
    0.35343E-07         0.96626E-11         0.00000E+00
    0.35344E-07         0.70326E-11         0.00000E+00
    0.35344E-07         0.42987E-11         0.00000E+00
    0.35345E-07         0.14614E-11         0.00000E+00
    0.35399E-07         0.11740E-11         0.00000E+00
    0.35399E-07         0.34435E-11         0.00000E+00
    0.35399E-07         0.55967E-11         0.00000E+00
    0.35400E-07         0.76351E-11         0.00000E+00
    0.35401E-07         0.95604E-11         0.00000E+00
    0.35402E-07         0.11374E-10         0.00000E+00
    0.35403E-07         0.13078E-10         0.00000E+00
    0.35404E-07         0.14673E-10         0.00000E+00
    0.35406E-07         0.16161E-10         0.00000E+00
    0.35407E-07         0.17544E-10         0.00000E+00
    0.35409E-07         0.18823E-10         0.00000E+00
    0.35411E-07         0.19999E-10         0.00000E+00
    0.35412E-07         0.21075E-10         0.00000E+00
    0.35414E-07         0.22050E-10         0.00000E+00
    0.35417E-07         0.22928E-10         0.00000E+00
    0.35419E-07         0.23708E-10         0.00000E+00
    0.35421E-07         0.24393E-10         0.00000E+00
    0.35423E-07         0.24984E-10         0.00000E+00
    0.35426E-07         0.25482E-10         0.00000E+00
    0.35428E-07         0.25889E-10         0.00000E+00
    0.35431E-07         0.26205E-10         0.00000E+00
    0.35433E-07         0.26433E-10         0.00000E+00
    0.35436E-07         0.26572E-10         0.00000E+00
    0.35439E-07         0.26625E-10         0.00000E+00
    0.35441E-07         0.26593E-10         0.00000E+00
    0.35444E-07         0.26476E-10         0.00000E+00
    0.35446E-07         0.26276E-10         0.00000E+00
    0.35449E-07         0.25994E-10         0.00000E+00
    0.35452E-07         0.25631E-10         0.00000E+00
    0.35454E-07         0.25189E-10         0.00000E+00
    0.35457E-07         0.24667E-10         0.00000E+00
    0.35459E-07         0.24068E-10         0.00000E+00
    0.35461E-07         0.23391E-10         0.00000E+00
    0.35464E-07         0.22639E-10         0.00000E+00
    0.35466E-07         0.21812E-10         0.00000E+00
    0.35468E-07         0.20910E-10         0.00000E+00
    0.35470E-07         0.19936E-10         0.00000E+00
    0.35472E-07         0.18889E-10         0.00000E+00
    0.35474E-07         0.17770E-10         0.00000E+00
    0.35476E-07         0.16581E-10         0.00000E+00
    0.35478E-07         0.15322E-10         0.00000E+00
    0.35479E-07         0.13994E-10         0.00000E+00
    0.35480E-07         0.12597E-10         0.00000E+00
    0.35482E-07         0.11132E-10         0.00000E+00
    0.35483E-07         0.96001E-11         0.00000E+00
    0.35484E-07         0.80017E-11         0.00000E+00
    0.35484E-07         0.63376E-11         0.00000E+00
    0.35485E-07         0.46081E-11         0.00000E+00
    0.35485E-07         0.28140E-11         0.00000E+00
    0.35486E-07         0.95569E-12         0.00000E+00
    0.35590E-07         0.65136E-12         0.00000E+00
    0.35590E-07         0.19039E-11         0.00000E+00
    0.35590E-07         0.30824E-11         0.00000E+00
    0.35591E-07         0.41887E-11         0.00000E+00
    0.35592E-07         0.52244E-11         0.00000E+00
    0.35593E-07         0.61912E-11         0.00000E+00
    0.35594E-07         0.70907E-11         0.00000E+00
    0.35595E-07         0.79245E-11         0.00000E+00
    0.35597E-07         0.86942E-11         0.00000E+00
    0.35598E-07         0.94013E-11         0.00000E+00
    0.35600E-07         0.10047E-10         0.00000E+00
    0.35602E-07         0.10634E-10         0.00000E+00
    0.35604E-07         0.11162E-10         0.00000E+00
    0.35606E-07         0.11634E-10         0.00000E+00
    0.35608E-07         0.12050E-10         0.00000E+00
    0.35610E-07         0.12412E-10         0.00000E+00
    0.35612E-07         0.12722E-10         0.00000E+00
    0.35615E-07         0.12980E-10         0.00000E+00
    0.35617E-07         0.13188E-10         0.00000E+00
    0.35620E-07         0.13348E-10         0.00000E+00
    0.35622E-07         0.13460E-10         0.00000E+00
    0.35625E-07         0.13525E-10         0.00000E+00
    0.35627E-07         0.13545E-10         0.00000E+00
    0.35630E-07         0.13521E-10         0.00000E+00
    0.35633E-07         0.13454E-10         0.00000E+00
    0.35635E-07         0.13346E-10         0.00000E+00
    0.35638E-07         0.13196E-10         0.00000E+00
    0.35641E-07         0.13006E-10         0.00000E+00
    0.35643E-07         0.12777E-10         0.00000E+00
    0.35646E-07         0.12511E-10         0.00000E+00
    0.35648E-07         0.12207E-10         0.00000E+00
    0.35651E-07         0.11868E-10         0.00000E+00
    0.35653E-07         0.11493E-10         0.00000E+00
    0.35656E-07         0.11083E-10         0.00000E+00
    0.35658E-07         0.10641E-10         0.00000E+00
    0.35660E-07         0.10165E-10         0.00000E+00
    0.35662E-07         0.96573E-11         0.00000E+00
    0.35664E-07         0.91183E-11         0.00000E+00
    0.35666E-07         0.85488E-11         0.00000E+00
    0.35668E-07         0.79494E-11         0.00000E+00
    0.35670E-07         0.73208E-11         0.00000E+00
    0.35671E-07         0.66636E-11         0.00000E+00
    0.35673E-07         0.59783E-11         0.00000E+00
    0.35674E-07         0.52657E-11         0.00000E+00
    0.35675E-07         0.45262E-11         0.00000E+00
    0.35676E-07         0.37604E-11         0.00000E+00
    0.35677E-07         0.29687E-11         0.00000E+00
    0.35677E-07         0.21517E-11         0.00000E+00
    0.35678E-07         0.13097E-11         0.00000E+00
    0.35678E-07         0.44327E-12         0.00000E+00
    0.35832E-07         0.12138E-12         0.00000E+00
    0.35833E-07         0.34254E-12         0.00000E+00
    0.35833E-07         0.53271E-12         0.00000E+00
    0.35834E-07         0.69370E-12         0.00000E+00
    0.35834E-07         0.82731E-12         0.00000E+00
    0.35835E-07         0.93527E-12         0.00000E+00
    0.35836E-07         0.10193E-11         0.00000E+00
    0.35838E-07         0.10810E-11         0.00000E+00
    0.35839E-07         0.11220E-11         0.00000E+00
    0.35841E-07         0.11440E-11         0.00000E+00
    0.35843E-07         0.11484E-11         0.00000E+00
    0.35844E-07         0.11367E-11         0.00000E+00
    0.35846E-07         0.11104E-11         0.00000E+00
    0.35848E-07         0.10709E-11         0.00000E+00
    0.35851E-07         0.10196E-11         0.00000E+00
    0.35853E-07         0.95781E-12         0.00000E+00
    0.35855E-07         0.88686E-12         0.00000E+00
    0.35858E-07         0.80799E-12         0.00000E+00
    0.35860E-07         0.72245E-12         0.00000E+00
    0.35863E-07         0.63143E-12         0.00000E+00
    0.35865E-07         0.53609E-12         0.00000E+00
    0.35868E-07         0.43754E-12         0.00000E+00
    0.35871E-07         0.33689E-12         0.00000E+00
    0.35873E-07         0.23518E-12         0.00000E+00
    0.35876E-07         0.13344E-12         0.00000E+00
    0.35879E-07         0.32649E-13         0.00000E+00
    0.35881E-07        -0.66232E-13         0.00000E+00
    0.35884E-07        -0.16228E-12         0.00000E+00
    0.35887E-07        -0.25461E-12         0.00000E+00
    0.35889E-07        -0.34236E-12         0.00000E+00
    0.35892E-07        -0.42470E-12         0.00000E+00
    0.35894E-07        -0.50083E-12         0.00000E+00
    0.35897E-07        -0.56999E-12         0.00000E+00
    0.35899E-07        -0.63144E-12         0.00000E+00
    0.35901E-07        -0.68448E-12         0.00000E+00
    0.35904E-07        -0.72842E-12         0.00000E+00
    0.35906E-07        -0.76262E-12         0.00000E+00
    0.35908E-07        -0.78646E-12         0.00000E+00
    0.35910E-07        -0.79935E-12         0.00000E+00
    0.35912E-07        -0.80072E-12         0.00000E+00
    0.35913E-07        -0.79003E-12         0.00000E+00
    0.35915E-07        -0.76678E-12         0.00000E+00
    0.35916E-07        -0.73048E-12         0.00000E+00
    0.35918E-07        -0.68068E-12         0.00000E+00
    0.35919E-07        -0.61695E-12         0.00000E+00
    0.35920E-07        -0.53889E-12         0.00000E+00
    0.35920E-07        -0.44611E-12         0.00000E+00
    0.35921E-07        -0.33827E-12         0.00000E+00
    0.35921E-07        -0.21504E-12         0.00000E+00
    0.35922E-07        -0.76108E-13         0.00000E+00
    0.36126E-07        -0.41729E-12         0.00000E+00
    0.36127E-07        -0.12443E-11         0.00000E+00
    0.36127E-07        -0.20585E-11         0.00000E+00
    0.36128E-07        -0.28579E-11         0.00000E+00
    0.36128E-07        -0.36407E-11         0.00000E+00
    0.36129E-07        -0.44051E-11         0.00000E+00
    0.36131E-07        -0.51493E-11         0.00000E+00
    0.36132E-07        -0.58716E-11         0.00000E+00
    0.36133E-07        -0.65703E-11         0.00000E+00
    0.36135E-07        -0.72439E-11         0.00000E+00
    0.36137E-07        -0.78907E-11         0.00000E+00
    0.36139E-07        -0.85094E-11         0.00000E+00
    0.36141E-07        -0.90984E-11         0.00000E+00
    0.36143E-07        -0.96563E-11         0.00000E+00
    0.36145E-07        -0.10182E-10         0.00000E+00
    0.36147E-07        -0.10674E-10         0.00000E+00
    0.36150E-07        -0.11130E-10         0.00000E+00
    0.36152E-07        -0.11551E-10         0.00000E+00
    0.36155E-07        -0.11934E-10         0.00000E+00
    0.36157E-07        -0.12279E-10         0.00000E+00
    0.36160E-07        -0.12584E-10         0.00000E+00
    0.36163E-07        -0.12848E-10         0.00000E+00
    0.36165E-07        -0.13071E-10         0.00000E+00
    0.36168E-07        -0.13251E-10         0.00000E+00
    0.36171E-07        -0.13387E-10         0.00000E+00
    0.36173E-07        -0.13479E-10         0.00000E+00
    0.36176E-07        -0.13526E-10         0.00000E+00
    0.36179E-07        -0.13526E-10         0.00000E+00
    0.36181E-07        -0.13479E-10         0.00000E+00
    0.36184E-07        -0.13385E-10         0.00000E+00
    0.36187E-07        -0.13242E-10         0.00000E+00
    0.36189E-07        -0.13051E-10         0.00000E+00
    0.36192E-07        -0.12809E-10         0.00000E+00
    0.36194E-07        -0.12517E-10         0.00000E+00
    0.36197E-07        -0.12174E-10         0.00000E+00
    0.36199E-07        -0.11779E-10         0.00000E+00
    0.36201E-07        -0.11333E-10         0.00000E+00
    0.36203E-07        -0.10834E-10         0.00000E+00
    0.36205E-07        -0.10282E-10         0.00000E+00
    0.36207E-07        -0.96761E-11         0.00000E+00
    0.36209E-07        -0.90166E-11         0.00000E+00
    0.36210E-07        -0.83029E-11         0.00000E+00
    0.36212E-07        -0.75345E-11         0.00000E+00
    0.36213E-07        -0.67112E-11         0.00000E+00
    0.36214E-07        -0.58327E-11         0.00000E+00
    0.36215E-07        -0.48987E-11         0.00000E+00
    0.36216E-07        -0.39089E-11         0.00000E+00
    0.36216E-07        -0.28631E-11         0.00000E+00
    0.36217E-07        -0.17611E-11         0.00000E+00
    0.36217E-07        -0.60273E-12         0.00000E+00
    0.36472E-07        -0.96591E-12         0.00000E+00
    0.36472E-07        -0.28603E-11         0.00000E+00
    0.36473E-07        -0.46970E-11         0.00000E+00
    0.36474E-07        -0.64739E-11         0.00000E+00
    0.36474E-07        -0.81892E-11         0.00000E+00
    0.36475E-07        -0.98410E-11         0.00000E+00
    0.36477E-07        -0.11427E-10         0.00000E+00
    0.36478E-07        -0.12947E-10         0.00000E+00
    0.36479E-07        -0.14398E-10         0.00000E+00
    0.36481E-07        -0.15778E-10         0.00000E+00
    0.36483E-07        -0.17086E-10         0.00000E+00
    0.36485E-07        -0.18321E-10         0.00000E+00
    0.36487E-07        -0.19482E-10         0.00000E+00
    0.36489E-07        -0.20566E-10         0.00000E+00
    0.36491E-07        -0.21572E-10         0.00000E+00
    0.36494E-07        -0.22500E-10         0.00000E+00
    0.36496E-07        -0.23348E-10         0.00000E+00
    0.36498E-07        -0.24115E-10         0.00000E+00
    0.36501E-07        -0.24799E-10         0.00000E+00
    0.36504E-07        -0.25401E-10         0.00000E+00
    0.36506E-07        -0.25917E-10         0.00000E+00
    0.36509E-07        -0.26349E-10         0.00000E+00
    0.36512E-07        -0.26694E-10         0.00000E+00
    0.36515E-07        -0.26953E-10         0.00000E+00
    0.36517E-07        -0.27123E-10         0.00000E+00
    0.36520E-07        -0.27205E-10         0.00000E+00
    0.36523E-07        -0.27197E-10         0.00000E+00
    0.36526E-07        -0.27099E-10         0.00000E+00
    0.36528E-07        -0.26911E-10         0.00000E+00
    0.36531E-07        -0.26630E-10         0.00000E+00
    0.36534E-07        -0.26258E-10         0.00000E+00
    0.36536E-07        -0.25793E-10         0.00000E+00
    0.36539E-07        -0.25235E-10         0.00000E+00
    0.36541E-07        -0.24583E-10         0.00000E+00
    0.36544E-07        -0.23838E-10         0.00000E+00
    0.36546E-07        -0.22997E-10         0.00000E+00
    0.36548E-07        -0.22062E-10         0.00000E+00
    0.36550E-07        -0.21031E-10         0.00000E+00
    0.36552E-07        -0.19905E-10         0.00000E+00
    0.36554E-07        -0.18683E-10         0.00000E+00
    0.36556E-07        -0.17364E-10         0.00000E+00
    0.36557E-07        -0.15950E-10         0.00000E+00
    0.36559E-07        -0.14438E-10         0.00000E+00
    0.36560E-07        -0.12830E-10         0.00000E+00
    0.36561E-07        -0.11124E-10         0.00000E+00
    0.36562E-07        -0.93214E-11         0.00000E+00
    0.36563E-07        -0.74215E-11         0.00000E+00
    0.36564E-07        -0.54241E-11         0.00000E+00
    0.36564E-07        -0.33292E-11         0.00000E+00
    0.36564E-07        -0.11368E-11         0.00000E+00
    0.36870E-07        -0.15257E-11         0.00000E+00
    0.36870E-07        -0.45088E-11         0.00000E+00
    0.36871E-07        -0.73881E-11         0.00000E+00
    0.36871E-07        -0.10162E-10         0.00000E+00
    0.36872E-07        -0.12827E-10         0.00000E+00
    0.36873E-07        -0.15383E-10         0.00000E+00
    0.36874E-07        -0.17827E-10         0.00000E+00
    0.36876E-07        -0.20158E-10         0.00000E+00
    0.36877E-07        -0.22373E-10         0.00000E+00
    0.36879E-07        -0.24472E-10         0.00000E+00
    0.36881E-07        -0.26454E-10         0.00000E+00
    0.36883E-07        -0.28315E-10         0.00000E+00
    0.36885E-07        -0.30056E-10         0.00000E+00
    0.36887E-07        -0.31674E-10         0.00000E+00
    0.36889E-07        -0.33169E-10         0.00000E+00
    0.36892E-07        -0.34539E-10         0.00000E+00
    0.36894E-07        -0.35783E-10         0.00000E+00
    0.36897E-07        -0.36900E-10         0.00000E+00
    0.36899E-07        -0.37890E-10         0.00000E+00
    0.36902E-07        -0.38750E-10         0.00000E+00
    0.36905E-07        -0.39481E-10         0.00000E+00
    0.36907E-07        -0.40081E-10         0.00000E+00
    0.36910E-07        -0.40549E-10         0.00000E+00
    0.36913E-07        -0.40886E-10         0.00000E+00
    0.36916E-07        -0.41089E-10         0.00000E+00
    0.36919E-07        -0.41159E-10         0.00000E+00
    0.36921E-07        -0.41094E-10         0.00000E+00
    0.36924E-07        -0.40895E-10         0.00000E+00
    0.36927E-07        -0.40560E-10         0.00000E+00
    0.36930E-07        -0.40089E-10         0.00000E+00
    0.36932E-07        -0.39482E-10         0.00000E+00
    0.36935E-07        -0.38739E-10         0.00000E+00
    0.36938E-07        -0.37858E-10         0.00000E+00
    0.36940E-07        -0.36839E-10         0.00000E+00
    0.36943E-07        -0.35683E-10         0.00000E+00
    0.36945E-07        -0.34389E-10         0.00000E+00
    0.36947E-07        -0.32956E-10         0.00000E+00
    0.36949E-07        -0.31385E-10         0.00000E+00
    0.36951E-07        -0.29675E-10         0.00000E+00
    0.36953E-07        -0.27826E-10         0.00000E+00
    0.36955E-07        -0.25838E-10         0.00000E+00
    0.36957E-07        -0.23711E-10         0.00000E+00
    0.36958E-07        -0.21444E-10         0.00000E+00
    0.36959E-07        -0.19038E-10         0.00000E+00
    0.36961E-07        -0.16493E-10         0.00000E+00
    0.36962E-07        -0.13809E-10         0.00000E+00
    0.36962E-07        -0.10985E-10         0.00000E+00
    0.36963E-07        -0.80221E-11         0.00000E+00
    0.36963E-07        -0.49199E-11         0.00000E+00
    0.36964E-07        -0.16786E-11         0.00000E+00
    0.37319E-07        -0.20976E-11         0.00000E+00
    0.37320E-07        -0.61930E-11         0.00000E+00
    0.37320E-07        -0.10137E-10         0.00000E+00
    0.37321E-07        -0.13927E-10         0.00000E+00
    0.37322E-07        -0.17562E-10         0.00000E+00
    0.37323E-07        -0.21039E-10         0.00000E+00
    0.37324E-07        -0.24357E-10         0.00000E+00
    0.37325E-07        -0.27514E-10         0.00000E+00
    0.37327E-07        -0.30509E-10         0.00000E+00
    0.37328E-07        -0.33340E-10         0.00000E+00
    0.37330E-07        -0.36005E-10         0.00000E+00
    0.37332E-07        -0.38503E-10         0.00000E+00
    0.37334E-07        -0.40833E-10         0.00000E+00
    0.37337E-07        -0.42994E-10         0.00000E+00
    0.37339E-07        -0.44984E-10         0.00000E+00
    0.37341E-07        -0.46803E-10         0.00000E+00
    0.37344E-07        -0.48448E-10         0.00000E+00
    0.37347E-07        -0.49920E-10         0.00000E+00
    0.37349E-07        -0.51218E-10         0.00000E+00
    0.37352E-07        -0.52340E-10         0.00000E+00
    0.37355E-07        -0.53286E-10         0.00000E+00
    0.37357E-07        -0.54055E-10         0.00000E+00
    0.37360E-07        -0.54647E-10         0.00000E+00
    0.37363E-07        -0.55060E-10         0.00000E+00
    0.37366E-07        -0.55295E-10         0.00000E+00
    0.37369E-07        -0.55350E-10         0.00000E+00
    0.37372E-07        -0.55226E-10         0.00000E+00
    0.37375E-07        -0.54921E-10         0.00000E+00
    0.37377E-07        -0.54436E-10         0.00000E+00
    0.37380E-07        -0.53770E-10         0.00000E+00
    0.37383E-07        -0.52922E-10         0.00000E+00
    0.37386E-07        -0.51894E-10         0.00000E+00
    0.37388E-07        -0.50683E-10         0.00000E+00
    0.37391E-07        -0.49290E-10         0.00000E+00
    0.37393E-07        -0.47716E-10         0.00000E+00
    0.37396E-07        -0.45959E-10         0.00000E+00
    0.37398E-07        -0.44020E-10         0.00000E+00
    0.37400E-07        -0.41898E-10         0.00000E+00
    0.37402E-07        -0.39594E-10         0.00000E+00
    0.37404E-07        -0.37108E-10         0.00000E+00
    0.37406E-07        -0.34439E-10         0.00000E+00
    0.37408E-07        -0.31588E-10         0.00000E+00
    0.37409E-07        -0.28554E-10         0.00000E+00
    0.37410E-07        -0.25339E-10         0.00000E+00
    0.37412E-07        -0.21941E-10         0.00000E+00
    0.37413E-07        -0.18362E-10         0.00000E+00
    0.37413E-07        -0.14600E-10         0.00000E+00
    0.37414E-07        -0.10658E-10         0.00000E+00
    0.37414E-07        -0.65333E-11         0.00000E+00
    0.37415E-07        -0.22280E-11         0.00000E+00
    0.37820E-07        -0.26827E-11         0.00000E+00
    0.37820E-07        -0.79152E-11         0.00000E+00
    0.37821E-07        -0.12947E-10         0.00000E+00
    0.37822E-07        -0.17776E-10         0.00000E+00
    0.37822E-07        -0.22400E-10         0.00000E+00
    0.37824E-07        -0.26818E-10         0.00000E+00
    0.37825E-07        -0.31027E-10         0.00000E+00
    0.37826E-07        -0.35026E-10         0.00000E+00
    0.37828E-07        -0.38814E-10         0.00000E+00
    0.37830E-07        -0.42390E-10         0.00000E+00
    0.37832E-07        -0.45751E-10         0.00000E+00
    0.37834E-07        -0.48896E-10         0.00000E+00
    0.37836E-07        -0.51825E-10         0.00000E+00
    0.37838E-07        -0.54536E-10         0.00000E+00
    0.37840E-07        -0.57029E-10         0.00000E+00
    0.37843E-07        -0.59302E-10         0.00000E+00
    0.37845E-07        -0.61354E-10         0.00000E+00
    0.37848E-07        -0.63185E-10         0.00000E+00
    0.37851E-07        -0.64794E-10         0.00000E+00
    0.37854E-07        -0.66180E-10         0.00000E+00
    0.37856E-07        -0.67342E-10         0.00000E+00
    0.37859E-07        -0.68281E-10         0.00000E+00
    0.37862E-07        -0.68995E-10         0.00000E+00
    0.37865E-07        -0.69484E-10         0.00000E+00
    0.37868E-07        -0.69748E-10         0.00000E+00
    0.37871E-07        -0.69786E-10         0.00000E+00
    0.37874E-07        -0.69598E-10         0.00000E+00
    0.37877E-07        -0.69184E-10         0.00000E+00
    0.37879E-07        -0.68543E-10         0.00000E+00
    0.37882E-07        -0.67676E-10         0.00000E+00
    0.37885E-07        -0.66582E-10         0.00000E+00
    0.37888E-07        -0.65261E-10         0.00000E+00
    0.37890E-07        -0.63713E-10         0.00000E+00
    0.37893E-07        -0.61939E-10         0.00000E+00
    0.37896E-07        -0.59937E-10         0.00000E+00
    0.37898E-07        -0.57709E-10         0.00000E+00
    0.37900E-07        -0.55254E-10         0.00000E+00
    0.37902E-07        -0.52572E-10         0.00000E+00
    0.37905E-07        -0.49663E-10         0.00000E+00
    0.37907E-07        -0.46529E-10         0.00000E+00
    0.37908E-07        -0.43168E-10         0.00000E+00
    0.37910E-07        -0.39581E-10         0.00000E+00
    0.37912E-07        -0.35768E-10         0.00000E+00
    0.37913E-07        -0.31730E-10         0.00000E+00
    0.37914E-07        -0.27467E-10         0.00000E+00
    0.37915E-07        -0.22979E-10         0.00000E+00
    0.37916E-07        -0.18267E-10         0.00000E+00
    0.37917E-07        -0.13330E-10         0.00000E+00
    0.37917E-07        -0.81692E-11         0.00000E+00
    0.37917E-07        -0.27850E-11         0.00000E+00
    0.38372E-07        -0.32814E-11         0.00000E+00
    0.38373E-07        -0.96773E-11         0.00000E+00
    0.38373E-07        -0.15821E-10         0.00000E+00
    0.38374E-07        -0.21711E-10         0.00000E+00
    0.38375E-07        -0.27346E-10         0.00000E+00
    0.38376E-07        -0.32723E-10         0.00000E+00
    0.38377E-07        -0.37841E-10         0.00000E+00
    0.38379E-07        -0.42699E-10         0.00000E+00
    0.38380E-07        -0.47295E-10         0.00000E+00
    0.38382E-07        -0.51628E-10         0.00000E+00
    0.38384E-07        -0.55696E-10         0.00000E+00
    0.38386E-07        -0.59500E-10         0.00000E+00
    0.38388E-07        -0.63037E-10         0.00000E+00
    0.38390E-07        -0.66307E-10         0.00000E+00
    0.38393E-07        -0.69308E-10         0.00000E+00
    0.38395E-07        -0.72041E-10         0.00000E+00
    0.38398E-07        -0.74505E-10         0.00000E+00
    0.38401E-07        -0.76698E-10         0.00000E+00
    0.38403E-07        -0.78621E-10         0.00000E+00
    0.38406E-07        -0.80272E-10         0.00000E+00
    0.38409E-07        -0.81652E-10         0.00000E+00
    0.38412E-07        -0.82760E-10         0.00000E+00
    0.38415E-07        -0.83595E-10         0.00000E+00
    0.38418E-07        -0.84158E-10         0.00000E+00
    0.38421E-07        -0.84449E-10         0.00000E+00
    0.38424E-07        -0.84466E-10         0.00000E+00
    0.38427E-07        -0.84211E-10         0.00000E+00
    0.38430E-07        -0.83682E-10         0.00000E+00
    0.38433E-07        -0.82881E-10         0.00000E+00
    0.38436E-07        -0.81807E-10         0.00000E+00
    0.38438E-07        -0.80459E-10         0.00000E+00
    0.38441E-07        -0.78839E-10         0.00000E+00
    0.38444E-07        -0.76947E-10         0.00000E+00
    0.38446E-07        -0.74782E-10         0.00000E+00
    0.38449E-07        -0.72345E-10         0.00000E+00
    0.38451E-07        -0.69636E-10         0.00000E+00
    0.38454E-07        -0.66655E-10         0.00000E+00
    0.38456E-07        -0.63403E-10         0.00000E+00
    0.38458E-07        -0.59879E-10         0.00000E+00
    0.38460E-07        -0.56085E-10         0.00000E+00
    0.38462E-07        -0.52021E-10         0.00000E+00
    0.38464E-07        -0.47687E-10         0.00000E+00
    0.38465E-07        -0.43083E-10         0.00000E+00
    0.38467E-07        -0.38210E-10         0.00000E+00
    0.38468E-07        -0.33069E-10         0.00000E+00
    0.38469E-07        -0.27659E-10         0.00000E+00
    0.38470E-07        -0.21982E-10         0.00000E+00
    0.38470E-07        -0.16038E-10         0.00000E+00
    0.38471E-07        -0.98265E-11         0.00000E+00
    0.38471E-07        -0.33493E-11         0.00000E+00
    0.38975E-07        -0.38942E-11         0.00000E+00
    0.38975E-07        -0.11480E-10         0.00000E+00
    0.38976E-07        -0.18761E-10         0.00000E+00
    0.38977E-07        -0.25735E-10         0.00000E+00
    0.38978E-07        -0.32401E-10         0.00000E+00
    0.38979E-07        -0.38757E-10         0.00000E+00
    0.38980E-07        -0.44802E-10         0.00000E+00
    0.38982E-07        -0.50534E-10         0.00000E+00
    0.38983E-07        -0.55952E-10         0.00000E+00
    0.38985E-07        -0.61056E-10         0.00000E+00
    0.38987E-07        -0.65843E-10         0.00000E+00
    0.38989E-07        -0.70315E-10         0.00000E+00
    0.38991E-07        -0.74469E-10         0.00000E+00
    0.38994E-07        -0.78305E-10         0.00000E+00
    0.38996E-07        -0.81822E-10         0.00000E+00
    0.38999E-07        -0.85020E-10         0.00000E+00
    0.39001E-07        -0.87899E-10         0.00000E+00
    0.39004E-07        -0.90458E-10         0.00000E+00
    0.39007E-07        -0.92696E-10         0.00000E+00
    0.39010E-07        -0.94614E-10         0.00000E+00
    0.39013E-07        -0.96211E-10         0.00000E+00
    0.39016E-07        -0.97487E-10         0.00000E+00
    0.39019E-07        -0.98443E-10         0.00000E+00
    0.39022E-07        -0.99077E-10         0.00000E+00
    0.39025E-07        -0.99391E-10         0.00000E+00
    0.39028E-07        -0.99384E-10         0.00000E+00
    0.39031E-07        -0.99057E-10         0.00000E+00
    0.39034E-07        -0.98409E-10         0.00000E+00
    0.39037E-07        -0.97441E-10         0.00000E+00
    0.39040E-07        -0.96154E-10         0.00000E+00
    0.39042E-07        -0.94546E-10         0.00000E+00
    0.39045E-07        -0.92620E-10         0.00000E+00
    0.39048E-07        -0.90375E-10         0.00000E+00
    0.39051E-07        -0.87811E-10         0.00000E+00
    0.39053E-07        -0.84930E-10         0.00000E+00
    0.39056E-07        -0.81730E-10         0.00000E+00
    0.39058E-07        -0.78214E-10         0.00000E+00
    0.39060E-07        -0.74382E-10         0.00000E+00
    0.39062E-07        -0.70233E-10         0.00000E+00
    0.39064E-07        -0.65770E-10         0.00000E+00
    0.39066E-07        -0.60991E-10         0.00000E+00
    0.39068E-07        -0.55898E-10         0.00000E+00
    0.39070E-07        -0.50492E-10         0.00000E+00
    0.39071E-07        -0.44772E-10         0.00000E+00
    0.39072E-07        -0.38741E-10         0.00000E+00
    0.39073E-07        -0.32397E-10         0.00000E+00
    0.39074E-07        -0.25743E-10         0.00000E+00
    0.39075E-07        -0.18778E-10         0.00000E+00
    0.39075E-07        -0.11504E-10         0.00000E+00
    0.39076E-07        -0.39202E-11         0.00000E+00
    0.39628E-07        -0.45211E-11         0.00000E+00
    0.39628E-07        -0.13324E-10         0.00000E+00
    0.39629E-07        -0.21767E-10         0.00000E+00
    0.39630E-07        -0.29847E-10         0.00000E+00
    0.39631E-07        -0.37565E-10         0.00000E+00
    0.39632E-07        -0.44919E-10         0.00000E+00
    0.39633E-07        -0.51907E-10         0.00000E+00
    0.39635E-07        -0.58529E-10         0.00000E+00
    0.39636E-07        -0.64783E-10         0.00000E+00
    0.39638E-07        -0.70670E-10         0.00000E+00
    0.39640E-07        -0.76188E-10         0.00000E+00
    0.39642E-07        -0.81337E-10         0.00000E+00
    0.39645E-07        -0.86116E-10         0.00000E+00
    0.39647E-07        -0.90525E-10         0.00000E+00
    0.39650E-07        -0.94563E-10         0.00000E+00
    0.39652E-07        -0.98231E-10         0.00000E+00
    0.39655E-07        -0.10153E-09         0.00000E+00
    0.39658E-07        -0.10445E-09         0.00000E+00
    0.39661E-07        -0.10701E-09         0.00000E+00
    0.39663E-07        -0.10919E-09         0.00000E+00
    0.39666E-07        -0.11101E-09         0.00000E+00
    0.39669E-07        -0.11245E-09         0.00000E+00
    0.39672E-07        -0.11353E-09         0.00000E+00
    0.39675E-07        -0.11423E-09         0.00000E+00
    0.39679E-07        -0.11456E-09         0.00000E+00
    0.39682E-07        -0.11453E-09         0.00000E+00
    0.39685E-07        -0.11412E-09         0.00000E+00
    0.39688E-07        -0.11335E-09         0.00000E+00
    0.39691E-07        -0.11221E-09         0.00000E+00
    0.39694E-07        -0.11070E-09         0.00000E+00
    0.39697E-07        -0.10883E-09         0.00000E+00
    0.39699E-07        -0.10659E-09         0.00000E+00
    0.39702E-07        -0.10398E-09         0.00000E+00
    0.39705E-07        -0.10101E-09         0.00000E+00
    0.39707E-07        -0.97677E-10         0.00000E+00
    0.39710E-07        -0.93979E-10         0.00000E+00
    0.39712E-07        -0.89919E-10         0.00000E+00
    0.39715E-07        -0.85496E-10         0.00000E+00
    0.39717E-07        -0.80713E-10         0.00000E+00
    0.39719E-07        -0.75569E-10         0.00000E+00
    0.39721E-07        -0.70066E-10         0.00000E+00
    0.39723E-07        -0.64204E-10         0.00000E+00
    0.39724E-07        -0.57985E-10         0.00000E+00
    0.39726E-07        -0.51408E-10         0.00000E+00
    0.39727E-07        -0.44475E-10         0.00000E+00
    0.39728E-07        -0.37187E-10         0.00000E+00
    0.39729E-07        -0.29544E-10         0.00000E+00
    0.39729E-07        -0.21547E-10         0.00000E+00
    0.39730E-07        -0.13198E-10         0.00000E+00
    0.39730E-07        -0.44970E-11         0.00000E+00
    0.40331E-07        -0.51617E-11         0.00000E+00
    0.40331E-07        -0.15207E-10         0.00000E+00
    0.40331E-07        -0.24835E-10         0.00000E+00
    0.40332E-07        -0.34045E-10         0.00000E+00
    0.40333E-07        -0.42834E-10         0.00000E+00
    0.40334E-07        -0.51204E-10         0.00000E+00
    0.40336E-07        -0.59151E-10         0.00000E+00
    0.40337E-07        -0.66677E-10         0.00000E+00
    0.40339E-07        -0.73781E-10         0.00000E+00
    0.40341E-07        -0.80462E-10         0.00000E+00
    0.40343E-07        -0.86719E-10         0.00000E+00
    0.40345E-07        -0.92554E-10         0.00000E+00
    0.40347E-07        -0.97965E-10         0.00000E+00
    0.40350E-07        -0.10295E-09         0.00000E+00
    0.40352E-07        -0.10752E-09         0.00000E+00
    0.40355E-07        -0.11166E-09         0.00000E+00
    0.40358E-07        -0.11538E-09         0.00000E+00
    0.40361E-07        -0.11867E-09         0.00000E+00
    0.40363E-07        -0.12154E-09         0.00000E+00
    0.40366E-07        -0.12400E-09         0.00000E+00
    0.40369E-07        -0.12603E-09         0.00000E+00
    0.40372E-07        -0.12763E-09         0.00000E+00
    0.40376E-07        -0.12882E-09         0.00000E+00
    0.40379E-07        -0.12959E-09         0.00000E+00
    0.40382E-07        -0.12994E-09         0.00000E+00
    0.40385E-07        -0.12987E-09         0.00000E+00
    0.40388E-07        -0.12939E-09         0.00000E+00
    0.40391E-07        -0.12848E-09         0.00000E+00
    0.40394E-07        -0.12716E-09         0.00000E+00
    0.40397E-07        -0.12543E-09         0.00000E+00
    0.40400E-07        -0.12328E-09         0.00000E+00
    0.40403E-07        -0.12072E-09         0.00000E+00
    0.40406E-07        -0.11775E-09         0.00000E+00
    0.40408E-07        -0.11436E-09         0.00000E+00
    0.40411E-07        -0.11057E-09         0.00000E+00
    0.40413E-07        -0.10636E-09         0.00000E+00
    0.40416E-07        -0.10175E-09         0.00000E+00
    0.40418E-07        -0.96726E-10         0.00000E+00
    0.40420E-07        -0.91299E-10         0.00000E+00
    0.40422E-07        -0.85467E-10         0.00000E+00
    0.40424E-07        -0.79230E-10         0.00000E+00
    0.40426E-07        -0.72590E-10         0.00000E+00
    0.40428E-07        -0.65548E-10         0.00000E+00
    0.40429E-07        -0.58104E-10         0.00000E+00
    0.40430E-07        -0.50261E-10         0.00000E+00
    0.40431E-07        -0.42018E-10         0.00000E+00
    0.40432E-07        -0.33378E-10         0.00000E+00
    0.40433E-07        -0.24340E-10         0.00000E+00
    0.40433E-07        -0.14907E-10         0.00000E+00
    0.40434E-07        -0.50784E-11         0.00000E+00
    0.41081E-07        -0.58152E-11         0.00000E+00
    0.41082E-07        -0.17128E-10         0.00000E+00
    0.41082E-07        -0.27964E-10         0.00000E+00
    0.41083E-07        -0.38321E-10         0.00000E+00
    0.41084E-07        -0.48201E-10         0.00000E+00
    0.41085E-07        -0.57602E-10         0.00000E+00
    0.41086E-07        -0.66524E-10         0.00000E+00
    0.41088E-07        -0.74967E-10         0.00000E+00
    0.41090E-07        -0.82930E-10         0.00000E+00
    0.41092E-07        -0.90415E-10         0.00000E+00
    0.41094E-07        -0.97421E-10         0.00000E+00
    0.41096E-07        -0.10395E-09         0.00000E+00
    0.41098E-07        -0.11000E-09         0.00000E+00
    0.41101E-07        -0.11557E-09         0.00000E+00
    0.41103E-07        -0.12066E-09         0.00000E+00
    0.41106E-07        -0.12528E-09         0.00000E+00
    0.41109E-07        -0.12942E-09         0.00000E+00
    0.41112E-07        -0.13308E-09         0.00000E+00
    0.41115E-07        -0.13627E-09         0.00000E+00
    0.41118E-07        -0.13899E-09         0.00000E+00
    0.41121E-07        -0.14123E-09         0.00000E+00
    0.41124E-07        -0.14300E-09         0.00000E+00
    0.41127E-07        -0.14430E-09         0.00000E+00
    0.41130E-07        -0.14513E-09         0.00000E+00
    0.41133E-07        -0.14549E-09         0.00000E+00
    0.41136E-07        -0.14539E-09         0.00000E+00
    0.41139E-07        -0.14481E-09         0.00000E+00
    0.41143E-07        -0.14377E-09         0.00000E+00
    0.41146E-07        -0.14227E-09         0.00000E+00
    0.41149E-07        -0.14030E-09         0.00000E+00
    0.41152E-07        -0.13787E-09         0.00000E+00
    0.41154E-07        -0.13498E-09         0.00000E+00
    0.41157E-07        -0.13164E-09         0.00000E+00
    0.41160E-07        -0.12783E-09         0.00000E+00
    0.41163E-07        -0.12356E-09         0.00000E+00
    0.41165E-07        -0.11884E-09         0.00000E+00
    0.41168E-07        -0.11367E-09         0.00000E+00
    0.41170E-07        -0.10804E-09         0.00000E+00
    0.41172E-07        -0.10197E-09         0.00000E+00
    0.41174E-07        -0.95437E-10         0.00000E+00
    0.41176E-07        -0.88459E-10         0.00000E+00
    0.41178E-07        -0.81034E-10         0.00000E+00
    0.41180E-07        -0.73162E-10         0.00000E+00
    0.41181E-07        -0.64845E-10         0.00000E+00
    0.41182E-07        -0.56083E-10         0.00000E+00
    0.41183E-07        -0.46880E-10         0.00000E+00
    0.41184E-07        -0.37235E-10         0.00000E+00
    0.41185E-07        -0.27149E-10         0.00000E+00
    0.41185E-07        -0.16625E-10         0.00000E+00
    0.41186E-07        -0.56630E-11         0.00000E+00
    0.41880E-07        -0.64803E-11         0.00000E+00
    0.41880E-07        -0.19082E-10         0.00000E+00
    0.41880E-07        -0.31145E-10         0.00000E+00
    0.41881E-07        -0.42668E-10         0.00000E+00
    0.41882E-07        -0.53654E-10         0.00000E+00
    0.41883E-07        -0.64100E-10         0.00000E+00
    0.41885E-07        -0.74008E-10         0.00000E+00
    0.41886E-07        -0.83378E-10         0.00000E+00
    0.41888E-07        -0.92211E-10         0.00000E+00
    0.41890E-07        -0.10051E-09         0.00000E+00
    0.41892E-07        -0.10827E-09         0.00000E+00
    0.41894E-07        -0.11549E-09         0.00000E+00
    0.41897E-07        -0.12218E-09         0.00000E+00
    0.41899E-07        -0.12834E-09         0.00000E+00
    0.41902E-07        -0.13396E-09         0.00000E+00
    0.41905E-07        -0.13905E-09         0.00000E+00
    0.41907E-07        -0.14362E-09         0.00000E+00
    0.41910E-07        -0.14765E-09         0.00000E+00
    0.41913E-07        -0.15115E-09         0.00000E+00
    0.41916E-07        -0.15413E-09         0.00000E+00
    0.41919E-07        -0.15659E-09         0.00000E+00
    0.41922E-07        -0.15852E-09         0.00000E+00
    0.41926E-07        -0.15992E-09         0.00000E+00
    0.41929E-07        -0.16081E-09         0.00000E+00
    0.41932E-07        -0.16118E-09         0.00000E+00
    0.41935E-07        -0.16103E-09         0.00000E+00
    0.41938E-07        -0.16036E-09         0.00000E+00
    0.41941E-07        -0.15918E-09         0.00000E+00
    0.41944E-07        -0.15748E-09         0.00000E+00
    0.41947E-07        -0.15528E-09         0.00000E+00
    0.41950E-07        -0.15256E-09         0.00000E+00
    0.41953E-07        -0.14934E-09         0.00000E+00
    0.41956E-07        -0.14561E-09         0.00000E+00
    0.41959E-07        -0.14137E-09         0.00000E+00
    0.41962E-07        -0.13663E-09         0.00000E+00
    0.41964E-07        -0.13139E-09         0.00000E+00
    0.41967E-07        -0.12565E-09         0.00000E+00
    0.41969E-07        -0.11942E-09         0.00000E+00
    0.41971E-07        -0.11268E-09         0.00000E+00
    0.41973E-07        -0.10545E-09         0.00000E+00
    0.41975E-07        -0.97726E-10         0.00000E+00
    0.41977E-07        -0.89510E-10         0.00000E+00
    0.41978E-07        -0.80803E-10         0.00000E+00
    0.41980E-07        -0.71608E-10         0.00000E+00
    0.41981E-07        -0.61924E-10         0.00000E+00
    0.41982E-07        -0.51755E-10         0.00000E+00
    0.41983E-07        -0.41102E-10         0.00000E+00
    0.41984E-07        -0.29965E-10         0.00000E+00
    0.41984E-07        -0.18347E-10         0.00000E+00
    0.41984E-07        -0.62488E-11         0.00000E+00
    0.42724E-07        -0.71552E-11         0.00000E+00
    0.42724E-07        -0.21064E-10         0.00000E+00
    0.42725E-07        -0.34370E-10         0.00000E+00
    0.42725E-07        -0.47074E-10         0.00000E+00
    0.42726E-07        -0.59177E-10         0.00000E+00
    0.42728E-07        -0.70679E-10         0.00000E+00
    0.42729E-07        -0.81583E-10         0.00000E+00
    0.42731E-07        -0.91888E-10         0.00000E+00
    0.42732E-07        -0.10160E-09         0.00000E+00
    0.42734E-07        -0.11071E-09         0.00000E+00
    0.42736E-07        -0.11922E-09         0.00000E+00
    0.42739E-07        -0.12715E-09         0.00000E+00
    0.42741E-07        -0.13448E-09         0.00000E+00
    0.42744E-07        -0.14122E-09         0.00000E+00
    0.42746E-07        -0.14738E-09         0.00000E+00
    0.42749E-07        -0.15294E-09         0.00000E+00
    0.42752E-07        -0.15793E-09         0.00000E+00
    0.42755E-07        -0.16232E-09         0.00000E+00
    0.42758E-07        -0.16614E-09         0.00000E+00
    0.42761E-07        -0.16938E-09         0.00000E+00
    0.42764E-07        -0.17204E-09         0.00000E+00
    0.42767E-07        -0.17412E-09         0.00000E+00
    0.42770E-07        -0.17563E-09         0.00000E+00
    0.42773E-07        -0.17657E-09         0.00000E+00
    0.42776E-07        -0.17694E-09         0.00000E+00
    0.42780E-07        -0.17674E-09         0.00000E+00
    0.42783E-07        -0.17597E-09         0.00000E+00
    0.42786E-07        -0.17464E-09         0.00000E+00
    0.42789E-07        -0.17275E-09         0.00000E+00
    0.42792E-07        -0.17030E-09         0.00000E+00
    0.42795E-07        -0.16730E-09         0.00000E+00
    0.42798E-07        -0.16373E-09         0.00000E+00
    0.42801E-07        -0.15962E-09         0.00000E+00
    0.42803E-07        -0.15495E-09         0.00000E+00
    0.42806E-07        -0.14973E-09         0.00000E+00
    0.42809E-07        -0.14396E-09         0.00000E+00
    0.42811E-07        -0.13765E-09         0.00000E+00
    0.42813E-07        -0.13080E-09         0.00000E+00
    0.42816E-07        -0.12340E-09         0.00000E+00
    0.42818E-07        -0.11547E-09         0.00000E+00
    0.42820E-07        -0.10699E-09         0.00000E+00
    0.42821E-07        -0.97986E-10         0.00000E+00
    0.42823E-07        -0.88443E-10         0.00000E+00
    0.42825E-07        -0.78367E-10         0.00000E+00
    0.42826E-07        -0.67761E-10         0.00000E+00
    0.42827E-07        -0.56627E-10         0.00000E+00
    0.42828E-07        -0.44965E-10         0.00000E+00
    0.42828E-07        -0.32778E-10         0.00000E+00
    0.42829E-07        -0.20067E-10         0.00000E+00
    0.42829E-07        -0.68336E-11         0.00000E+00
    0.43613E-07        -0.78375E-11         0.00000E+00
    0.43613E-07        -0.23066E-10         0.00000E+00
    0.43613E-07        -0.37627E-10         0.00000E+00
    0.43614E-07        -0.51521E-10         0.00000E+00
    0.43615E-07        -0.64750E-10         0.00000E+00
    0.43616E-07        -0.77315E-10         0.00000E+00
    0.43618E-07        -0.89219E-10         0.00000E+00
    0.43619E-07        -0.10046E-09         0.00000E+00
    0.43621E-07        -0.11105E-09         0.00000E+00
    0.43623E-07        -0.12098E-09         0.00000E+00
    0.43625E-07        -0.13025E-09         0.00000E+00
    0.43628E-07        -0.13887E-09         0.00000E+00
    0.43630E-07        -0.14685E-09         0.00000E+00
    0.43633E-07        -0.15417E-09         0.00000E+00
    0.43635E-07        -0.16085E-09         0.00000E+00
    0.43638E-07        -0.16689E-09         0.00000E+00
    0.43641E-07        -0.17229E-09         0.00000E+00
    0.43644E-07        -0.17705E-09         0.00000E+00
    0.43647E-07        -0.18117E-09         0.00000E+00
    0.43650E-07        -0.18466E-09         0.00000E+00
    0.43653E-07        -0.18752E-09         0.00000E+00
    0.43656E-07        -0.18976E-09         0.00000E+00
    0.43659E-07        -0.19136E-09         0.00000E+00
    0.43662E-07        -0.19235E-09         0.00000E+00
    0.43665E-07        -0.19271E-09         0.00000E+00
    0.43669E-07        -0.19246E-09         0.00000E+00
    0.43672E-07        -0.19159E-09         0.00000E+00
    0.43675E-07        -0.19010E-09         0.00000E+00
    0.43678E-07        -0.18801E-09         0.00000E+00
    0.43681E-07        -0.18531E-09         0.00000E+00
    0.43684E-07        -0.18201E-09         0.00000E+00
    0.43687E-07        -0.17810E-09         0.00000E+00
    0.43690E-07        -0.17359E-09         0.00000E+00
    0.43692E-07        -0.16849E-09         0.00000E+00
    0.43695E-07        -0.16279E-09         0.00000E+00
    0.43697E-07        -0.15650E-09         0.00000E+00
    0.43700E-07        -0.14961E-09         0.00000E+00
    0.43702E-07        -0.14214E-09         0.00000E+00
    0.43704E-07        -0.13409E-09         0.00000E+00
    0.43707E-07        -0.12544E-09         0.00000E+00
    0.43708E-07        -0.11622E-09         0.00000E+00
    0.43710E-07        -0.10642E-09         0.00000E+00
    0.43712E-07        -0.96045E-10         0.00000E+00
    0.43713E-07        -0.85092E-10         0.00000E+00
    0.43714E-07        -0.73567E-10         0.00000E+00
    0.43716E-07        -0.61471E-10         0.00000E+00
    0.43716E-07        -0.48805E-10         0.00000E+00
    0.43717E-07        -0.35573E-10         0.00000E+00
    0.43717E-07        -0.21776E-10         0.00000E+00
    0.43718E-07        -0.74147E-11         0.00000E+00
    0.44544E-07        -0.85243E-11         0.00000E+00
    0.44545E-07        -0.25081E-10         0.00000E+00
    0.44545E-07        -0.40903E-10         0.00000E+00
    0.44546E-07        -0.55991E-10         0.00000E+00
    0.44547E-07        -0.70349E-10         0.00000E+00
    0.44548E-07        -0.83979E-10         0.00000E+00
    0.44549E-07        -0.96883E-10         0.00000E+00
    0.44551E-07        -0.10906E-09         0.00000E+00
    0.44553E-07        -0.12052E-09         0.00000E+00
    0.44555E-07        -0.13127E-09         0.00000E+00
    0.44557E-07        -0.14130E-09         0.00000E+00
    0.44559E-07        -0.15062E-09         0.00000E+00
    0.44562E-07        -0.15922E-09         0.00000E+00
    0.44564E-07        -0.16713E-09         0.00000E+00
    0.44567E-07        -0.17433E-09         0.00000E+00
    0.44570E-07        -0.18083E-09         0.00000E+00
    0.44572E-07        -0.18664E-09         0.00000E+00
    0.44575E-07        -0.19175E-09         0.00000E+00
    0.44578E-07        -0.19618E-09         0.00000E+00
    0.44581E-07        -0.19991E-09         0.00000E+00
    0.44584E-07        -0.20297E-09         0.00000E+00
    0.44587E-07        -0.20534E-09         0.00000E+00
    0.44591E-07        -0.20704E-09         0.00000E+00
    0.44594E-07        -0.20806E-09         0.00000E+00
    0.44597E-07        -0.20841E-09         0.00000E+00
    0.44600E-07        -0.20810E-09         0.00000E+00
    0.44603E-07        -0.20712E-09         0.00000E+00
    0.44606E-07        -0.20548E-09         0.00000E+00
    0.44609E-07        -0.20318E-09         0.00000E+00
    0.44612E-07        -0.20023E-09         0.00000E+00
    0.44615E-07        -0.19662E-09         0.00000E+00
    0.44618E-07        -0.19237E-09         0.00000E+00
    0.44621E-07        -0.18747E-09         0.00000E+00
    0.44624E-07        -0.18193E-09         0.00000E+00
    0.44626E-07        -0.17575E-09         0.00000E+00
    0.44629E-07        -0.16893E-09         0.00000E+00
    0.44631E-07        -0.16147E-09         0.00000E+00
    0.44633E-07        -0.15338E-09         0.00000E+00
    0.44636E-07        -0.14467E-09         0.00000E+00
    0.44638E-07        -0.13533E-09         0.00000E+00
    0.44639E-07        -0.12536E-09         0.00000E+00
    0.44641E-07        -0.11478E-09         0.00000E+00
    0.44643E-07        -0.10357E-09         0.00000E+00
    0.44644E-07        -0.91747E-10         0.00000E+00
    0.44645E-07        -0.79310E-10         0.00000E+00
    0.44646E-07        -0.66261E-10         0.00000E+00
    0.44647E-07        -0.52603E-10         0.00000E+00
    0.44648E-07        -0.38336E-10         0.00000E+00
    0.44648E-07        -0.23464E-10         0.00000E+00
    0.44649E-07        -0.79887E-11         0.00000E+00
    0.45517E-07        -0.92120E-11         0.00000E+00
    0.45517E-07        -0.27098E-10         0.00000E+00
    0.45518E-07        -0.44180E-10         0.00000E+00
    0.45518E-07        -0.60461E-10         0.00000E+00
    0.45519E-07        -0.75944E-10         0.00000E+00
    0.45521E-07        -0.90633E-10         0.00000E+00
    0.45522E-07        -0.10453E-09         0.00000E+00
    0.45524E-07        -0.11764E-09         0.00000E+00
    0.45525E-07        -0.12997E-09         0.00000E+00
    0.45527E-07        -0.14153E-09         0.00000E+00
    0.45530E-07        -0.15230E-09         0.00000E+00
    0.45532E-07        -0.16230E-09         0.00000E+00
    0.45534E-07        -0.17154E-09         0.00000E+00
    0.45537E-07        -0.18001E-09         0.00000E+00
    0.45539E-07        -0.18773E-09         0.00000E+00
    0.45542E-07        -0.19469E-09         0.00000E+00
    0.45545E-07        -0.20089E-09         0.00000E+00
    0.45548E-07        -0.20635E-09         0.00000E+00
    0.45551E-07        -0.21106E-09         0.00000E+00
    0.45554E-07        -0.21504E-09         0.00000E+00
    0.45557E-07        -0.21828E-09         0.00000E+00
    0.45560E-07        -0.22079E-09         0.00000E+00
    0.45563E-07        -0.22257E-09         0.00000E+00
    0.45566E-07        -0.22362E-09         0.00000E+00
    0.45569E-07        -0.22396E-09         0.00000E+00
    0.45572E-07        -0.22358E-09         0.00000E+00
    0.45575E-07        -0.22248E-09         0.00000E+00
    0.45578E-07        -0.22068E-09         0.00000E+00
    0.45581E-07        -0.21817E-09         0.00000E+00
    0.45584E-07        -0.21496E-09         0.00000E+00
    0.45587E-07        -0.21106E-09         0.00000E+00
    0.45590E-07        -0.20645E-09         0.00000E+00
    0.45593E-07        -0.20116E-09         0.00000E+00
    0.45595E-07        -0.19518E-09         0.00000E+00
    0.45598E-07        -0.18852E-09         0.00000E+00
    0.45600E-07        -0.18117E-09         0.00000E+00
    0.45603E-07        -0.17315E-09         0.00000E+00
    0.45605E-07        -0.16446E-09         0.00000E+00
    0.45607E-07        -0.15509E-09         0.00000E+00
    0.45609E-07        -0.14505E-09         0.00000E+00
    0.45611E-07        -0.13435E-09         0.00000E+00
    0.45613E-07        -0.12299E-09         0.00000E+00
    0.45614E-07        -0.11097E-09         0.00000E+00
    0.45616E-07        -0.98288E-10         0.00000E+00
    0.45617E-07        -0.84954E-10         0.00000E+00
    0.45618E-07        -0.70968E-10         0.00000E+00
    0.45619E-07        -0.56332E-10         0.00000E+00
    0.45619E-07        -0.41050E-10         0.00000E+00
    0.45620E-07        -0.25122E-10         0.00000E+00
    0.45620E-07        -0.85521E-11         0.00000E+00
    0.46528E-07        -0.98964E-11         0.00000E+00
    0.46528E-07        -0.29104E-10         0.00000E+00
    0.46529E-07        -0.47437E-10         0.00000E+00
    0.46530E-07        -0.64901E-10         0.00000E+00
    0.46531E-07        -0.81499E-10         0.00000E+00
    0.46532E-07        -0.97237E-10         0.00000E+00
    0.46533E-07        -0.11212E-09         0.00000E+00
    0.46535E-07        -0.12615E-09         0.00000E+00
    0.46537E-07        -0.13934E-09         0.00000E+00
    0.46539E-07        -0.15168E-09         0.00000E+00
    0.46541E-07        -0.16319E-09         0.00000E+00
    0.46543E-07        -0.17387E-09         0.00000E+00
    0.46545E-07        -0.18372E-09         0.00000E+00
    0.46548E-07        -0.19275E-09         0.00000E+00
    0.46550E-07        -0.20096E-09         0.00000E+00
    0.46553E-07        -0.20836E-09         0.00000E+00
    0.46556E-07        -0.21495E-09         0.00000E+00
    0.46559E-07        -0.22074E-09         0.00000E+00
    0.46562E-07        -0.22574E-09         0.00000E+00
    0.46564E-07        -0.22994E-09         0.00000E+00
    0.46567E-07        -0.23335E-09         0.00000E+00
    0.46570E-07        -0.23599E-09         0.00000E+00
    0.46573E-07        -0.23784E-09         0.00000E+00
    0.46576E-07        -0.23892E-09         0.00000E+00
    0.46580E-07        -0.23923E-09         0.00000E+00
    0.46583E-07        -0.23878E-09         0.00000E+00
    0.46586E-07        -0.23756E-09         0.00000E+00
    0.46588E-07        -0.23560E-09         0.00000E+00
    0.46591E-07        -0.23288E-09         0.00000E+00
    0.46594E-07        -0.22941E-09         0.00000E+00
    0.46597E-07        -0.22520E-09         0.00000E+00
    0.46600E-07        -0.22025E-09         0.00000E+00
    0.46603E-07        -0.21457E-09         0.00000E+00
    0.46605E-07        -0.20816E-09         0.00000E+00
    0.46608E-07        -0.20102E-09         0.00000E+00
    0.46610E-07        -0.19316E-09         0.00000E+00
    0.46612E-07        -0.18458E-09         0.00000E+00
    0.46615E-07        -0.17528E-09         0.00000E+00
    0.46617E-07        -0.16527E-09         0.00000E+00
    0.46619E-07        -0.15456E-09         0.00000E+00
    0.46620E-07        -0.14313E-09         0.00000E+00
    0.46622E-07        -0.13101E-09         0.00000E+00
    0.46624E-07        -0.11819E-09         0.00000E+00
    0.46625E-07        -0.10467E-09         0.00000E+00
    0.46626E-07        -0.90458E-10         0.00000E+00
    0.46627E-07        -0.75556E-10         0.00000E+00
    0.46628E-07        -0.59967E-10         0.00000E+00
    0.46629E-07        -0.43693E-10         0.00000E+00
    0.46629E-07        -0.26737E-10         0.00000E+00
    0.46629E-07        -0.91007E-11         0.00000E+00
    0.47576E-07        -0.10573E-10         0.00000E+00
    0.47576E-07        -0.31085E-10         0.00000E+00
    0.47577E-07        -0.50652E-10         0.00000E+00
    0.47578E-07        -0.69280E-10         0.00000E+00
    0.47578E-07        -0.86975E-10         0.00000E+00
    0.47580E-07        -0.10374E-09         0.00000E+00
    0.47581E-07        -0.11959E-09         0.00000E+00
    0.47583E-07        -0.13452E-09         0.00000E+00
    0.47584E-07        -0.14854E-09         0.00000E+00
    0.47586E-07        -0.16166E-09         0.00000E+00
    0.47588E-07        -0.17388E-09         0.00000E+00
    0.47590E-07        -0.18521E-09         0.00000E+00
    0.47593E-07        -0.19566E-09         0.00000E+00
    0.47595E-07        -0.20523E-09         0.00000E+00
    0.47598E-07        -0.21392E-09         0.00000E+00
    0.47600E-07        -0.22175E-09         0.00000E+00
    0.47603E-07        -0.22871E-09         0.00000E+00
    0.47606E-07        -0.23482E-09         0.00000E+00
    0.47609E-07        -0.24008E-09         0.00000E+00
    0.47611E-07        -0.24450E-09         0.00000E+00
    0.47614E-07        -0.24808E-09         0.00000E+00
    0.47617E-07        -0.25082E-09         0.00000E+00
    0.47620E-07        -0.25274E-09         0.00000E+00
    0.47623E-07        -0.25383E-09         0.00000E+00
    0.47626E-07        -0.25411E-09         0.00000E+00
    0.47629E-07        -0.25358E-09         0.00000E+00
    0.47632E-07        -0.25225E-09         0.00000E+00
    0.47635E-07        -0.25011E-09         0.00000E+00
    0.47638E-07        -0.24718E-09         0.00000E+00
    0.47640E-07        -0.24345E-09         0.00000E+00
    0.47643E-07        -0.23894E-09         0.00000E+00
    0.47646E-07        -0.23365E-09         0.00000E+00
    0.47648E-07        -0.22759E-09         0.00000E+00
    0.47651E-07        -0.22075E-09         0.00000E+00
    0.47653E-07        -0.21314E-09         0.00000E+00
    0.47656E-07        -0.20477E-09         0.00000E+00
    0.47658E-07        -0.19565E-09         0.00000E+00
    0.47660E-07        -0.18576E-09         0.00000E+00
    0.47662E-07        -0.17513E-09         0.00000E+00
    0.47664E-07        -0.16375E-09         0.00000E+00
    0.47666E-07        -0.15163E-09         0.00000E+00
    0.47667E-07        -0.13877E-09         0.00000E+00
    0.47669E-07        -0.12517E-09         0.00000E+00
    0.47670E-07        -0.11084E-09         0.00000E+00
    0.47671E-07        -0.95775E-10         0.00000E+00
    0.47672E-07        -0.79988E-10         0.00000E+00
    0.47673E-07        -0.63477E-10         0.00000E+00
    0.47673E-07        -0.46245E-10         0.00000E+00
    0.47674E-07        -0.28295E-10         0.00000E+00
    0.47674E-07        -0.96299E-11         0.00000E+00
    0.48657E-07        -0.11235E-10         0.00000E+00
    0.48658E-07        -0.33024E-10         0.00000E+00
    0.48658E-07        -0.53797E-10         0.00000E+00
    0.48659E-07        -0.73562E-10         0.00000E+00
    0.48660E-07        -0.92325E-10         0.00000E+00
    0.48661E-07        -0.11009E-09         0.00000E+00
    0.48662E-07        -0.12688E-09         0.00000E+00
    0.48664E-07        -0.14268E-09         0.00000E+00
    0.48666E-07        -0.15751E-09         0.00000E+00
    0.48667E-07        -0.17138E-09         0.00000E+00
    0.48669E-07        -0.18429E-09         0.00000E+00
    0.48672E-07        -0.19625E-09         0.00000E+00
    0.48674E-07        -0.20727E-09         0.00000E+00
    0.48676E-07        -0.21735E-09         0.00000E+00
    0.48679E-07        -0.22650E-09         0.00000E+00
    0.48681E-07        -0.23474E-09         0.00000E+00
    0.48684E-07        -0.24205E-09         0.00000E+00
    0.48686E-07        -0.24846E-09         0.00000E+00
    0.48689E-07        -0.25397E-09         0.00000E+00
    0.48692E-07        -0.25859E-09         0.00000E+00
    0.48695E-07        -0.26231E-09         0.00000E+00
    0.48697E-07        -0.26516E-09         0.00000E+00
    0.48700E-07        -0.26713E-09         0.00000E+00
    0.48703E-07        -0.26823E-09         0.00000E+00
    0.48706E-07        -0.26847E-09         0.00000E+00
    0.48709E-07        -0.26786E-09         0.00000E+00
    0.48711E-07        -0.26640E-09         0.00000E+00
    0.48714E-07        -0.26409E-09         0.00000E+00
    0.48717E-07        -0.26094E-09         0.00000E+00
    0.48719E-07        -0.25696E-09         0.00000E+00
    0.48722E-07        -0.25216E-09         0.00000E+00
    0.48725E-07        -0.24653E-09         0.00000E+00
    0.48727E-07        -0.24009E-09         0.00000E+00
    0.48730E-07        -0.23284E-09         0.00000E+00
    0.48732E-07        -0.22478E-09         0.00000E+00
    0.48734E-07        -0.21592E-09         0.00000E+00
    0.48736E-07        -0.20626E-09         0.00000E+00
    0.48738E-07        -0.19581E-09         0.00000E+00
    0.48740E-07        -0.18458E-09         0.00000E+00
    0.48742E-07        -0.17256E-09         0.00000E+00
    0.48744E-07        -0.15976E-09         0.00000E+00
    0.48745E-07        -0.14619E-09         0.00000E+00
    0.48746E-07        -0.13184E-09         0.00000E+00
    0.48748E-07        -0.11673E-09         0.00000E+00
    0.48749E-07        -0.10086E-09         0.00000E+00
    0.48750E-07        -0.84220E-10         0.00000E+00
    0.48750E-07        -0.66827E-10         0.00000E+00
    0.48751E-07        -0.48680E-10         0.00000E+00
    0.48751E-07        -0.29782E-10         0.00000E+00
    0.48751E-07        -0.10134E-10         0.00000E+00
    0.49770E-07        -0.11878E-10         0.00000E+00
    0.49770E-07        -0.34904E-10         0.00000E+00
    0.49770E-07        -0.56844E-10         0.00000E+00
    0.49771E-07        -0.77706E-10         0.00000E+00
    0.49772E-07        -0.97500E-10         0.00000E+00
    0.49773E-07        -0.11623E-09         0.00000E+00
    0.49774E-07        -0.13392E-09         0.00000E+00
    0.49776E-07        -0.15056E-09         0.00000E+00
    0.49778E-07        -0.16616E-09         0.00000E+00
    0.49779E-07        -0.18074E-09         0.00000E+00
    0.49781E-07        -0.19431E-09         0.00000E+00
    0.49783E-07        -0.20687E-09         0.00000E+00
    0.49785E-07        -0.21843E-09         0.00000E+00
    0.49788E-07        -0.22899E-09         0.00000E+00
    0.49790E-07        -0.23858E-09         0.00000E+00
    0.49792E-07        -0.24719E-09         0.00000E+00
    0.49795E-07        -0.25484E-09         0.00000E+00
    0.49797E-07        -0.26152E-09         0.00000E+00
    0.49800E-07        -0.26726E-09         0.00000E+00
    0.49802E-07        -0.27206E-09         0.00000E+00
    0.49805E-07        -0.27592E-09         0.00000E+00
    0.49808E-07        -0.27885E-09         0.00000E+00
    0.49810E-07        -0.28086E-09         0.00000E+00
    0.49813E-07        -0.28196E-09         0.00000E+00
    0.49816E-07        -0.28216E-09         0.00000E+00
    0.49818E-07        -0.28146E-09         0.00000E+00
    0.49821E-07        -0.27986E-09         0.00000E+00
    0.49824E-07        -0.27739E-09         0.00000E+00
    0.49826E-07        -0.27403E-09         0.00000E+00
    0.49829E-07        -0.26980E-09         0.00000E+00
    0.49831E-07        -0.26471E-09         0.00000E+00
    0.49834E-07        -0.25875E-09         0.00000E+00
    0.49836E-07        -0.25195E-09         0.00000E+00
    0.49838E-07        -0.24429E-09         0.00000E+00
    0.49840E-07        -0.23580E-09         0.00000E+00
    0.49842E-07        -0.22646E-09         0.00000E+00
    0.49844E-07        -0.21630E-09         0.00000E+00
    0.49846E-07        -0.20531E-09         0.00000E+00
    0.49848E-07        -0.19350E-09         0.00000E+00
    0.49850E-07        -0.18087E-09         0.00000E+00
    0.49851E-07        -0.16743E-09         0.00000E+00
    0.49853E-07        -0.15319E-09         0.00000E+00
    0.49854E-07        -0.13814E-09         0.00000E+00
    0.49855E-07        -0.12229E-09         0.00000E+00
    0.49856E-07        -0.10564E-09         0.00000E+00
    0.49857E-07        -0.88206E-10         0.00000E+00
    0.49858E-07        -0.69981E-10         0.00000E+00
    0.49858E-07        -0.50971E-10         0.00000E+00
    0.49859E-07        -0.31180E-10         0.00000E+00
    0.49859E-07        -0.10609E-10         0.00000E+00
    0.50910E-07        -0.12494E-10         0.00000E+00
    0.50910E-07        -0.36705E-10         0.00000E+00
    0.50910E-07        -0.59759E-10         0.00000E+00
    0.50911E-07        -0.81668E-10         0.00000E+00
    0.50912E-07        -0.10244E-09         0.00000E+00
    0.50913E-07        -0.12209E-09         0.00000E+00
    0.50914E-07        -0.14062E-09         0.00000E+00
    0.50915E-07        -0.15806E-09         0.00000E+00
    0.50917E-07        -0.17439E-09         0.00000E+00
    0.50919E-07        -0.18965E-09         0.00000E+00
    0.50920E-07        -0.20383E-09         0.00000E+00
    0.50922E-07        -0.21694E-09         0.00000E+00
    0.50924E-07        -0.22901E-09         0.00000E+00
    0.50926E-07        -0.24003E-09         0.00000E+00
    0.50929E-07        -0.25001E-09         0.00000E+00
    0.50931E-07        -0.25897E-09         0.00000E+00
    0.50933E-07        -0.26692E-09         0.00000E+00
    0.50936E-07        -0.27386E-09         0.00000E+00
    0.50938E-07        -0.27980E-09         0.00000E+00
    0.50940E-07        -0.28476E-09         0.00000E+00
    0.50943E-07        -0.28873E-09         0.00000E+00
    0.50945E-07        -0.29174E-09         0.00000E+00
    0.50948E-07        -0.29378E-09         0.00000E+00
    0.50950E-07        -0.29487E-09         0.00000E+00
    0.50953E-07        -0.29501E-09         0.00000E+00
    0.50955E-07        -0.29421E-09         0.00000E+00
    0.50958E-07        -0.29249E-09         0.00000E+00
    0.50960E-07        -0.28984E-09         0.00000E+00
    0.50963E-07        -0.28628E-09         0.00000E+00
    0.50965E-07        -0.28180E-09         0.00000E+00
    0.50967E-07        -0.27643E-09         0.00000E+00
    0.50969E-07        -0.27017E-09         0.00000E+00
    0.50972E-07        -0.26301E-09         0.00000E+00
    0.50974E-07        -0.25498E-09         0.00000E+00
    0.50976E-07        -0.24607E-09         0.00000E+00
    0.50978E-07        -0.23629E-09         0.00000E+00
    0.50979E-07        -0.22565E-09         0.00000E+00
    0.50981E-07        -0.21415E-09         0.00000E+00
    0.50983E-07        -0.20180E-09         0.00000E+00
    0.50984E-07        -0.18860E-09         0.00000E+00
    0.50986E-07        -0.17456E-09         0.00000E+00
    0.50987E-07        -0.15968E-09         0.00000E+00
    0.50988E-07        -0.14397E-09         0.00000E+00
    0.50989E-07        -0.12744E-09         0.00000E+00
    0.50990E-07        -0.11008E-09         0.00000E+00
    0.50991E-07        -0.91895E-10         0.00000E+00
    0.50992E-07        -0.72899E-10         0.00000E+00
    0.50992E-07        -0.53090E-10         0.00000E+00
    0.50992E-07        -0.32472E-10         0.00000E+00
    0.50993E-07        -0.11047E-10         0.00000E+00
    0.52074E-07        -0.13075E-10         0.00000E+00
    0.52074E-07        -0.38403E-10         0.00000E+00
    0.52074E-07        -0.62507E-10         0.00000E+00
    0.52075E-07        -0.85398E-10         0.00000E+00
    0.52076E-07        -0.10709E-09         0.00000E+00
    0.52077E-07        -0.12759E-09         0.00000E+00
    0.52078E-07        -0.14692E-09         0.00000E+00
    0.52079E-07        -0.16509E-09         0.00000E+00
    0.52080E-07        -0.18210E-09         0.00000E+00
    0.52082E-07        -0.19797E-09         0.00000E+00
    0.52084E-07        -0.21272E-09         0.00000E+00
    0.52085E-07        -0.22635E-09         0.00000E+00
    0.52087E-07        -0.23887E-09         0.00000E+00
    0.52089E-07        -0.25030E-09         0.00000E+00
    0.52091E-07        -0.26065E-09         0.00000E+00
    0.52093E-07        -0.26992E-09         0.00000E+00
    0.52095E-07        -0.27814E-09         0.00000E+00
    0.52098E-07        -0.28530E-09         0.00000E+00
    0.52100E-07        -0.29142E-09         0.00000E+00
    0.52102E-07        -0.29651E-09         0.00000E+00
    0.52104E-07        -0.30058E-09         0.00000E+00
    0.52107E-07        -0.30364E-09         0.00000E+00
    0.52109E-07        -0.30570E-09         0.00000E+00
    0.52111E-07        -0.30676E-09         0.00000E+00
    0.52113E-07        -0.30684E-09         0.00000E+00
    0.52116E-07        -0.30595E-09         0.00000E+00
    0.52118E-07        -0.30409E-09         0.00000E+00
    0.52120E-07        -0.30128E-09         0.00000E+00
    0.52122E-07        -0.29751E-09         0.00000E+00
    0.52124E-07        -0.29281E-09         0.00000E+00
    0.52126E-07        -0.28717E-09         0.00000E+00
    0.52128E-07        -0.28061E-09         0.00000E+00
    0.52130E-07        -0.27313E-09         0.00000E+00
    0.52132E-07        -0.26473E-09         0.00000E+00
    0.52134E-07        -0.25544E-09         0.00000E+00
    0.52136E-07        -0.24524E-09         0.00000E+00
    0.52137E-07        -0.23416E-09         0.00000E+00
    0.52139E-07        -0.22219E-09         0.00000E+00
    0.52140E-07        -0.20934E-09         0.00000E+00
    0.52142E-07        -0.19562E-09         0.00000E+00
    0.52143E-07        -0.18103E-09         0.00000E+00
    0.52144E-07        -0.16557E-09         0.00000E+00
    0.52145E-07        -0.14926E-09         0.00000E+00
    0.52146E-07        -0.13210E-09         0.00000E+00
    0.52147E-07        -0.11409E-09         0.00000E+00
    0.52148E-07        -0.95234E-10         0.00000E+00
    0.52148E-07        -0.75537E-10         0.00000E+00
    0.52149E-07        -0.55004E-10         0.00000E+00
    0.52149E-07        -0.33638E-10         0.00000E+00
    0.52149E-07        -0.11443E-10         0.00000E+00
    0.53258E-07        -0.13615E-10         0.00000E+00
    0.53258E-07        -0.39977E-10         0.00000E+00
    0.53258E-07        -0.65048E-10         0.00000E+00
    0.53259E-07        -0.88843E-10         0.00000E+00
    0.53260E-07        -0.11138E-09         0.00000E+00
    0.53261E-07        -0.13266E-09         0.00000E+00
    0.53262E-07        -0.15271E-09         0.00000E+00
    0.53263E-07        -0.17155E-09         0.00000E+00
    0.53264E-07        -0.18917E-09         0.00000E+00
    0.53266E-07        -0.20560E-09         0.00000E+00
    0.53267E-07        -0.22086E-09         0.00000E+00
    0.53269E-07        -0.23494E-09         0.00000E+00
    0.53270E-07        -0.24788E-09         0.00000E+00
    0.53272E-07        -0.25967E-09         0.00000E+00
    0.53274E-07        -0.27033E-09         0.00000E+00
    0.53276E-07        -0.27988E-09         0.00000E+00
    0.53278E-07        -0.28832E-09         0.00000E+00
    0.53280E-07        -0.29567E-09         0.00000E+00
    0.53281E-07        -0.30194E-09         0.00000E+00
    0.53283E-07        -0.30714E-09         0.00000E+00
    0.53285E-07        -0.31128E-09         0.00000E+00
    0.53287E-07        -0.31437E-09         0.00000E+00
    0.53290E-07        -0.31643E-09         0.00000E+00
    0.53292E-07        -0.31746E-09         0.00000E+00
    0.53294E-07        -0.31747E-09         0.00000E+00
    0.53296E-07        -0.31648E-09         0.00000E+00
    0.53297E-07        -0.31449E-09         0.00000E+00
    0.53299E-07        -0.31151E-09         0.00000E+00
    0.53301E-07        -0.30755E-09         0.00000E+00
    0.53303E-07        -0.30263E-09         0.00000E+00
    0.53305E-07        -0.29674E-09         0.00000E+00
    0.53307E-07        -0.28990E-09         0.00000E+00
    0.53308E-07        -0.28212E-09         0.00000E+00
    0.53310E-07        -0.27340E-09         0.00000E+00
    0.53312E-07        -0.26375E-09         0.00000E+00
    0.53313E-07        -0.25318E-09         0.00000E+00
    0.53315E-07        -0.24170E-09         0.00000E+00
    0.53316E-07        -0.22930E-09         0.00000E+00
    0.53317E-07        -0.21600E-09         0.00000E+00
    0.53318E-07        -0.20181E-09         0.00000E+00
    0.53320E-07        -0.18673E-09         0.00000E+00
    0.53321E-07        -0.17077E-09         0.00000E+00
    0.53321E-07        -0.15392E-09         0.00000E+00
    0.53322E-07        -0.13620E-09         0.00000E+00
    0.53323E-07        -0.11762E-09         0.00000E+00
    0.53324E-07        -0.98163E-10         0.00000E+00
    0.53324E-07        -0.77850E-10         0.00000E+00
    0.53324E-07        -0.56681E-10         0.00000E+00
    0.53325E-07        -0.34660E-10         0.00000E+00
    0.53325E-07        -0.11788E-10         0.00000E+00
    0.54458E-07        -0.14103E-10         0.00000E+00
    0.54459E-07        -0.41399E-10         0.00000E+00
    0.54459E-07        -0.67341E-10         0.00000E+00
    0.54459E-07        -0.91947E-10         0.00000E+00
    0.54460E-07        -0.11523E-09         0.00000E+00
    0.54461E-07        -0.13721E-09         0.00000E+00
    0.54462E-07        -0.15790E-09         0.00000E+00
    0.54463E-07        -0.17732E-09         0.00000E+00
    0.54464E-07        -0.19548E-09         0.00000E+00
    0.54465E-07        -0.21240E-09         0.00000E+00
    0.54467E-07        -0.22809E-09         0.00000E+00
    0.54468E-07        -0.24257E-09         0.00000E+00
    0.54469E-07        -0.25585E-09         0.00000E+00
    0.54471E-07        -0.26795E-09         0.00000E+00
    0.54472E-07        -0.27888E-09         0.00000E+00
    0.54474E-07        -0.28865E-09         0.00000E+00
    0.54476E-07        -0.29728E-09         0.00000E+00
    0.54477E-07        -0.30478E-09         0.00000E+00
    0.54479E-07        -0.31116E-09         0.00000E+00
    0.54481E-07        -0.31644E-09         0.00000E+00
    0.54482E-07        -0.32062E-09         0.00000E+00
    0.54484E-07        -0.32373E-09         0.00000E+00
    0.54486E-07        -0.32577E-09         0.00000E+00
    0.54488E-07        -0.32675E-09         0.00000E+00
    0.54489E-07        -0.32669E-09         0.00000E+00
    0.54491E-07        -0.32559E-09         0.00000E+00
    0.54493E-07        -0.32347E-09         0.00000E+00
    0.54494E-07        -0.32034E-09         0.00000E+00
    0.54496E-07        -0.31621E-09         0.00000E+00
    0.54497E-07        -0.31108E-09         0.00000E+00
    0.54499E-07        -0.30496E-09         0.00000E+00
    0.54500E-07        -0.29787E-09         0.00000E+00
    0.54502E-07        -0.28982E-09         0.00000E+00
    0.54503E-07        -0.28081E-09         0.00000E+00
    0.54505E-07        -0.27084E-09         0.00000E+00
    0.54506E-07        -0.25994E-09         0.00000E+00
    0.54507E-07        -0.24810E-09         0.00000E+00
    0.54508E-07        -0.23534E-09         0.00000E+00
    0.54509E-07        -0.22166E-09         0.00000E+00
    0.54510E-07        -0.20706E-09         0.00000E+00
    0.54511E-07        -0.19155E-09         0.00000E+00
    0.54512E-07        -0.17515E-09         0.00000E+00
    0.54513E-07        -0.15785E-09         0.00000E+00
    0.54513E-07        -0.13965E-09         0.00000E+00
    0.54514E-07        -0.12058E-09         0.00000E+00
    0.54514E-07        -0.10062E-09         0.00000E+00
    0.54515E-07        -0.79789E-10         0.00000E+00
    0.54515E-07        -0.58085E-10         0.00000E+00
    0.54515E-07        -0.35513E-10         0.00000E+00
    0.54515E-07        -0.12077E-10         0.00000E+00
    0.55671E-07        -0.14531E-10         0.00000E+00
    0.55671E-07        -0.42642E-10         0.00000E+00
    0.55671E-07        -0.69341E-10         0.00000E+00
    0.55672E-07        -0.94647E-10         0.00000E+00
    0.55672E-07        -0.11858E-09         0.00000E+00
    0.55673E-07        -0.14115E-09         0.00000E+00
    0.55674E-07        -0.16239E-09         0.00000E+00
    0.55675E-07        -0.18230E-09         0.00000E+00
    0.55676E-07        -0.20091E-09         0.00000E+00
    0.55677E-07        -0.21823E-09         0.00000E+00
    0.55678E-07        -0.23428E-09         0.00000E+00
    0.55679E-07        -0.24908E-09         0.00000E+00
    0.55680E-07        -0.26264E-09         0.00000E+00
    0.55681E-07        -0.27498E-09         0.00000E+00
    0.55683E-07        -0.28611E-09         0.00000E+00
    0.55684E-07        -0.29605E-09         0.00000E+00
    0.55685E-07        -0.30482E-09         0.00000E+00
    0.55687E-07        -0.31242E-09         0.00000E+00
    0.55688E-07        -0.31888E-09         0.00000E+00
    0.55690E-07        -0.32420E-09         0.00000E+00
    0.55691E-07        -0.32840E-09         0.00000E+00
    0.55692E-07        -0.33150E-09         0.00000E+00
    0.55694E-07        -0.33350E-09         0.00000E+00
    0.55695E-07        -0.33443E-09         0.00000E+00
    0.55696E-07        -0.33428E-09         0.00000E+00
    0.55698E-07        -0.33308E-09         0.00000E+00
    0.55699E-07        -0.33084E-09         0.00000E+00
    0.55700E-07        -0.32756E-09         0.00000E+00
    0.55702E-07        -0.32326E-09         0.00000E+00
    0.55703E-07        -0.31794E-09         0.00000E+00
    0.55704E-07        -0.31163E-09         0.00000E+00
    0.55705E-07        -0.30432E-09         0.00000E+00
    0.55706E-07        -0.29603E-09         0.00000E+00
    0.55707E-07        -0.28677E-09         0.00000E+00
    0.55708E-07        -0.27654E-09         0.00000E+00
    0.55709E-07        -0.26535E-09         0.00000E+00
    0.55710E-07        -0.25322E-09         0.00000E+00
    0.55711E-07        -0.24015E-09         0.00000E+00
    0.55712E-07        -0.22615E-09         0.00000E+00
    0.55713E-07        -0.21122E-09         0.00000E+00
    0.55713E-07        -0.19537E-09         0.00000E+00
    0.55714E-07        -0.17860E-09         0.00000E+00
    0.55714E-07        -0.16094E-09         0.00000E+00
    0.55715E-07        -0.14237E-09         0.00000E+00
    0.55715E-07        -0.12290E-09         0.00000E+00
    0.55716E-07        -0.10255E-09         0.00000E+00
    0.55716E-07        -0.81303E-10         0.00000E+00
    0.55716E-07        -0.59179E-10         0.00000E+00
    0.55716E-07        -0.36177E-10         0.00000E+00
    0.55716E-07        -0.12301E-10         0.00000E+00
    0.56891E-07        -0.14889E-10         0.00000E+00
    0.56891E-07        -0.43678E-10         0.00000E+00
    0.56891E-07        -0.71001E-10         0.00000E+00
    0.56892E-07        -0.96880E-10         0.00000E+00
    0.56892E-07        -0.12133E-09         0.00000E+00
    0.56893E-07        -0.14438E-09         0.00000E+00
    0.56893E-07        -0.16605E-09         0.00000E+00
    0.56894E-07        -0.18635E-09         0.00000E+00
    0.56895E-07        -0.20531E-09         0.00000E+00
    0.56895E-07        -0.22294E-09         0.00000E+00
    0.56896E-07        -0.23926E-09         0.00000E+00
    0.56897E-07        -0.25429E-09         0.00000E+00
    0.56898E-07        -0.26805E-09         0.00000E+00
    0.56899E-07        -0.28056E-09         0.00000E+00
    0.56900E-07        -0.29183E-09         0.00000E+00
    0.56901E-07        -0.30188E-09         0.00000E+00
    0.56902E-07        -0.31073E-09         0.00000E+00
    0.56903E-07        -0.31838E-09         0.00000E+00
    0.56904E-07        -0.32487E-09         0.00000E+00
    0.56905E-07        -0.33020E-09         0.00000E+00
    0.56906E-07        -0.33439E-09         0.00000E+00
    0.56907E-07        -0.33746E-09         0.00000E+00
    0.56908E-07        -0.33941E-09         0.00000E+00
    0.56909E-07        -0.34026E-09         0.00000E+00
    0.56910E-07        -0.34003E-09         0.00000E+00
    0.56911E-07        -0.33872E-09         0.00000E+00
    0.56912E-07        -0.33635E-09         0.00000E+00
    0.56913E-07        -0.33294E-09         0.00000E+00
    0.56914E-07        -0.32849E-09         0.00000E+00
    0.56914E-07        -0.32301E-09         0.00000E+00
    0.56915E-07        -0.31653E-09         0.00000E+00
    0.56916E-07        -0.30903E-09         0.00000E+00
    0.56917E-07        -0.30055E-09         0.00000E+00
    0.56918E-07        -0.29108E-09         0.00000E+00
    0.56918E-07        -0.28065E-09         0.00000E+00
    0.56919E-07        -0.26924E-09         0.00000E+00
    0.56919E-07        -0.25688E-09         0.00000E+00
    0.56920E-07        -0.24357E-09         0.00000E+00
    0.56920E-07        -0.22933E-09         0.00000E+00
    0.56921E-07        -0.21415E-09         0.00000E+00
    0.56921E-07        -0.19804E-09         0.00000E+00
    0.56922E-07        -0.18102E-09         0.00000E+00
    0.56922E-07        -0.16309E-09         0.00000E+00
    0.56922E-07        -0.14425E-09         0.00000E+00
    0.56923E-07        -0.12450E-09         0.00000E+00
    0.56923E-07        -0.10387E-09         0.00000E+00
    0.56923E-07        -0.82339E-10         0.00000E+00
    0.56923E-07        -0.59925E-10         0.00000E+00
    0.56923E-07        -0.36628E-10         0.00000E+00
    0.56923E-07        -0.12453E-10         0.00000E+00
    0.58113E-07        -0.15165E-10         0.00000E+00
    0.58114E-07        -0.44475E-10         0.00000E+00
    0.58114E-07        -0.72271E-10         0.00000E+00
    0.58114E-07        -0.98577E-10         0.00000E+00
    0.58114E-07        -0.12341E-09         0.00000E+00
    0.58115E-07        -0.14681E-09         0.00000E+00
    0.58115E-07        -0.16878E-09         0.00000E+00
    0.58116E-07        -0.18934E-09         0.00000E+00
    0.58116E-07        -0.20853E-09         0.00000E+00
    0.58117E-07        -0.22636E-09         0.00000E+00
    0.58117E-07        -0.24285E-09         0.00000E+00
    0.58118E-07        -0.25803E-09         0.00000E+00
    0.58118E-07        -0.27190E-09         0.00000E+00
    0.58119E-07        -0.28449E-09         0.00000E+00
    0.58120E-07        -0.29583E-09         0.00000E+00
    0.58120E-07        -0.30592E-09         0.00000E+00
    0.58121E-07        -0.31479E-09         0.00000E+00
    0.58121E-07        -0.32245E-09         0.00000E+00
    0.58122E-07        -0.32892E-09         0.00000E+00
    0.58123E-07        -0.33422E-09         0.00000E+00
    0.58123E-07        -0.33836E-09         0.00000E+00
    0.58124E-07        -0.34136E-09         0.00000E+00
    0.58124E-07        -0.34324E-09         0.00000E+00
    0.58125E-07        -0.34400E-09         0.00000E+00
    0.58125E-07        -0.34367E-09         0.00000E+00
    0.58126E-07        -0.34226E-09         0.00000E+00
    0.58126E-07        -0.33978E-09         0.00000E+00
    0.58127E-07        -0.33625E-09         0.00000E+00
    0.58127E-07        -0.33167E-09         0.00000E+00
    0.58128E-07        -0.32606E-09         0.00000E+00
    0.58128E-07        -0.31944E-09         0.00000E+00
    0.58128E-07        -0.31181E-09         0.00000E+00
    0.58129E-07        -0.30318E-09         0.00000E+00
    0.58129E-07        -0.29356E-09         0.00000E+00
    0.58129E-07        -0.28297E-09         0.00000E+00
    0.58130E-07        -0.27142E-09         0.00000E+00
    0.58130E-07        -0.25890E-09         0.00000E+00
    0.58130E-07        -0.24544E-09         0.00000E+00
    0.58130E-07        -0.23104E-09         0.00000E+00
    0.58130E-07        -0.21571E-09         0.00000E+00
    0.58131E-07        -0.19945E-09         0.00000E+00
    0.58131E-07        -0.18227E-09         0.00000E+00
    0.58131E-07        -0.16419E-09         0.00000E+00
    0.58131E-07        -0.14519E-09         0.00000E+00
    0.58131E-07        -0.12530E-09         0.00000E+00
    0.58131E-07        -0.10452E-09         0.00000E+00
    0.58131E-07        -0.82842E-10         0.00000E+00
    0.58131E-07        -0.60282E-10         0.00000E+00
    0.58131E-07        -0.36841E-10         0.00000E+00
    0.58131E-07        -0.12523E-10         0.00000E+00
    0.59333E-07        -0.15350E-10         0.00000E+00
    0.59333E-07        -0.45002E-10         0.00000E+00
    0.59334E-07        -0.73098E-10         0.00000E+00
    0.59334E-07        -0.99665E-10         0.00000E+00
    0.59334E-07        -0.12473E-09         0.00000E+00
    0.59334E-07        -0.14831E-09         0.00000E+00
    0.59334E-07        -0.17044E-09         0.00000E+00
    0.59334E-07        -0.19114E-09         0.00000E+00
    0.59335E-07        -0.21044E-09         0.00000E+00
    0.59335E-07        -0.22834E-09         0.00000E+00
    0.59335E-07        -0.24489E-09         0.00000E+00
    0.59335E-07        -0.26009E-09         0.00000E+00
    0.59336E-07        -0.27398E-09         0.00000E+00
    0.59336E-07        -0.28657E-09         0.00000E+00
    0.59336E-07        -0.29789E-09         0.00000E+00
    0.59336E-07        -0.30794E-09         0.00000E+00
    0.59336E-07        -0.31677E-09         0.00000E+00
    0.59337E-07        -0.32437E-09         0.00000E+00
    0.59337E-07        -0.33077E-09         0.00000E+00
    0.59337E-07        -0.33599E-09         0.00000E+00
    0.59337E-07        -0.34005E-09         0.00000E+00
    0.59337E-07        -0.34296E-09         0.00000E+00
    0.59337E-07        -0.34475E-09         0.00000E+00
    0.59337E-07        -0.34541E-09         0.00000E+00
    0.59337E-07        -0.34498E-09         0.00000E+00
    0.59337E-07        -0.34347E-09         0.00000E+00
    0.59337E-07        -0.34089E-09         0.00000E+00
    0.59337E-07        -0.33725E-09         0.00000E+00
    0.59337E-07        -0.33257E-09         0.00000E+00
    0.59337E-07        -0.32686E-09         0.00000E+00
    0.59337E-07        -0.32014E-09         0.00000E+00
    0.59337E-07        -0.31241E-09         0.00000E+00
    0.59337E-07        -0.30369E-09         0.00000E+00
    0.59337E-07        -0.29399E-09         0.00000E+00
    0.59337E-07        -0.28332E-09         0.00000E+00
    0.59336E-07        -0.27169E-09         0.00000E+00
    0.59336E-07        -0.25911E-09         0.00000E+00
    0.59336E-07        -0.24559E-09         0.00000E+00
    0.59336E-07        -0.23113E-09         0.00000E+00
    0.59336E-07        -0.21575E-09         0.00000E+00
    0.59336E-07        -0.19945E-09         0.00000E+00
    0.59336E-07        -0.18224E-09         0.00000E+00
    0.59335E-07        -0.16412E-09         0.00000E+00
    0.59335E-07        -0.14511E-09         0.00000E+00
    0.59335E-07        -0.12521E-09         0.00000E+00
    0.59335E-07        -0.10442E-09         0.00000E+00
    0.59335E-07        -0.82755E-10         0.00000E+00
    0.59335E-07        -0.60210E-10         0.00000E+00
    0.59335E-07        -0.36792E-10         0.00000E+00
    0.59335E-07        -0.12504E-10         0.00000E+00
    0.60545E-07        -0.15432E-10         0.00000E+00
    0.60545E-07        -0.45223E-10         0.00000E+00
    0.60545E-07        -0.73426E-10         0.00000E+00
    0.60545E-07        -0.10007E-09         0.00000E+00
    0.60545E-07        -0.12518E-09         0.00000E+00
    0.60545E-07        -0.14879E-09         0.00000E+00
    0.60545E-07        -0.17092E-09         0.00000E+00
    0.60545E-07        -0.19160E-09         0.00000E+00
    0.60545E-07        -0.21085E-09         0.00000E+00
    0.60545E-07        -0.22870E-09         0.00000E+00
    0.60545E-07        -0.24518E-09         0.00000E+00
    0.60545E-07        -0.26030E-09         0.00000E+00
    0.60545E-07        -0.27409E-09         0.00000E+00
    0.60545E-07        -0.28658E-09         0.00000E+00
    0.60544E-07        -0.29778E-09         0.00000E+00
    0.60544E-07        -0.30773E-09         0.00000E+00
    0.60544E-07        -0.31642E-09         0.00000E+00
    0.60543E-07        -0.32390E-09         0.00000E+00
    0.60543E-07        -0.33018E-09         0.00000E+00
    0.60543E-07        -0.33528E-09         0.00000E+00
    0.60542E-07        -0.33922E-09         0.00000E+00
    0.60542E-07        -0.34201E-09         0.00000E+00
    0.60541E-07        -0.34367E-09         0.00000E+00
    0.60541E-07        -0.34423E-09         0.00000E+00
    0.60540E-07        -0.34369E-09         0.00000E+00
    0.60540E-07        -0.34208E-09         0.00000E+00
    0.60539E-07        -0.33941E-09         0.00000E+00
    0.60539E-07        -0.33569E-09         0.00000E+00
    0.60538E-07        -0.33093E-09         0.00000E+00
    0.60537E-07        -0.32516E-09         0.00000E+00
    0.60537E-07        -0.31839E-09         0.00000E+00
    0.60536E-07        -0.31062E-09         0.00000E+00
    0.60536E-07        -0.30188E-09         0.00000E+00
    0.60535E-07        -0.29216E-09         0.00000E+00
    0.60534E-07        -0.28149E-09         0.00000E+00
    0.60534E-07        -0.26987E-09         0.00000E+00
    0.60533E-07        -0.25731E-09         0.00000E+00
    0.60533E-07        -0.24383E-09         0.00000E+00
    0.60532E-07        -0.22942E-09         0.00000E+00
    0.60532E-07        -0.21411E-09         0.00000E+00
    0.60531E-07        -0.19789E-09         0.00000E+00
    0.60531E-07        -0.18078E-09         0.00000E+00
    0.60530E-07        -0.16278E-09         0.00000E+00
    0.60530E-07        -0.14390E-09         0.00000E+00
    0.60530E-07        -0.12414E-09         0.00000E+00
    0.60529E-07        -0.10352E-09         0.00000E+00
    0.60529E-07        -0.82023E-10         0.00000E+00
    0.60529E-07        -0.59667E-10         0.00000E+00
    0.60529E-07        -0.36455E-10         0.00000E+00
    0.60529E-07        -0.12388E-10         0.00000E+00
    0.61744E-07        -0.15398E-10         0.00000E+00
    0.61744E-07        -0.45104E-10         0.00000E+00
    0.61744E-07        -0.73198E-10         0.00000E+00
    0.61744E-07        -0.99713E-10         0.00000E+00
    0.61743E-07        -0.12468E-09         0.00000E+00
    0.61743E-07        -0.14812E-09         0.00000E+00
    0.61743E-07        -0.17007E-09         0.00000E+00
    0.61743E-07        -0.19056E-09         0.00000E+00
    0.61742E-07        -0.20962E-09         0.00000E+00
    0.61742E-07        -0.22726E-09         0.00000E+00
    0.61741E-07        -0.24353E-09         0.00000E+00
    0.61741E-07        -0.25844E-09         0.00000E+00
    0.61740E-07        -0.27202E-09         0.00000E+00
    0.61739E-07        -0.28429E-09         0.00000E+00
    0.61739E-07        -0.29528E-09         0.00000E+00
    0.61738E-07        -0.30502E-09         0.00000E+00
    0.61737E-07        -0.31351E-09         0.00000E+00
    0.61736E-07        -0.32080E-09         0.00000E+00
    0.61735E-07        -0.32689E-09         0.00000E+00
    0.61734E-07        -0.33181E-09         0.00000E+00
    0.61733E-07        -0.33558E-09         0.00000E+00
    0.61732E-07        -0.33822E-09         0.00000E+00
    0.61731E-07        -0.33975E-09         0.00000E+00
    0.61730E-07        -0.34018E-09         0.00000E+00
    0.61729E-07        -0.33953E-09         0.00000E+00
    0.61728E-07        -0.33783E-09         0.00000E+00
    0.61727E-07        -0.33508E-09         0.00000E+00
    0.61725E-07        -0.33130E-09         0.00000E+00
    0.61724E-07        -0.32651E-09         0.00000E+00
    0.61723E-07        -0.32072E-09         0.00000E+00
    0.61722E-07        -0.31395E-09         0.00000E+00
    0.61721E-07        -0.30620E-09         0.00000E+00
    0.61720E-07        -0.29750E-09         0.00000E+00
    0.61719E-07        -0.28785E-09         0.00000E+00
    0.61717E-07        -0.27726E-09         0.00000E+00
    0.61716E-07        -0.26575E-09         0.00000E+00
    0.61715E-07        -0.25332E-09         0.00000E+00
    0.61714E-07        -0.23999E-09         0.00000E+00
    0.61713E-07        -0.22576E-09         0.00000E+00
    0.61712E-07        -0.21064E-09         0.00000E+00
    0.61712E-07        -0.19465E-09         0.00000E+00
    0.61711E-07        -0.17778E-09         0.00000E+00
    0.61710E-07        -0.16005E-09         0.00000E+00
    0.61709E-07        -0.14146E-09         0.00000E+00
    0.61709E-07        -0.12201E-09         0.00000E+00
    0.61708E-07        -0.10172E-09         0.00000E+00
    0.61708E-07        -0.80586E-10         0.00000E+00
    0.61708E-07        -0.58613E-10         0.00000E+00
    0.61707E-07        -0.35805E-10         0.00000E+00
    0.61707E-07        -0.12165E-10         0.00000E+00
    0.62923E-07        -0.15235E-10         0.00000E+00
    0.62923E-07        -0.44606E-10         0.00000E+00
    0.62923E-07        -0.72353E-10         0.00000E+00
    0.62922E-07        -0.98509E-10         0.00000E+00
    0.62922E-07        -0.12311E-09         0.00000E+00
    0.62922E-07        -0.14618E-09         0.00000E+00
    0.62921E-07        -0.16776E-09         0.00000E+00
    0.62920E-07        -0.18787E-09         0.00000E+00
    0.62920E-07        -0.20655E-09         0.00000E+00
    0.62919E-07        -0.22383E-09         0.00000E+00
    0.62918E-07        -0.23973E-09         0.00000E+00
    0.62917E-07        -0.25429E-09         0.00000E+00
    0.62916E-07        -0.26752E-09         0.00000E+00
    0.62915E-07        -0.27946E-09         0.00000E+00
    0.62913E-07        -0.29013E-09         0.00000E+00
    0.62912E-07        -0.29956E-09         0.00000E+00
    0.62910E-07        -0.30777E-09         0.00000E+00
    0.62909E-07        -0.31479E-09         0.00000E+00
    0.62907E-07        -0.32063E-09         0.00000E+00
    0.62906E-07        -0.32532E-09         0.00000E+00
    0.62904E-07        -0.32888E-09         0.00000E+00
    0.62903E-07        -0.33133E-09         0.00000E+00
    0.62901E-07        -0.33270E-09         0.00000E+00
    0.62899E-07        -0.33299E-09         0.00000E+00
    0.62897E-07        -0.33224E-09         0.00000E+00
    0.62896E-07        -0.33045E-09         0.00000E+00
    0.62894E-07        -0.32764E-09         0.00000E+00
    0.62892E-07        -0.32384E-09         0.00000E+00
    0.62890E-07        -0.31904E-09         0.00000E+00
    0.62888E-07        -0.31329E-09         0.00000E+00
    0.62886E-07        -0.30657E-09         0.00000E+00
    0.62885E-07        -0.29891E-09         0.00000E+00
    0.62883E-07        -0.29033E-09         0.00000E+00
    0.62881E-07        -0.28083E-09         0.00000E+00
    0.62880E-07        -0.27042E-09         0.00000E+00
    0.62878E-07        -0.25912E-09         0.00000E+00
    0.62876E-07        -0.24694E-09         0.00000E+00
    0.62875E-07        -0.23388E-09         0.00000E+00
    0.62874E-07        -0.21996E-09         0.00000E+00
    0.62872E-07        -0.20519E-09         0.00000E+00
    0.62871E-07        -0.18956E-09         0.00000E+00
    0.62870E-07        -0.17310E-09         0.00000E+00
    0.62869E-07        -0.15580E-09         0.00000E+00
    0.62868E-07        -0.13767E-09         0.00000E+00
    0.62867E-07        -0.11873E-09         0.00000E+00
    0.62866E-07        -0.98964E-10         0.00000E+00
    0.62866E-07        -0.78388E-10         0.00000E+00
    0.62865E-07        -0.57005E-10         0.00000E+00
    0.62865E-07        -0.34817E-10         0.00000E+00
    0.62865E-07        -0.11828E-10         0.00000E+00
    0.64077E-07        -0.14931E-10         0.00000E+00
    0.64077E-07        -0.43692E-10         0.00000E+00
    0.64077E-07        -0.70827E-10         0.00000E+00
    0.64076E-07        -0.96373E-10         0.00000E+00
    0.64076E-07        -0.12037E-09         0.00000E+00
    0.64075E-07        -0.14284E-09         0.00000E+00
    0.64074E-07        -0.16383E-09         0.00000E+00
    0.64073E-07        -0.18336E-09         0.00000E+00
    0.64072E-07        -0.20148E-09         0.00000E+00
    0.64070E-07        -0.21821E-09         0.00000E+00
    0.64069E-07        -0.23358E-09         0.00000E+00
    0.64067E-07        -0.24763E-09         0.00000E+00
    0.64066E-07        -0.26038E-09         0.00000E+00
    0.64064E-07        -0.27185E-09         0.00000E+00
    0.64062E-07        -0.28209E-09         0.00000E+00
    0.64060E-07        -0.29111E-09         0.00000E+00
    0.64058E-07        -0.29893E-09         0.00000E+00
    0.64056E-07        -0.30560E-09         0.00000E+00
    0.64054E-07        -0.31112E-09         0.00000E+00
    0.64052E-07        -0.31552E-09         0.00000E+00
    0.64049E-07        -0.31883E-09         0.00000E+00
    0.64047E-07        -0.32106E-09         0.00000E+00
    0.64044E-07        -0.32224E-09         0.00000E+00
    0.64042E-07        -0.32239E-09         0.00000E+00
    0.64039E-07        -0.32152E-09         0.00000E+00
    0.64037E-07        -0.31966E-09         0.00000E+00
    0.64034E-07        -0.31682E-09         0.00000E+00
    0.64032E-07        -0.31302E-09         0.00000E+00
    0.64029E-07        -0.30827E-09         0.00000E+00
    0.64027E-07        -0.30260E-09         0.00000E+00
    0.64025E-07        -0.29600E-09         0.00000E+00
    0.64022E-07        -0.28851E-09         0.00000E+00
    0.64020E-07        -0.28013E-09         0.00000E+00
    0.64017E-07        -0.27088E-09         0.00000E+00
    0.64015E-07        -0.26076E-09         0.00000E+00
    0.64013E-07        -0.24979E-09         0.00000E+00
    0.64011E-07        -0.23798E-09         0.00000E+00
    0.64009E-07        -0.22534E-09         0.00000E+00
    0.64007E-07        -0.21187E-09         0.00000E+00
    0.64005E-07        -0.19758E-09         0.00000E+00
    0.64003E-07        -0.18250E-09         0.00000E+00
    0.64002E-07        -0.16661E-09         0.00000E+00
    0.64000E-07        -0.14992E-09         0.00000E+00
    0.63999E-07        -0.13245E-09         0.00000E+00
    0.63998E-07        -0.11420E-09         0.00000E+00
    0.63997E-07        -0.95175E-10         0.00000E+00
    0.63996E-07        -0.75373E-10         0.00000E+00
    0.63996E-07        -0.54803E-10         0.00000E+00
    0.63995E-07        -0.33467E-10         0.00000E+00
    0.63995E-07        -0.11367E-10         0.00000E+00
    0.65200E-07        -0.14472E-10         0.00000E+00
    0.65199E-07        -0.42320E-10         0.00000E+00
    0.65199E-07        -0.68555E-10         0.00000E+00
    0.65198E-07        -0.93215E-10         0.00000E+00
    0.65198E-07        -0.11634E-09         0.00000E+00
    0.65197E-07        -0.13797E-09         0.00000E+00
    0.65195E-07        -0.15813E-09         0.00000E+00
    0.65194E-07        -0.17687E-09         0.00000E+00
    0.65192E-07        -0.19421E-09         0.00000E+00
    0.65191E-07        -0.21020E-09         0.00000E+00
    0.65189E-07        -0.22487E-09         0.00000E+00
    0.65187E-07        -0.23823E-09         0.00000E+00
    0.65184E-07        -0.25034E-09         0.00000E+00
    0.65182E-07        -0.26122E-09         0.00000E+00
    0.65179E-07        -0.27089E-09         0.00000E+00
    0.65177E-07        -0.27938E-09         0.00000E+00
    0.65174E-07        -0.28673E-09         0.00000E+00
    0.65171E-07        -0.29295E-09         0.00000E+00
    0.65168E-07        -0.29808E-09         0.00000E+00
    0.65165E-07        -0.30214E-09         0.00000E+00
    0.65162E-07        -0.30514E-09         0.00000E+00
    0.65159E-07        -0.30712E-09         0.00000E+00
    0.65156E-07        -0.30809E-09         0.00000E+00
    0.65153E-07        -0.30808E-09         0.00000E+00
    0.65149E-07        -0.30711E-09         0.00000E+00
    0.65146E-07        -0.30519E-09         0.00000E+00
    0.65143E-07        -0.30234E-09         0.00000E+00
    0.65140E-07        -0.29858E-09         0.00000E+00
    0.65136E-07        -0.29393E-09         0.00000E+00
    0.65133E-07        -0.28840E-09         0.00000E+00
    0.65130E-07        -0.28201E-09         0.00000E+00
    0.65127E-07        -0.27477E-09         0.00000E+00
    0.65124E-07        -0.26669E-09         0.00000E+00
    0.65121E-07        -0.25779E-09         0.00000E+00
    0.65118E-07        -0.24807E-09         0.00000E+00
    0.65115E-07        -0.23756E-09         0.00000E+00
    0.65112E-07        -0.22626E-09         0.00000E+00
    0.65110E-07        -0.21417E-09         0.00000E+00
    0.65107E-07        -0.20131E-09         0.00000E+00
    0.65105E-07        -0.18769E-09         0.00000E+00
    0.65103E-07        -0.17331E-09         0.00000E+00
    0.65101E-07        -0.15818E-09         0.00000E+00
    0.65099E-07        -0.14231E-09         0.00000E+00
    0.65098E-07        -0.12570E-09         0.00000E+00
    0.65096E-07        -0.10836E-09         0.00000E+00
    0.65095E-07        -0.90286E-10         0.00000E+00
    0.65094E-07        -0.71488E-10         0.00000E+00
    0.65093E-07        -0.51969E-10         0.00000E+00
    0.65093E-07        -0.31731E-10         0.00000E+00
    0.65092E-07        -0.10776E-10         0.00000E+00
    0.66285E-07        -0.13842E-10         0.00000E+00
    0.66285E-07        -0.40447E-10         0.00000E+00
    0.66284E-07        -0.65466E-10         0.00000E+00
    0.66283E-07        -0.88941E-10         0.00000E+00
    0.66282E-07        -0.11091E-09         0.00000E+00
    0.66281E-07        -0.13142E-09         0.00000E+00
    0.66279E-07        -0.15051E-09         0.00000E+00
    0.66277E-07        -0.16821E-09         0.00000E+00
    0.66275E-07        -0.18456E-09         0.00000E+00
    0.66273E-07        -0.19959E-09         0.00000E+00
    0.66270E-07        -0.21335E-09         0.00000E+00
    0.66268E-07        -0.22587E-09         0.00000E+00
    0.66265E-07        -0.23717E-09         0.00000E+00
    0.66262E-07        -0.24729E-09         0.00000E+00
    0.66259E-07        -0.25627E-09         0.00000E+00
    0.66255E-07        -0.26412E-09         0.00000E+00
    0.66252E-07        -0.27088E-09         0.00000E+00
    0.66248E-07        -0.27658E-09         0.00000E+00
    0.66245E-07        -0.28124E-09         0.00000E+00
    0.66241E-07        -0.28488E-09         0.00000E+00
    0.66237E-07        -0.28754E-09         0.00000E+00
    0.66233E-07        -0.28923E-09         0.00000E+00
    0.66229E-07        -0.28997E-09         0.00000E+00
    0.66225E-07        -0.28980E-09         0.00000E+00
    0.66221E-07        -0.28872E-09         0.00000E+00
    0.66217E-07        -0.28676E-09         0.00000E+00
    0.66213E-07        -0.28394E-09         0.00000E+00
    0.66208E-07        -0.28027E-09         0.00000E+00
    0.66204E-07        -0.27577E-09         0.00000E+00
    0.66200E-07        -0.27046E-09         0.00000E+00
    0.66196E-07        -0.26434E-09         0.00000E+00
    0.66193E-07        -0.25744E-09         0.00000E+00
    0.66189E-07        -0.24977E-09         0.00000E+00
    0.66185E-07        -0.24134E-09         0.00000E+00
    0.66182E-07        -0.23216E-09         0.00000E+00
    0.66178E-07        -0.22224E-09         0.00000E+00
    0.66175E-07        -0.21159E-09         0.00000E+00
    0.66172E-07        -0.20022E-09         0.00000E+00
    0.66169E-07        -0.18814E-09         0.00000E+00
    0.66166E-07        -0.17536E-09         0.00000E+00
    0.66163E-07        -0.16188E-09         0.00000E+00
    0.66161E-07        -0.14771E-09         0.00000E+00
    0.66159E-07        -0.13286E-09         0.00000E+00
    0.66157E-07        -0.11732E-09         0.00000E+00
    0.66155E-07        -0.10111E-09         0.00000E+00
    0.66153E-07        -0.84233E-10         0.00000E+00
    0.66152E-07        -0.66684E-10         0.00000E+00
    0.66151E-07        -0.48469E-10         0.00000E+00
    0.66151E-07        -0.29589E-10         0.00000E+00
    0.66150E-07        -0.10047E-10         0.00000E+00
    0.67326E-07        -0.13027E-10         0.00000E+00
    0.67326E-07        -0.38031E-10         0.00000E+00
    0.67325E-07        -0.61491E-10         0.00000E+00
    0.67324E-07        -0.83455E-10         0.00000E+00
    0.67323E-07        -0.10397E-09         0.00000E+00
    0.67321E-07        -0.12307E-09         0.00000E+00
    0.67319E-07        -0.14080E-09         0.00000E+00
    0.67317E-07        -0.15720E-09         0.00000E+00
    0.67314E-07        -0.17232E-09         0.00000E+00
    0.67311E-07        -0.18618E-09         0.00000E+00
    0.67308E-07        -0.19883E-09         0.00000E+00
    0.67305E-07        -0.21030E-09         0.00000E+00
    0.67301E-07        -0.22062E-09         0.00000E+00
    0.67298E-07        -0.22984E-09         0.00000E+00
    0.67294E-07        -0.23797E-09         0.00000E+00
    0.67290E-07        -0.24506E-09         0.00000E+00
    0.67285E-07        -0.25112E-09         0.00000E+00
    0.67281E-07        -0.25620E-09         0.00000E+00
    0.67276E-07        -0.26031E-09         0.00000E+00
    0.67272E-07        -0.26348E-09         0.00000E+00
    0.67267E-07        -0.26574E-09         0.00000E+00
    0.67262E-07        -0.26711E-09         0.00000E+00
    0.67257E-07        -0.26761E-09         0.00000E+00
    0.67252E-07        -0.26727E-09         0.00000E+00
    0.67247E-07        -0.26610E-09         0.00000E+00
    0.67242E-07        -0.26413E-09         0.00000E+00
    0.67237E-07        -0.26137E-09         0.00000E+00
    0.67233E-07        -0.25784E-09         0.00000E+00
    0.67228E-07        -0.25355E-09         0.00000E+00
    0.67223E-07        -0.24853E-09         0.00000E+00
    0.67218E-07        -0.24279E-09         0.00000E+00
    0.67213E-07        -0.23633E-09         0.00000E+00
    0.67209E-07        -0.22918E-09         0.00000E+00
    0.67204E-07        -0.22134E-09         0.00000E+00
    0.67200E-07        -0.21283E-09         0.00000E+00
    0.67196E-07        -0.20365E-09         0.00000E+00
    0.67192E-07        -0.19381E-09         0.00000E+00
    0.67188E-07        -0.18333E-09         0.00000E+00
    0.67185E-07        -0.17221E-09         0.00000E+00
    0.67181E-07        -0.16046E-09         0.00000E+00
    0.67178E-07        -0.14808E-09         0.00000E+00
    0.67175E-07        -0.13508E-09         0.00000E+00
    0.67173E-07        -0.12147E-09         0.00000E+00
    0.67170E-07        -0.10724E-09         0.00000E+00
    0.67168E-07        -0.92405E-10         0.00000E+00
    0.67167E-07        -0.76963E-10         0.00000E+00
    0.67165E-07        -0.60917E-10         0.00000E+00
    0.67164E-07        -0.44270E-10         0.00000E+00
    0.67163E-07        -0.27022E-10         0.00000E+00
    0.67163E-07        -0.91741E-11         0.00000E+00
    0.68318E-07        -0.12012E-10         0.00000E+00
    0.68317E-07        -0.35024E-10         0.00000E+00
    0.68317E-07        -0.56558E-10         0.00000E+00
    0.68315E-07        -0.76660E-10         0.00000E+00
    0.68314E-07        -0.95377E-10         0.00000E+00
    0.68311E-07        -0.11276E-09         0.00000E+00
    0.68309E-07        -0.12884E-09         0.00000E+00
    0.68306E-07        -0.14367E-09         0.00000E+00
    0.68303E-07        -0.15730E-09         0.00000E+00
    0.68300E-07        -0.16975E-09         0.00000E+00
    0.68296E-07        -0.18107E-09         0.00000E+00
    0.68292E-07        -0.19130E-09         0.00000E+00
    0.68288E-07        -0.20046E-09         0.00000E+00
    0.68283E-07        -0.20860E-09         0.00000E+00
    0.68278E-07        -0.21575E-09         0.00000E+00
    0.68273E-07        -0.22194E-09         0.00000E+00
    0.68268E-07        -0.22720E-09         0.00000E+00
    0.68263E-07        -0.23156E-09         0.00000E+00
    0.68258E-07        -0.23505E-09         0.00000E+00
    0.68252E-07        -0.23768E-09         0.00000E+00
    0.68246E-07        -0.23950E-09         0.00000E+00
    0.68241E-07        -0.24052E-09         0.00000E+00
    0.68235E-07        -0.24076E-09         0.00000E+00
    0.68229E-07        -0.24025E-09         0.00000E+00
    0.68223E-07        -0.23901E-09         0.00000E+00
    0.68217E-07        -0.23705E-09         0.00000E+00
    0.68211E-07        -0.23440E-09         0.00000E+00
    0.68206E-07        -0.23107E-09         0.00000E+00
    0.68200E-07        -0.22707E-09         0.00000E+00
    0.68194E-07        -0.22243E-09         0.00000E+00
    0.68188E-07        -0.21715E-09         0.00000E+00
    0.68183E-07        -0.21125E-09         0.00000E+00
    0.68178E-07        -0.20474E-09         0.00000E+00
    0.68172E-07        -0.19763E-09         0.00000E+00
    0.68167E-07        -0.18993E-09         0.00000E+00
    0.68163E-07        -0.18165E-09         0.00000E+00
    0.68158E-07        -0.17280E-09         0.00000E+00
    0.68153E-07        -0.16339E-09         0.00000E+00
    0.68149E-07        -0.15342E-09         0.00000E+00
    0.68145E-07        -0.14290E-09         0.00000E+00
    0.68142E-07        -0.13183E-09         0.00000E+00
    0.68138E-07        -0.12022E-09         0.00000E+00
    0.68135E-07        -0.10807E-09         0.00000E+00
    0.68133E-07        -0.95391E-10         0.00000E+00
    0.68130E-07        -0.82176E-10         0.00000E+00
    0.68128E-07        -0.68431E-10         0.00000E+00
    0.68127E-07        -0.54155E-10         0.00000E+00
    0.68125E-07        -0.39350E-10         0.00000E+00
    0.68125E-07        -0.24016E-10         0.00000E+00
    0.68124E-07        -0.81528E-11         0.00000E+00
    0.69253E-07        -0.10780E-10         0.00000E+00
    0.69252E-07        -0.31384E-10         0.00000E+00
    0.69251E-07        -0.50593E-10         0.00000E+00
    0.69250E-07        -0.68459E-10         0.00000E+00
    0.69248E-07        -0.85031E-10         0.00000E+00
    0.69245E-07        -0.10036E-09         0.00000E+00
    0.69242E-07        -0.11448E-09         0.00000E+00
    0.69239E-07        -0.12746E-09         0.00000E+00
    0.69235E-07        -0.13932E-09         0.00000E+00
    0.69231E-07        -0.15011E-09         0.00000E+00
    0.69227E-07        -0.15988E-09         0.00000E+00
    0.69222E-07        -0.16865E-09         0.00000E+00
    0.69217E-07        -0.17647E-09         0.00000E+00
    0.69212E-07        -0.18337E-09         0.00000E+00
    0.69206E-07        -0.18939E-09         0.00000E+00
    0.69200E-07        -0.19455E-09         0.00000E+00
    0.69194E-07        -0.19889E-09         0.00000E+00
    0.69188E-07        -0.20244E-09         0.00000E+00
    0.69182E-07        -0.20522E-09         0.00000E+00
    0.69175E-07        -0.20727E-09         0.00000E+00
    0.69169E-07        -0.20860E-09         0.00000E+00
    0.69162E-07        -0.20925E-09         0.00000E+00
    0.69155E-07        -0.20922E-09         0.00000E+00
    0.69148E-07        -0.20855E-09         0.00000E+00
    0.69142E-07        -0.20726E-09         0.00000E+00
    0.69135E-07        -0.20535E-09         0.00000E+00
    0.69128E-07        -0.20286E-09         0.00000E+00
    0.69121E-07        -0.19979E-09         0.00000E+00
    0.69115E-07        -0.19616E-09         0.00000E+00
    0.69108E-07        -0.19199E-09         0.00000E+00
    0.69102E-07        -0.18728E-09         0.00000E+00
    0.69095E-07        -0.18205E-09         0.00000E+00
    0.69089E-07        -0.17632E-09         0.00000E+00
    0.69083E-07        -0.17008E-09         0.00000E+00
    0.69077E-07        -0.16335E-09         0.00000E+00
    0.69072E-07        -0.15614E-09         0.00000E+00
    0.69066E-07        -0.14845E-09         0.00000E+00
    0.69061E-07        -0.14030E-09         0.00000E+00
    0.69056E-07        -0.13168E-09         0.00000E+00
    0.69052E-07        -0.12259E-09         0.00000E+00
    0.69048E-07        -0.11306E-09         0.00000E+00
    0.69044E-07        -0.10307E-09         0.00000E+00
    0.69040E-07        -0.92626E-10         0.00000E+00
    0.69037E-07        -0.81735E-10         0.00000E+00
    0.69035E-07        -0.70397E-10         0.00000E+00
    0.69032E-07        -0.58611E-10         0.00000E+00
    0.69030E-07        -0.46378E-10         0.00000E+00
    0.69029E-07        -0.33696E-10         0.00000E+00
    0.69028E-07        -0.20564E-10         0.00000E+00
    0.69028E-07        -0.69806E-11         0.00000E+00
    0.70125E-07        -0.93175E-11         0.00000E+00
    0.70125E-07        -0.27067E-10         0.00000E+00
    0.70123E-07        -0.43531E-10         0.00000E+00
    0.70122E-07        -0.58763E-10         0.00000E+00
    0.70119E-07        -0.72816E-10         0.00000E+00
    0.70116E-07        -0.85740E-10         0.00000E+00
    0.70113E-07        -0.97585E-10         0.00000E+00
    0.70109E-07        -0.10840E-09         0.00000E+00
    0.70105E-07        -0.11822E-09         0.00000E+00
    0.70100E-07        -0.12710E-09         0.00000E+00
    0.70095E-07        -0.13507E-09         0.00000E+00
    0.70089E-07        -0.14218E-09         0.00000E+00
    0.70084E-07        -0.14846E-09         0.00000E+00
    0.70077E-07        -0.15396E-09         0.00000E+00
    0.70071E-07        -0.15869E-09         0.00000E+00
    0.70064E-07        -0.16270E-09         0.00000E+00
    0.70057E-07        -0.16601E-09         0.00000E+00
    0.70050E-07        -0.16867E-09         0.00000E+00
    0.70043E-07        -0.17068E-09         0.00000E+00
    0.70035E-07        -0.17208E-09         0.00000E+00
    0.70028E-07        -0.17289E-09         0.00000E+00
    0.70020E-07        -0.17314E-09         0.00000E+00
    0.70012E-07        -0.17285E-09         0.00000E+00
    0.70005E-07        -0.17204E-09         0.00000E+00
    0.69997E-07        -0.17072E-09         0.00000E+00
    0.69989E-07        -0.16891E-09         0.00000E+00
    0.69981E-07        -0.16664E-09         0.00000E+00
    0.69974E-07        -0.16390E-09         0.00000E+00
    0.69966E-07        -0.16073E-09         0.00000E+00
    0.69959E-07        -0.15713E-09         0.00000E+00
    0.69951E-07        -0.15311E-09         0.00000E+00
    0.69944E-07        -0.14869E-09         0.00000E+00
    0.69937E-07        -0.14386E-09         0.00000E+00
    0.69930E-07        -0.13865E-09         0.00000E+00
    0.69924E-07        -0.13305E-09         0.00000E+00
    0.69917E-07        -0.12708E-09         0.00000E+00
    0.69911E-07        -0.12074E-09         0.00000E+00
    0.69906E-07        -0.11403E-09         0.00000E+00
    0.69900E-07        -0.10697E-09         0.00000E+00
    0.69895E-07        -0.99537E-10         0.00000E+00
    0.69891E-07        -0.91752E-10         0.00000E+00
    0.69886E-07        -0.83612E-10         0.00000E+00
    0.69882E-07        -0.75117E-10         0.00000E+00
    0.69879E-07        -0.66268E-10         0.00000E+00
    0.69876E-07        -0.57064E-10         0.00000E+00
    0.69873E-07        -0.47503E-10         0.00000E+00
    0.69871E-07        -0.37585E-10         0.00000E+00
    0.69869E-07        -0.27307E-10         0.00000E+00
    0.69868E-07        -0.16665E-10         0.00000E+00
    0.69868E-07        -0.56578E-11         0.00000E+00
    0.70929E-07        -0.76102E-11         0.00000E+00
    0.70928E-07        -0.22035E-10         0.00000E+00
    0.70927E-07        -0.35311E-10         0.00000E+00
    0.70925E-07        -0.47495E-10         0.00000E+00
    0.70922E-07        -0.58641E-10         0.00000E+00
    0.70918E-07        -0.68803E-10         0.00000E+00
    0.70915E-07        -0.78031E-10         0.00000E+00
    0.70910E-07        -0.86373E-10         0.00000E+00
    0.70905E-07        -0.93876E-10         0.00000E+00
    0.70900E-07        -0.10058E-09         0.00000E+00
    0.70894E-07        -0.10653E-09         0.00000E+00
    0.70888E-07        -0.11177E-09         0.00000E+00
    0.70881E-07        -0.11633E-09         0.00000E+00
    0.70874E-07        -0.12025E-09         0.00000E+00
    0.70867E-07        -0.12356E-09         0.00000E+00
    0.70859E-07        -0.12630E-09         0.00000E+00
    0.70851E-07        -0.12849E-09         0.00000E+00
    0.70843E-07        -0.13016E-09         0.00000E+00
    0.70835E-07        -0.13134E-09         0.00000E+00
    0.70826E-07        -0.13205E-09         0.00000E+00
    0.70818E-07        -0.13233E-09         0.00000E+00
    0.70809E-07        -0.13218E-09         0.00000E+00
    0.70801E-07        -0.13162E-09         0.00000E+00
    0.70792E-07        -0.13069E-09         0.00000E+00
    0.70783E-07        -0.12939E-09         0.00000E+00
    0.70774E-07        -0.12774E-09         0.00000E+00
    0.70766E-07        -0.12575E-09         0.00000E+00
    0.70757E-07        -0.12344E-09         0.00000E+00
    0.70749E-07        -0.12082E-09         0.00000E+00
    0.70740E-07        -0.11790E-09         0.00000E+00
    0.70732E-07        -0.11469E-09         0.00000E+00
    0.70724E-07        -0.11119E-09         0.00000E+00
    0.70716E-07        -0.10743E-09         0.00000E+00
    0.70709E-07        -0.10339E-09         0.00000E+00
    0.70701E-07        -0.99091E-10         0.00000E+00
    0.70694E-07        -0.94535E-10         0.00000E+00
    0.70688E-07        -0.89723E-10         0.00000E+00
    0.70681E-07        -0.84659E-10         0.00000E+00
    0.70675E-07        -0.79345E-10         0.00000E+00
    0.70670E-07        -0.73782E-10         0.00000E+00
    0.70665E-07        -0.67970E-10         0.00000E+00
    0.70660E-07        -0.61909E-10         0.00000E+00
    0.70655E-07        -0.55598E-10         0.00000E+00
    0.70652E-07        -0.49035E-10         0.00000E+00
    0.70648E-07        -0.42217E-10         0.00000E+00
    0.70645E-07        -0.35142E-10         0.00000E+00
    0.70643E-07        -0.27805E-10         0.00000E+00
    0.70641E-07        -0.20204E-10         0.00000E+00
    0.70640E-07        -0.12334E-10         0.00000E+00
    0.70639E-07        -0.41888E-11         0.00000E+00
    0.71657E-07        -0.56475E-11         0.00000E+00
    0.71656E-07        -0.16258E-10         0.00000E+00
    0.71655E-07        -0.25889E-10         0.00000E+00
    0.71652E-07        -0.34600E-10         0.00000E+00
    0.71649E-07        -0.42446E-10         0.00000E+00
    0.71645E-07        -0.49483E-10         0.00000E+00
    0.71641E-07        -0.55761E-10         0.00000E+00
    0.71636E-07        -0.61329E-10         0.00000E+00
    0.71630E-07        -0.66234E-10         0.00000E+00
    0.71624E-07        -0.70519E-10         0.00000E+00
    0.71618E-07        -0.74226E-10         0.00000E+00
    0.71611E-07        -0.77393E-10         0.00000E+00
    0.71603E-07        -0.80059E-10         0.00000E+00
    0.71595E-07        -0.82256E-10         0.00000E+00
    0.71587E-07        -0.84018E-10         0.00000E+00
    0.71579E-07        -0.85375E-10         0.00000E+00
    0.71570E-07        -0.86356E-10         0.00000E+00
    0.71561E-07        -0.86986E-10         0.00000E+00
    0.71552E-07        -0.87290E-10         0.00000E+00
    0.71542E-07        -0.87291E-10         0.00000E+00
    0.71533E-07        -0.87010E-10         0.00000E+00
    0.71523E-07        -0.86467E-10         0.00000E+00
    0.71514E-07        -0.85678E-10         0.00000E+00
    0.71504E-07        -0.84661E-10         0.00000E+00
    0.71494E-07        -0.83429E-10         0.00000E+00
    0.71485E-07        -0.81998E-10         0.00000E+00
    0.71475E-07        -0.80377E-10         0.00000E+00
    0.71466E-07        -0.78579E-10         0.00000E+00
    0.71457E-07        -0.76612E-10         0.00000E+00
    0.71447E-07        -0.74486E-10         0.00000E+00
    0.71438E-07        -0.72206E-10         0.00000E+00
    0.71430E-07        -0.69780E-10         0.00000E+00
    0.71421E-07        -0.67212E-10         0.00000E+00
    0.71413E-07        -0.64506E-10         0.00000E+00
    0.71405E-07        -0.61666E-10         0.00000E+00
    0.71397E-07        -0.58694E-10         0.00000E+00
    0.71390E-07        -0.55591E-10         0.00000E+00
    0.71383E-07        -0.52357E-10         0.00000E+00
    0.71376E-07        -0.48993E-10         0.00000E+00
    0.71370E-07        -0.45497E-10         0.00000E+00
    0.71365E-07        -0.41867E-10         0.00000E+00
    0.71359E-07        -0.38102E-10         0.00000E+00
    0.71355E-07        -0.34197E-10         0.00000E+00
    0.71351E-07        -0.30150E-10         0.00000E+00
    0.71347E-07        -0.25955E-10         0.00000E+00
    0.71344E-07        -0.21608E-10         0.00000E+00
    0.71341E-07        -0.17104E-10         0.00000E+00
    0.71339E-07        -0.12436E-10         0.00000E+00
    0.71338E-07        -0.75982E-11         0.00000E+00
    0.71337E-07        -0.25836E-11         0.00000E+00
    0.72304E-07        -0.34237E-11         0.00000E+00
    0.72303E-07        -0.97241E-11         0.00000E+00
    0.72302E-07        -0.15251E-10         0.00000E+00
    0.72299E-07        -0.20065E-10         0.00000E+00
    0.72296E-07        -0.24223E-10         0.00000E+00
    0.72291E-07        -0.27781E-10         0.00000E+00
    0.72286E-07        -0.30788E-10         0.00000E+00
    0.72281E-07        -0.33294E-10         0.00000E+00
    0.72275E-07        -0.35344E-10         0.00000E+00
    0.72268E-07        -0.36980E-10         0.00000E+00
    0.72261E-07        -0.38243E-10         0.00000E+00
    0.72253E-07        -0.39168E-10         0.00000E+00
    0.72245E-07        -0.39792E-10         0.00000E+00
    0.72236E-07        -0.40146E-10         0.00000E+00
    0.72227E-07        -0.40259E-10         0.00000E+00
    0.72218E-07        -0.40160E-10         0.00000E+00
    0.72208E-07        -0.39874E-10         0.00000E+00
    0.72198E-07        -0.39424E-10         0.00000E+00
    0.72188E-07        -0.38832E-10         0.00000E+00
    0.72178E-07        -0.38116E-10         0.00000E+00
    0.72168E-07        -0.37296E-10         0.00000E+00
    0.72157E-07        -0.36387E-10         0.00000E+00
    0.72147E-07        -0.35403E-10         0.00000E+00
    0.72136E-07        -0.34357E-10         0.00000E+00
    0.72126E-07        -0.33262E-10         0.00000E+00
    0.72116E-07        -0.32126E-10         0.00000E+00
    0.72105E-07        -0.30959E-10         0.00000E+00
    0.72095E-07        -0.29769E-10         0.00000E+00
    0.72085E-07        -0.28562E-10         0.00000E+00
    0.72075E-07        -0.27343E-10         0.00000E+00
    0.72065E-07        -0.26117E-10         0.00000E+00
    0.72056E-07        -0.24887E-10         0.00000E+00
    0.72047E-07        -0.23655E-10         0.00000E+00
    0.72038E-07        -0.22422E-10         0.00000E+00
    0.72029E-07        -0.21191E-10         0.00000E+00
    0.72021E-07        -0.19959E-10         0.00000E+00
    0.72013E-07        -0.18726E-10         0.00000E+00
    0.72006E-07        -0.17490E-10         0.00000E+00
    0.71999E-07        -0.16249E-10         0.00000E+00
    0.71993E-07        -0.14999E-10         0.00000E+00
    0.71986E-07        -0.13737E-10         0.00000E+00
    0.71981E-07        -0.12457E-10         0.00000E+00
    0.71976E-07        -0.11155E-10         0.00000E+00
    0.71971E-07        -0.98250E-11         0.00000E+00
    0.71968E-07        -0.84604E-11         0.00000E+00
    0.71964E-07        -0.70542E-11         0.00000E+00
    0.71962E-07        -0.55992E-11         0.00000E+00
    0.71959E-07        -0.40874E-11         0.00000E+00
    0.71958E-07        -0.25104E-11         0.00000E+00
    0.71957E-07        -0.85960E-12         0.00000E+00
    0.72864E-07        -0.94163E-12         0.00000E+00
    0.72863E-07        -0.24442E-11         0.00000E+00
    0.72861E-07        -0.34228E-11         0.00000E+00
    0.72858E-07        -0.39381E-11         0.00000E+00
    0.72855E-07        -0.40468E-11         0.00000E+00
    0.72850E-07        -0.38020E-11         0.00000E+00
    0.72845E-07        -0.32531E-11         0.00000E+00
    0.72838E-07        -0.24460E-11         0.00000E+00
    0.72832E-07        -0.14234E-11         0.00000E+00
    0.72824E-07        -0.22472E-12         0.00000E+00
    0.72816E-07         0.11137E-11         0.00000E+00
    0.72808E-07         0.25585E-11         0.00000E+00
    0.72799E-07         0.40792E-11         0.00000E+00
    0.72790E-07         0.56477E-11         0.00000E+00
    0.72780E-07         0.72386E-11         0.00000E+00
    0.72770E-07         0.88291E-11         0.00000E+00
    0.72760E-07         0.10398E-10         0.00000E+00
    0.72749E-07         0.11928E-10         0.00000E+00
    0.72739E-07         0.13400E-10         0.00000E+00
    0.72728E-07         0.14801E-10         0.00000E+00
    0.72717E-07         0.16118E-10         0.00000E+00
    0.72706E-07         0.17339E-10         0.00000E+00
    0.72695E-07         0.18454E-10         0.00000E+00
    0.72684E-07         0.19455E-10         0.00000E+00
    0.72673E-07         0.20334E-10         0.00000E+00
    0.72662E-07         0.21085E-10         0.00000E+00
    0.72651E-07         0.21704E-10         0.00000E+00
    0.72640E-07         0.22187E-10         0.00000E+00
    0.72630E-07         0.22531E-10         0.00000E+00
    0.72619E-07         0.22734E-10         0.00000E+00
    0.72609E-07         0.22795E-10         0.00000E+00
    0.72599E-07         0.22715E-10         0.00000E+00
    0.72590E-07         0.22492E-10         0.00000E+00
    0.72580E-07         0.22130E-10         0.00000E+00
    0.72571E-07         0.21630E-10         0.00000E+00
    0.72563E-07         0.20995E-10         0.00000E+00
    0.72555E-07         0.20229E-10         0.00000E+00
    0.72547E-07         0.19334E-10         0.00000E+00
    0.72540E-07         0.18317E-10         0.00000E+00
    0.72533E-07         0.17183E-10         0.00000E+00
    0.72526E-07         0.15937E-10         0.00000E+00
    0.72521E-07         0.14586E-10         0.00000E+00
    0.72515E-07         0.13136E-10         0.00000E+00
    0.72511E-07         0.11597E-10         0.00000E+00
    0.72507E-07         0.99752E-11         0.00000E+00
    0.72503E-07         0.82800E-11         0.00000E+00
    0.72500E-07         0.65205E-11         0.00000E+00
    0.72498E-07         0.47065E-11         0.00000E+00
    0.72497E-07         0.28481E-11         0.00000E+00
    0.72496E-07         0.95601E-12         0.00000E+00
    0.73331E-07         0.17833E-11         0.00000E+00
    0.73330E-07         0.55296E-11         0.00000E+00
    0.73328E-07         0.94998E-11         0.00000E+00
    0.73325E-07         0.13636E-10         0.00000E+00
    0.73321E-07         0.17883E-10         0.00000E+00
    0.73316E-07         0.22193E-10         0.00000E+00
    0.73310E-07         0.26521E-10         0.00000E+00
    0.73303E-07         0.30825E-10         0.00000E+00
    0.73296E-07         0.35068E-10         0.00000E+00
    0.73288E-07         0.39216E-10         0.00000E+00
    0.73280E-07         0.43240E-10         0.00000E+00
    0.73271E-07         0.47112E-10         0.00000E+00
    0.73262E-07         0.50809E-10         0.00000E+00
    0.73252E-07         0.54308E-10         0.00000E+00
    0.73242E-07         0.57593E-10         0.00000E+00
    0.73231E-07         0.60646E-10         0.00000E+00
    0.73221E-07         0.63454E-10         0.00000E+00
    0.73210E-07         0.66006E-10         0.00000E+00
    0.73198E-07         0.68291E-10         0.00000E+00
    0.73187E-07         0.70302E-10         0.00000E+00
    0.73176E-07         0.72031E-10         0.00000E+00
    0.73165E-07         0.73474E-10         0.00000E+00
    0.73153E-07         0.74627E-10         0.00000E+00
    0.73142E-07         0.75487E-10         0.00000E+00
    0.73130E-07         0.76053E-10         0.00000E+00
    0.73119E-07         0.76323E-10         0.00000E+00
    0.73108E-07         0.76298E-10         0.00000E+00
    0.73097E-07         0.75978E-10         0.00000E+00
    0.73086E-07         0.75365E-10         0.00000E+00
    0.73076E-07         0.74461E-10         0.00000E+00
    0.73066E-07         0.73268E-10         0.00000E+00
    0.73056E-07         0.71791E-10         0.00000E+00
    0.73046E-07         0.70031E-10         0.00000E+00
    0.73036E-07         0.67995E-10         0.00000E+00
    0.73027E-07         0.65685E-10         0.00000E+00
    0.73019E-07         0.63107E-10         0.00000E+00
    0.73010E-07         0.60267E-10         0.00000E+00
    0.73003E-07         0.57171E-10         0.00000E+00
    0.72995E-07         0.53824E-10         0.00000E+00
    0.72988E-07         0.50234E-10         0.00000E+00
    0.72982E-07         0.46409E-10         0.00000E+00
    0.72976E-07         0.42355E-10         0.00000E+00
    0.72971E-07         0.38081E-10         0.00000E+00
    0.72966E-07         0.33596E-10         0.00000E+00
    0.72962E-07         0.28910E-10         0.00000E+00
    0.72958E-07         0.24032E-10         0.00000E+00
    0.72956E-07         0.18973E-10         0.00000E+00
    0.72953E-07         0.13744E-10         0.00000E+00
    0.72952E-07         0.83566E-11         0.00000E+00
    0.72951E-07         0.28230E-11         0.00000E+00
    0.73698E-07         0.47163E-11         0.00000E+00
    0.73697E-07         0.14087E-10         0.00000E+00
    0.73695E-07         0.23322E-10         0.00000E+00
    0.73692E-07         0.32369E-10         0.00000E+00
    0.73687E-07         0.41181E-10         0.00000E+00
    0.73682E-07         0.49715E-10         0.00000E+00
    0.73676E-07         0.57936E-10         0.00000E+00
    0.73669E-07         0.65809E-10         0.00000E+00
    0.73662E-07         0.73308E-10         0.00000E+00
    0.73654E-07         0.80408E-10         0.00000E+00
    0.73645E-07         0.87089E-10         0.00000E+00
    0.73636E-07         0.93335E-10         0.00000E+00
    0.73627E-07         0.99130E-10         0.00000E+00
    0.73617E-07         0.10447E-09         0.00000E+00
    0.73606E-07         0.10933E-09         0.00000E+00
    0.73596E-07         0.11373E-09         0.00000E+00
    0.73585E-07         0.11765E-09         0.00000E+00
    0.73574E-07         0.12108E-09         0.00000E+00
    0.73563E-07         0.12404E-09         0.00000E+00
    0.73552E-07         0.12652E-09         0.00000E+00
    0.73541E-07         0.12853E-09         0.00000E+00
    0.73530E-07         0.13006E-09         0.00000E+00
    0.73518E-07         0.13112E-09         0.00000E+00
    0.73507E-07         0.13172E-09         0.00000E+00
    0.73496E-07         0.13186E-09         0.00000E+00
    0.73485E-07         0.13155E-09         0.00000E+00
    0.73474E-07         0.13079E-09         0.00000E+00
    0.73464E-07         0.12958E-09         0.00000E+00
    0.73453E-07         0.12795E-09         0.00000E+00
    0.73443E-07         0.12588E-09         0.00000E+00
    0.73433E-07         0.12339E-09         0.00000E+00
    0.73423E-07         0.12048E-09         0.00000E+00
    0.73414E-07         0.11716E-09         0.00000E+00
    0.73405E-07         0.11343E-09         0.00000E+00
    0.73396E-07         0.10931E-09         0.00000E+00
    0.73387E-07         0.10480E-09         0.00000E+00
    0.73379E-07         0.99899E-10         0.00000E+00
    0.73372E-07         0.94621E-10         0.00000E+00
    0.73365E-07         0.88972E-10         0.00000E+00
    0.73358E-07         0.82959E-10         0.00000E+00
    0.73352E-07         0.76589E-10         0.00000E+00
    0.73346E-07         0.69870E-10         0.00000E+00
    0.73341E-07         0.62810E-10         0.00000E+00
    0.73336E-07         0.55419E-10         0.00000E+00
    0.73332E-07         0.47706E-10         0.00000E+00
    0.73329E-07         0.39681E-10         0.00000E+00
    0.73326E-07         0.31354E-10         0.00000E+00
    0.73324E-07         0.22737E-10         0.00000E+00
    0.73323E-07         0.13843E-10         0.00000E+00
    0.73322E-07         0.46845E-11         0.00000E+00
    0.73960E-07         0.77935E-11         0.00000E+00
    0.73959E-07         0.23028E-10         0.00000E+00
    0.73957E-07         0.37698E-10         0.00000E+00
    0.73953E-07         0.51762E-10         0.00000E+00
    0.73949E-07         0.65184E-10         0.00000E+00
    0.73944E-07         0.77934E-10         0.00000E+00
    0.73938E-07         0.89989E-10         0.00000E+00
    0.73931E-07         0.10133E-09         0.00000E+00
    0.73924E-07         0.11195E-09         0.00000E+00
    0.73916E-07         0.12183E-09         0.00000E+00
    0.73907E-07         0.13097E-09         0.00000E+00
    0.73898E-07         0.13937E-09         0.00000E+00
    0.73889E-07         0.14703E-09         0.00000E+00
    0.73880E-07         0.15395E-09         0.00000E+00
    0.73870E-07         0.16015E-09         0.00000E+00
    0.73860E-07         0.16564E-09         0.00000E+00
    0.73850E-07         0.17041E-09         0.00000E+00
    0.73839E-07         0.17449E-09         0.00000E+00
    0.73829E-07         0.17789E-09         0.00000E+00
    0.73818E-07         0.18062E-09         0.00000E+00
    0.73808E-07         0.18270E-09         0.00000E+00
    0.73798E-07         0.18414E-09         0.00000E+00
    0.73787E-07         0.18494E-09         0.00000E+00
    0.73777E-07         0.18514E-09         0.00000E+00
    0.73767E-07         0.18473E-09         0.00000E+00
    0.73757E-07         0.18374E-09         0.00000E+00
    0.73747E-07         0.18217E-09         0.00000E+00
    0.73737E-07         0.18004E-09         0.00000E+00
    0.73728E-07         0.17735E-09         0.00000E+00
    0.73718E-07         0.17412E-09         0.00000E+00
    0.73709E-07         0.17036E-09         0.00000E+00
    0.73701E-07         0.16607E-09         0.00000E+00
    0.73692E-07         0.16126E-09         0.00000E+00
    0.73684E-07         0.15594E-09         0.00000E+00
    0.73676E-07         0.15012E-09         0.00000E+00
    0.73668E-07         0.14380E-09         0.00000E+00
    0.73661E-07         0.13699E-09         0.00000E+00
    0.73654E-07         0.12969E-09         0.00000E+00
    0.73648E-07         0.12191E-09         0.00000E+00
    0.73642E-07         0.11366E-09         0.00000E+00
    0.73636E-07         0.10494E-09         0.00000E+00
    0.73631E-07         0.95750E-10         0.00000E+00
    0.73626E-07         0.86106E-10         0.00000E+00
    0.73622E-07         0.76012E-10         0.00000E+00
    0.73619E-07         0.65474E-10         0.00000E+00
    0.73615E-07         0.54502E-10         0.00000E+00
    0.73613E-07         0.43104E-10         0.00000E+00
    0.73611E-07         0.31290E-10         0.00000E+00
    0.73610E-07         0.19072E-10         0.00000E+00
    0.73609E-07         0.64627E-11         0.00000E+00
    0.74110E-07         0.10910E-10         0.00000E+00
    0.74109E-07         0.32025E-10         0.00000E+00
    0.74107E-07         0.52062E-10         0.00000E+00
    0.74104E-07         0.70999E-10         0.00000E+00
    0.74099E-07         0.88818E-10         0.00000E+00
    0.74094E-07         0.10551E-09         0.00000E+00
    0.74089E-07         0.12108E-09         0.00000E+00
    0.74082E-07         0.13552E-09         0.00000E+00
    0.74076E-07         0.14885E-09         0.00000E+00
    0.74068E-07         0.16108E-09         0.00000E+00
    0.74061E-07         0.17223E-09         0.00000E+00
    0.74053E-07         0.18233E-09         0.00000E+00
    0.74044E-07         0.19139E-09         0.00000E+00
    0.74036E-07         0.19945E-09         0.00000E+00
    0.74027E-07         0.20654E-09         0.00000E+00
    0.74019E-07         0.21268E-09         0.00000E+00
    0.74010E-07         0.21791E-09         0.00000E+00
    0.74001E-07         0.22225E-09         0.00000E+00
    0.73993E-07         0.22574E-09         0.00000E+00
    0.73984E-07         0.22841E-09         0.00000E+00
    0.73975E-07         0.23028E-09         0.00000E+00
    0.73967E-07         0.23138E-09         0.00000E+00
    0.73958E-07         0.23173E-09         0.00000E+00
    0.73950E-07         0.23136E-09         0.00000E+00
    0.73942E-07         0.23030E-09         0.00000E+00
    0.73934E-07         0.22856E-09         0.00000E+00
    0.73926E-07         0.22615E-09         0.00000E+00
    0.73918E-07         0.22311E-09         0.00000E+00
    0.73910E-07         0.21943E-09         0.00000E+00
    0.73903E-07         0.21514E-09         0.00000E+00
    0.73896E-07         0.21025E-09         0.00000E+00
    0.73889E-07         0.20476E-09         0.00000E+00
    0.73882E-07         0.19868E-09         0.00000E+00
    0.73876E-07         0.19201E-09         0.00000E+00
    0.73870E-07         0.18477E-09         0.00000E+00
    0.73864E-07         0.17696E-09         0.00000E+00
    0.73858E-07         0.16857E-09         0.00000E+00
    0.73852E-07         0.15961E-09         0.00000E+00
    0.73847E-07         0.15009E-09         0.00000E+00
    0.73842E-07         0.13999E-09         0.00000E+00
    0.73838E-07         0.12933E-09         0.00000E+00
    0.73834E-07         0.11810E-09         0.00000E+00
    0.73830E-07         0.10630E-09         0.00000E+00
    0.73826E-07         0.93932E-10         0.00000E+00
    0.73823E-07         0.81002E-10         0.00000E+00
    0.73821E-07         0.67512E-10         0.00000E+00
    0.73819E-07         0.53464E-10         0.00000E+00
    0.73817E-07         0.38867E-10         0.00000E+00
    0.73816E-07         0.23727E-10         0.00000E+00
    0.73815E-07         0.80546E-11         0.00000E+00
    0.74141E-07         0.13888E-10         0.00000E+00
    0.74140E-07         0.40541E-10         0.00000E+00
    0.74138E-07         0.65500E-10         0.00000E+00
    0.74135E-07         0.88770E-10         0.00000E+00
    0.74131E-07         0.11037E-09         0.00000E+00
    0.74127E-07         0.13032E-09         0.00000E+00
    0.74122E-07         0.14865E-09         0.00000E+00
    0.74117E-07         0.16542E-09         0.00000E+00
    0.74111E-07         0.18066E-09         0.00000E+00
    0.74106E-07         0.19444E-09         0.00000E+00
    0.74100E-07         0.20679E-09         0.00000E+00
    0.74094E-07         0.21779E-09         0.00000E+00
    0.74088E-07         0.22749E-09         0.00000E+00
    0.74082E-07         0.23595E-09         0.00000E+00
    0.74076E-07         0.24322E-09         0.00000E+00
    0.74069E-07         0.24938E-09         0.00000E+00
    0.74064E-07         0.25447E-09         0.00000E+00
    0.74058E-07         0.25854E-09         0.00000E+00
    0.74052E-07         0.26165E-09         0.00000E+00
    0.74046E-07         0.26385E-09         0.00000E+00
    0.74041E-07         0.26517E-09         0.00000E+00
    0.74036E-07         0.26566E-09         0.00000E+00
    0.74031E-07         0.26536E-09         0.00000E+00
    0.74026E-07         0.26430E-09         0.00000E+00
    0.74021E-07         0.26251E-09         0.00000E+00
    0.74016E-07         0.26002E-09         0.00000E+00
    0.74012E-07         0.25685E-09         0.00000E+00
    0.74007E-07         0.25302E-09         0.00000E+00
    0.74003E-07         0.24854E-09         0.00000E+00
    0.73999E-07         0.24344E-09         0.00000E+00
    0.73995E-07         0.23772E-09         0.00000E+00
    0.73991E-07         0.23139E-09         0.00000E+00
    0.73987E-07         0.22445E-09         0.00000E+00
    0.73983E-07         0.21691E-09         0.00000E+00
    0.73980E-07         0.20876E-09         0.00000E+00
    0.73977E-07         0.20000E-09         0.00000E+00
    0.73973E-07         0.19064E-09         0.00000E+00
    0.73970E-07         0.18065E-09         0.00000E+00
    0.73967E-07         0.17004E-09         0.00000E+00
    0.73964E-07         0.15879E-09         0.00000E+00
    0.73961E-07         0.14690E-09         0.00000E+00
    0.73959E-07         0.13435E-09         0.00000E+00
    0.73956E-07         0.12113E-09         0.00000E+00
    0.73954E-07         0.10724E-09         0.00000E+00
    0.73952E-07         0.92664E-10         0.00000E+00
    0.73951E-07         0.77395E-10         0.00000E+00
    0.73949E-07         0.61427E-10         0.00000E+00
    0.73948E-07         0.44759E-10         0.00000E+00
    0.73947E-07         0.27389E-10         0.00000E+00
    0.73947E-07         0.93204E-11         0.00000E+00
    0.74044E-07         0.16463E-10         0.00000E+00
    0.74043E-07         0.47708E-10         0.00000E+00
    0.74041E-07         0.76497E-10         0.00000E+00
    0.74039E-07         0.10290E-09         0.00000E+00
    0.74037E-07         0.12700E-09         0.00000E+00
    0.74034E-07         0.14886E-09         0.00000E+00
    0.74031E-07         0.16859E-09         0.00000E+00
    0.74028E-07         0.18629E-09         0.00000E+00
    0.74025E-07         0.20205E-09         0.00000E+00
    0.74022E-07         0.21601E-09         0.00000E+00
    0.74020E-07         0.22826E-09         0.00000E+00
    0.74017E-07         0.23893E-09         0.00000E+00
    0.74015E-07         0.24810E-09         0.00000E+00
    0.74013E-07         0.25590E-09         0.00000E+00
    0.74011E-07         0.26241E-09         0.00000E+00
    0.74010E-07         0.26772E-09         0.00000E+00
    0.74008E-07         0.27192E-09         0.00000E+00
    0.74007E-07         0.27508E-09         0.00000E+00
    0.74007E-07         0.27728E-09         0.00000E+00
    0.74006E-07         0.27857E-09         0.00000E+00
    0.74006E-07         0.27902E-09         0.00000E+00
    0.74006E-07         0.27868E-09         0.00000E+00
    0.74006E-07         0.27759E-09         0.00000E+00
    0.74006E-07         0.27579E-09         0.00000E+00
    0.74007E-07         0.27333E-09         0.00000E+00
    0.74007E-07         0.27022E-09         0.00000E+00
    0.74008E-07         0.26650E-09         0.00000E+00
    0.74008E-07         0.26218E-09         0.00000E+00
    0.74009E-07         0.25729E-09         0.00000E+00
    0.74010E-07         0.25183E-09         0.00000E+00
    0.74010E-07         0.24581E-09         0.00000E+00
    0.74011E-07         0.23923E-09         0.00000E+00
    0.74012E-07         0.23210E-09         0.00000E+00
    0.74012E-07         0.22441E-09         0.00000E+00
    0.74013E-07         0.21615E-09         0.00000E+00
    0.74013E-07         0.20732E-09         0.00000E+00
    0.74014E-07         0.19788E-09         0.00000E+00
    0.74014E-07         0.18784E-09         0.00000E+00
    0.74014E-07         0.17716E-09         0.00000E+00
    0.74014E-07         0.16582E-09         0.00000E+00
    0.74014E-07         0.15380E-09         0.00000E+00
    0.74014E-07         0.14106E-09         0.00000E+00
    0.74014E-07         0.12758E-09         0.00000E+00
    0.74014E-07         0.11332E-09         0.00000E+00
    0.74013E-07         0.98259E-10         0.00000E+00
    0.74013E-07         0.82369E-10         0.00000E+00
    0.74012E-07         0.65625E-10         0.00000E+00
    0.74012E-07         0.48010E-10         0.00000E+00
    0.74012E-07         0.29505E-10         0.00000E+00
    0.74012E-07         0.10094E-10         0.00000E+00
    0.73807E-07         0.18021E-10         0.00000E+00
    0.73807E-07         0.51844E-10         0.00000E+00
    0.73807E-07         0.82329E-10         0.00000E+00
    0.73806E-07         0.10957E-09         0.00000E+00
    0.73806E-07         0.13373E-09         0.00000E+00
    0.73806E-07         0.15502E-09         0.00000E+00
    0.73807E-07         0.17368E-09         0.00000E+00
    0.73808E-07         0.18992E-09         0.00000E+00
    0.73810E-07         0.20397E-09         0.00000E+00
    0.73813E-07         0.21603E-09         0.00000E+00
    0.73816E-07         0.22630E-09         0.00000E+00
    0.73819E-07         0.23494E-09         0.00000E+00
    0.73824E-07         0.24212E-09         0.00000E+00
    0.73828E-07         0.24797E-09         0.00000E+00
    0.73834E-07         0.25263E-09         0.00000E+00
    0.73839E-07         0.25620E-09         0.00000E+00
    0.73846E-07         0.25879E-09         0.00000E+00
    0.73852E-07         0.26048E-09         0.00000E+00
    0.73859E-07         0.26135E-09         0.00000E+00
    0.73866E-07         0.26147E-09         0.00000E+00
    0.73873E-07         0.26091E-09         0.00000E+00
    0.73881E-07         0.25971E-09         0.00000E+00
    0.73888E-07         0.25793E-09         0.00000E+00
    0.73896E-07         0.25559E-09         0.00000E+00
    0.73904E-07         0.25273E-09         0.00000E+00
    0.73912E-07         0.24939E-09         0.00000E+00
    0.73920E-07         0.24558E-09         0.00000E+00
    0.73927E-07         0.24133E-09         0.00000E+00
    0.73935E-07         0.23663E-09         0.00000E+00
    0.73942E-07         0.23151E-09         0.00000E+00
    0.73950E-07         0.22596E-09         0.00000E+00
    0.73957E-07         0.21999E-09         0.00000E+00
    0.73964E-07         0.21359E-09         0.00000E+00
    0.73970E-07         0.20675E-09         0.00000E+00
    0.73977E-07         0.19945E-09         0.00000E+00
    0.73983E-07         0.19168E-09         0.00000E+00
    0.73988E-07         0.18341E-09         0.00000E+00
    0.73994E-07         0.17462E-09         0.00000E+00
    0.73998E-07         0.16526E-09         0.00000E+00
    0.74003E-07         0.15531E-09         0.00000E+00
    0.74007E-07         0.14470E-09         0.00000E+00
    0.74010E-07         0.13339E-09         0.00000E+00
    0.74013E-07         0.12132E-09         0.00000E+00
    0.74016E-07         0.10843E-09         0.00000E+00
    0.74018E-07         0.94649E-10         0.00000E+00
    0.74019E-07         0.79902E-10         0.00000E+00
    0.74021E-07         0.64121E-10         0.00000E+00
    0.74021E-07         0.47245E-10         0.00000E+00
    0.74022E-07         0.29228E-10         0.00000E+00
    0.74022E-07         0.10055E-10         0.00000E+00
    0.73415E-07         0.18031E-10         0.00000E+00
    0.73416E-07         0.50250E-10         0.00000E+00
    0.73418E-07         0.77397E-10         0.00000E+00
    0.73421E-07         0.10025E-09         0.00000E+00
    0.73426E-07         0.11948E-09         0.00000E+00
    0.73432E-07         0.13562E-09         0.00000E+00
    0.73440E-07         0.14914E-09         0.00000E+00
    0.73450E-07         0.16042E-09         0.00000E+00
    0.73461E-07         0.16978E-09         0.00000E+00
    0.73473E-07         0.17747E-09         0.00000E+00
    0.73486E-07         0.18374E-09         0.00000E+00
    0.73500E-07         0.18876E-09         0.00000E+00
    0.73515E-07         0.19269E-09         0.00000E+00
    0.73531E-07         0.19568E-09         0.00000E+00
    0.73547E-07         0.19783E-09         0.00000E+00
    0.73563E-07         0.19924E-09         0.00000E+00
    0.73580E-07         0.20001E-09         0.00000E+00
    0.73598E-07         0.20019E-09         0.00000E+00
    0.73615E-07         0.19986E-09         0.00000E+00
    0.73633E-07         0.19907E-09         0.00000E+00
    0.73651E-07         0.19785E-09         0.00000E+00
    0.73668E-07         0.19625E-09         0.00000E+00
    0.73686E-07         0.19431E-09         0.00000E+00
    0.73704E-07         0.19205E-09         0.00000E+00
    0.73721E-07         0.18948E-09         0.00000E+00
    0.73739E-07         0.18664E-09         0.00000E+00
    0.73756E-07         0.18354E-09         0.00000E+00
    0.73773E-07         0.18018E-09         0.00000E+00
    0.73789E-07         0.17657E-09         0.00000E+00
    0.73806E-07         0.17272E-09         0.00000E+00
    0.73822E-07         0.16863E-09         0.00000E+00
    0.73837E-07         0.16429E-09         0.00000E+00
    0.73852E-07         0.15971E-09         0.00000E+00
    0.73867E-07         0.15486E-09         0.00000E+00
    0.73881E-07         0.14973E-09         0.00000E+00
    0.73894E-07         0.14432E-09         0.00000E+00
    0.73907E-07         0.13858E-09         0.00000E+00
    0.73919E-07         0.13250E-09         0.00000E+00
    0.73931E-07         0.12604E-09         0.00000E+00
    0.73941E-07         0.11916E-09         0.00000E+00
    0.73951E-07         0.11181E-09         0.00000E+00
    0.73960E-07         0.10393E-09         0.00000E+00
    0.73968E-07         0.95443E-10         0.00000E+00
    0.73975E-07         0.86265E-10         0.00000E+00
    0.73981E-07         0.76292E-10         0.00000E+00
    0.73986E-07         0.65397E-10         0.00000E+00
    0.73990E-07         0.53427E-10         0.00000E+00
    0.73993E-07         0.40201E-10         0.00000E+00
    0.73994E-07         0.25497E-10         0.00000E+00
    0.73995E-07         0.90563E-11         0.00000E+00
    0.72828E-07         0.88159E-11         0.00000E+00
    0.72834E-07         0.23816E-10         0.00000E+00
    0.72846E-07         0.35642E-10         0.00000E+00
    0.72863E-07         0.45046E-10         0.00000E+00
    0.72882E-07         0.52572E-10         0.00000E+00
    0.72904E-07         0.58615E-10         0.00000E+00
    0.72929E-07         0.63471E-10         0.00000E+00
    0.72955E-07         0.67364E-10         0.00000E+00
    0.72982E-07         0.70467E-10         0.00000E+00
    0.73011E-07         0.72915E-10         0.00000E+00
    0.73041E-07         0.74815E-10         0.00000E+00
    0.73071E-07         0.76253E-10         0.00000E+00
    0.73102E-07         0.77298E-10         0.00000E+00
    0.73133E-07         0.78007E-10         0.00000E+00
    0.73164E-07         0.78428E-10         0.00000E+00
    0.73195E-07         0.78599E-10         0.00000E+00
    0.73227E-07         0.78553E-10         0.00000E+00
    0.73258E-07         0.78317E-10         0.00000E+00
    0.73289E-07         0.77913E-10         0.00000E+00
    0.73320E-07         0.77362E-10         0.00000E+00
    0.73351E-07         0.76680E-10         0.00000E+00
    0.73382E-07         0.75879E-10         0.00000E+00
    0.73412E-07         0.74972E-10         0.00000E+00
    0.73442E-07         0.73968E-10         0.00000E+00
    0.73471E-07         0.72874E-10         0.00000E+00
    0.73500E-07         0.71697E-10         0.00000E+00
    0.73528E-07         0.70441E-10         0.00000E+00
    0.73556E-07         0.69110E-10         0.00000E+00
    0.73584E-07         0.67706E-10         0.00000E+00
    0.73610E-07         0.66230E-10         0.00000E+00
    0.73637E-07         0.64682E-10         0.00000E+00
    0.73662E-07         0.63060E-10         0.00000E+00
    0.73687E-07         0.61361E-10         0.00000E+00
    0.73711E-07         0.59582E-10         0.00000E+00
    0.73735E-07         0.57715E-10         0.00000E+00
    0.73757E-07         0.55755E-10         0.00000E+00
    0.73779E-07         0.53692E-10         0.00000E+00
    0.73800E-07         0.51514E-10         0.00000E+00
    0.73821E-07         0.49206E-10         0.00000E+00
    0.73840E-07         0.46751E-10         0.00000E+00
    0.73858E-07         0.44127E-10         0.00000E+00
    0.73875E-07         0.41305E-10         0.00000E+00
    0.73891E-07         0.38250E-10         0.00000E+00
    0.73906E-07         0.34919E-10         0.00000E+00
    0.73919E-07         0.31254E-10         0.00000E+00
    0.73930E-07         0.27180E-10         0.00000E+00
    0.73940E-07         0.22599E-10         0.00000E+00
    0.73948E-07         0.17374E-10         0.00000E+00
    0.73954E-07         0.11319E-10         0.00000E+00
    0.73957E-07         0.41688E-11         0.00000E+00
POINT_DATA       5151
VECTORS vDarcyNodal double 
    0.51544E-07         0.00000E+00         0.00000E+00
    0.51546E-07         0.00000E+00         0.00000E+00
    0.51551E-07         0.00000E+00         0.00000E+00
    0.51559E-07         0.00000E+00         0.00000E+00
    0.51569E-07         0.00000E+00         0.00000E+00
    0.51580E-07         0.00000E+00         0.00000E+00
    0.51593E-07         0.00000E+00         0.00000E+00
    0.51606E-07         0.00000E+00         0.00000E+00
    0.51621E-07         0.00000E+00         0.00000E+00
    0.51636E-07         0.00000E+00         0.00000E+00
    0.51651E-07         0.00000E+00         0.00000E+00
    0.51667E-07         0.00000E+00         0.00000E+00
    0.51684E-07         0.00000E+00         0.00000E+00
    0.51700E-07         0.00000E+00         0.00000E+00
    0.51717E-07         0.00000E+00         0.00000E+00
    0.51733E-07         0.00000E+00         0.00000E+00
    0.51750E-07         0.00000E+00         0.00000E+00
    0.51766E-07         0.00000E+00         0.00000E+00
    0.51783E-07         0.00000E+00         0.00000E+00
    0.51799E-07         0.00000E+00         0.00000E+00
    0.51815E-07         0.00000E+00         0.00000E+00
    0.51831E-07         0.00000E+00         0.00000E+00
    0.51847E-07         0.00000E+00         0.00000E+00
    0.51862E-07         0.00000E+00         0.00000E+00
    0.51877E-07         0.00000E+00         0.00000E+00
    0.51892E-07         0.00000E+00         0.00000E+00
    0.51907E-07         0.00000E+00         0.00000E+00
    0.51922E-07         0.00000E+00         0.00000E+00
    0.51936E-07         0.00000E+00         0.00000E+00
    0.51950E-07         0.00000E+00         0.00000E+00
    0.51963E-07         0.00000E+00         0.00000E+00
    0.51976E-07         0.00000E+00         0.00000E+00
    0.51989E-07         0.00000E+00         0.00000E+00
    0.52002E-07         0.00000E+00         0.00000E+00
    0.52014E-07         0.00000E+00         0.00000E+00
    0.52025E-07         0.00000E+00         0.00000E+00
    0.52037E-07         0.00000E+00         0.00000E+00
    0.52047E-07         0.00000E+00         0.00000E+00
    0.52058E-07         0.00000E+00         0.00000E+00
    0.52068E-07         0.00000E+00         0.00000E+00
    0.52077E-07         0.00000E+00         0.00000E+00
    0.52086E-07         0.00000E+00         0.00000E+00
    0.52094E-07         0.00000E+00         0.00000E+00
    0.52102E-07         0.00000E+00         0.00000E+00
    0.52109E-07         0.00000E+00         0.00000E+00
    0.52115E-07         0.00000E+00         0.00000E+00
    0.52121E-07         0.00000E+00         0.00000E+00
    0.52125E-07         0.00000E+00         0.00000E+00
    0.52129E-07         0.00000E+00         0.00000E+00
    0.52131E-07         0.00000E+00         0.00000E+00
    0.52132E-07         0.00000E+00         0.00000E+00
    0.51694E-07        -0.96051E-11         0.00000E+00
    0.51695E-07        -0.17755E-10         0.00000E+00
    0.51698E-07        -0.32297E-10         0.00000E+00
    0.51703E-07        -0.43744E-10         0.00000E+00
    0.51709E-07        -0.52812E-10         0.00000E+00
    0.51716E-07        -0.60023E-10         0.00000E+00
    0.51724E-07        -0.65760E-10         0.00000E+00
    0.51733E-07        -0.70311E-10         0.00000E+00
    0.51743E-07        -0.73897E-10         0.00000E+00
    0.51753E-07        -0.76689E-10         0.00000E+00
    0.51765E-07        -0.78823E-10         0.00000E+00
    0.51776E-07        -0.80406E-10         0.00000E+00
    0.51788E-07        -0.81525E-10         0.00000E+00
    0.51800E-07        -0.82251E-10         0.00000E+00
    0.51812E-07        -0.82642E-10         0.00000E+00
    0.51825E-07        -0.82746E-10         0.00000E+00
    0.51837E-07        -0.82604E-10         0.00000E+00
    0.51850E-07        -0.82249E-10         0.00000E+00
    0.51863E-07        -0.81709E-10         0.00000E+00
    0.51875E-07        -0.81009E-10         0.00000E+00
    0.51888E-07        -0.80168E-10         0.00000E+00
    0.51900E-07        -0.79204E-10         0.00000E+00
    0.51912E-07        -0.78130E-10         0.00000E+00
    0.51925E-07        -0.76959E-10         0.00000E+00
    0.51937E-07        -0.75702E-10         0.00000E+00
    0.51949E-07        -0.74364E-10         0.00000E+00
    0.51960E-07        -0.72955E-10         0.00000E+00
    0.51972E-07        -0.71477E-10         0.00000E+00
    0.51983E-07        -0.69936E-10         0.00000E+00
    0.51994E-07        -0.68332E-10         0.00000E+00
    0.52005E-07        -0.66667E-10         0.00000E+00
    0.52015E-07        -0.64940E-10         0.00000E+00
    0.52025E-07        -0.63151E-10         0.00000E+00
    0.52035E-07        -0.61294E-10         0.00000E+00
    0.52045E-07        -0.59366E-10         0.00000E+00
    0.52054E-07        -0.57360E-10         0.00000E+00
    0.52063E-07        -0.55268E-10         0.00000E+00
    0.52071E-07        -0.53079E-10         0.00000E+00
    0.52079E-07        -0.50779E-10         0.00000E+00
    0.52087E-07        -0.48352E-10         0.00000E+00
    0.52094E-07        -0.45777E-10         0.00000E+00
    0.52101E-07        -0.43028E-10         0.00000E+00
    0.52107E-07        -0.40073E-10         0.00000E+00
    0.52113E-07        -0.36869E-10         0.00000E+00
    0.52118E-07        -0.33363E-10         0.00000E+00
    0.52123E-07        -0.29487E-10         0.00000E+00
    0.52126E-07        -0.25148E-10         0.00000E+00
    0.52129E-07        -0.20223E-10         0.00000E+00
    0.52132E-07        -0.14542E-10         0.00000E+00
    0.52133E-07        -0.78646E-11         0.00000E+00
    0.52134E-07        -0.42419E-11         0.00000E+00
    0.51941E-07        -0.99272E-11         0.00000E+00
    0.51941E-07        -0.19178E-10         0.00000E+00
    0.51941E-07        -0.36627E-10         0.00000E+00
    0.51942E-07        -0.51987E-10         0.00000E+00
    0.51942E-07        -0.65342E-10         0.00000E+00
    0.51944E-07        -0.76845E-10         0.00000E+00
    0.51946E-07        -0.86676E-10         0.00000E+00
    0.51948E-07        -0.95012E-10         0.00000E+00
    0.51951E-07        -0.10203E-09         0.00000E+00
    0.51954E-07        -0.10787E-09         0.00000E+00
    0.51958E-07        -0.11269E-09         0.00000E+00
    0.51962E-07        -0.11660E-09         0.00000E+00
    0.51967E-07        -0.11971E-09         0.00000E+00
    0.51972E-07        -0.12212E-09         0.00000E+00
    0.51977E-07        -0.12391E-09         0.00000E+00
    0.51982E-07        -0.12515E-09         0.00000E+00
    0.51988E-07        -0.12591E-09         0.00000E+00
    0.51994E-07        -0.12623E-09         0.00000E+00
    0.52000E-07        -0.12617E-09         0.00000E+00
    0.52006E-07        -0.12577E-09         0.00000E+00
    0.52012E-07        -0.12506E-09         0.00000E+00
    0.52018E-07        -0.12408E-09         0.00000E+00
    0.52024E-07        -0.12284E-09         0.00000E+00
    0.52030E-07        -0.12138E-09         0.00000E+00
    0.52037E-07        -0.11971E-09         0.00000E+00
    0.52043E-07        -0.11785E-09         0.00000E+00
    0.52049E-07        -0.11581E-09         0.00000E+00
    0.52055E-07        -0.11360E-09         0.00000E+00
    0.52061E-07        -0.11123E-09         0.00000E+00
    0.52066E-07        -0.10870E-09         0.00000E+00
    0.52072E-07        -0.10602E-09         0.00000E+00
    0.52078E-07        -0.10319E-09         0.00000E+00
    0.52083E-07        -0.10020E-09         0.00000E+00
    0.52088E-07        -0.97059E-10         0.00000E+00
    0.52093E-07        -0.93749E-10         0.00000E+00
    0.52098E-07        -0.90266E-10         0.00000E+00
    0.52102E-07        -0.86596E-10         0.00000E+00
    0.52106E-07        -0.82724E-10         0.00000E+00
    0.52110E-07        -0.78631E-10         0.00000E+00
    0.52114E-07        -0.74295E-10         0.00000E+00
    0.52117E-07        -0.69689E-10         0.00000E+00
    0.52120E-07        -0.64782E-10         0.00000E+00
    0.52123E-07        -0.59538E-10         0.00000E+00
    0.52126E-07        -0.53914E-10         0.00000E+00
    0.52128E-07        -0.47864E-10         0.00000E+00
    0.52129E-07        -0.41336E-10         0.00000E+00
    0.52131E-07        -0.34276E-10         0.00000E+00
    0.52131E-07        -0.26633E-10         0.00000E+00
    0.52132E-07        -0.18364E-10         0.00000E+00
    0.52132E-07        -0.94577E-11         0.00000E+00
    0.52132E-07        -0.48462E-11         0.00000E+00
    0.52091E-07        -0.93388E-11         0.00000E+00
    0.52091E-07        -0.18119E-10         0.00000E+00
    0.52090E-07        -0.34882E-10         0.00000E+00
    0.52090E-07        -0.50086E-10         0.00000E+00
    0.52089E-07        -0.63801E-10         0.00000E+00
    0.52088E-07        -0.76090E-10         0.00000E+00
    0.52087E-07        -0.87027E-10         0.00000E+00
    0.52086E-07        -0.96687E-10         0.00000E+00
    0.52085E-07        -0.10515E-09         0.00000E+00
    0.52084E-07        -0.11251E-09         0.00000E+00
    0.52084E-07        -0.11884E-09         0.00000E+00
    0.52084E-07        -0.12423E-09         0.00000E+00
    0.52084E-07        -0.12876E-09         0.00000E+00
    0.52084E-07        -0.13249E-09         0.00000E+00
    0.52084E-07        -0.13550E-09         0.00000E+00
    0.52085E-07        -0.13786E-09         0.00000E+00
    0.52085E-07        -0.13961E-09         0.00000E+00
    0.52086E-07        -0.14081E-09         0.00000E+00
    0.52087E-07        -0.14150E-09         0.00000E+00
    0.52088E-07        -0.14174E-09         0.00000E+00
    0.52089E-07        -0.14156E-09         0.00000E+00
    0.52090E-07        -0.14100E-09         0.00000E+00
    0.52092E-07        -0.14007E-09         0.00000E+00
    0.52093E-07        -0.13882E-09         0.00000E+00
    0.52095E-07        -0.13726E-09         0.00000E+00
    0.52096E-07        -0.13541E-09         0.00000E+00
    0.52098E-07        -0.13329E-09         0.00000E+00
    0.52099E-07        -0.13091E-09         0.00000E+00
    0.52101E-07        -0.12829E-09         0.00000E+00
    0.52102E-07        -0.12542E-09         0.00000E+00
    0.52104E-07        -0.12232E-09         0.00000E+00
    0.52105E-07        -0.11900E-09         0.00000E+00
    0.52107E-07        -0.11544E-09         0.00000E+00
    0.52108E-07        -0.11165E-09         0.00000E+00
    0.52109E-07        -0.10763E-09         0.00000E+00
    0.52110E-07        -0.10336E-09         0.00000E+00
    0.52111E-07        -0.98845E-10         0.00000E+00
    0.52112E-07        -0.94064E-10         0.00000E+00
    0.52113E-07        -0.89007E-10         0.00000E+00
    0.52114E-07        -0.83657E-10         0.00000E+00
    0.52115E-07        -0.77997E-10         0.00000E+00
    0.52115E-07        -0.72008E-10         0.00000E+00
    0.52116E-07        -0.65668E-10         0.00000E+00
    0.52116E-07        -0.58955E-10         0.00000E+00
    0.52116E-07        -0.51850E-10         0.00000E+00
    0.52116E-07        -0.44330E-10         0.00000E+00
    0.52116E-07        -0.36378E-10         0.00000E+00
    0.52116E-07        -0.27980E-10         0.00000E+00
    0.52116E-07        -0.19122E-10         0.00000E+00
    0.52116E-07        -0.97893E-11         0.00000E+00
    0.52116E-07        -0.50023E-11         0.00000E+00
    0.52159E-07        -0.79237E-11         0.00000E+00
    0.52159E-07        -0.15478E-10         0.00000E+00
    0.52158E-07        -0.30031E-10         0.00000E+00
    0.52157E-07        -0.43480E-10         0.00000E+00
    0.52155E-07        -0.55845E-10         0.00000E+00
    0.52153E-07        -0.67153E-10         0.00000E+00
    0.52151E-07        -0.77437E-10         0.00000E+00
    0.52148E-07        -0.86733E-10         0.00000E+00
    0.52145E-07        -0.95081E-10         0.00000E+00
    0.52143E-07        -0.10252E-09         0.00000E+00
    0.52140E-07        -0.10910E-09         0.00000E+00
    0.52137E-07        -0.11487E-09         0.00000E+00
    0.52134E-07        -0.11986E-09         0.00000E+00
    0.52131E-07        -0.12413E-09         0.00000E+00
    0.52129E-07        -0.12773E-09         0.00000E+00
    0.52126E-07        -0.13068E-09         0.00000E+00
    0.52123E-07        -0.13304E-09         0.00000E+00
    0.52121E-07        -0.13484E-09         0.00000E+00
    0.52118E-07        -0.13612E-09         0.00000E+00
    0.52116E-07        -0.13691E-09         0.00000E+00
    0.52113E-07        -0.13725E-09         0.00000E+00
    0.52111E-07        -0.13717E-09         0.00000E+00
    0.52109E-07        -0.13668E-09         0.00000E+00
    0.52107E-07        -0.13582E-09         0.00000E+00
    0.52105E-07        -0.13461E-09         0.00000E+00
    0.52103E-07        -0.13306E-09         0.00000E+00
    0.52101E-07        -0.13119E-09         0.00000E+00
    0.52099E-07        -0.12902E-09         0.00000E+00
    0.52098E-07        -0.12655E-09         0.00000E+00
    0.52096E-07        -0.12380E-09         0.00000E+00
    0.52094E-07        -0.12077E-09         0.00000E+00
    0.52093E-07        -0.11747E-09         0.00000E+00
    0.52091E-07        -0.11390E-09         0.00000E+00
    0.52090E-07        -0.11007E-09         0.00000E+00
    0.52088E-07        -0.10597E-09         0.00000E+00
    0.52087E-07        -0.10160E-09         0.00000E+00
    0.52086E-07        -0.96964E-10         0.00000E+00
    0.52084E-07        -0.92051E-10         0.00000E+00
    0.52083E-07        -0.86856E-10         0.00000E+00
    0.52082E-07        -0.81373E-10         0.00000E+00
    0.52080E-07        -0.75595E-10         0.00000E+00
    0.52079E-07        -0.69513E-10         0.00000E+00
    0.52078E-07        -0.63120E-10         0.00000E+00
    0.52077E-07        -0.56407E-10         0.00000E+00
    0.52076E-07        -0.49367E-10         0.00000E+00
    0.52075E-07        -0.41993E-10         0.00000E+00
    0.52074E-07        -0.34280E-10         0.00000E+00
    0.52074E-07        -0.26223E-10         0.00000E+00
    0.52073E-07        -0.17818E-10         0.00000E+00
    0.52073E-07        -0.90658E-11         0.00000E+00
    0.52073E-07        -0.46030E-11         0.00000E+00
    0.52153E-07        -0.61928E-11         0.00000E+00
    0.52153E-07        -0.12146E-10         0.00000E+00
    0.52152E-07        -0.23692E-10         0.00000E+00
    0.52150E-07        -0.34514E-10         0.00000E+00
    0.52148E-07        -0.44611E-10         0.00000E+00
    0.52145E-07        -0.53984E-10         0.00000E+00
    0.52142E-07        -0.62641E-10         0.00000E+00
    0.52139E-07        -0.70593E-10         0.00000E+00
    0.52135E-07        -0.77854E-10         0.00000E+00
    0.52131E-07        -0.84441E-10         0.00000E+00
    0.52127E-07        -0.90374E-10         0.00000E+00
    0.52123E-07        -0.95674E-10         0.00000E+00
    0.52118E-07        -0.10036E-09         0.00000E+00
    0.52114E-07        -0.10447E-09         0.00000E+00
    0.52109E-07        -0.10801E-09         0.00000E+00
    0.52105E-07        -0.11101E-09         0.00000E+00
    0.52100E-07        -0.11351E-09         0.00000E+00
    0.52095E-07        -0.11551E-09         0.00000E+00
    0.52091E-07        -0.11705E-09         0.00000E+00
    0.52086E-07        -0.11815E-09         0.00000E+00
    0.52081E-07        -0.11883E-09         0.00000E+00
    0.52077E-07        -0.11911E-09         0.00000E+00
    0.52072E-07        -0.11901E-09         0.00000E+00
    0.52068E-07        -0.11854E-09         0.00000E+00
    0.52064E-07        -0.11773E-09         0.00000E+00
    0.52059E-07        -0.11659E-09         0.00000E+00
    0.52055E-07        -0.11514E-09         0.00000E+00
    0.52051E-07        -0.11337E-09         0.00000E+00
    0.52047E-07        -0.11132E-09         0.00000E+00
    0.52043E-07        -0.10898E-09         0.00000E+00
    0.52039E-07        -0.10636E-09         0.00000E+00
    0.52036E-07        -0.10347E-09         0.00000E+00
    0.52032E-07        -0.10032E-09         0.00000E+00
    0.52029E-07        -0.96906E-10         0.00000E+00
    0.52025E-07        -0.93236E-10         0.00000E+00
    0.52022E-07        -0.89310E-10         0.00000E+00
    0.52019E-07        -0.85131E-10         0.00000E+00
    0.52016E-07        -0.80698E-10         0.00000E+00
    0.52013E-07        -0.76013E-10         0.00000E+00
    0.52011E-07        -0.71074E-10         0.00000E+00
    0.52008E-07        -0.65881E-10         0.00000E+00
    0.52006E-07        -0.60433E-10         0.00000E+00
    0.52004E-07        -0.54730E-10         0.00000E+00
    0.52002E-07        -0.48771E-10         0.00000E+00
    0.52000E-07        -0.42555E-10         0.00000E+00
    0.51998E-07        -0.36084E-10         0.00000E+00
    0.51997E-07        -0.29359E-10         0.00000E+00
    0.51996E-07        -0.22382E-10         0.00000E+00
    0.51995E-07        -0.15157E-10         0.00000E+00
    0.51995E-07        -0.76883E-11         0.00000E+00
    0.51995E-07        -0.38936E-11         0.00000E+00
    0.52078E-07        -0.43173E-11         0.00000E+00
    0.52078E-07        -0.85085E-11         0.00000E+00
    0.52076E-07        -0.16694E-10         0.00000E+00
    0.52075E-07        -0.24476E-10         0.00000E+00
    0.52072E-07        -0.31839E-10         0.00000E+00
    0.52069E-07        -0.38773E-10         0.00000E+00
    0.52066E-07        -0.45267E-10         0.00000E+00
    0.52062E-07        -0.51318E-10         0.00000E+00
    0.52058E-07        -0.56924E-10         0.00000E+00
    0.52054E-07        -0.62085E-10         0.00000E+00
    0.52049E-07        -0.66804E-10         0.00000E+00
    0.52044E-07        -0.71087E-10         0.00000E+00
    0.52038E-07        -0.74941E-10         0.00000E+00
    0.52033E-07        -0.78374E-10         0.00000E+00
    0.52027E-07        -0.81397E-10         0.00000E+00
    0.52022E-07        -0.84019E-10         0.00000E+00
    0.52016E-07        -0.86253E-10         0.00000E+00
    0.52010E-07        -0.88111E-10         0.00000E+00
    0.52004E-07        -0.89604E-10         0.00000E+00
    0.51998E-07        -0.90746E-10         0.00000E+00
    0.51992E-07        -0.91548E-10         0.00000E+00
    0.51986E-07        -0.92024E-10         0.00000E+00
    0.51980E-07        -0.92184E-10         0.00000E+00
    0.51974E-07        -0.92040E-10         0.00000E+00
    0.51969E-07        -0.91604E-10         0.00000E+00
    0.51963E-07        -0.90885E-10         0.00000E+00
    0.51957E-07        -0.89894E-10         0.00000E+00
    0.51952E-07        -0.88639E-10         0.00000E+00
    0.51946E-07        -0.87129E-10         0.00000E+00
    0.51941E-07        -0.85372E-10         0.00000E+00
    0.51936E-07        -0.83375E-10         0.00000E+00
    0.51931E-07        -0.81143E-10         0.00000E+00
    0.51926E-07        -0.78684E-10         0.00000E+00
    0.51921E-07        -0.76001E-10         0.00000E+00
    0.51916E-07        -0.73100E-10         0.00000E+00
    0.51912E-07        -0.69985E-10         0.00000E+00
    0.51908E-07        -0.66661E-10         0.00000E+00
    0.51904E-07        -0.63129E-10         0.00000E+00
    0.51900E-07        -0.59394E-10         0.00000E+00
    0.51897E-07        -0.55458E-10         0.00000E+00
    0.51893E-07        -0.51326E-10         0.00000E+00
    0.51890E-07        -0.46999E-10         0.00000E+00
    0.51887E-07        -0.42481E-10         0.00000E+00
    0.51885E-07        -0.37776E-10         0.00000E+00
    0.51882E-07        -0.32888E-10         0.00000E+00
    0.51881E-07        -0.27820E-10         0.00000E+00
    0.51879E-07        -0.22578E-10         0.00000E+00
    0.51878E-07        -0.17168E-10         0.00000E+00
    0.51877E-07        -0.11594E-10         0.00000E+00
    0.51876E-07        -0.58653E-11         0.00000E+00
    0.51876E-07        -0.29627E-11         0.00000E+00
    0.51937E-07        -0.24235E-11         0.00000E+00
    0.51937E-07        -0.48149E-11         0.00000E+00
    0.51936E-07        -0.95393E-11         0.00000E+00
    0.51934E-07        -0.14134E-10         0.00000E+00
    0.51932E-07        -0.18575E-10         0.00000E+00
    0.51929E-07        -0.22841E-10         0.00000E+00
    0.51925E-07        -0.26915E-10         0.00000E+00
    0.51922E-07        -0.30782E-10         0.00000E+00
    0.51917E-07        -0.34429E-10         0.00000E+00
    0.51913E-07        -0.37846E-10         0.00000E+00
    0.51907E-07        -0.41026E-10         0.00000E+00
    0.51902E-07        -0.43963E-10         0.00000E+00
    0.51896E-07        -0.46653E-10         0.00000E+00
    0.51891E-07        -0.49095E-10         0.00000E+00
    0.51885E-07        -0.51287E-10         0.00000E+00
    0.51878E-07        -0.53230E-10         0.00000E+00
    0.51872E-07        -0.54926E-10         0.00000E+00
    0.51865E-07        -0.56378E-10         0.00000E+00
    0.51859E-07        -0.57590E-10         0.00000E+00
    0.51852E-07        -0.58565E-10         0.00000E+00
    0.51846E-07        -0.59308E-10         0.00000E+00
    0.51839E-07        -0.59824E-10         0.00000E+00
    0.51832E-07        -0.60119E-10         0.00000E+00
    0.51826E-07        -0.60199E-10         0.00000E+00
    0.51819E-07        -0.60069E-10         0.00000E+00
    0.51813E-07        -0.59734E-10         0.00000E+00
    0.51806E-07        -0.59201E-10         0.00000E+00
    0.51800E-07        -0.58474E-10         0.00000E+00
    0.51793E-07        -0.57560E-10         0.00000E+00
    0.51787E-07        -0.56465E-10         0.00000E+00
    0.51781E-07        -0.55192E-10         0.00000E+00
    0.51776E-07        -0.53747E-10         0.00000E+00
    0.51770E-07        -0.52136E-10         0.00000E+00
    0.51764E-07        -0.50363E-10         0.00000E+00
    0.51759E-07        -0.48432E-10         0.00000E+00
    0.51754E-07        -0.46348E-10         0.00000E+00
    0.51749E-07        -0.44116E-10         0.00000E+00
    0.51745E-07        -0.41739E-10         0.00000E+00
    0.51740E-07        -0.39223E-10         0.00000E+00
    0.51736E-07        -0.36573E-10         0.00000E+00
    0.51732E-07        -0.33791E-10         0.00000E+00
    0.51729E-07        -0.30885E-10         0.00000E+00
    0.51726E-07        -0.27857E-10         0.00000E+00
    0.51723E-07        -0.24714E-10         0.00000E+00
    0.51720E-07        -0.21461E-10         0.00000E+00
    0.51718E-07        -0.18105E-10         0.00000E+00
    0.51716E-07        -0.14650E-10         0.00000E+00
    0.51715E-07        -0.11105E-10         0.00000E+00
    0.51714E-07        -0.74750E-11         0.00000E+00
    0.51713E-07        -0.37692E-11         0.00000E+00
    0.51713E-07        -0.18981E-11         0.00000E+00
    0.51735E-07        -0.58539E-12         0.00000E+00
    0.51735E-07        -0.12184E-11         0.00000E+00
    0.51734E-07        -0.25438E-11         0.00000E+00
    0.51732E-07        -0.39728E-11         0.00000E+00
    0.51730E-07        -0.54762E-11         0.00000E+00
    0.51727E-07        -0.70277E-11         0.00000E+00
    0.51724E-07        -0.86035E-11         0.00000E+00
    0.51720E-07        -0.10182E-10         0.00000E+00
    0.51716E-07        -0.11744E-10         0.00000E+00
    0.51711E-07        -0.13274E-10         0.00000E+00
    0.51706E-07        -0.14755E-10         0.00000E+00
    0.51701E-07        -0.16176E-10         0.00000E+00
    0.51695E-07        -0.17524E-10         0.00000E+00
    0.51689E-07        -0.18792E-10         0.00000E+00
    0.51683E-07        -0.19970E-10         0.00000E+00
    0.51677E-07        -0.21052E-10         0.00000E+00
    0.51670E-07        -0.22034E-10         0.00000E+00
    0.51664E-07        -0.22910E-10         0.00000E+00
    0.51657E-07        -0.23679E-10         0.00000E+00
    0.51650E-07        -0.24337E-10         0.00000E+00
    0.51643E-07        -0.24883E-10         0.00000E+00
    0.51636E-07        -0.25318E-10         0.00000E+00
    0.51629E-07        -0.25641E-10         0.00000E+00
    0.51622E-07        -0.25852E-10         0.00000E+00
    0.51615E-07        -0.25954E-10         0.00000E+00
    0.51609E-07        -0.25947E-10         0.00000E+00
    0.51602E-07        -0.25833E-10         0.00000E+00
    0.51595E-07        -0.25615E-10         0.00000E+00
    0.51589E-07        -0.25294E-10         0.00000E+00
    0.51582E-07        -0.24875E-10         0.00000E+00
    0.51576E-07        -0.24360E-10         0.00000E+00
    0.51570E-07        -0.23751E-10         0.00000E+00
    0.51564E-07        -0.23053E-10         0.00000E+00
    0.51558E-07        -0.22268E-10         0.00000E+00
    0.51552E-07        -0.21401E-10         0.00000E+00
    0.51547E-07        -0.20454E-10         0.00000E+00
    0.51542E-07        -0.19433E-10         0.00000E+00
    0.51537E-07        -0.18342E-10         0.00000E+00
    0.51532E-07        -0.17183E-10         0.00000E+00
    0.51528E-07        -0.15963E-10         0.00000E+00
    0.51524E-07        -0.14686E-10         0.00000E+00
    0.51520E-07        -0.13357E-10         0.00000E+00
    0.51517E-07        -0.11980E-10         0.00000E+00
    0.51514E-07        -0.10562E-10         0.00000E+00
    0.51511E-07        -0.91088E-11         0.00000E+00
    0.51509E-07        -0.76256E-11         0.00000E+00
    0.51507E-07        -0.61193E-11         0.00000E+00
    0.51505E-07        -0.45965E-11         0.00000E+00
    0.51504E-07        -0.30642E-11         0.00000E+00
    0.51503E-07        -0.15299E-11         0.00000E+00
    0.51503E-07        -0.76310E-12         0.00000E+00
    0.51476E-07         0.11497E-11         0.00000E+00
    0.51476E-07         0.21845E-11         0.00000E+00
    0.51475E-07         0.40946E-11         0.00000E+00
    0.51473E-07         0.57022E-11         0.00000E+00
    0.51471E-07         0.70394E-11         0.00000E+00
    0.51468E-07         0.81356E-11         0.00000E+00
    0.51465E-07         0.90183E-11         0.00000E+00
    0.51461E-07         0.97127E-11         0.00000E+00
    0.51457E-07         0.10242E-10         0.00000E+00
    0.51453E-07         0.10628E-10         0.00000E+00
    0.51448E-07         0.10889E-10         0.00000E+00
    0.51443E-07         0.11044E-10         0.00000E+00
    0.51437E-07         0.11108E-10         0.00000E+00
    0.51432E-07         0.11096E-10         0.00000E+00
    0.51426E-07         0.11020E-10         0.00000E+00
    0.51419E-07         0.10893E-10         0.00000E+00
    0.51413E-07         0.10724E-10         0.00000E+00
    0.51407E-07         0.10523E-10         0.00000E+00
    0.51400E-07         0.10296E-10         0.00000E+00
    0.51393E-07         0.10052E-10         0.00000E+00
    0.51386E-07         0.97948E-11         0.00000E+00
    0.51380E-07         0.95308E-11         0.00000E+00
    0.51373E-07         0.92635E-11         0.00000E+00
    0.51366E-07         0.89962E-11         0.00000E+00
    0.51359E-07         0.87316E-11         0.00000E+00
    0.51352E-07         0.84717E-11         0.00000E+00
    0.51345E-07         0.82177E-11         0.00000E+00
    0.51339E-07         0.79704E-11         0.00000E+00
    0.51332E-07         0.77303E-11         0.00000E+00
    0.51326E-07         0.74971E-11         0.00000E+00
    0.51319E-07         0.72701E-11         0.00000E+00
    0.51313E-07         0.70485E-11         0.00000E+00
    0.51307E-07         0.68307E-11         0.00000E+00
    0.51301E-07         0.66150E-11         0.00000E+00
    0.51295E-07         0.63993E-11         0.00000E+00
    0.51290E-07         0.61812E-11         0.00000E+00
    0.51285E-07         0.59578E-11         0.00000E+00
    0.51280E-07         0.57260E-11         0.00000E+00
    0.51275E-07         0.54825E-11         0.00000E+00
    0.51271E-07         0.52236E-11         0.00000E+00
    0.51267E-07         0.49451E-11         0.00000E+00
    0.51263E-07         0.46429E-11         0.00000E+00
    0.51260E-07         0.43122E-11         0.00000E+00
    0.51257E-07         0.39482E-11         0.00000E+00
    0.51254E-07         0.35456E-11         0.00000E+00
    0.51252E-07         0.30990E-11         0.00000E+00
    0.51250E-07         0.26026E-11         0.00000E+00
    0.51248E-07         0.20502E-11         0.00000E+00
    0.51247E-07         0.14357E-11         0.00000E+00
    0.51246E-07         0.75222E-12         0.00000E+00
    0.51246E-07         0.39245E-12         0.00000E+00
    0.51162E-07         0.27539E-11         0.00000E+00
    0.51162E-07         0.53360E-11         0.00000E+00
    0.51161E-07         0.10256E-10         0.00000E+00
    0.51159E-07         0.14705E-10         0.00000E+00
    0.51157E-07         0.18715E-10         0.00000E+00
    0.51155E-07         0.22318E-10         0.00000E+00
    0.51152E-07         0.25544E-10         0.00000E+00
    0.51149E-07         0.28419E-10         0.00000E+00
    0.51145E-07         0.30969E-10         0.00000E+00
    0.51141E-07         0.33219E-10         0.00000E+00
    0.51136E-07         0.35190E-10         0.00000E+00
    0.51131E-07         0.36903E-10         0.00000E+00
    0.51126E-07         0.38378E-10         0.00000E+00
    0.51121E-07         0.39631E-10         0.00000E+00
    0.51115E-07         0.40680E-10         0.00000E+00
    0.51109E-07         0.41539E-10         0.00000E+00
    0.51103E-07         0.42222E-10         0.00000E+00
    0.51097E-07         0.42741E-10         0.00000E+00
    0.51091E-07         0.43108E-10         0.00000E+00
    0.51084E-07         0.43332E-10         0.00000E+00
    0.51078E-07         0.43423E-10         0.00000E+00
    0.51071E-07         0.43389E-10         0.00000E+00
    0.51065E-07         0.43237E-10         0.00000E+00
    0.51058E-07         0.42974E-10         0.00000E+00
    0.51051E-07         0.42605E-10         0.00000E+00
    0.51045E-07         0.42135E-10         0.00000E+00
    0.51038E-07         0.41568E-10         0.00000E+00
    0.51032E-07         0.40908E-10         0.00000E+00
    0.51025E-07         0.40157E-10         0.00000E+00
    0.51019E-07         0.39318E-10         0.00000E+00
    0.51013E-07         0.38392E-10         0.00000E+00
    0.51007E-07         0.37380E-10         0.00000E+00
    0.51001E-07         0.36282E-10         0.00000E+00
    0.50995E-07         0.35100E-10         0.00000E+00
    0.50990E-07         0.33831E-10         0.00000E+00
    0.50985E-07         0.32476E-10         0.00000E+00
    0.50980E-07         0.31034E-10         0.00000E+00
    0.50975E-07         0.29501E-10         0.00000E+00
    0.50970E-07         0.27877E-10         0.00000E+00
    0.50966E-07         0.26159E-10         0.00000E+00
    0.50962E-07         0.24343E-10         0.00000E+00
    0.50958E-07         0.22428E-10         0.00000E+00
    0.50955E-07         0.20408E-10         0.00000E+00
    0.50952E-07         0.18281E-10         0.00000E+00
    0.50950E-07         0.16042E-10         0.00000E+00
    0.50947E-07         0.13687E-10         0.00000E+00
    0.50945E-07         0.11210E-10         0.00000E+00
    0.50944E-07         0.86077E-11         0.00000E+00
    0.50943E-07         0.58734E-11         0.00000E+00
    0.50942E-07         0.30019E-11         0.00000E+00
    0.50942E-07         0.15312E-11         0.00000E+00
    0.50798E-07         0.42120E-11         0.00000E+00
    0.50797E-07         0.82048E-11         0.00000E+00
    0.50797E-07         0.15874E-10         0.00000E+00
    0.50795E-07         0.22930E-10         0.00000E+00
    0.50793E-07         0.29404E-10         0.00000E+00
    0.50791E-07         0.35329E-10         0.00000E+00
    0.50788E-07         0.40734E-10         0.00000E+00
    0.50785E-07         0.45649E-10         0.00000E+00
    0.50782E-07         0.50099E-10         0.00000E+00
    0.50778E-07         0.54111E-10         0.00000E+00
    0.50774E-07         0.57708E-10         0.00000E+00
    0.50769E-07         0.60913E-10         0.00000E+00
    0.50765E-07         0.63746E-10         0.00000E+00
    0.50760E-07         0.66228E-10         0.00000E+00
    0.50755E-07         0.68376E-10         0.00000E+00
    0.50749E-07         0.70209E-10         0.00000E+00
    0.50744E-07         0.71741E-10         0.00000E+00
    0.50738E-07         0.72988E-10         0.00000E+00
    0.50732E-07         0.73964E-10         0.00000E+00
    0.50726E-07         0.74680E-10         0.00000E+00
    0.50720E-07         0.75148E-10         0.00000E+00
    0.50714E-07         0.75380E-10         0.00000E+00
    0.50708E-07         0.75384E-10         0.00000E+00
    0.50701E-07         0.75170E-10         0.00000E+00
    0.50695E-07         0.74745E-10         0.00000E+00
    0.50689E-07         0.74117E-10         0.00000E+00
    0.50683E-07         0.73291E-10         0.00000E+00
    0.50677E-07         0.72273E-10         0.00000E+00
    0.50671E-07         0.71069E-10         0.00000E+00
    0.50665E-07         0.69682E-10         0.00000E+00
    0.50659E-07         0.68116E-10         0.00000E+00
    0.50653E-07         0.66373E-10         0.00000E+00
    0.50648E-07         0.64457E-10         0.00000E+00
    0.50642E-07         0.62369E-10         0.00000E+00
    0.50637E-07         0.60110E-10         0.00000E+00
    0.50632E-07         0.57680E-10         0.00000E+00
    0.50627E-07         0.55081E-10         0.00000E+00
    0.50623E-07         0.52312E-10         0.00000E+00
    0.50619E-07         0.49372E-10         0.00000E+00
    0.50615E-07         0.46259E-10         0.00000E+00
    0.50611E-07         0.42974E-10         0.00000E+00
    0.50607E-07         0.39513E-10         0.00000E+00
    0.50604E-07         0.35874E-10         0.00000E+00
    0.50601E-07         0.32055E-10         0.00000E+00
    0.50599E-07         0.28053E-10         0.00000E+00
    0.50597E-07         0.23864E-10         0.00000E+00
    0.50595E-07         0.19484E-10         0.00000E+00
    0.50593E-07         0.14911E-10         0.00000E+00
    0.50592E-07         0.10139E-10         0.00000E+00
    0.50592E-07         0.51643E-11         0.00000E+00
    0.50592E-07         0.26258E-11         0.00000E+00
    0.50386E-07         0.55180E-11         0.00000E+00
    0.50386E-07         0.10777E-10         0.00000E+00
    0.50385E-07         0.20919E-10         0.00000E+00
    0.50384E-07         0.30327E-10         0.00000E+00
    0.50383E-07         0.39033E-10         0.00000E+00
    0.50381E-07         0.47069E-10         0.00000E+00
    0.50378E-07         0.54465E-10         0.00000E+00
    0.50375E-07         0.61249E-10         0.00000E+00
    0.50372E-07         0.67448E-10         0.00000E+00
    0.50369E-07         0.73089E-10         0.00000E+00
    0.50365E-07         0.78197E-10         0.00000E+00
    0.50361E-07         0.82793E-10         0.00000E+00
    0.50357E-07         0.86902E-10         0.00000E+00
    0.50352E-07         0.90542E-10         0.00000E+00
    0.50347E-07         0.93735E-10         0.00000E+00
    0.50343E-07         0.96498E-10         0.00000E+00
    0.50337E-07         0.98849E-10         0.00000E+00
    0.50332E-07         0.10080E-09         0.00000E+00
    0.50327E-07         0.10238E-09         0.00000E+00
    0.50321E-07         0.10359E-09         0.00000E+00
    0.50316E-07         0.10444E-09         0.00000E+00
    0.50310E-07         0.10496E-09         0.00000E+00
    0.50305E-07         0.10514E-09         0.00000E+00
    0.50299E-07         0.10501E-09         0.00000E+00
    0.50293E-07         0.10457E-09         0.00000E+00
    0.50287E-07         0.10383E-09         0.00000E+00
    0.50282E-07         0.10279E-09         0.00000E+00
    0.50276E-07         0.10147E-09         0.00000E+00
    0.50271E-07         0.99871E-10         0.00000E+00
    0.50265E-07         0.98000E-10         0.00000E+00
    0.50260E-07         0.95861E-10         0.00000E+00
    0.50255E-07         0.93459E-10         0.00000E+00
    0.50249E-07         0.90798E-10         0.00000E+00
    0.50244E-07         0.87881E-10         0.00000E+00
    0.50240E-07         0.84712E-10         0.00000E+00
    0.50235E-07         0.81292E-10         0.00000E+00
    0.50231E-07         0.77623E-10         0.00000E+00
    0.50226E-07         0.73706E-10         0.00000E+00
    0.50222E-07         0.69541E-10         0.00000E+00
    0.50219E-07         0.65130E-10         0.00000E+00
    0.50215E-07         0.60472E-10         0.00000E+00
    0.50212E-07         0.55566E-10         0.00000E+00
    0.50209E-07         0.50411E-10         0.00000E+00
    0.50206E-07         0.45006E-10         0.00000E+00
    0.50204E-07         0.39349E-10         0.00000E+00
    0.50202E-07         0.33438E-10         0.00000E+00
    0.50200E-07         0.27271E-10         0.00000E+00
    0.50199E-07         0.20844E-10         0.00000E+00
    0.50198E-07         0.14155E-10         0.00000E+00
    0.50197E-07         0.72007E-11         0.00000E+00
    0.50197E-07         0.36567E-11         0.00000E+00
    0.49932E-07         0.66716E-11         0.00000E+00
    0.49932E-07         0.13051E-10         0.00000E+00
    0.49931E-07         0.25385E-10         0.00000E+00
    0.49930E-07         0.36885E-10         0.00000E+00
    0.49929E-07         0.47581E-10         0.00000E+00
    0.49927E-07         0.57506E-10         0.00000E+00
    0.49925E-07         0.66689E-10         0.00000E+00
    0.49922E-07         0.75157E-10         0.00000E+00
    0.49919E-07         0.82938E-10         0.00000E+00
    0.49916E-07         0.90057E-10         0.00000E+00
    0.49913E-07         0.96541E-10         0.00000E+00
    0.49909E-07         0.10241E-09         0.00000E+00
    0.49906E-07         0.10769E-09         0.00000E+00
    0.49902E-07         0.11240E-09         0.00000E+00
    0.49897E-07         0.11656E-09         0.00000E+00
    0.49893E-07         0.12019E-09         0.00000E+00
    0.49888E-07         0.12331E-09         0.00000E+00
    0.49884E-07         0.12594E-09         0.00000E+00
    0.49879E-07         0.12809E-09         0.00000E+00
    0.49874E-07         0.12977E-09         0.00000E+00
    0.49869E-07         0.13101E-09         0.00000E+00
    0.49864E-07         0.13181E-09         0.00000E+00
    0.49859E-07         0.13219E-09         0.00000E+00
    0.49854E-07         0.13216E-09         0.00000E+00
    0.49849E-07         0.13173E-09         0.00000E+00
    0.49843E-07         0.13091E-09         0.00000E+00
    0.49838E-07         0.12971E-09         0.00000E+00
    0.49833E-07         0.12814E-09         0.00000E+00
    0.49828E-07         0.12620E-09         0.00000E+00
    0.49823E-07         0.12391E-09         0.00000E+00
    0.49818E-07         0.12127E-09         0.00000E+00
    0.49814E-07         0.11828E-09         0.00000E+00
    0.49809E-07         0.11496E-09         0.00000E+00
    0.49804E-07         0.11130E-09         0.00000E+00
    0.49800E-07         0.10731E-09         0.00000E+00
    0.49796E-07         0.10299E-09         0.00000E+00
    0.49792E-07         0.98355E-10         0.00000E+00
    0.49788E-07         0.93394E-10         0.00000E+00
    0.49784E-07         0.88114E-10         0.00000E+00
    0.49781E-07         0.82516E-10         0.00000E+00
    0.49778E-07         0.76602E-10         0.00000E+00
    0.49775E-07         0.70371E-10         0.00000E+00
    0.49772E-07         0.63824E-10         0.00000E+00
    0.49770E-07         0.56961E-10         0.00000E+00
    0.49767E-07         0.49782E-10         0.00000E+00
    0.49766E-07         0.42284E-10         0.00000E+00
    0.49764E-07         0.34467E-10         0.00000E+00
    0.49763E-07         0.26330E-10         0.00000E+00
    0.49762E-07         0.17870E-10         0.00000E+00
    0.49761E-07         0.90849E-11         0.00000E+00
    0.49761E-07         0.46108E-11         0.00000E+00
    0.49438E-07         0.76761E-11         0.00000E+00
    0.49438E-07         0.15033E-10         0.00000E+00
    0.49437E-07         0.29282E-10         0.00000E+00
    0.49437E-07         0.42614E-10         0.00000E+00
    0.49435E-07         0.55060E-10         0.00000E+00
    0.49434E-07         0.66650E-10         0.00000E+00
    0.49432E-07         0.77411E-10         0.00000E+00
    0.49430E-07         0.87372E-10         0.00000E+00
    0.49427E-07         0.96560E-10         0.00000E+00
    0.49425E-07         0.10500E-09         0.00000E+00
    0.49422E-07         0.11271E-09         0.00000E+00
    0.49419E-07         0.11973E-09         0.00000E+00
    0.49415E-07         0.12606E-09         0.00000E+00
    0.49412E-07         0.13174E-09         0.00000E+00
    0.49408E-07         0.13679E-09         0.00000E+00
    0.49404E-07         0.14121E-09         0.00000E+00
    0.49400E-07         0.14504E-09         0.00000E+00
    0.49396E-07         0.14829E-09         0.00000E+00
    0.49392E-07         0.15097E-09         0.00000E+00
    0.49387E-07         0.15310E-09         0.00000E+00
    0.49383E-07         0.15471E-09         0.00000E+00
    0.49379E-07         0.15579E-09         0.00000E+00
    0.49374E-07         0.15637E-09         0.00000E+00
    0.49369E-07         0.15645E-09         0.00000E+00
    0.49365E-07         0.15606E-09         0.00000E+00
    0.49360E-07         0.15519E-09         0.00000E+00
    0.49356E-07         0.15386E-09         0.00000E+00
    0.49351E-07         0.15209E-09         0.00000E+00
    0.49347E-07         0.14987E-09         0.00000E+00
    0.49342E-07         0.14722E-09         0.00000E+00
    0.49338E-07         0.14414E-09         0.00000E+00
    0.49334E-07         0.14065E-09         0.00000E+00
    0.49330E-07         0.13674E-09         0.00000E+00
    0.49325E-07         0.13243E-09         0.00000E+00
    0.49322E-07         0.12772E-09         0.00000E+00
    0.49318E-07         0.12260E-09         0.00000E+00
    0.49314E-07         0.11710E-09         0.00000E+00
    0.49311E-07         0.11121E-09         0.00000E+00
    0.49307E-07         0.10493E-09         0.00000E+00
    0.49304E-07         0.98266E-10         0.00000E+00
    0.49301E-07         0.91222E-10         0.00000E+00
    0.49299E-07         0.83798E-10         0.00000E+00
    0.49296E-07         0.75996E-10         0.00000E+00
    0.49294E-07         0.67815E-10         0.00000E+00
    0.49292E-07         0.59258E-10         0.00000E+00
    0.49291E-07         0.50323E-10         0.00000E+00
    0.49289E-07         0.41011E-10         0.00000E+00
    0.49288E-07         0.31320E-10         0.00000E+00
    0.49287E-07         0.21250E-10         0.00000E+00
    0.49287E-07         0.10800E-10         0.00000E+00
    0.49287E-07         0.54798E-11         0.00000E+00
    0.48909E-07         0.85375E-11         0.00000E+00
    0.48909E-07         0.16735E-10         0.00000E+00
    0.48909E-07         0.32630E-10         0.00000E+00
    0.48908E-07         0.47543E-10         0.00000E+00
    0.48907E-07         0.61502E-10         0.00000E+00
    0.48905E-07         0.74535E-10         0.00000E+00
    0.48904E-07         0.86671E-10         0.00000E+00
    0.48902E-07         0.97935E-10         0.00000E+00
    0.48900E-07         0.10835E-09         0.00000E+00
    0.48898E-07         0.11795E-09         0.00000E+00
    0.48895E-07         0.12675E-09         0.00000E+00
    0.48892E-07         0.13477E-09         0.00000E+00
    0.48890E-07         0.14205E-09         0.00000E+00
    0.48887E-07         0.14859E-09         0.00000E+00
    0.48883E-07         0.15442E-09         0.00000E+00
    0.48880E-07         0.15956E-09         0.00000E+00
    0.48877E-07         0.16402E-09         0.00000E+00
    0.48873E-07         0.16784E-09         0.00000E+00
    0.48869E-07         0.17101E-09         0.00000E+00
    0.48865E-07         0.17356E-09         0.00000E+00
    0.48862E-07         0.17550E-09         0.00000E+00
    0.48858E-07         0.17685E-09         0.00000E+00
    0.48854E-07         0.17763E-09         0.00000E+00
    0.48850E-07         0.17783E-09         0.00000E+00
    0.48846E-07         0.17749E-09         0.00000E+00
    0.48842E-07         0.17660E-09         0.00000E+00
    0.48838E-07         0.17518E-09         0.00000E+00
    0.48834E-07         0.17324E-09         0.00000E+00
    0.48830E-07         0.17080E-09         0.00000E+00
    0.48826E-07         0.16785E-09         0.00000E+00
    0.48822E-07         0.16440E-09         0.00000E+00
    0.48818E-07         0.16047E-09         0.00000E+00
    0.48815E-07         0.15607E-09         0.00000E+00
    0.48811E-07         0.15119E-09         0.00000E+00
    0.48808E-07         0.14584E-09         0.00000E+00
    0.48804E-07         0.14004E-09         0.00000E+00
    0.48801E-07         0.13378E-09         0.00000E+00
    0.48798E-07         0.12706E-09         0.00000E+00
    0.48795E-07         0.11991E-09         0.00000E+00
    0.48793E-07         0.11230E-09         0.00000E+00
    0.48790E-07         0.10426E-09         0.00000E+00
    0.48788E-07         0.95780E-10         0.00000E+00
    0.48786E-07         0.86863E-10         0.00000E+00
    0.48784E-07         0.77512E-10         0.00000E+00
    0.48782E-07         0.67728E-10         0.00000E+00
    0.48780E-07         0.57513E-10         0.00000E+00
    0.48779E-07         0.46866E-10         0.00000E+00
    0.48778E-07         0.35788E-10         0.00000E+00
    0.48777E-07         0.24278E-10         0.00000E+00
    0.48777E-07         0.12337E-10         0.00000E+00
    0.48777E-07         0.62588E-11         0.00000E+00
    0.48349E-07         0.92629E-11         0.00000E+00
    0.48349E-07         0.18169E-10         0.00000E+00
    0.48349E-07         0.35456E-10         0.00000E+00
    0.48348E-07         0.51708E-10         0.00000E+00
    0.48347E-07         0.66953E-10         0.00000E+00
    0.48346E-07         0.81217E-10         0.00000E+00
    0.48345E-07         0.94526E-10         0.00000E+00
    0.48343E-07         0.10691E-09         0.00000E+00
    0.48341E-07         0.11838E-09         0.00000E+00
    0.48339E-07         0.12898E-09         0.00000E+00
    0.48337E-07         0.13872E-09         0.00000E+00
    0.48335E-07         0.14762E-09         0.00000E+00
    0.48333E-07         0.15571E-09         0.00000E+00
    0.48330E-07         0.16301E-09         0.00000E+00
    0.48327E-07         0.16953E-09         0.00000E+00
    0.48324E-07         0.17530E-09         0.00000E+00
    0.48322E-07         0.18033E-09         0.00000E+00
    0.48318E-07         0.18464E-09         0.00000E+00
    0.48315E-07         0.18825E-09         0.00000E+00
    0.48312E-07         0.19118E-09         0.00000E+00
    0.48309E-07         0.19344E-09         0.00000E+00
    0.48305E-07         0.19504E-09         0.00000E+00
    0.48302E-07         0.19600E-09         0.00000E+00
    0.48299E-07         0.19633E-09         0.00000E+00
    0.48295E-07         0.19604E-09         0.00000E+00
    0.48292E-07         0.19516E-09         0.00000E+00
    0.48288E-07         0.19368E-09         0.00000E+00
    0.48285E-07         0.19161E-09         0.00000E+00
    0.48282E-07         0.18898E-09         0.00000E+00
    0.48278E-07         0.18579E-09         0.00000E+00
    0.48275E-07         0.18204E-09         0.00000E+00
    0.48272E-07         0.17775E-09         0.00000E+00
    0.48269E-07         0.17292E-09         0.00000E+00
    0.48265E-07         0.16756E-09         0.00000E+00
    0.48262E-07         0.16167E-09         0.00000E+00
    0.48260E-07         0.15527E-09         0.00000E+00
    0.48257E-07         0.14836E-09         0.00000E+00
    0.48254E-07         0.14094E-09         0.00000E+00
    0.48252E-07         0.13302E-09         0.00000E+00
    0.48249E-07         0.12461E-09         0.00000E+00
    0.48247E-07         0.11570E-09         0.00000E+00
    0.48245E-07         0.10629E-09         0.00000E+00
    0.48243E-07         0.96406E-10         0.00000E+00
    0.48241E-07         0.86032E-10         0.00000E+00
    0.48240E-07         0.75176E-10         0.00000E+00
    0.48239E-07         0.63838E-10         0.00000E+00
    0.48238E-07         0.52019E-10         0.00000E+00
    0.48237E-07         0.39722E-10         0.00000E+00
    0.48236E-07         0.26946E-10         0.00000E+00
    0.48236E-07         0.13692E-10         0.00000E+00
    0.48236E-07         0.69458E-11         0.00000E+00
    0.47762E-07         0.98603E-11         0.00000E+00
    0.47762E-07         0.19351E-10         0.00000E+00
    0.47762E-07         0.37789E-10         0.00000E+00
    0.47761E-07         0.55152E-10         0.00000E+00
    0.47760E-07         0.71466E-10         0.00000E+00
    0.47759E-07         0.86757E-10         0.00000E+00
    0.47758E-07         0.10105E-09         0.00000E+00
    0.47757E-07         0.11437E-09         0.00000E+00
    0.47756E-07         0.12674E-09         0.00000E+00
    0.47754E-07         0.13818E-09         0.00000E+00
    0.47752E-07         0.14871E-09         0.00000E+00
    0.47750E-07         0.15837E-09         0.00000E+00
    0.47748E-07         0.16715E-09         0.00000E+00
    0.47746E-07         0.17510E-09         0.00000E+00
    0.47744E-07         0.18221E-09         0.00000E+00
    0.47742E-07         0.18853E-09         0.00000E+00
    0.47739E-07         0.19405E-09         0.00000E+00
    0.47737E-07         0.19881E-09         0.00000E+00
    0.47734E-07         0.20281E-09         0.00000E+00
    0.47731E-07         0.20607E-09         0.00000E+00
    0.47729E-07         0.20860E-09         0.00000E+00
    0.47726E-07         0.21043E-09         0.00000E+00
    0.47723E-07         0.21157E-09         0.00000E+00
    0.47720E-07         0.21202E-09         0.00000E+00
    0.47717E-07         0.21180E-09         0.00000E+00
    0.47714E-07         0.21093E-09         0.00000E+00
    0.47712E-07         0.20941E-09         0.00000E+00
    0.47709E-07         0.20726E-09         0.00000E+00
    0.47706E-07         0.20449E-09         0.00000E+00
    0.47703E-07         0.20110E-09         0.00000E+00
    0.47700E-07         0.19710E-09         0.00000E+00
    0.47697E-07         0.19251E-09         0.00000E+00
    0.47695E-07         0.18733E-09         0.00000E+00
    0.47692E-07         0.18157E-09         0.00000E+00
    0.47690E-07         0.17524E-09         0.00000E+00
    0.47687E-07         0.16834E-09         0.00000E+00
    0.47685E-07         0.16088E-09         0.00000E+00
    0.47683E-07         0.15287E-09         0.00000E+00
    0.47680E-07         0.14430E-09         0.00000E+00
    0.47678E-07         0.13519E-09         0.00000E+00
    0.47677E-07         0.12554E-09         0.00000E+00
    0.47675E-07         0.11535E-09         0.00000E+00
    0.47673E-07         0.10463E-09         0.00000E+00
    0.47672E-07         0.93383E-10         0.00000E+00
    0.47670E-07         0.81604E-10         0.00000E+00
    0.47669E-07         0.69301E-10         0.00000E+00
    0.47668E-07         0.56474E-10         0.00000E+00
    0.47668E-07         0.43125E-10         0.00000E+00
    0.47667E-07         0.29255E-10         0.00000E+00
    0.47667E-07         0.14865E-10         0.00000E+00
    0.47667E-07         0.75409E-11         0.00000E+00
    0.47152E-07         0.10338E-10         0.00000E+00
    0.47152E-07         0.20298E-10         0.00000E+00
    0.47152E-07         0.39660E-10         0.00000E+00
    0.47151E-07         0.57918E-10         0.00000E+00
    0.47151E-07         0.75099E-10         0.00000E+00
    0.47150E-07         0.91226E-10         0.00000E+00
    0.47149E-07         0.10632E-09         0.00000E+00
    0.47148E-07         0.12041E-09         0.00000E+00
    0.47147E-07         0.13351E-09         0.00000E+00
    0.47146E-07         0.14565E-09         0.00000E+00
    0.47144E-07         0.15685E-09         0.00000E+00
    0.47143E-07         0.16712E-09         0.00000E+00
    0.47141E-07         0.17649E-09         0.00000E+00
    0.47140E-07         0.18498E-09         0.00000E+00
    0.47138E-07         0.19260E-09         0.00000E+00
    0.47136E-07         0.19937E-09         0.00000E+00
    0.47134E-07         0.20532E-09         0.00000E+00
    0.47132E-07         0.21045E-09         0.00000E+00
    0.47130E-07         0.21478E-09         0.00000E+00
    0.47127E-07         0.21834E-09         0.00000E+00
    0.47125E-07         0.22112E-09         0.00000E+00
    0.47123E-07         0.22316E-09         0.00000E+00
    0.47121E-07         0.22445E-09         0.00000E+00
    0.47118E-07         0.22502E-09         0.00000E+00
    0.47116E-07         0.22488E-09         0.00000E+00
    0.47114E-07         0.22403E-09         0.00000E+00
    0.47111E-07         0.22250E-09         0.00000E+00
    0.47109E-07         0.22029E-09         0.00000E+00
    0.47107E-07         0.21741E-09         0.00000E+00
    0.47104E-07         0.21387E-09         0.00000E+00
    0.47102E-07         0.20968E-09         0.00000E+00
    0.47100E-07         0.20485E-09         0.00000E+00
    0.47097E-07         0.19939E-09         0.00000E+00
    0.47095E-07         0.19331E-09         0.00000E+00
    0.47093E-07         0.18661E-09         0.00000E+00
    0.47091E-07         0.17930E-09         0.00000E+00
    0.47089E-07         0.17139E-09         0.00000E+00
    0.47087E-07         0.16289E-09         0.00000E+00
    0.47086E-07         0.15379E-09         0.00000E+00
    0.47084E-07         0.14410E-09         0.00000E+00
    0.47082E-07         0.13384E-09         0.00000E+00
    0.47081E-07         0.12299E-09         0.00000E+00
    0.47080E-07         0.11158E-09         0.00000E+00
    0.47078E-07         0.99589E-10         0.00000E+00
    0.47077E-07         0.87036E-10         0.00000E+00
    0.47076E-07         0.73920E-10         0.00000E+00
    0.47076E-07         0.60242E-10         0.00000E+00
    0.47075E-07         0.46005E-10         0.00000E+00
    0.47075E-07         0.31211E-10         0.00000E+00
    0.47074E-07         0.15860E-10         0.00000E+00
    0.47074E-07         0.80455E-11         0.00000E+00
    0.46524E-07         0.10704E-10         0.00000E+00
    0.46523E-07         0.21025E-10         0.00000E+00
    0.46523E-07         0.41100E-10         0.00000E+00
    0.46523E-07         0.60054E-10         0.00000E+00
    0.46523E-07         0.77911E-10         0.00000E+00
    0.46522E-07         0.94692E-10         0.00000E+00
    0.46521E-07         0.11042E-09         0.00000E+00
    0.46521E-07         0.12512E-09         0.00000E+00
    0.46520E-07         0.13881E-09         0.00000E+00
    0.46519E-07         0.15150E-09         0.00000E+00
    0.46518E-07         0.16323E-09         0.00000E+00
    0.46517E-07         0.17401E-09         0.00000E+00
    0.46515E-07         0.18385E-09         0.00000E+00
    0.46514E-07         0.19278E-09         0.00000E+00
    0.46513E-07         0.20082E-09         0.00000E+00
    0.46511E-07         0.20797E-09         0.00000E+00
    0.46510E-07         0.21427E-09         0.00000E+00
    0.46508E-07         0.21971E-09         0.00000E+00
    0.46506E-07         0.22433E-09         0.00000E+00
    0.46505E-07         0.22813E-09         0.00000E+00
    0.46503E-07         0.23113E-09         0.00000E+00
    0.46501E-07         0.23335E-09         0.00000E+00
    0.46499E-07         0.23479E-09         0.00000E+00
    0.46497E-07         0.23547E-09         0.00000E+00
    0.46496E-07         0.23540E-09         0.00000E+00
    0.46494E-07         0.23459E-09         0.00000E+00
    0.46492E-07         0.23306E-09         0.00000E+00
    0.46490E-07         0.23081E-09         0.00000E+00
    0.46488E-07         0.22786E-09         0.00000E+00
    0.46486E-07         0.22421E-09         0.00000E+00
    0.46484E-07         0.21988E-09         0.00000E+00
    0.46483E-07         0.21487E-09         0.00000E+00
    0.46481E-07         0.20920E-09         0.00000E+00
    0.46479E-07         0.20286E-09         0.00000E+00
    0.46477E-07         0.19588E-09         0.00000E+00
    0.46476E-07         0.18825E-09         0.00000E+00
    0.46474E-07         0.17998E-09         0.00000E+00
    0.46473E-07         0.17108E-09         0.00000E+00
    0.46471E-07         0.16155E-09         0.00000E+00
    0.46470E-07         0.15140E-09         0.00000E+00
    0.46469E-07         0.14063E-09         0.00000E+00
    0.46467E-07         0.12926E-09         0.00000E+00
    0.46466E-07         0.11728E-09         0.00000E+00
    0.46465E-07         0.10469E-09         0.00000E+00
    0.46465E-07         0.91504E-10         0.00000E+00
    0.46464E-07         0.77722E-10         0.00000E+00
    0.46463E-07         0.63347E-10         0.00000E+00
    0.46463E-07         0.48380E-10         0.00000E+00
    0.46462E-07         0.32824E-10         0.00000E+00
    0.46462E-07         0.16681E-10         0.00000E+00
    0.46462E-07         0.84624E-11         0.00000E+00
    0.45881E-07         0.10967E-10         0.00000E+00
    0.45880E-07         0.21549E-10         0.00000E+00
    0.45880E-07         0.42141E-10         0.00000E+00
    0.45880E-07         0.61605E-10         0.00000E+00
    0.45880E-07         0.79960E-10         0.00000E+00
    0.45879E-07         0.97229E-10         0.00000E+00
    0.45879E-07         0.11343E-09         0.00000E+00
    0.45878E-07         0.12859E-09         0.00000E+00
    0.45878E-07         0.14272E-09         0.00000E+00
    0.45877E-07         0.15584E-09         0.00000E+00
    0.45876E-07         0.16798E-09         0.00000E+00
    0.45876E-07         0.17915E-09         0.00000E+00
    0.45875E-07         0.18936E-09         0.00000E+00
    0.45874E-07         0.19864E-09         0.00000E+00
    0.45873E-07         0.20701E-09         0.00000E+00
    0.45872E-07         0.21447E-09         0.00000E+00
    0.45870E-07         0.22104E-09         0.00000E+00
    0.45869E-07         0.22675E-09         0.00000E+00
    0.45868E-07         0.23160E-09         0.00000E+00
    0.45867E-07         0.23561E-09         0.00000E+00
    0.45865E-07         0.23879E-09         0.00000E+00
    0.45864E-07         0.24116E-09         0.00000E+00
    0.45863E-07         0.24273E-09         0.00000E+00
    0.45861E-07         0.24350E-09         0.00000E+00
    0.45860E-07         0.24351E-09         0.00000E+00
    0.45859E-07         0.24274E-09         0.00000E+00
    0.45857E-07         0.24123E-09         0.00000E+00
    0.45856E-07         0.23897E-09         0.00000E+00
    0.45854E-07         0.23598E-09         0.00000E+00
    0.45853E-07         0.23226E-09         0.00000E+00
    0.45852E-07         0.22783E-09         0.00000E+00
    0.45850E-07         0.22270E-09         0.00000E+00
    0.45849E-07         0.21686E-09         0.00000E+00
    0.45848E-07         0.21034E-09         0.00000E+00
    0.45846E-07         0.20314E-09         0.00000E+00
    0.45845E-07         0.19527E-09         0.00000E+00
    0.45844E-07         0.18673E-09         0.00000E+00
    0.45843E-07         0.17752E-09         0.00000E+00
    0.45842E-07         0.16766E-09         0.00000E+00
    0.45841E-07         0.15716E-09         0.00000E+00
    0.45840E-07         0.14601E-09         0.00000E+00
    0.45839E-07         0.13421E-09         0.00000E+00
    0.45838E-07         0.12179E-09         0.00000E+00
    0.45837E-07         0.10873E-09         0.00000E+00
    0.45836E-07         0.95050E-10         0.00000E+00
    0.45836E-07         0.80743E-10         0.00000E+00
    0.45835E-07         0.65815E-10         0.00000E+00
    0.45835E-07         0.50270E-10         0.00000E+00
    0.45835E-07         0.34109E-10         0.00000E+00
    0.45835E-07         0.17335E-10         0.00000E+00
    0.45834E-07         0.87949E-11         0.00000E+00
    0.45227E-07         0.11135E-10         0.00000E+00
    0.45227E-07         0.21885E-10         0.00000E+00
    0.45227E-07         0.42815E-10         0.00000E+00
    0.45227E-07         0.62615E-10         0.00000E+00
    0.45227E-07         0.81305E-10         0.00000E+00
    0.45227E-07         0.98906E-10         0.00000E+00
    0.45226E-07         0.11544E-09         0.00000E+00
    0.45226E-07         0.13091E-09         0.00000E+00
    0.45226E-07         0.14536E-09         0.00000E+00
    0.45225E-07         0.15879E-09         0.00000E+00
    0.45225E-07         0.17122E-09         0.00000E+00
    0.45224E-07         0.18267E-09         0.00000E+00
    0.45224E-07         0.19316E-09         0.00000E+00
    0.45223E-07         0.20270E-09         0.00000E+00
    0.45222E-07         0.21131E-09         0.00000E+00
    0.45222E-07         0.21901E-09         0.00000E+00
    0.45221E-07         0.22580E-09         0.00000E+00
    0.45220E-07         0.23171E-09         0.00000E+00
    0.45219E-07         0.23674E-09         0.00000E+00
    0.45218E-07         0.24092E-09         0.00000E+00
    0.45217E-07         0.24425E-09         0.00000E+00
    0.45217E-07         0.24674E-09         0.00000E+00
    0.45216E-07         0.24842E-09         0.00000E+00
    0.45215E-07         0.24929E-09         0.00000E+00
    0.45214E-07         0.24936E-09         0.00000E+00
    0.45213E-07         0.24865E-09         0.00000E+00
    0.45212E-07         0.24716E-09         0.00000E+00
    0.45211E-07         0.24491E-09         0.00000E+00
    0.45210E-07         0.24191E-09         0.00000E+00
    0.45209E-07         0.23815E-09         0.00000E+00
    0.45208E-07         0.23367E-09         0.00000E+00
    0.45207E-07         0.22845E-09         0.00000E+00
    0.45206E-07         0.22252E-09         0.00000E+00
    0.45205E-07         0.21587E-09         0.00000E+00
    0.45204E-07         0.20852E-09         0.00000E+00
    0.45203E-07         0.20048E-09         0.00000E+00
    0.45202E-07         0.19174E-09         0.00000E+00
    0.45202E-07         0.18232E-09         0.00000E+00
    0.45201E-07         0.17223E-09         0.00000E+00
    0.45200E-07         0.16146E-09         0.00000E+00
    0.45199E-07         0.15003E-09         0.00000E+00
    0.45199E-07         0.13793E-09         0.00000E+00
    0.45198E-07         0.12518E-09         0.00000E+00
    0.45198E-07         0.11177E-09         0.00000E+00
    0.45197E-07         0.97720E-10         0.00000E+00
    0.45197E-07         0.83020E-10         0.00000E+00
    0.45196E-07         0.67679E-10         0.00000E+00
    0.45196E-07         0.51699E-10         0.00000E+00
    0.45196E-07         0.35082E-10         0.00000E+00
    0.45196E-07         0.17831E-10         0.00000E+00
    0.45196E-07         0.90470E-11         0.00000E+00
    0.44568E-07         0.11216E-10         0.00000E+00
    0.44568E-07         0.22049E-10         0.00000E+00
    0.44568E-07         0.43150E-10         0.00000E+00
    0.44568E-07         0.63129E-10         0.00000E+00
    0.44568E-07         0.82004E-10         0.00000E+00
    0.44567E-07         0.99793E-10         0.00000E+00
    0.44567E-07         0.11651E-09         0.00000E+00
    0.44567E-07         0.13219E-09         0.00000E+00
    0.44567E-07         0.14682E-09         0.00000E+00
    0.44567E-07         0.16045E-09         0.00000E+00
    0.44567E-07         0.17307E-09         0.00000E+00
    0.44566E-07         0.18471E-09         0.00000E+00
    0.44566E-07         0.19538E-09         0.00000E+00
    0.44566E-07         0.20510E-09         0.00000E+00
    0.44565E-07         0.21388E-09         0.00000E+00
    0.44565E-07         0.22174E-09         0.00000E+00
    0.44565E-07         0.22869E-09         0.00000E+00
    0.44564E-07         0.23474E-09         0.00000E+00
    0.44564E-07         0.23992E-09         0.00000E+00
    0.44563E-07         0.24422E-09         0.00000E+00
    0.44563E-07         0.24767E-09         0.00000E+00
    0.44562E-07         0.25027E-09         0.00000E+00
    0.44562E-07         0.25204E-09         0.00000E+00
    0.44561E-07         0.25299E-09         0.00000E+00
    0.44561E-07         0.25313E-09         0.00000E+00
    0.44560E-07         0.25247E-09         0.00000E+00
    0.44560E-07         0.25102E-09         0.00000E+00
    0.44559E-07         0.24879E-09         0.00000E+00
    0.44558E-07         0.24579E-09         0.00000E+00
    0.44558E-07         0.24204E-09         0.00000E+00
    0.44557E-07         0.23753E-09         0.00000E+00
    0.44557E-07         0.23227E-09         0.00000E+00
    0.44556E-07         0.22629E-09         0.00000E+00
    0.44555E-07         0.21957E-09         0.00000E+00
    0.44555E-07         0.21214E-09         0.00000E+00
    0.44554E-07         0.20399E-09         0.00000E+00
    0.44554E-07         0.19514E-09         0.00000E+00
    0.44553E-07         0.18558E-09         0.00000E+00
    0.44553E-07         0.17533E-09         0.00000E+00
    0.44552E-07         0.16440E-09         0.00000E+00
    0.44552E-07         0.15278E-09         0.00000E+00
    0.44551E-07         0.14048E-09         0.00000E+00
    0.44551E-07         0.12751E-09         0.00000E+00
    0.44551E-07         0.11387E-09         0.00000E+00
    0.44550E-07         0.99565E-10         0.00000E+00
    0.44550E-07         0.84598E-10         0.00000E+00
    0.44550E-07         0.68973E-10         0.00000E+00
    0.44550E-07         0.52693E-10         0.00000E+00
    0.44550E-07         0.35760E-10         0.00000E+00
    0.44549E-07         0.18177E-10         0.00000E+00
    0.44549E-07         0.92232E-11         0.00000E+00
    0.43906E-07         0.11217E-10         0.00000E+00
    0.43906E-07         0.22056E-10         0.00000E+00
    0.43906E-07         0.43177E-10         0.00000E+00
    0.43906E-07         0.63190E-10         0.00000E+00
    0.43906E-07         0.82111E-10         0.00000E+00
    0.43906E-07         0.99957E-10         0.00000E+00
    0.43906E-07         0.11675E-09         0.00000E+00
    0.43906E-07         0.13249E-09         0.00000E+00
    0.43906E-07         0.14721E-09         0.00000E+00
    0.43906E-07         0.16092E-09         0.00000E+00
    0.43906E-07         0.17364E-09         0.00000E+00
    0.43906E-07         0.18538E-09         0.00000E+00
    0.43906E-07         0.19615E-09         0.00000E+00
    0.43906E-07         0.20597E-09         0.00000E+00
    0.43906E-07         0.21485E-09         0.00000E+00
    0.43906E-07         0.22281E-09         0.00000E+00
    0.43906E-07         0.22986E-09         0.00000E+00
    0.43906E-07         0.23601E-09         0.00000E+00
    0.43906E-07         0.24128E-09         0.00000E+00
    0.43906E-07         0.24567E-09         0.00000E+00
    0.43906E-07         0.24920E-09         0.00000E+00
    0.43905E-07         0.25189E-09         0.00000E+00
    0.43905E-07         0.25373E-09         0.00000E+00
    0.43905E-07         0.25475E-09         0.00000E+00
    0.43905E-07         0.25495E-09         0.00000E+00
    0.43905E-07         0.25435E-09         0.00000E+00
    0.43904E-07         0.25295E-09         0.00000E+00
    0.43904E-07         0.25076E-09         0.00000E+00
    0.43904E-07         0.24779E-09         0.00000E+00
    0.43904E-07         0.24405E-09         0.00000E+00
    0.43904E-07         0.23955E-09         0.00000E+00
    0.43903E-07         0.23430E-09         0.00000E+00
    0.43903E-07         0.22831E-09         0.00000E+00
    0.43903E-07         0.22158E-09         0.00000E+00
    0.43903E-07         0.21411E-09         0.00000E+00
    0.43902E-07         0.20592E-09         0.00000E+00
    0.43902E-07         0.19702E-09         0.00000E+00
    0.43902E-07         0.18740E-09         0.00000E+00
    0.43902E-07         0.17708E-09         0.00000E+00
    0.43901E-07         0.16606E-09         0.00000E+00
    0.43901E-07         0.15435E-09         0.00000E+00
    0.43901E-07         0.14194E-09         0.00000E+00
    0.43901E-07         0.12885E-09         0.00000E+00
    0.43901E-07         0.11509E-09         0.00000E+00
    0.43901E-07         0.10064E-09         0.00000E+00
    0.43900E-07         0.85521E-10         0.00000E+00
    0.43900E-07         0.69733E-10         0.00000E+00
    0.43900E-07         0.53279E-10         0.00000E+00
    0.43900E-07         0.36161E-10         0.00000E+00
    0.43900E-07         0.18382E-10         0.00000E+00
    0.43900E-07         0.93282E-11         0.00000E+00
    0.43246E-07         0.11145E-10         0.00000E+00
    0.43246E-07         0.21921E-10         0.00000E+00
    0.43246E-07         0.42924E-10         0.00000E+00
    0.43246E-07         0.62839E-10         0.00000E+00
    0.43246E-07         0.81680E-10         0.00000E+00
    0.43246E-07         0.99464E-10         0.00000E+00
    0.43247E-07         0.11621E-09         0.00000E+00
    0.43247E-07         0.13192E-09         0.00000E+00
    0.43247E-07         0.14662E-09         0.00000E+00
    0.43247E-07         0.16033E-09         0.00000E+00
    0.43247E-07         0.17305E-09         0.00000E+00
    0.43248E-07         0.18479E-09         0.00000E+00
    0.43248E-07         0.19559E-09         0.00000E+00
    0.43248E-07         0.20544E-09         0.00000E+00
    0.43248E-07         0.21436E-09         0.00000E+00
    0.43249E-07         0.22236E-09         0.00000E+00
    0.43249E-07         0.22945E-09         0.00000E+00
    0.43249E-07         0.23565E-09         0.00000E+00
    0.43249E-07         0.24097E-09         0.00000E+00
    0.43249E-07         0.24542E-09         0.00000E+00
    0.43250E-07         0.24902E-09         0.00000E+00
    0.43250E-07         0.25176E-09         0.00000E+00
    0.43250E-07         0.25366E-09         0.00000E+00
    0.43250E-07         0.25474E-09         0.00000E+00
    0.43250E-07         0.25500E-09         0.00000E+00
    0.43250E-07         0.25445E-09         0.00000E+00
    0.43251E-07         0.25310E-09         0.00000E+00
    0.43251E-07         0.25096E-09         0.00000E+00
    0.43251E-07         0.24804E-09         0.00000E+00
    0.43251E-07         0.24435E-09         0.00000E+00
    0.43251E-07         0.23989E-09         0.00000E+00
    0.43251E-07         0.23468E-09         0.00000E+00
    0.43251E-07         0.22872E-09         0.00000E+00
    0.43251E-07         0.22201E-09         0.00000E+00
    0.43251E-07         0.21457E-09         0.00000E+00
    0.43251E-07         0.20640E-09         0.00000E+00
    0.43251E-07         0.19750E-09         0.00000E+00
    0.43251E-07         0.18789E-09         0.00000E+00
    0.43251E-07         0.17757E-09         0.00000E+00
    0.43251E-07         0.16655E-09         0.00000E+00
    0.43251E-07         0.15482E-09         0.00000E+00
    0.43251E-07         0.14240E-09         0.00000E+00
    0.43251E-07         0.12928E-09         0.00000E+00
    0.43251E-07         0.11548E-09         0.00000E+00
    0.43251E-07         0.10100E-09         0.00000E+00
    0.43251E-07         0.85835E-10         0.00000E+00
    0.43251E-07         0.69996E-10         0.00000E+00
    0.43251E-07         0.53485E-10         0.00000E+00
    0.43251E-07         0.36305E-10         0.00000E+00
    0.43251E-07         0.18457E-10         0.00000E+00
    0.43251E-07         0.93668E-11         0.00000E+00
    0.42591E-07         0.11009E-10         0.00000E+00
    0.42592E-07         0.21657E-10         0.00000E+00
    0.42592E-07         0.42419E-10         0.00000E+00
    0.42592E-07         0.62116E-10         0.00000E+00
    0.42592E-07         0.80764E-10         0.00000E+00
    0.42592E-07         0.98377E-10         0.00000E+00
    0.42592E-07         0.11497E-09         0.00000E+00
    0.42593E-07         0.13055E-09         0.00000E+00
    0.42593E-07         0.14514E-09         0.00000E+00
    0.42594E-07         0.15875E-09         0.00000E+00
    0.42594E-07         0.17139E-09         0.00000E+00
    0.42594E-07         0.18308E-09         0.00000E+00
    0.42595E-07         0.19383E-09         0.00000E+00
    0.42595E-07         0.20364E-09         0.00000E+00
    0.42596E-07         0.21253E-09         0.00000E+00
    0.42596E-07         0.22052E-09         0.00000E+00
    0.42597E-07         0.22762E-09         0.00000E+00
    0.42597E-07         0.23383E-09         0.00000E+00
    0.42598E-07         0.23916E-09         0.00000E+00
    0.42598E-07         0.24364E-09         0.00000E+00
    0.42599E-07         0.24726E-09         0.00000E+00
    0.42599E-07         0.25004E-09         0.00000E+00
    0.42600E-07         0.25198E-09         0.00000E+00
    0.42600E-07         0.25311E-09         0.00000E+00
    0.42601E-07         0.25342E-09         0.00000E+00
    0.42601E-07         0.25292E-09         0.00000E+00
    0.42602E-07         0.25163E-09         0.00000E+00
    0.42602E-07         0.24956E-09         0.00000E+00
    0.42602E-07         0.24670E-09         0.00000E+00
    0.42603E-07         0.24307E-09         0.00000E+00
    0.42603E-07         0.23868E-09         0.00000E+00
    0.42604E-07         0.23354E-09         0.00000E+00
    0.42604E-07         0.22764E-09         0.00000E+00
    0.42604E-07         0.22100E-09         0.00000E+00
    0.42605E-07         0.21363E-09         0.00000E+00
    0.42605E-07         0.20553E-09         0.00000E+00
    0.42605E-07         0.19670E-09         0.00000E+00
    0.42606E-07         0.18716E-09         0.00000E+00
    0.42606E-07         0.17690E-09         0.00000E+00
    0.42606E-07         0.16594E-09         0.00000E+00
    0.42606E-07         0.15428E-09         0.00000E+00
    0.42606E-07         0.14192E-09         0.00000E+00
    0.42607E-07         0.12886E-09         0.00000E+00
    0.42607E-07         0.11512E-09         0.00000E+00
    0.42607E-07         0.10069E-09         0.00000E+00
    0.42607E-07         0.85586E-10         0.00000E+00
    0.42607E-07         0.69801E-10         0.00000E+00
    0.42607E-07         0.53341E-10         0.00000E+00
    0.42607E-07         0.36210E-10         0.00000E+00
    0.42607E-07         0.18411E-10         0.00000E+00
    0.42607E-07         0.93439E-11         0.00000E+00
    0.41946E-07         0.10815E-10         0.00000E+00
    0.41946E-07         0.21279E-10         0.00000E+00
    0.41946E-07         0.41687E-10         0.00000E+00
    0.41947E-07         0.61061E-10         0.00000E+00
    0.41947E-07         0.79414E-10         0.00000E+00
    0.41947E-07         0.96758E-10         0.00000E+00
    0.41948E-07         0.11311E-09         0.00000E+00
    0.41948E-07         0.12847E-09         0.00000E+00
    0.41949E-07         0.14287E-09         0.00000E+00
    0.41949E-07         0.15631E-09         0.00000E+00
    0.41950E-07         0.16879E-09         0.00000E+00
    0.41950E-07         0.18035E-09         0.00000E+00
    0.41951E-07         0.19098E-09         0.00000E+00
    0.41952E-07         0.20070E-09         0.00000E+00
    0.41952E-07         0.20952E-09         0.00000E+00
    0.41953E-07         0.21744E-09         0.00000E+00
    0.41954E-07         0.22449E-09         0.00000E+00
    0.41955E-07         0.23067E-09         0.00000E+00
    0.41955E-07         0.23598E-09         0.00000E+00
    0.41956E-07         0.24045E-09         0.00000E+00
    0.41957E-07         0.24408E-09         0.00000E+00
    0.41958E-07         0.24687E-09         0.00000E+00
    0.41958E-07         0.24884E-09         0.00000E+00
    0.41959E-07         0.25001E-09         0.00000E+00
    0.41960E-07         0.25036E-09         0.00000E+00
    0.41961E-07         0.24992E-09         0.00000E+00
    0.41961E-07         0.24870E-09         0.00000E+00
    0.41962E-07         0.24669E-09         0.00000E+00
    0.41963E-07         0.24391E-09         0.00000E+00
    0.41963E-07         0.24037E-09         0.00000E+00
    0.41964E-07         0.23607E-09         0.00000E+00
    0.41965E-07         0.23101E-09         0.00000E+00
    0.41965E-07         0.22522E-09         0.00000E+00
    0.41966E-07         0.21869E-09         0.00000E+00
    0.41967E-07         0.21142E-09         0.00000E+00
    0.41967E-07         0.20343E-09         0.00000E+00
    0.41968E-07         0.19473E-09         0.00000E+00
    0.41968E-07         0.18531E-09         0.00000E+00
    0.41969E-07         0.17518E-09         0.00000E+00
    0.41969E-07         0.16434E-09         0.00000E+00
    0.41969E-07         0.15281E-09         0.00000E+00
    0.41970E-07         0.14058E-09         0.00000E+00
    0.41970E-07         0.12767E-09         0.00000E+00
    0.41970E-07         0.11407E-09         0.00000E+00
    0.41971E-07         0.99783E-10         0.00000E+00
    0.41971E-07         0.84821E-10         0.00000E+00
    0.41971E-07         0.69184E-10         0.00000E+00
    0.41971E-07         0.52875E-10         0.00000E+00
    0.41971E-07         0.35897E-10         0.00000E+00
    0.41971E-07         0.18253E-10         0.00000E+00
    0.41971E-07         0.92646E-11         0.00000E+00
    0.41314E-07         0.10568E-10         0.00000E+00
    0.41314E-07         0.20798E-10         0.00000E+00
    0.41314E-07         0.40754E-10         0.00000E+00
    0.41314E-07         0.59709E-10         0.00000E+00
    0.41314E-07         0.77676E-10         0.00000E+00
    0.41315E-07         0.94665E-10         0.00000E+00
    0.41315E-07         0.11069E-09         0.00000E+00
    0.41316E-07         0.12576E-09         0.00000E+00
    0.41317E-07         0.13988E-09         0.00000E+00
    0.41317E-07         0.15307E-09         0.00000E+00
    0.41318E-07         0.16535E-09         0.00000E+00
    0.41319E-07         0.17671E-09         0.00000E+00
    0.41320E-07         0.18717E-09         0.00000E+00
    0.41321E-07         0.19674E-09         0.00000E+00
    0.41321E-07         0.20543E-09         0.00000E+00
    0.41322E-07         0.21324E-09         0.00000E+00
    0.41323E-07         0.22020E-09         0.00000E+00
    0.41324E-07         0.22631E-09         0.00000E+00
    0.41325E-07         0.23157E-09         0.00000E+00
    0.41326E-07         0.23601E-09         0.00000E+00
    0.41327E-07         0.23961E-09         0.00000E+00
    0.41328E-07         0.24241E-09         0.00000E+00
    0.41329E-07         0.24439E-09         0.00000E+00
    0.41330E-07         0.24558E-09         0.00000E+00
    0.41331E-07         0.24598E-09         0.00000E+00
    0.41332E-07         0.24559E-09         0.00000E+00
    0.41333E-07         0.24443E-09         0.00000E+00
    0.41334E-07         0.24250E-09         0.00000E+00
    0.41335E-07         0.23981E-09         0.00000E+00
    0.41336E-07         0.23636E-09         0.00000E+00
    0.41337E-07         0.23217E-09         0.00000E+00
    0.41338E-07         0.22724E-09         0.00000E+00
    0.41339E-07         0.22157E-09         0.00000E+00
    0.41340E-07         0.21518E-09         0.00000E+00
    0.41340E-07         0.20806E-09         0.00000E+00
    0.41341E-07         0.20023E-09         0.00000E+00
    0.41342E-07         0.19169E-09         0.00000E+00
    0.41343E-07         0.18244E-09         0.00000E+00
    0.41343E-07         0.17249E-09         0.00000E+00
    0.41344E-07         0.16184E-09         0.00000E+00
    0.41344E-07         0.15050E-09         0.00000E+00
    0.41345E-07         0.13848E-09         0.00000E+00
    0.41345E-07         0.12577E-09         0.00000E+00
    0.41346E-07         0.11238E-09         0.00000E+00
    0.41346E-07         0.98319E-10         0.00000E+00
    0.41346E-07         0.83585E-10         0.00000E+00
    0.41347E-07         0.68183E-10         0.00000E+00
    0.41347E-07         0.52115E-10         0.00000E+00
    0.41347E-07         0.35384E-10         0.00000E+00
    0.41347E-07         0.17993E-10         0.00000E+00
    0.41347E-07         0.91335E-11         0.00000E+00
    0.40697E-07         0.10277E-10         0.00000E+00
    0.40697E-07         0.20227E-10         0.00000E+00
    0.40697E-07         0.39644E-10         0.00000E+00
    0.40698E-07         0.58097E-10         0.00000E+00
    0.40698E-07         0.75596E-10         0.00000E+00
    0.40699E-07         0.92152E-10         0.00000E+00
    0.40699E-07         0.10778E-09         0.00000E+00
    0.40700E-07         0.12248E-09         0.00000E+00
    0.40701E-07         0.13627E-09         0.00000E+00
    0.40701E-07         0.14915E-09         0.00000E+00
    0.40702E-07         0.16115E-09         0.00000E+00
    0.40703E-07         0.17226E-09         0.00000E+00
    0.40704E-07         0.18249E-09         0.00000E+00
    0.40705E-07         0.19186E-09         0.00000E+00
    0.40706E-07         0.20038E-09         0.00000E+00
    0.40708E-07         0.20805E-09         0.00000E+00
    0.40709E-07         0.21488E-09         0.00000E+00
    0.40710E-07         0.22089E-09         0.00000E+00
    0.40711E-07         0.22607E-09         0.00000E+00
    0.40712E-07         0.23044E-09         0.00000E+00
    0.40713E-07         0.23401E-09         0.00000E+00
    0.40715E-07         0.23678E-09         0.00000E+00
    0.40716E-07         0.23877E-09         0.00000E+00
    0.40717E-07         0.23997E-09         0.00000E+00
    0.40718E-07         0.24040E-09         0.00000E+00
    0.40720E-07         0.24006E-09         0.00000E+00
    0.40721E-07         0.23897E-09         0.00000E+00
    0.40722E-07         0.23712E-09         0.00000E+00
    0.40723E-07         0.23453E-09         0.00000E+00
    0.40724E-07         0.23119E-09         0.00000E+00
    0.40725E-07         0.22713E-09         0.00000E+00
    0.40727E-07         0.22234E-09         0.00000E+00
    0.40728E-07         0.21683E-09         0.00000E+00
    0.40729E-07         0.21060E-09         0.00000E+00
    0.40730E-07         0.20366E-09         0.00000E+00
    0.40731E-07         0.19602E-09         0.00000E+00
    0.40731E-07         0.18768E-09         0.00000E+00
    0.40732E-07         0.17865E-09         0.00000E+00
    0.40733E-07         0.16893E-09         0.00000E+00
    0.40734E-07         0.15852E-09         0.00000E+00
    0.40735E-07         0.14743E-09         0.00000E+00
    0.40735E-07         0.13567E-09         0.00000E+00
    0.40736E-07         0.12323E-09         0.00000E+00
    0.40736E-07         0.11012E-09         0.00000E+00
    0.40737E-07         0.96354E-10         0.00000E+00
    0.40737E-07         0.81923E-10         0.00000E+00
    0.40738E-07         0.66833E-10         0.00000E+00
    0.40738E-07         0.51088E-10         0.00000E+00
    0.40738E-07         0.34690E-10         0.00000E+00
    0.40738E-07         0.17642E-10         0.00000E+00
    0.40738E-07         0.89556E-11         0.00000E+00
    0.40100E-07         0.99452E-11         0.00000E+00
    0.40100E-07         0.19578E-10         0.00000E+00
    0.40100E-07         0.38380E-10         0.00000E+00
    0.40101E-07         0.56257E-10         0.00000E+00
    0.40101E-07         0.73218E-10         0.00000E+00
    0.40102E-07         0.89274E-10         0.00000E+00
    0.40102E-07         0.10443E-09         0.00000E+00
    0.40103E-07         0.11871E-09         0.00000E+00
    0.40104E-07         0.13210E-09         0.00000E+00
    0.40105E-07         0.14462E-09         0.00000E+00
    0.40106E-07         0.15628E-09         0.00000E+00
    0.40107E-07         0.16709E-09         0.00000E+00
    0.40108E-07         0.17706E-09         0.00000E+00
    0.40109E-07         0.18619E-09         0.00000E+00
    0.40111E-07         0.19450E-09         0.00000E+00
    0.40112E-07         0.20198E-09         0.00000E+00
    0.40113E-07         0.20865E-09         0.00000E+00
    0.40114E-07         0.21453E-09         0.00000E+00
    0.40116E-07         0.21960E-09         0.00000E+00
    0.40117E-07         0.22389E-09         0.00000E+00
    0.40119E-07         0.22740E-09         0.00000E+00
    0.40120E-07         0.23013E-09         0.00000E+00
    0.40121E-07         0.23210E-09         0.00000E+00
    0.40123E-07         0.23331E-09         0.00000E+00
    0.40124E-07         0.23376E-09         0.00000E+00
    0.40126E-07         0.23347E-09         0.00000E+00
    0.40127E-07         0.23245E-09         0.00000E+00
    0.40129E-07         0.23068E-09         0.00000E+00
    0.40130E-07         0.22820E-09         0.00000E+00
    0.40131E-07         0.22499E-09         0.00000E+00
    0.40133E-07         0.22106E-09         0.00000E+00
    0.40134E-07         0.21643E-09         0.00000E+00
    0.40135E-07         0.21110E-09         0.00000E+00
    0.40136E-07         0.20506E-09         0.00000E+00
    0.40137E-07         0.19833E-09         0.00000E+00
    0.40139E-07         0.19092E-09         0.00000E+00
    0.40140E-07         0.18282E-09         0.00000E+00
    0.40141E-07         0.17404E-09         0.00000E+00
    0.40142E-07         0.16459E-09         0.00000E+00
    0.40143E-07         0.15446E-09         0.00000E+00
    0.40143E-07         0.14368E-09         0.00000E+00
    0.40144E-07         0.13223E-09         0.00000E+00
    0.40145E-07         0.12012E-09         0.00000E+00
    0.40146E-07         0.10735E-09         0.00000E+00
    0.40146E-07         0.93939E-10         0.00000E+00
    0.40147E-07         0.79877E-10         0.00000E+00
    0.40147E-07         0.65170E-10         0.00000E+00
    0.40147E-07         0.49820E-10         0.00000E+00
    0.40148E-07         0.33832E-10         0.00000E+00
    0.40148E-07         0.17207E-10         0.00000E+00
    0.40148E-07         0.87354E-11         0.00000E+00
    0.39525E-07         0.95799E-11         0.00000E+00
    0.39525E-07         0.18862E-10         0.00000E+00
    0.39526E-07         0.36983E-10         0.00000E+00
    0.39526E-07         0.54220E-10         0.00000E+00
    0.39527E-07         0.70583E-10         0.00000E+00
    0.39527E-07         0.86079E-10         0.00000E+00
    0.39528E-07         0.10072E-09         0.00000E+00
    0.39529E-07         0.11451E-09         0.00000E+00
    0.39530E-07         0.12745E-09         0.00000E+00
    0.39531E-07         0.13956E-09         0.00000E+00
    0.39532E-07         0.15085E-09         0.00000E+00
    0.39533E-07         0.16131E-09         0.00000E+00
    0.39534E-07         0.17097E-09         0.00000E+00
    0.39535E-07         0.17982E-09         0.00000E+00
    0.39537E-07         0.18788E-09         0.00000E+00
    0.39538E-07         0.19514E-09         0.00000E+00
    0.39540E-07         0.20163E-09         0.00000E+00
    0.39541E-07         0.20734E-09         0.00000E+00
    0.39543E-07         0.21228E-09         0.00000E+00
    0.39544E-07         0.21646E-09         0.00000E+00
    0.39546E-07         0.21989E-09         0.00000E+00
    0.39547E-07         0.22257E-09         0.00000E+00
    0.39549E-07         0.22451E-09         0.00000E+00
    0.39551E-07         0.22572E-09         0.00000E+00
    0.39552E-07         0.22619E-09         0.00000E+00
    0.39554E-07         0.22595E-09         0.00000E+00
    0.39555E-07         0.22499E-09         0.00000E+00
    0.39557E-07         0.22332E-09         0.00000E+00
    0.39559E-07         0.22094E-09         0.00000E+00
    0.39560E-07         0.21786E-09         0.00000E+00
    0.39562E-07         0.21409E-09         0.00000E+00
    0.39563E-07         0.20964E-09         0.00000E+00
    0.39564E-07         0.20449E-09         0.00000E+00
    0.39566E-07         0.19867E-09         0.00000E+00
    0.39567E-07         0.19218E-09         0.00000E+00
    0.39568E-07         0.18502E-09         0.00000E+00
    0.39570E-07         0.17719E-09         0.00000E+00
    0.39571E-07         0.16870E-09         0.00000E+00
    0.39572E-07         0.15955E-09         0.00000E+00
    0.39573E-07         0.14976E-09         0.00000E+00
    0.39574E-07         0.13931E-09         0.00000E+00
    0.39575E-07         0.12822E-09         0.00000E+00
    0.39576E-07         0.11649E-09         0.00000E+00
    0.39576E-07         0.10412E-09         0.00000E+00
    0.39577E-07         0.91122E-10         0.00000E+00
    0.39577E-07         0.77488E-10         0.00000E+00
    0.39578E-07         0.63226E-10         0.00000E+00
    0.39578E-07         0.48339E-10         0.00000E+00
    0.39579E-07         0.32828E-10         0.00000E+00
    0.39579E-07         0.16697E-10         0.00000E+00
    0.39579E-07         0.84773E-11         0.00000E+00
    0.38976E-07         0.91857E-11         0.00000E+00
    0.38976E-07         0.18088E-10         0.00000E+00
    0.38976E-07         0.35472E-10         0.00000E+00
    0.38977E-07         0.52016E-10         0.00000E+00
    0.38977E-07         0.67727E-10         0.00000E+00
    0.38978E-07         0.82613E-10         0.00000E+00
    0.38979E-07         0.96682E-10         0.00000E+00
    0.38979E-07         0.10994E-09         0.00000E+00
    0.38980E-07         0.12239E-09         0.00000E+00
    0.38982E-07         0.13405E-09         0.00000E+00
    0.38983E-07         0.14492E-09         0.00000E+00
    0.38984E-07         0.15500E-09         0.00000E+00
    0.38985E-07         0.16431E-09         0.00000E+00
    0.38987E-07         0.17284E-09         0.00000E+00
    0.38988E-07         0.18062E-09         0.00000E+00
    0.38990E-07         0.18764E-09         0.00000E+00
    0.38991E-07         0.19391E-09         0.00000E+00
    0.38993E-07         0.19943E-09         0.00000E+00
    0.38995E-07         0.20422E-09         0.00000E+00
    0.38996E-07         0.20828E-09         0.00000E+00
    0.38998E-07         0.21161E-09         0.00000E+00
    0.39000E-07         0.21422E-09         0.00000E+00
    0.39002E-07         0.21612E-09         0.00000E+00
    0.39003E-07         0.21732E-09         0.00000E+00
    0.39005E-07         0.21781E-09         0.00000E+00
    0.39007E-07         0.21761E-09         0.00000E+00
    0.39008E-07         0.21671E-09         0.00000E+00
    0.39010E-07         0.21513E-09         0.00000E+00
    0.39012E-07         0.21287E-09         0.00000E+00
    0.39014E-07         0.20993E-09         0.00000E+00
    0.39015E-07         0.20633E-09         0.00000E+00
    0.39017E-07         0.20206E-09         0.00000E+00
    0.39018E-07         0.19713E-09         0.00000E+00
    0.39020E-07         0.19154E-09         0.00000E+00
    0.39021E-07         0.18530E-09         0.00000E+00
    0.39023E-07         0.17841E-09         0.00000E+00
    0.39024E-07         0.17088E-09         0.00000E+00
    0.39025E-07         0.16271E-09         0.00000E+00
    0.39027E-07         0.15391E-09         0.00000E+00
    0.39028E-07         0.14447E-09         0.00000E+00
    0.39029E-07         0.13441E-09         0.00000E+00
    0.39030E-07         0.12372E-09         0.00000E+00
    0.39031E-07         0.11241E-09         0.00000E+00
    0.39032E-07         0.10049E-09         0.00000E+00
    0.39032E-07         0.87947E-10         0.00000E+00
    0.39033E-07         0.74795E-10         0.00000E+00
    0.39033E-07         0.61033E-10         0.00000E+00
    0.39034E-07         0.46666E-10         0.00000E+00
    0.39034E-07         0.31694E-10         0.00000E+00
    0.39034E-07         0.16122E-10         0.00000E+00
    0.39034E-07         0.81856E-11         0.00000E+00
    0.38454E-07         0.87672E-11         0.00000E+00
    0.38454E-07         0.17267E-10         0.00000E+00
    0.38455E-07         0.33866E-10         0.00000E+00
    0.38455E-07         0.49671E-10         0.00000E+00
    0.38456E-07         0.64686E-10         0.00000E+00
    0.38456E-07         0.78919E-10         0.00000E+00
    0.38457E-07         0.92375E-10         0.00000E+00
    0.38458E-07         0.10506E-09         0.00000E+00
    0.38459E-07         0.11698E-09         0.00000E+00
    0.38460E-07         0.12815E-09         0.00000E+00
    0.38462E-07         0.13856E-09         0.00000E+00
    0.38463E-07         0.14823E-09         0.00000E+00
    0.38464E-07         0.15716E-09         0.00000E+00
    0.38466E-07         0.16535E-09         0.00000E+00
    0.38467E-07         0.17282E-09         0.00000E+00
    0.38469E-07         0.17956E-09         0.00000E+00
    0.38471E-07         0.18559E-09         0.00000E+00
    0.38472E-07         0.19091E-09         0.00000E+00
    0.38474E-07         0.19553E-09         0.00000E+00
    0.38476E-07         0.19944E-09         0.00000E+00
    0.38478E-07         0.20266E-09         0.00000E+00
    0.38480E-07         0.20520E-09         0.00000E+00
    0.38482E-07         0.20705E-09         0.00000E+00
    0.38484E-07         0.20822E-09         0.00000E+00
    0.38485E-07         0.20872E-09         0.00000E+00
    0.38487E-07         0.20855E-09         0.00000E+00
    0.38489E-07         0.20772E-09         0.00000E+00
    0.38491E-07         0.20623E-09         0.00000E+00
    0.38493E-07         0.20409E-09         0.00000E+00
    0.38495E-07         0.20130E-09         0.00000E+00
    0.38496E-07         0.19787E-09         0.00000E+00
    0.38498E-07         0.19380E-09         0.00000E+00
    0.38500E-07         0.18909E-09         0.00000E+00
    0.38501E-07         0.18375E-09         0.00000E+00
    0.38503E-07         0.17778E-09         0.00000E+00
    0.38505E-07         0.17119E-09         0.00000E+00
    0.38506E-07         0.16398E-09         0.00000E+00
    0.38507E-07         0.15616E-09         0.00000E+00
    0.38509E-07         0.14773E-09         0.00000E+00
    0.38510E-07         0.13868E-09         0.00000E+00
    0.38511E-07         0.12903E-09         0.00000E+00
    0.38512E-07         0.11879E-09         0.00000E+00
    0.38513E-07         0.10794E-09         0.00000E+00
    0.38514E-07         0.96494E-10         0.00000E+00
    0.38515E-07         0.84459E-10         0.00000E+00
    0.38516E-07         0.71833E-10         0.00000E+00
    0.38516E-07         0.58621E-10         0.00000E+00
    0.38517E-07         0.44825E-10         0.00000E+00
    0.38517E-07         0.30446E-10         0.00000E+00
    0.38517E-07         0.15488E-10         0.00000E+00
    0.38517E-07         0.78641E-11         0.00000E+00
    0.37963E-07         0.83288E-11         0.00000E+00
    0.37963E-07         0.16405E-10         0.00000E+00
    0.37964E-07         0.32182E-10         0.00000E+00
    0.37964E-07         0.47209E-10         0.00000E+00
    0.37965E-07         0.61491E-10         0.00000E+00
    0.37965E-07         0.75034E-10         0.00000E+00
    0.37966E-07         0.87843E-10         0.00000E+00
    0.37967E-07         0.99925E-10         0.00000E+00
    0.37968E-07         0.11128E-09         0.00000E+00
    0.37969E-07         0.12192E-09         0.00000E+00
    0.37971E-07         0.13185E-09         0.00000E+00
    0.37972E-07         0.14108E-09         0.00000E+00
    0.37974E-07         0.14960E-09         0.00000E+00
    0.37975E-07         0.15742E-09         0.00000E+00
    0.37977E-07         0.16456E-09         0.00000E+00
    0.37979E-07         0.17101E-09         0.00000E+00
    0.37980E-07         0.17677E-09         0.00000E+00
    0.37982E-07         0.18187E-09         0.00000E+00
    0.37984E-07         0.18629E-09         0.00000E+00
    0.37986E-07         0.19005E-09         0.00000E+00
    0.37988E-07         0.19314E-09         0.00000E+00
    0.37990E-07         0.19558E-09         0.00000E+00
    0.37992E-07         0.19737E-09         0.00000E+00
    0.37994E-07         0.19852E-09         0.00000E+00
    0.37996E-07         0.19902E-09         0.00000E+00
    0.37998E-07         0.19888E-09         0.00000E+00
    0.38000E-07         0.19812E-09         0.00000E+00
    0.38002E-07         0.19672E-09         0.00000E+00
    0.38004E-07         0.19470E-09         0.00000E+00
    0.38006E-07         0.19206E-09         0.00000E+00
    0.38008E-07         0.18881E-09         0.00000E+00
    0.38009E-07         0.18494E-09         0.00000E+00
    0.38011E-07         0.18047E-09         0.00000E+00
    0.38013E-07         0.17539E-09         0.00000E+00
    0.38015E-07         0.16971E-09         0.00000E+00
    0.38016E-07         0.16344E-09         0.00000E+00
    0.38018E-07         0.15657E-09         0.00000E+00
    0.38019E-07         0.14912E-09         0.00000E+00
    0.38021E-07         0.14107E-09         0.00000E+00
    0.38022E-07         0.13245E-09         0.00000E+00
    0.38023E-07         0.12325E-09         0.00000E+00
    0.38025E-07         0.11347E-09         0.00000E+00
    0.38026E-07         0.10311E-09         0.00000E+00
    0.38027E-07         0.92188E-10         0.00000E+00
    0.38027E-07         0.80695E-10         0.00000E+00
    0.38028E-07         0.68638E-10         0.00000E+00
    0.38029E-07         0.56017E-10         0.00000E+00
    0.38029E-07         0.42836E-10         0.00000E+00
    0.38029E-07         0.29097E-10         0.00000E+00
    0.38030E-07         0.14803E-10         0.00000E+00
    0.38030E-07         0.75165E-11         0.00000E+00
    0.37505E-07         0.78744E-11         0.00000E+00
    0.37505E-07         0.15512E-10         0.00000E+00
    0.37505E-07         0.30434E-10         0.00000E+00
    0.37506E-07         0.44652E-10         0.00000E+00
    0.37506E-07         0.58170E-10         0.00000E+00
    0.37507E-07         0.70993E-10         0.00000E+00
    0.37508E-07         0.83126E-10         0.00000E+00
    0.37509E-07         0.94574E-10         0.00000E+00
    0.37510E-07         0.10534E-09         0.00000E+00
    0.37511E-07         0.11543E-09         0.00000E+00
    0.37513E-07         0.12485E-09         0.00000E+00
    0.37514E-07         0.13360E-09         0.00000E+00
    0.37516E-07         0.14169E-09         0.00000E+00
    0.37517E-07         0.14913E-09         0.00000E+00
    0.37519E-07         0.15591E-09         0.00000E+00
    0.37521E-07         0.16204E-09         0.00000E+00
    0.37523E-07         0.16753E-09         0.00000E+00
    0.37525E-07         0.17238E-09         0.00000E+00
    0.37527E-07         0.17660E-09         0.00000E+00
    0.37529E-07         0.18018E-09         0.00000E+00
    0.37531E-07         0.18314E-09         0.00000E+00
    0.37533E-07         0.18548E-09         0.00000E+00
    0.37535E-07         0.18720E-09         0.00000E+00
    0.37537E-07         0.18831E-09         0.00000E+00
    0.37539E-07         0.18880E-09         0.00000E+00
    0.37541E-07         0.18870E-09         0.00000E+00
    0.37543E-07         0.18799E-09         0.00000E+00
    0.37545E-07         0.18669E-09         0.00000E+00
    0.37547E-07         0.18479E-09         0.00000E+00
    0.37549E-07         0.18231E-09         0.00000E+00
    0.37551E-07         0.17923E-09         0.00000E+00
    0.37553E-07         0.17558E-09         0.00000E+00
    0.37555E-07         0.17135E-09         0.00000E+00
    0.37557E-07         0.16655E-09         0.00000E+00
    0.37559E-07         0.16117E-09         0.00000E+00
    0.37560E-07         0.15522E-09         0.00000E+00
    0.37562E-07         0.14872E-09         0.00000E+00
    0.37564E-07         0.14165E-09         0.00000E+00
    0.37565E-07         0.13402E-09         0.00000E+00
    0.37567E-07         0.12584E-09         0.00000E+00
    0.37568E-07         0.11710E-09         0.00000E+00
    0.37569E-07         0.10782E-09         0.00000E+00
    0.37570E-07         0.97985E-10         0.00000E+00
    0.37571E-07         0.87610E-10         0.00000E+00
    0.37572E-07         0.76693E-10         0.00000E+00
    0.37573E-07         0.65238E-10         0.00000E+00
    0.37573E-07         0.53246E-10         0.00000E+00
    0.37574E-07         0.40719E-10         0.00000E+00
    0.37574E-07         0.27661E-10         0.00000E+00
    0.37575E-07         0.14073E-10         0.00000E+00
    0.37575E-07         0.71461E-11         0.00000E+00
    0.37082E-07         0.74072E-11         0.00000E+00
    0.37082E-07         0.14593E-10         0.00000E+00
    0.37082E-07         0.28635E-10         0.00000E+00
    0.37083E-07         0.42019E-10         0.00000E+00
    0.37083E-07         0.54748E-10         0.00000E+00
    0.37084E-07         0.66827E-10         0.00000E+00
    0.37085E-07         0.78259E-10         0.00000E+00
    0.37086E-07         0.89050E-10         0.00000E+00
    0.37087E-07         0.99202E-10         0.00000E+00
    0.37088E-07         0.10872E-09         0.00000E+00
    0.37090E-07         0.11761E-09         0.00000E+00
    0.37091E-07         0.12587E-09         0.00000E+00
    0.37093E-07         0.13351E-09         0.00000E+00
    0.37095E-07         0.14053E-09         0.00000E+00
    0.37096E-07         0.14694E-09         0.00000E+00
    0.37098E-07         0.15274E-09         0.00000E+00
    0.37100E-07         0.15794E-09         0.00000E+00
    0.37102E-07         0.16253E-09         0.00000E+00
    0.37104E-07         0.16652E-09         0.00000E+00
    0.37106E-07         0.16992E-09         0.00000E+00
    0.37108E-07         0.17273E-09         0.00000E+00
    0.37110E-07         0.17496E-09         0.00000E+00
    0.37113E-07         0.17660E-09         0.00000E+00
    0.37115E-07         0.17766E-09         0.00000E+00
    0.37117E-07         0.17815E-09         0.00000E+00
    0.37119E-07         0.17807E-09         0.00000E+00
    0.37121E-07         0.17742E-09         0.00000E+00
    0.37123E-07         0.17621E-09         0.00000E+00
    0.37126E-07         0.17444E-09         0.00000E+00
    0.37128E-07         0.17211E-09         0.00000E+00
    0.37130E-07         0.16922E-09         0.00000E+00
    0.37132E-07         0.16579E-09         0.00000E+00
    0.37134E-07         0.16181E-09         0.00000E+00
    0.37136E-07         0.15728E-09         0.00000E+00
    0.37137E-07         0.15222E-09         0.00000E+00
    0.37139E-07         0.14662E-09         0.00000E+00
    0.37141E-07         0.14048E-09         0.00000E+00
    0.37143E-07         0.13381E-09         0.00000E+00
    0.37144E-07         0.12661E-09         0.00000E+00
    0.37146E-07         0.11889E-09         0.00000E+00
    0.37147E-07         0.11065E-09         0.00000E+00
    0.37148E-07         0.10188E-09         0.00000E+00
    0.37149E-07         0.92597E-10         0.00000E+00
    0.37150E-07         0.82797E-10         0.00000E+00
    0.37151E-07         0.72485E-10         0.00000E+00
    0.37152E-07         0.61661E-10         0.00000E+00
    0.37153E-07         0.50329E-10         0.00000E+00
    0.37153E-07         0.38491E-10         0.00000E+00
    0.37154E-07         0.26149E-10         0.00000E+00
    0.37154E-07         0.13304E-10         0.00000E+00
    0.37154E-07         0.67560E-11         0.00000E+00
    0.36696E-07         0.69301E-11         0.00000E+00
    0.36696E-07         0.13655E-10         0.00000E+00
    0.36696E-07         0.26797E-10         0.00000E+00
    0.36696E-07         0.39326E-10         0.00000E+00
    0.36697E-07         0.51247E-10         0.00000E+00
    0.36698E-07         0.62561E-10         0.00000E+00
    0.36699E-07         0.73274E-10         0.00000E+00
    0.36700E-07         0.83388E-10         0.00000E+00
    0.36701E-07         0.92906E-10         0.00000E+00
    0.36702E-07         0.10183E-09         0.00000E+00
    0.36704E-07         0.11017E-09         0.00000E+00
    0.36705E-07         0.11793E-09         0.00000E+00
    0.36707E-07         0.12510E-09         0.00000E+00
    0.36709E-07         0.13169E-09         0.00000E+00
    0.36711E-07         0.13772E-09         0.00000E+00
    0.36712E-07         0.14317E-09         0.00000E+00
    0.36714E-07         0.14805E-09         0.00000E+00
    0.36716E-07         0.15237E-09         0.00000E+00
    0.36719E-07         0.15613E-09         0.00000E+00
    0.36721E-07         0.15934E-09         0.00000E+00
    0.36723E-07         0.16199E-09         0.00000E+00
    0.36725E-07         0.16409E-09         0.00000E+00
    0.36727E-07         0.16565E-09         0.00000E+00
    0.36729E-07         0.16666E-09         0.00000E+00
    0.36732E-07         0.16714E-09         0.00000E+00
    0.36734E-07         0.16708E-09         0.00000E+00
    0.36736E-07         0.16648E-09         0.00000E+00
    0.36738E-07         0.16536E-09         0.00000E+00
    0.36741E-07         0.16371E-09         0.00000E+00
    0.36743E-07         0.16153E-09         0.00000E+00
    0.36745E-07         0.15884E-09         0.00000E+00
    0.36747E-07         0.15563E-09         0.00000E+00
    0.36749E-07         0.15190E-09         0.00000E+00
    0.36751E-07         0.14767E-09         0.00000E+00
    0.36753E-07         0.14292E-09         0.00000E+00
    0.36755E-07         0.13767E-09         0.00000E+00
    0.36757E-07         0.13192E-09         0.00000E+00
    0.36758E-07         0.12567E-09         0.00000E+00
    0.36760E-07         0.11891E-09         0.00000E+00
    0.36761E-07         0.11167E-09         0.00000E+00
    0.36763E-07         0.10393E-09         0.00000E+00
    0.36764E-07         0.95701E-10         0.00000E+00
    0.36765E-07         0.86985E-10         0.00000E+00
    0.36766E-07         0.77784E-10         0.00000E+00
    0.36767E-07         0.68099E-10         0.00000E+00
    0.36768E-07         0.57934E-10         0.00000E+00
    0.36769E-07         0.47289E-10         0.00000E+00
    0.36769E-07         0.36168E-10         0.00000E+00
    0.36770E-07         0.24571E-10         0.00000E+00
    0.36770E-07         0.12502E-10         0.00000E+00
    0.36770E-07         0.63489E-11         0.00000E+00
    0.36348E-07         0.64457E-11         0.00000E+00
    0.36348E-07         0.12701E-10         0.00000E+00
    0.36349E-07         0.24928E-10         0.00000E+00
    0.36349E-07         0.36588E-10         0.00000E+00
    0.36350E-07         0.47684E-10         0.00000E+00
    0.36351E-07         0.58219E-10         0.00000E+00
    0.36352E-07         0.68196E-10         0.00000E+00
    0.36353E-07         0.77617E-10         0.00000E+00
    0.36354E-07         0.86487E-10         0.00000E+00
    0.36355E-07         0.94807E-10         0.00000E+00
    0.36357E-07         0.10258E-09         0.00000E+00
    0.36358E-07         0.10981E-09         0.00000E+00
    0.36360E-07         0.11650E-09         0.00000E+00
    0.36362E-07         0.12266E-09         0.00000E+00
    0.36364E-07         0.12828E-09         0.00000E+00
    0.36366E-07         0.13337E-09         0.00000E+00
    0.36368E-07         0.13793E-09         0.00000E+00
    0.36370E-07         0.14197E-09         0.00000E+00
    0.36372E-07         0.14549E-09         0.00000E+00
    0.36374E-07         0.14849E-09         0.00000E+00
    0.36376E-07         0.15097E-09         0.00000E+00
    0.36378E-07         0.15294E-09         0.00000E+00
    0.36381E-07         0.15441E-09         0.00000E+00
    0.36383E-07         0.15537E-09         0.00000E+00
    0.36385E-07         0.15582E-09         0.00000E+00
    0.36387E-07         0.15577E-09         0.00000E+00
    0.36390E-07         0.15523E-09         0.00000E+00
    0.36392E-07         0.15419E-09         0.00000E+00
    0.36394E-07         0.15267E-09         0.00000E+00
    0.36397E-07         0.15065E-09         0.00000E+00
    0.36399E-07         0.14815E-09         0.00000E+00
    0.36401E-07         0.14516E-09         0.00000E+00
    0.36403E-07         0.14170E-09         0.00000E+00
    0.36405E-07         0.13775E-09         0.00000E+00
    0.36407E-07         0.13333E-09         0.00000E+00
    0.36409E-07         0.12844E-09         0.00000E+00
    0.36411E-07         0.12308E-09         0.00000E+00
    0.36412E-07         0.11725E-09         0.00000E+00
    0.36414E-07         0.11096E-09         0.00000E+00
    0.36416E-07         0.10421E-09         0.00000E+00
    0.36417E-07         0.96989E-10         0.00000E+00
    0.36418E-07         0.89314E-10         0.00000E+00
    0.36420E-07         0.81183E-10         0.00000E+00
    0.36421E-07         0.72599E-10         0.00000E+00
    0.36422E-07         0.63562E-10         0.00000E+00
    0.36423E-07         0.54076E-10         0.00000E+00
    0.36423E-07         0.44142E-10         0.00000E+00
    0.36424E-07         0.33762E-10         0.00000E+00
    0.36424E-07         0.22938E-10         0.00000E+00
    0.36425E-07         0.11671E-10         0.00000E+00
    0.36425E-07         0.59271E-11         0.00000E+00
    0.36042E-07         0.59560E-11         0.00000E+00
    0.36042E-07         0.11737E-10         0.00000E+00
    0.36042E-07         0.23038E-10         0.00000E+00
    0.36043E-07         0.33816E-10         0.00000E+00
    0.36043E-07         0.44076E-10         0.00000E+00
    0.36044E-07         0.53818E-10         0.00000E+00
    0.36045E-07         0.63047E-10         0.00000E+00
    0.36046E-07         0.71763E-10         0.00000E+00
    0.36047E-07         0.79971E-10         0.00000E+00
    0.36049E-07         0.87672E-10         0.00000E+00
    0.36050E-07         0.94869E-10         0.00000E+00
    0.36052E-07         0.10156E-09         0.00000E+00
    0.36053E-07         0.10776E-09         0.00000E+00
    0.36055E-07         0.11346E-09         0.00000E+00
    0.36057E-07         0.11867E-09         0.00000E+00
    0.36059E-07         0.12339E-09         0.00000E+00
    0.36061E-07         0.12762E-09         0.00000E+00
    0.36063E-07         0.13137E-09         0.00000E+00
    0.36065E-07         0.13463E-09         0.00000E+00
    0.36068E-07         0.13742E-09         0.00000E+00
    0.36070E-07         0.13973E-09         0.00000E+00
    0.36072E-07         0.14156E-09         0.00000E+00
    0.36075E-07         0.14293E-09         0.00000E+00
    0.36077E-07         0.14382E-09         0.00000E+00
    0.36079E-07         0.14425E-09         0.00000E+00
    0.36082E-07         0.14422E-09         0.00000E+00
    0.36084E-07         0.14372E-09         0.00000E+00
    0.36086E-07         0.14277E-09         0.00000E+00
    0.36088E-07         0.14136E-09         0.00000E+00
    0.36091E-07         0.13950E-09         0.00000E+00
    0.36093E-07         0.13719E-09         0.00000E+00
    0.36095E-07         0.13444E-09         0.00000E+00
    0.36097E-07         0.13123E-09         0.00000E+00
    0.36099E-07         0.12759E-09         0.00000E+00
    0.36101E-07         0.12350E-09         0.00000E+00
    0.36103E-07         0.11897E-09         0.00000E+00
    0.36105E-07         0.11401E-09         0.00000E+00
    0.36107E-07         0.10862E-09         0.00000E+00
    0.36109E-07         0.10279E-09         0.00000E+00
    0.36110E-07         0.96538E-10         0.00000E+00
    0.36112E-07         0.89856E-10         0.00000E+00
    0.36113E-07         0.82749E-10         0.00000E+00
    0.36115E-07         0.75218E-10         0.00000E+00
    0.36116E-07         0.67266E-10         0.00000E+00
    0.36117E-07         0.58895E-10         0.00000E+00
    0.36118E-07         0.50107E-10         0.00000E+00
    0.36118E-07         0.40903E-10         0.00000E+00
    0.36119E-07         0.31286E-10         0.00000E+00
    0.36119E-07         0.21256E-10         0.00000E+00
    0.36120E-07         0.10815E-10         0.00000E+00
    0.36120E-07         0.54927E-11         0.00000E+00
    0.35777E-07         0.54624E-11         0.00000E+00
    0.35777E-07         0.10765E-10         0.00000E+00
    0.35778E-07         0.21131E-10         0.00000E+00
    0.35778E-07         0.31019E-10         0.00000E+00
    0.35779E-07         0.40433E-10         0.00000E+00
    0.35780E-07         0.49373E-10         0.00000E+00
    0.35781E-07         0.57843E-10         0.00000E+00
    0.35782E-07         0.65845E-10         0.00000E+00
    0.35783E-07         0.73380E-10         0.00000E+00
    0.35784E-07         0.80451E-10         0.00000E+00
    0.35786E-07         0.87061E-10         0.00000E+00
    0.35788E-07         0.93212E-10         0.00000E+00
    0.35789E-07         0.98905E-10         0.00000E+00
    0.35791E-07         0.10414E-09         0.00000E+00
    0.35793E-07         0.10893E-09         0.00000E+00
    0.35795E-07         0.11327E-09         0.00000E+00
    0.35797E-07         0.11716E-09         0.00000E+00
    0.35799E-07         0.12060E-09         0.00000E+00
    0.35801E-07         0.12361E-09         0.00000E+00
    0.35804E-07         0.12617E-09         0.00000E+00
    0.35806E-07         0.12830E-09         0.00000E+00
    0.35808E-07         0.12999E-09         0.00000E+00
    0.35811E-07         0.13124E-09         0.00000E+00
    0.35813E-07         0.13207E-09         0.00000E+00
    0.35815E-07         0.13247E-09         0.00000E+00
    0.35818E-07         0.13245E-09         0.00000E+00
    0.35820E-07         0.13200E-09         0.00000E+00
    0.35822E-07         0.13113E-09         0.00000E+00
    0.35825E-07         0.12984E-09         0.00000E+00
    0.35827E-07         0.12814E-09         0.00000E+00
    0.35829E-07         0.12602E-09         0.00000E+00
    0.35832E-07         0.12349E-09         0.00000E+00
    0.35834E-07         0.12055E-09         0.00000E+00
    0.35836E-07         0.11721E-09         0.00000E+00
    0.35838E-07         0.11345E-09         0.00000E+00
    0.35840E-07         0.10930E-09         0.00000E+00
    0.35842E-07         0.10475E-09         0.00000E+00
    0.35844E-07         0.99793E-10         0.00000E+00
    0.35845E-07         0.94443E-10         0.00000E+00
    0.35847E-07         0.88698E-10         0.00000E+00
    0.35849E-07         0.82560E-10         0.00000E+00
    0.35850E-07         0.76031E-10         0.00000E+00
    0.35851E-07         0.69113E-10         0.00000E+00
    0.35852E-07         0.61808E-10         0.00000E+00
    0.35854E-07         0.54117E-10         0.00000E+00
    0.35854E-07         0.46043E-10         0.00000E+00
    0.35855E-07         0.37586E-10         0.00000E+00
    0.35856E-07         0.28749E-10         0.00000E+00
    0.35856E-07         0.19532E-10         0.00000E+00
    0.35856E-07         0.99386E-11         0.00000E+00
    0.35857E-07         0.50475E-11         0.00000E+00
    0.35557E-07         0.49660E-11         0.00000E+00
    0.35557E-07         0.97870E-11         0.00000E+00
    0.35557E-07         0.19212E-10         0.00000E+00
    0.35558E-07         0.28204E-10         0.00000E+00
    0.35558E-07         0.36764E-10         0.00000E+00
    0.35559E-07         0.44895E-10         0.00000E+00
    0.35560E-07         0.52599E-10         0.00000E+00
    0.35561E-07         0.59877E-10         0.00000E+00
    0.35562E-07         0.66731E-10         0.00000E+00
    0.35564E-07         0.73165E-10         0.00000E+00
    0.35565E-07         0.79178E-10         0.00000E+00
    0.35567E-07         0.84774E-10         0.00000E+00
    0.35569E-07         0.89955E-10         0.00000E+00
    0.35571E-07         0.94723E-10         0.00000E+00
    0.35572E-07         0.99080E-10         0.00000E+00
    0.35574E-07         0.10303E-09         0.00000E+00
    0.35577E-07         0.10657E-09         0.00000E+00
    0.35579E-07         0.10971E-09         0.00000E+00
    0.35581E-07         0.11244E-09         0.00000E+00
    0.35583E-07         0.11477E-09         0.00000E+00
    0.35586E-07         0.11671E-09         0.00000E+00
    0.35588E-07         0.11825E-09         0.00000E+00
    0.35590E-07         0.11940E-09         0.00000E+00
    0.35593E-07         0.12015E-09         0.00000E+00
    0.35595E-07         0.12052E-09         0.00000E+00
    0.35597E-07         0.12050E-09         0.00000E+00
    0.35600E-07         0.12009E-09         0.00000E+00
    0.35602E-07         0.11930E-09         0.00000E+00
    0.35605E-07         0.11813E-09         0.00000E+00
    0.35607E-07         0.11658E-09         0.00000E+00
    0.35609E-07         0.11466E-09         0.00000E+00
    0.35612E-07         0.11236E-09         0.00000E+00
    0.35614E-07         0.10969E-09         0.00000E+00
    0.35616E-07         0.10664E-09         0.00000E+00
    0.35618E-07         0.10323E-09         0.00000E+00
    0.35620E-07         0.99453E-10         0.00000E+00
    0.35622E-07         0.95309E-10         0.00000E+00
    0.35624E-07         0.90803E-10         0.00000E+00
    0.35626E-07         0.85935E-10         0.00000E+00
    0.35627E-07         0.80708E-10         0.00000E+00
    0.35629E-07         0.75124E-10         0.00000E+00
    0.35630E-07         0.69183E-10         0.00000E+00
    0.35632E-07         0.62888E-10         0.00000E+00
    0.35633E-07         0.56241E-10         0.00000E+00
    0.35634E-07         0.49243E-10         0.00000E+00
    0.35635E-07         0.41896E-10         0.00000E+00
    0.35636E-07         0.34201E-10         0.00000E+00
    0.35636E-07         0.26159E-10         0.00000E+00
    0.35637E-07         0.17773E-10         0.00000E+00
    0.35637E-07         0.90434E-11         0.00000E+00
    0.35637E-07         0.45928E-11         0.00000E+00
    0.35381E-07         0.44677E-11         0.00000E+00
    0.35381E-07         0.88049E-11         0.00000E+00
    0.35381E-07         0.17284E-10         0.00000E+00
    0.35382E-07         0.25374E-10         0.00000E+00
    0.35382E-07         0.33075E-10         0.00000E+00
    0.35383E-07         0.40391E-10         0.00000E+00
    0.35384E-07         0.47321E-10         0.00000E+00
    0.35385E-07         0.53869E-10         0.00000E+00
    0.35387E-07         0.60036E-10         0.00000E+00
    0.35388E-07         0.65823E-10         0.00000E+00
    0.35390E-07         0.71233E-10         0.00000E+00
    0.35391E-07         0.76268E-10         0.00000E+00
    0.35393E-07         0.80929E-10         0.00000E+00
    0.35395E-07         0.85218E-10         0.00000E+00
    0.35397E-07         0.89137E-10         0.00000E+00
    0.35399E-07         0.92688E-10         0.00000E+00
    0.35401E-07         0.95873E-10         0.00000E+00
    0.35403E-07         0.98695E-10         0.00000E+00
    0.35405E-07         0.10115E-09         0.00000E+00
    0.35408E-07         0.10325E-09         0.00000E+00
    0.35410E-07         0.10499E-09         0.00000E+00
    0.35412E-07         0.10638E-09         0.00000E+00
    0.35415E-07         0.10741E-09         0.00000E+00
    0.35417E-07         0.10809E-09         0.00000E+00
    0.35420E-07         0.10842E-09         0.00000E+00
    0.35422E-07         0.10840E-09         0.00000E+00
    0.35425E-07         0.10803E-09         0.00000E+00
    0.35427E-07         0.10732E-09         0.00000E+00
    0.35429E-07         0.10626E-09         0.00000E+00
    0.35432E-07         0.10487E-09         0.00000E+00
    0.35434E-07         0.10314E-09         0.00000E+00
    0.35436E-07         0.10107E-09         0.00000E+00
    0.35439E-07         0.98662E-10         0.00000E+00
    0.35441E-07         0.95923E-10         0.00000E+00
    0.35443E-07         0.92853E-10         0.00000E+00
    0.35445E-07         0.89453E-10         0.00000E+00
    0.35447E-07         0.85724E-10         0.00000E+00
    0.35449E-07         0.81670E-10         0.00000E+00
    0.35451E-07         0.77290E-10         0.00000E+00
    0.35452E-07         0.72588E-10         0.00000E+00
    0.35454E-07         0.67564E-10         0.00000E+00
    0.35455E-07         0.62220E-10         0.00000E+00
    0.35457E-07         0.56558E-10         0.00000E+00
    0.35458E-07         0.50579E-10         0.00000E+00
    0.35459E-07         0.44285E-10         0.00000E+00
    0.35460E-07         0.37676E-10         0.00000E+00
    0.35461E-07         0.30756E-10         0.00000E+00
    0.35461E-07         0.23524E-10         0.00000E+00
    0.35462E-07         0.15982E-10         0.00000E+00
    0.35462E-07         0.81319E-11         0.00000E+00
    0.35462E-07         0.41299E-11         0.00000E+00
    0.35251E-07         0.39678E-11         0.00000E+00
    0.35251E-07         0.78194E-11         0.00000E+00
    0.35252E-07         0.15349E-10         0.00000E+00
    0.35252E-07         0.22532E-10         0.00000E+00
    0.35253E-07         0.29370E-10         0.00000E+00
    0.35254E-07         0.35864E-10         0.00000E+00
    0.35255E-07         0.42016E-10         0.00000E+00
    0.35256E-07         0.47827E-10         0.00000E+00
    0.35257E-07         0.53300E-10         0.00000E+00
    0.35259E-07         0.58435E-10         0.00000E+00
    0.35260E-07         0.63235E-10         0.00000E+00
    0.35262E-07         0.67701E-10         0.00000E+00
    0.35264E-07         0.71835E-10         0.00000E+00
    0.35265E-07         0.75638E-10         0.00000E+00
    0.35267E-07         0.79113E-10         0.00000E+00
    0.35269E-07         0.82261E-10         0.00000E+00
    0.35272E-07         0.85085E-10         0.00000E+00
    0.35274E-07         0.87584E-10         0.00000E+00
    0.35276E-07         0.89762E-10         0.00000E+00
    0.35278E-07         0.91621E-10         0.00000E+00
    0.35281E-07         0.93162E-10         0.00000E+00
    0.35283E-07         0.94386E-10         0.00000E+00
    0.35286E-07         0.95296E-10         0.00000E+00
    0.35288E-07         0.95894E-10         0.00000E+00
    0.35290E-07         0.96180E-10         0.00000E+00
    0.35293E-07         0.96158E-10         0.00000E+00
    0.35295E-07         0.95828E-10         0.00000E+00
    0.35298E-07         0.95193E-10         0.00000E+00
    0.35300E-07         0.94254E-10         0.00000E+00
    0.35303E-07         0.93013E-10         0.00000E+00
    0.35305E-07         0.91472E-10         0.00000E+00
    0.35307E-07         0.89631E-10         0.00000E+00
    0.35310E-07         0.87494E-10         0.00000E+00
    0.35312E-07         0.85062E-10         0.00000E+00
    0.35314E-07         0.82335E-10         0.00000E+00
    0.35316E-07         0.79317E-10         0.00000E+00
    0.35318E-07         0.76007E-10         0.00000E+00
    0.35320E-07         0.72409E-10         0.00000E+00
    0.35322E-07         0.68523E-10         0.00000E+00
    0.35323E-07         0.64351E-10         0.00000E+00
    0.35325E-07         0.59895E-10         0.00000E+00
    0.35327E-07         0.55155E-10         0.00000E+00
    0.35328E-07         0.50133E-10         0.00000E+00
    0.35329E-07         0.44832E-10         0.00000E+00
    0.35330E-07         0.39251E-10         0.00000E+00
    0.35331E-07         0.33392E-10         0.00000E+00
    0.35332E-07         0.27257E-10         0.00000E+00
    0.35333E-07         0.20847E-10         0.00000E+00
    0.35333E-07         0.14163E-10         0.00000E+00
    0.35333E-07         0.72060E-11         0.00000E+00
    0.35333E-07         0.36595E-11         0.00000E+00
    0.35169E-07         0.34662E-11         0.00000E+00
    0.35169E-07         0.68305E-11         0.00000E+00
    0.35169E-07         0.13407E-10         0.00000E+00
    0.35170E-07         0.19678E-10         0.00000E+00
    0.35171E-07         0.25647E-10         0.00000E+00
    0.35171E-07         0.31315E-10         0.00000E+00
    0.35172E-07         0.36683E-10         0.00000E+00
    0.35174E-07         0.41752E-10         0.00000E+00
    0.35175E-07         0.46525E-10         0.00000E+00
    0.35176E-07         0.51002E-10         0.00000E+00
    0.35178E-07         0.55186E-10         0.00000E+00
    0.35179E-07         0.59077E-10         0.00000E+00
    0.35181E-07         0.62678E-10         0.00000E+00
    0.35183E-07         0.65990E-10         0.00000E+00
    0.35185E-07         0.69015E-10         0.00000E+00
    0.35187E-07         0.71754E-10         0.00000E+00
    0.35189E-07         0.74208E-10         0.00000E+00
    0.35192E-07         0.76381E-10         0.00000E+00
    0.35194E-07         0.78273E-10         0.00000E+00
    0.35196E-07         0.79886E-10         0.00000E+00
    0.35199E-07         0.81221E-10         0.00000E+00
    0.35201E-07         0.82281E-10         0.00000E+00
    0.35203E-07         0.83066E-10         0.00000E+00
    0.35206E-07         0.83579E-10         0.00000E+00
    0.35208E-07         0.83821E-10         0.00000E+00
    0.35211E-07         0.83793E-10         0.00000E+00
    0.35213E-07         0.83498E-10         0.00000E+00
    0.35216E-07         0.82937E-10         0.00000E+00
    0.35218E-07         0.82112E-10         0.00000E+00
    0.35221E-07         0.81023E-10         0.00000E+00
    0.35223E-07         0.79673E-10         0.00000E+00
    0.35225E-07         0.78063E-10         0.00000E+00
    0.35228E-07         0.76195E-10         0.00000E+00
    0.35230E-07         0.74070E-10         0.00000E+00
    0.35232E-07         0.71690E-10         0.00000E+00
    0.35234E-07         0.69055E-10         0.00000E+00
    0.35236E-07         0.66169E-10         0.00000E+00
    0.35238E-07         0.63031E-10         0.00000E+00
    0.35240E-07         0.59643E-10         0.00000E+00
    0.35242E-07         0.56007E-10         0.00000E+00
    0.35243E-07         0.52124E-10         0.00000E+00
    0.35245E-07         0.47995E-10         0.00000E+00
    0.35246E-07         0.43622E-10         0.00000E+00
    0.35248E-07         0.39006E-10         0.00000E+00
    0.35249E-07         0.34147E-10         0.00000E+00
    0.35250E-07         0.29048E-10         0.00000E+00
    0.35250E-07         0.23710E-10         0.00000E+00
    0.35251E-07         0.18132E-10         0.00000E+00
    0.35251E-07         0.12318E-10         0.00000E+00
    0.35252E-07         0.62667E-11         0.00000E+00
    0.35252E-07         0.31823E-11         0.00000E+00
    0.35135E-07         0.29627E-11         0.00000E+00
    0.35135E-07         0.58375E-11         0.00000E+00
    0.35135E-07         0.11456E-10         0.00000E+00
    0.35136E-07         0.16812E-10         0.00000E+00
    0.35136E-07         0.21907E-10         0.00000E+00
    0.35137E-07         0.26743E-10         0.00000E+00
    0.35138E-07         0.31321E-10         0.00000E+00
    0.35139E-07         0.35643E-10         0.00000E+00
    0.35141E-07         0.39709E-10         0.00000E+00
    0.35142E-07         0.43522E-10         0.00000E+00
    0.35144E-07         0.47084E-10         0.00000E+00
    0.35145E-07         0.50395E-10         0.00000E+00
    0.35147E-07         0.53456E-10         0.00000E+00
    0.35149E-07         0.56271E-10         0.00000E+00
    0.35151E-07         0.58839E-10         0.00000E+00
    0.35153E-07         0.61164E-10         0.00000E+00
    0.35155E-07         0.63245E-10         0.00000E+00
    0.35158E-07         0.65085E-10         0.00000E+00
    0.35160E-07         0.66686E-10         0.00000E+00
    0.35162E-07         0.68048E-10         0.00000E+00
    0.35165E-07         0.69174E-10         0.00000E+00
    0.35167E-07         0.70065E-10         0.00000E+00
    0.35169E-07         0.70721E-10         0.00000E+00
    0.35172E-07         0.71146E-10         0.00000E+00
    0.35174E-07         0.71341E-10         0.00000E+00
    0.35177E-07         0.71306E-10         0.00000E+00
    0.35179E-07         0.71043E-10         0.00000E+00
    0.35182E-07         0.70555E-10         0.00000E+00
    0.35184E-07         0.69841E-10         0.00000E+00
    0.35187E-07         0.68905E-10         0.00000E+00
    0.35189E-07         0.67746E-10         0.00000E+00
    0.35192E-07         0.66368E-10         0.00000E+00
    0.35194E-07         0.64769E-10         0.00000E+00
    0.35196E-07         0.62954E-10         0.00000E+00
    0.35199E-07         0.60922E-10         0.00000E+00
    0.35201E-07         0.58674E-10         0.00000E+00
    0.35203E-07         0.56214E-10         0.00000E+00
    0.35205E-07         0.53540E-10         0.00000E+00
    0.35207E-07         0.50655E-10         0.00000E+00
    0.35208E-07         0.47561E-10         0.00000E+00
    0.35210E-07         0.44257E-10         0.00000E+00
    0.35211E-07         0.40746E-10         0.00000E+00
    0.35213E-07         0.37029E-10         0.00000E+00
    0.35214E-07         0.33106E-10         0.00000E+00
    0.35215E-07         0.28978E-10         0.00000E+00
    0.35216E-07         0.24648E-10         0.00000E+00
    0.35217E-07         0.20115E-10         0.00000E+00
    0.35218E-07         0.15382E-10         0.00000E+00
    0.35218E-07         0.10448E-10         0.00000E+00
    0.35218E-07         0.53148E-11         0.00000E+00
    0.35218E-07         0.26986E-11         0.00000E+00
    0.35150E-07         0.24567E-11         0.00000E+00
    0.35150E-07         0.48393E-11         0.00000E+00
    0.35150E-07         0.94942E-11         0.00000E+00
    0.35150E-07         0.13929E-10         0.00000E+00
    0.35151E-07         0.18144E-10         0.00000E+00
    0.35152E-07         0.22143E-10         0.00000E+00
    0.35153E-07         0.25925E-10         0.00000E+00
    0.35154E-07         0.29493E-10         0.00000E+00
    0.35155E-07         0.32847E-10         0.00000E+00
    0.35157E-07         0.35990E-10         0.00000E+00
    0.35158E-07         0.38923E-10         0.00000E+00
    0.35160E-07         0.41647E-10         0.00000E+00
    0.35162E-07         0.44164E-10         0.00000E+00
    0.35164E-07         0.46475E-10         0.00000E+00
    0.35166E-07         0.48582E-10         0.00000E+00
    0.35168E-07         0.50486E-10         0.00000E+00
    0.35170E-07         0.52189E-10         0.00000E+00
    0.35172E-07         0.53692E-10         0.00000E+00
    0.35175E-07         0.54997E-10         0.00000E+00
    0.35177E-07         0.56104E-10         0.00000E+00
    0.35180E-07         0.57016E-10         0.00000E+00
    0.35182E-07         0.57734E-10         0.00000E+00
    0.35185E-07         0.58259E-10         0.00000E+00
    0.35187E-07         0.58593E-10         0.00000E+00
    0.35190E-07         0.58737E-10         0.00000E+00
    0.35192E-07         0.58693E-10         0.00000E+00
    0.35195E-07         0.58461E-10         0.00000E+00
    0.35197E-07         0.58044E-10         0.00000E+00
    0.35200E-07         0.57443E-10         0.00000E+00
    0.35202E-07         0.56658E-10         0.00000E+00
    0.35205E-07         0.55691E-10         0.00000E+00
    0.35207E-07         0.54544E-10         0.00000E+00
    0.35209E-07         0.53217E-10         0.00000E+00
    0.35212E-07         0.51713E-10         0.00000E+00
    0.35214E-07         0.50032E-10         0.00000E+00
    0.35216E-07         0.48175E-10         0.00000E+00
    0.35218E-07         0.46143E-10         0.00000E+00
    0.35220E-07         0.43939E-10         0.00000E+00
    0.35222E-07         0.41562E-10         0.00000E+00
    0.35224E-07         0.39014E-10         0.00000E+00
    0.35225E-07         0.36296E-10         0.00000E+00
    0.35227E-07         0.33409E-10         0.00000E+00
    0.35228E-07         0.30354E-10         0.00000E+00
    0.35230E-07         0.27133E-10         0.00000E+00
    0.35231E-07         0.23745E-10         0.00000E+00
    0.35232E-07         0.20193E-10         0.00000E+00
    0.35233E-07         0.16476E-10         0.00000E+00
    0.35233E-07         0.12596E-10         0.00000E+00
    0.35234E-07         0.85542E-11         0.00000E+00
    0.35234E-07         0.43507E-11         0.00000E+00
    0.35234E-07         0.22088E-11         0.00000E+00
    0.35214E-07         0.19473E-11         0.00000E+00
    0.35214E-07         0.38345E-11         0.00000E+00
    0.35214E-07         0.75192E-11         0.00000E+00
    0.35215E-07         0.11025E-10         0.00000E+00
    0.35216E-07         0.14355E-10         0.00000E+00
    0.35216E-07         0.17508E-10         0.00000E+00
    0.35217E-07         0.20488E-10         0.00000E+00
    0.35219E-07         0.23295E-10         0.00000E+00
    0.35220E-07         0.25931E-10         0.00000E+00
    0.35221E-07         0.28397E-10         0.00000E+00
    0.35223E-07         0.30694E-10         0.00000E+00
    0.35225E-07         0.32826E-10         0.00000E+00
    0.35227E-07         0.34791E-10         0.00000E+00
    0.35228E-07         0.36593E-10         0.00000E+00
    0.35230E-07         0.38233E-10         0.00000E+00
    0.35233E-07         0.39711E-10         0.00000E+00
    0.35235E-07         0.41030E-10         0.00000E+00
    0.35237E-07         0.42191E-10         0.00000E+00
    0.35239E-07         0.43195E-10         0.00000E+00
    0.35242E-07         0.44044E-10         0.00000E+00
    0.35244E-07         0.44738E-10         0.00000E+00
    0.35247E-07         0.45280E-10         0.00000E+00
    0.35249E-07         0.45671E-10         0.00000E+00
    0.35252E-07         0.45911E-10         0.00000E+00
    0.35254E-07         0.46003E-10         0.00000E+00
    0.35257E-07         0.45947E-10         0.00000E+00
    0.35260E-07         0.45746E-10         0.00000E+00
    0.35262E-07         0.45399E-10         0.00000E+00
    0.35265E-07         0.44909E-10         0.00000E+00
    0.35267E-07         0.44276E-10         0.00000E+00
    0.35270E-07         0.43502E-10         0.00000E+00
    0.35272E-07         0.42588E-10         0.00000E+00
    0.35274E-07         0.41535E-10         0.00000E+00
    0.35277E-07         0.40344E-10         0.00000E+00
    0.35279E-07         0.39016E-10         0.00000E+00
    0.35281E-07         0.37553E-10         0.00000E+00
    0.35283E-07         0.35955E-10         0.00000E+00
    0.35285E-07         0.34224E-10         0.00000E+00
    0.35287E-07         0.32360E-10         0.00000E+00
    0.35289E-07         0.30365E-10         0.00000E+00
    0.35291E-07         0.28239E-10         0.00000E+00
    0.35292E-07         0.25983E-10         0.00000E+00
    0.35294E-07         0.23599E-10         0.00000E+00
    0.35295E-07         0.21086E-10         0.00000E+00
    0.35296E-07         0.18447E-10         0.00000E+00
    0.35297E-07         0.15682E-10         0.00000E+00
    0.35298E-07         0.12791E-10         0.00000E+00
    0.35299E-07         0.97757E-11         0.00000E+00
    0.35299E-07         0.66366E-11         0.00000E+00
    0.35299E-07         0.33744E-11         0.00000E+00
    0.35299E-07         0.17126E-11         0.00000E+00
    0.35329E-07         0.14336E-11         0.00000E+00
    0.35329E-07         0.28209E-11         0.00000E+00
    0.35329E-07         0.55270E-11         0.00000E+00
    0.35330E-07         0.80964E-11         0.00000E+00
    0.35330E-07         0.10531E-10         0.00000E+00
    0.35331E-07         0.12831E-10         0.00000E+00
    0.35332E-07         0.15000E-10         0.00000E+00
    0.35333E-07         0.17039E-10         0.00000E+00
    0.35335E-07         0.18948E-10         0.00000E+00
    0.35336E-07         0.20730E-10         0.00000E+00
    0.35338E-07         0.22385E-10         0.00000E+00
    0.35340E-07         0.23917E-10         0.00000E+00
    0.35341E-07         0.25325E-10         0.00000E+00
    0.35343E-07         0.26611E-10         0.00000E+00
    0.35345E-07         0.27778E-10         0.00000E+00
    0.35348E-07         0.28825E-10         0.00000E+00
    0.35350E-07         0.29755E-10         0.00000E+00
    0.35352E-07         0.30569E-10         0.00000E+00
    0.35354E-07         0.31268E-10         0.00000E+00
    0.35357E-07         0.31854E-10         0.00000E+00
    0.35359E-07         0.32327E-10         0.00000E+00
    0.35362E-07         0.32690E-10         0.00000E+00
    0.35364E-07         0.32943E-10         0.00000E+00
    0.35367E-07         0.33088E-10         0.00000E+00
    0.35370E-07         0.33126E-10         0.00000E+00
    0.35372E-07         0.33058E-10         0.00000E+00
    0.35375E-07         0.32885E-10         0.00000E+00
    0.35377E-07         0.32609E-10         0.00000E+00
    0.35380E-07         0.32231E-10         0.00000E+00
    0.35382E-07         0.31751E-10         0.00000E+00
    0.35385E-07         0.31171E-10         0.00000E+00
    0.35387E-07         0.30491E-10         0.00000E+00
    0.35390E-07         0.29714E-10         0.00000E+00
    0.35392E-07         0.28840E-10         0.00000E+00
    0.35394E-07         0.27869E-10         0.00000E+00
    0.35397E-07         0.26804E-10         0.00000E+00
    0.35399E-07         0.25644E-10         0.00000E+00
    0.35401E-07         0.24391E-10         0.00000E+00
    0.35403E-07         0.23046E-10         0.00000E+00
    0.35405E-07         0.21609E-10         0.00000E+00
    0.35406E-07         0.20082E-10         0.00000E+00
    0.35408E-07         0.18465E-10         0.00000E+00
    0.35409E-07         0.16759E-10         0.00000E+00
    0.35411E-07         0.14965E-10         0.00000E+00
    0.35412E-07         0.13083E-10         0.00000E+00
    0.35413E-07         0.11114E-10         0.00000E+00
    0.35414E-07         0.90596E-11         0.00000E+00
    0.35414E-07         0.69195E-11         0.00000E+00
    0.35415E-07         0.46947E-11         0.00000E+00
    0.35415E-07         0.23857E-11         0.00000E+00
    0.35415E-07         0.12102E-11         0.00000E+00
    0.35494E-07         0.91434E-12         0.00000E+00
    0.35494E-07         0.17965E-11         0.00000E+00
    0.35495E-07         0.35132E-11         0.00000E+00
    0.35495E-07         0.51354E-11         0.00000E+00
    0.35496E-07         0.66648E-11         0.00000E+00
    0.35497E-07         0.81030E-11         0.00000E+00
    0.35498E-07         0.94516E-11         0.00000E+00
    0.35499E-07         0.10712E-10         0.00000E+00
    0.35500E-07         0.11886E-10         0.00000E+00
    0.35502E-07         0.12976E-10         0.00000E+00
    0.35503E-07         0.13982E-10         0.00000E+00
    0.35505E-07         0.14906E-10         0.00000E+00
    0.35507E-07         0.15749E-10         0.00000E+00
    0.35509E-07         0.16513E-10         0.00000E+00
    0.35511E-07         0.17200E-10         0.00000E+00
    0.35513E-07         0.17811E-10         0.00000E+00
    0.35516E-07         0.18347E-10         0.00000E+00
    0.35518E-07         0.18809E-10         0.00000E+00
    0.35520E-07         0.19199E-10         0.00000E+00
    0.35523E-07         0.19518E-10         0.00000E+00
    0.35525E-07         0.19767E-10         0.00000E+00
    0.35528E-07         0.19948E-10         0.00000E+00
    0.35530E-07         0.20062E-10         0.00000E+00
    0.35533E-07         0.20109E-10         0.00000E+00
    0.35536E-07         0.20092E-10         0.00000E+00
    0.35538E-07         0.20011E-10         0.00000E+00
    0.35541E-07         0.19867E-10         0.00000E+00
    0.35544E-07         0.19661E-10         0.00000E+00
    0.35546E-07         0.19395E-10         0.00000E+00
    0.35549E-07         0.19070E-10         0.00000E+00
    0.35551E-07         0.18685E-10         0.00000E+00
    0.35554E-07         0.18243E-10         0.00000E+00
    0.35556E-07         0.17745E-10         0.00000E+00
    0.35559E-07         0.17191E-10         0.00000E+00
    0.35561E-07         0.16582E-10         0.00000E+00
    0.35563E-07         0.15918E-10         0.00000E+00
    0.35565E-07         0.15202E-10         0.00000E+00
    0.35567E-07         0.14433E-10         0.00000E+00
    0.35569E-07         0.13613E-10         0.00000E+00
    0.35571E-07         0.12742E-10         0.00000E+00
    0.35573E-07         0.11821E-10         0.00000E+00
    0.35574E-07         0.10850E-10         0.00000E+00
    0.35576E-07         0.98312E-11         0.00000E+00
    0.35577E-07         0.87639E-11         0.00000E+00
    0.35578E-07         0.76492E-11         0.00000E+00
    0.35579E-07         0.64876E-11         0.00000E+00
    0.35580E-07         0.52798E-11         0.00000E+00
    0.35581E-07         0.40262E-11         0.00000E+00
    0.35581E-07         0.27275E-11         0.00000E+00
    0.35582E-07         0.13840E-11         0.00000E+00
    0.35582E-07         0.70118E-12         0.00000E+00
    0.35711E-07         0.38838E-12         0.00000E+00
    0.35711E-07         0.75875E-12         0.00000E+00
    0.35711E-07         0.14732E-11         0.00000E+00
    0.35712E-07         0.21358E-11         0.00000E+00
    0.35713E-07         0.27484E-11         0.00000E+00
    0.35714E-07         0.33127E-11         0.00000E+00
    0.35715E-07         0.38303E-11         0.00000E+00
    0.35716E-07         0.43030E-11         0.00000E+00
    0.35717E-07         0.47323E-11         0.00000E+00
    0.35719E-07         0.51198E-11         0.00000E+00
    0.35720E-07         0.54670E-11         0.00000E+00
    0.35722E-07         0.57755E-11         0.00000E+00
    0.35724E-07         0.60468E-11         0.00000E+00
    0.35726E-07         0.62822E-11         0.00000E+00
    0.35728E-07         0.64831E-11         0.00000E+00
    0.35730E-07         0.66510E-11         0.00000E+00
    0.35733E-07         0.67872E-11         0.00000E+00
    0.35735E-07         0.68929E-11         0.00000E+00
    0.35737E-07         0.69695E-11         0.00000E+00
    0.35740E-07         0.70182E-11         0.00000E+00
    0.35742E-07         0.70402E-11         0.00000E+00
    0.35745E-07         0.70366E-11         0.00000E+00
    0.35748E-07         0.70086E-11         0.00000E+00
    0.35750E-07         0.69574E-11         0.00000E+00
    0.35753E-07         0.68839E-11         0.00000E+00
    0.35756E-07         0.67892E-11         0.00000E+00
    0.35758E-07         0.66744E-11         0.00000E+00
    0.35761E-07         0.65405E-11         0.00000E+00
    0.35764E-07         0.63883E-11         0.00000E+00
    0.35766E-07         0.62189E-11         0.00000E+00
    0.35769E-07         0.60330E-11         0.00000E+00
    0.35771E-07         0.58316E-11         0.00000E+00
    0.35774E-07         0.56156E-11         0.00000E+00
    0.35776E-07         0.53856E-11         0.00000E+00
    0.35779E-07         0.51426E-11         0.00000E+00
    0.35781E-07         0.48872E-11         0.00000E+00
    0.35783E-07         0.46202E-11         0.00000E+00
    0.35785E-07         0.43422E-11         0.00000E+00
    0.35787E-07         0.40540E-11         0.00000E+00
    0.35789E-07         0.37561E-11         0.00000E+00
    0.35791E-07         0.34492E-11         0.00000E+00
    0.35792E-07         0.31339E-11         0.00000E+00
    0.35794E-07         0.28107E-11         0.00000E+00
    0.35795E-07         0.24801E-11         0.00000E+00
    0.35796E-07         0.21427E-11         0.00000E+00
    0.35797E-07         0.17990E-11         0.00000E+00
    0.35798E-07         0.14493E-11         0.00000E+00
    0.35799E-07         0.10941E-11         0.00000E+00
    0.35799E-07         0.73390E-12         0.00000E+00
    0.35800E-07         0.36896E-12         0.00000E+00
    0.35800E-07         0.18536E-12         0.00000E+00
    0.35979E-07        -0.14562E-12         0.00000E+00
    0.35979E-07        -0.29483E-12         0.00000E+00
    0.35980E-07        -0.59791E-12         0.00000E+00
    0.35980E-07        -0.90938E-12         0.00000E+00
    0.35981E-07        -0.12274E-11         0.00000E+00
    0.35982E-07        -0.15501E-11         0.00000E+00
    0.35983E-07        -0.18758E-11         0.00000E+00
    0.35984E-07        -0.22027E-11         0.00000E+00
    0.35986E-07        -0.25292E-11         0.00000E+00
    0.35987E-07        -0.28537E-11         0.00000E+00
    0.35989E-07        -0.31747E-11         0.00000E+00
    0.35991E-07        -0.34905E-11         0.00000E+00
    0.35992E-07        -0.37997E-11         0.00000E+00
    0.35995E-07        -0.41009E-11         0.00000E+00
    0.35997E-07        -0.43926E-11         0.00000E+00
    0.35999E-07        -0.46736E-11         0.00000E+00
    0.36001E-07        -0.49425E-11         0.00000E+00
    0.36004E-07        -0.51981E-11         0.00000E+00
    0.36006E-07        -0.54391E-11         0.00000E+00
    0.36009E-07        -0.56643E-11         0.00000E+00
    0.36011E-07        -0.58727E-11         0.00000E+00
    0.36014E-07        -0.60630E-11         0.00000E+00
    0.36017E-07        -0.62342E-11         0.00000E+00
    0.36019E-07        -0.63853E-11         0.00000E+00
    0.36022E-07        -0.65153E-11         0.00000E+00
    0.36025E-07        -0.66231E-11         0.00000E+00
    0.36027E-07        -0.67080E-11         0.00000E+00
    0.36030E-07        -0.67690E-11         0.00000E+00
    0.36033E-07        -0.68052E-11         0.00000E+00
    0.36035E-07        -0.68158E-11         0.00000E+00
    0.36038E-07        -0.68001E-11         0.00000E+00
    0.36040E-07        -0.67572E-11         0.00000E+00
    0.36043E-07        -0.66864E-11         0.00000E+00
    0.36045E-07        -0.65871E-11         0.00000E+00
    0.36048E-07        -0.64585E-11         0.00000E+00
    0.36050E-07        -0.63001E-11         0.00000E+00
    0.36052E-07        -0.61112E-11         0.00000E+00
    0.36054E-07        -0.58913E-11         0.00000E+00
    0.36056E-07        -0.56398E-11         0.00000E+00
    0.36058E-07        -0.53562E-11         0.00000E+00
    0.36060E-07        -0.50399E-11         0.00000E+00
    0.36062E-07        -0.46907E-11         0.00000E+00
    0.36063E-07        -0.43079E-11         0.00000E+00
    0.36065E-07        -0.38913E-11         0.00000E+00
    0.36066E-07        -0.34404E-11         0.00000E+00
    0.36067E-07        -0.29548E-11         0.00000E+00
    0.36068E-07        -0.24343E-11         0.00000E+00
    0.36068E-07        -0.18785E-11         0.00000E+00
    0.36069E-07        -0.12872E-11         0.00000E+00
    0.36069E-07        -0.66010E-12         0.00000E+00
    0.36069E-07        -0.33757E-12         0.00000E+00
    0.36299E-07        -0.68896E-12         0.00000E+00
    0.36299E-07        -0.13668E-11         0.00000E+00
    0.36300E-07        -0.27049E-11         0.00000E+00
    0.36300E-07        -0.40070E-11         0.00000E+00
    0.36301E-07        -0.52713E-11         0.00000E+00
    0.36302E-07        -0.64958E-11         0.00000E+00
    0.36303E-07        -0.76787E-11         0.00000E+00
    0.36304E-07        -0.88182E-11         0.00000E+00
    0.36306E-07        -0.99127E-11         0.00000E+00
    0.36307E-07        -0.10960E-10         0.00000E+00
    0.36309E-07        -0.11960E-10         0.00000E+00
    0.36311E-07        -0.12910E-10         0.00000E+00
    0.36313E-07        -0.13808E-10         0.00000E+00
    0.36315E-07        -0.14654E-10         0.00000E+00
    0.36317E-07        -0.15445E-10         0.00000E+00
    0.36319E-07        -0.16182E-10         0.00000E+00
    0.36322E-07        -0.16861E-10         0.00000E+00
    0.36324E-07        -0.17483E-10         0.00000E+00
    0.36327E-07        -0.18046E-10         0.00000E+00
    0.36329E-07        -0.18548E-10         0.00000E+00
    0.36332E-07        -0.18990E-10         0.00000E+00
    0.36334E-07        -0.19369E-10         0.00000E+00
    0.36337E-07        -0.19685E-10         0.00000E+00
    0.36340E-07        -0.19936E-10         0.00000E+00
    0.36343E-07        -0.20123E-10         0.00000E+00
    0.36345E-07        -0.20243E-10         0.00000E+00
    0.36348E-07        -0.20297E-10         0.00000E+00
    0.36351E-07        -0.20282E-10         0.00000E+00
    0.36354E-07        -0.20200E-10         0.00000E+00
    0.36356E-07        -0.20049E-10         0.00000E+00
    0.36359E-07        -0.19827E-10         0.00000E+00
    0.36361E-07        -0.19536E-10         0.00000E+00
    0.36364E-07        -0.19173E-10         0.00000E+00
    0.36366E-07        -0.18739E-10         0.00000E+00
    0.36369E-07        -0.18232E-10         0.00000E+00
    0.36371E-07        -0.17653E-10         0.00000E+00
    0.36373E-07        -0.17001E-10         0.00000E+00
    0.36376E-07        -0.16275E-10         0.00000E+00
    0.36378E-07        -0.15476E-10         0.00000E+00
    0.36380E-07        -0.14602E-10         0.00000E+00
    0.36381E-07        -0.13653E-10         0.00000E+00
    0.36383E-07        -0.12629E-10         0.00000E+00
    0.36385E-07        -0.11529E-10         0.00000E+00
    0.36386E-07        -0.10354E-10         0.00000E+00
    0.36387E-07        -0.91036E-11         0.00000E+00
    0.36388E-07        -0.77766E-11         0.00000E+00
    0.36389E-07        -0.63733E-11         0.00000E+00
    0.36390E-07        -0.48935E-11         0.00000E+00
    0.36390E-07        -0.33370E-11         0.00000E+00
    0.36391E-07        -0.17037E-11         0.00000E+00
    0.36391E-07        -0.86788E-12         0.00000E+00
    0.36671E-07        -0.12429E-11         0.00000E+00
    0.36671E-07        -0.24594E-11         0.00000E+00
    0.36671E-07        -0.48524E-11         0.00000E+00
    0.36672E-07        -0.71638E-11         0.00000E+00
    0.36673E-07        -0.93919E-11         0.00000E+00
    0.36674E-07        -0.11534E-10         0.00000E+00
    0.36675E-07        -0.13590E-10         0.00000E+00
    0.36676E-07        -0.15556E-10         0.00000E+00
    0.36678E-07        -0.17432E-10         0.00000E+00
    0.36679E-07        -0.19215E-10         0.00000E+00
    0.36681E-07        -0.20904E-10         0.00000E+00
    0.36683E-07        -0.22498E-10         0.00000E+00
    0.36685E-07        -0.23995E-10         0.00000E+00
    0.36687E-07        -0.25394E-10         0.00000E+00
    0.36689E-07        -0.26693E-10         0.00000E+00
    0.36691E-07        -0.27891E-10         0.00000E+00
    0.36694E-07        -0.28987E-10         0.00000E+00
    0.36696E-07        -0.29980E-10         0.00000E+00
    0.36699E-07        -0.30868E-10         0.00000E+00
    0.36701E-07        -0.31651E-10         0.00000E+00
    0.36704E-07        -0.32328E-10         0.00000E+00
    0.36707E-07        -0.32898E-10         0.00000E+00
    0.36710E-07        -0.33359E-10         0.00000E+00
    0.36712E-07        -0.33711E-10         0.00000E+00
    0.36715E-07        -0.33953E-10         0.00000E+00
    0.36718E-07        -0.34085E-10         0.00000E+00
    0.36721E-07        -0.34106E-10         0.00000E+00
    0.36723E-07        -0.34014E-10         0.00000E+00
    0.36726E-07        -0.33810E-10         0.00000E+00
    0.36729E-07        -0.33492E-10         0.00000E+00
    0.36732E-07        -0.33061E-10         0.00000E+00
    0.36734E-07        -0.32515E-10         0.00000E+00
    0.36737E-07        -0.31855E-10         0.00000E+00
    0.36739E-07        -0.31080E-10         0.00000E+00
    0.36742E-07        -0.30188E-10         0.00000E+00
    0.36744E-07        -0.29181E-10         0.00000E+00
    0.36747E-07        -0.28058E-10         0.00000E+00
    0.36749E-07        -0.26818E-10         0.00000E+00
    0.36751E-07        -0.25461E-10         0.00000E+00
    0.36753E-07        -0.23986E-10         0.00000E+00
    0.36755E-07        -0.22395E-10         0.00000E+00
    0.36756E-07        -0.20685E-10         0.00000E+00
    0.36758E-07        -0.18858E-10         0.00000E+00
    0.36759E-07        -0.16913E-10         0.00000E+00
    0.36760E-07        -0.14850E-10         0.00000E+00
    0.36762E-07        -0.12669E-10         0.00000E+00
    0.36762E-07        -0.10370E-10         0.00000E+00
    0.36763E-07        -0.79521E-11         0.00000E+00
    0.36764E-07        -0.54163E-11         0.00000E+00
    0.36764E-07        -0.27623E-11         0.00000E+00
    0.36764E-07        -0.14058E-11         0.00000E+00
    0.37095E-07        -0.18085E-11         0.00000E+00
    0.37095E-07        -0.35751E-11         0.00000E+00
    0.37095E-07        -0.70446E-11         0.00000E+00
    0.37096E-07        -0.10386E-10         0.00000E+00
    0.37096E-07        -0.13597E-10         0.00000E+00
    0.37097E-07        -0.16675E-10         0.00000E+00
    0.37098E-07        -0.19620E-10         0.00000E+00
    0.37100E-07        -0.22428E-10         0.00000E+00
    0.37101E-07        -0.25099E-10         0.00000E+00
    0.37103E-07        -0.27631E-10         0.00000E+00
    0.37105E-07        -0.30022E-10         0.00000E+00
    0.37106E-07        -0.32270E-10         0.00000E+00
    0.37109E-07        -0.34375E-10         0.00000E+00
    0.37111E-07        -0.36336E-10         0.00000E+00
    0.37113E-07        -0.38150E-10         0.00000E+00
    0.37115E-07        -0.39816E-10         0.00000E+00
    0.37118E-07        -0.41335E-10         0.00000E+00
    0.37120E-07        -0.42703E-10         0.00000E+00
    0.37123E-07        -0.43922E-10         0.00000E+00
    0.37126E-07        -0.44988E-10         0.00000E+00
    0.37128E-07        -0.45903E-10         0.00000E+00
    0.37131E-07        -0.46664E-10         0.00000E+00
    0.37134E-07        -0.47271E-10         0.00000E+00
    0.37137E-07        -0.47724E-10         0.00000E+00
    0.37139E-07        -0.48021E-10         0.00000E+00
    0.37142E-07        -0.48162E-10         0.00000E+00
    0.37145E-07        -0.48147E-10         0.00000E+00
    0.37148E-07        -0.47975E-10         0.00000E+00
    0.37151E-07        -0.47645E-10         0.00000E+00
    0.37154E-07        -0.47157E-10         0.00000E+00
    0.37156E-07        -0.46510E-10         0.00000E+00
    0.37159E-07        -0.45705E-10         0.00000E+00
    0.37162E-07        -0.44741E-10         0.00000E+00
    0.37164E-07        -0.43617E-10         0.00000E+00
    0.37167E-07        -0.42334E-10         0.00000E+00
    0.37169E-07        -0.40890E-10         0.00000E+00
    0.37171E-07        -0.39287E-10         0.00000E+00
    0.37174E-07        -0.37523E-10         0.00000E+00
    0.37176E-07        -0.35599E-10         0.00000E+00
    0.37178E-07        -0.33514E-10         0.00000E+00
    0.37180E-07        -0.31269E-10         0.00000E+00
    0.37181E-07        -0.28863E-10         0.00000E+00
    0.37183E-07        -0.26297E-10         0.00000E+00
    0.37184E-07        -0.23569E-10         0.00000E+00
    0.37186E-07        -0.20682E-10         0.00000E+00
    0.37187E-07        -0.17633E-10         0.00000E+00
    0.37188E-07        -0.14424E-10         0.00000E+00
    0.37188E-07        -0.11055E-10         0.00000E+00
    0.37189E-07        -0.75257E-11         0.00000E+00
    0.37189E-07        -0.38362E-11         0.00000E+00
    0.37189E-07        -0.19514E-11         0.00000E+00
    0.37570E-07        -0.23868E-11         0.00000E+00
    0.37570E-07        -0.47155E-11         0.00000E+00
    0.37570E-07        -0.92852E-11         0.00000E+00
    0.37571E-07        -0.13678E-10         0.00000E+00
    0.37572E-07        -0.17892E-10         0.00000E+00
    0.37572E-07        -0.21926E-10         0.00000E+00
    0.37574E-07        -0.25777E-10         0.00000E+00
    0.37575E-07        -0.29444E-10         0.00000E+00
    0.37576E-07        -0.32925E-10         0.00000E+00
    0.37578E-07        -0.36218E-10         0.00000E+00
    0.37580E-07        -0.39323E-10         0.00000E+00
    0.37582E-07        -0.42238E-10         0.00000E+00
    0.37584E-07        -0.44961E-10         0.00000E+00
    0.37586E-07        -0.47492E-10         0.00000E+00
    0.37588E-07        -0.49828E-10         0.00000E+00
    0.37591E-07        -0.51970E-10         0.00000E+00
    0.37593E-07        -0.53916E-10         0.00000E+00
    0.37596E-07        -0.55665E-10         0.00000E+00
    0.37599E-07        -0.57217E-10         0.00000E+00
    0.37601E-07        -0.58570E-10         0.00000E+00
    0.37604E-07        -0.59724E-10         0.00000E+00
    0.37607E-07        -0.60678E-10         0.00000E+00
    0.37610E-07        -0.61431E-10         0.00000E+00
    0.37613E-07        -0.61984E-10         0.00000E+00
    0.37616E-07        -0.62334E-10         0.00000E+00
    0.37618E-07        -0.62483E-10         0.00000E+00
    0.37621E-07        -0.62429E-10         0.00000E+00
    0.37624E-07        -0.62172E-10         0.00000E+00
    0.37627E-07        -0.61712E-10         0.00000E+00
    0.37630E-07        -0.61049E-10         0.00000E+00
    0.37633E-07        -0.60182E-10         0.00000E+00
    0.37635E-07        -0.59111E-10         0.00000E+00
    0.37638E-07        -0.57836E-10         0.00000E+00
    0.37641E-07        -0.56356E-10         0.00000E+00
    0.37643E-07        -0.54672E-10         0.00000E+00
    0.37646E-07        -0.52784E-10         0.00000E+00
    0.37648E-07        -0.50692E-10         0.00000E+00
    0.37650E-07        -0.48395E-10         0.00000E+00
    0.37652E-07        -0.45893E-10         0.00000E+00
    0.37654E-07        -0.43188E-10         0.00000E+00
    0.37656E-07        -0.40278E-10         0.00000E+00
    0.37658E-07        -0.37164E-10         0.00000E+00
    0.37660E-07        -0.33846E-10         0.00000E+00
    0.37661E-07        -0.30324E-10         0.00000E+00
    0.37662E-07        -0.26598E-10         0.00000E+00
    0.37663E-07        -0.22670E-10         0.00000E+00
    0.37664E-07        -0.18538E-10         0.00000E+00
    0.37665E-07        -0.14203E-10         0.00000E+00
    0.37666E-07        -0.96651E-11         0.00000E+00
    0.37666E-07        -0.49252E-11         0.00000E+00
    0.37666E-07        -0.25047E-11         0.00000E+00
    0.38096E-07        -0.29786E-11         0.00000E+00
    0.38096E-07        -0.58823E-11         0.00000E+00
    0.38097E-07        -0.11577E-10         0.00000E+00
    0.38097E-07        -0.17045E-10         0.00000E+00
    0.38098E-07        -0.22284E-10         0.00000E+00
    0.38099E-07        -0.27292E-10         0.00000E+00
    0.38100E-07        -0.32068E-10         0.00000E+00
    0.38102E-07        -0.36610E-10         0.00000E+00
    0.38103E-07        -0.40916E-10         0.00000E+00
    0.38105E-07        -0.44986E-10         0.00000E+00
    0.38107E-07        -0.48817E-10         0.00000E+00
    0.38109E-07        -0.52409E-10         0.00000E+00
    0.38111E-07        -0.55760E-10         0.00000E+00
    0.38113E-07        -0.58870E-10         0.00000E+00
    0.38115E-07        -0.61737E-10         0.00000E+00
    0.38118E-07        -0.64360E-10         0.00000E+00
    0.38120E-07        -0.66740E-10         0.00000E+00
    0.38123E-07        -0.68874E-10         0.00000E+00
    0.38126E-07        -0.70762E-10         0.00000E+00
    0.38128E-07        -0.72403E-10         0.00000E+00
    0.38131E-07        -0.73798E-10         0.00000E+00
    0.38134E-07        -0.74945E-10         0.00000E+00
    0.38137E-07        -0.75845E-10         0.00000E+00
    0.38140E-07        -0.76495E-10         0.00000E+00
    0.38143E-07        -0.76898E-10         0.00000E+00
    0.38146E-07        -0.77051E-10         0.00000E+00
    0.38149E-07        -0.76955E-10         0.00000E+00
    0.38152E-07        -0.76610E-10         0.00000E+00
    0.38155E-07        -0.76015E-10         0.00000E+00
    0.38157E-07        -0.75170E-10         0.00000E+00
    0.38160E-07        -0.74076E-10         0.00000E+00
    0.38163E-07        -0.72733E-10         0.00000E+00
    0.38166E-07        -0.71139E-10         0.00000E+00
    0.38168E-07        -0.69296E-10         0.00000E+00
    0.38171E-07        -0.67204E-10         0.00000E+00
    0.38174E-07        -0.64862E-10         0.00000E+00
    0.38176E-07        -0.62271E-10         0.00000E+00
    0.38178E-07        -0.59431E-10         0.00000E+00
    0.38180E-07        -0.56342E-10         0.00000E+00
    0.38182E-07        -0.53005E-10         0.00000E+00
    0.38184E-07        -0.49419E-10         0.00000E+00
    0.38186E-07        -0.45585E-10         0.00000E+00
    0.38188E-07        -0.41504E-10         0.00000E+00
    0.38189E-07        -0.37175E-10         0.00000E+00
    0.38190E-07        -0.32599E-10         0.00000E+00
    0.38192E-07        -0.27777E-10         0.00000E+00
    0.38193E-07        -0.22708E-10         0.00000E+00
    0.38193E-07        -0.17394E-10         0.00000E+00
    0.38194E-07        -0.11834E-10         0.00000E+00
    0.38194E-07        -0.60290E-11         0.00000E+00
    0.38194E-07        -0.30654E-11         0.00000E+00
    0.38674E-07        -0.35843E-11         0.00000E+00
    0.38674E-07        -0.70764E-11         0.00000E+00
    0.38674E-07        -0.13922E-10         0.00000E+00
    0.38675E-07        -0.20488E-10         0.00000E+00
    0.38676E-07        -0.26773E-10         0.00000E+00
    0.38677E-07        -0.32777E-10         0.00000E+00
    0.38678E-07        -0.38496E-10         0.00000E+00
    0.38679E-07        -0.43930E-10         0.00000E+00
    0.38681E-07        -0.49077E-10         0.00000E+00
    0.38683E-07        -0.53937E-10         0.00000E+00
    0.38684E-07        -0.58507E-10         0.00000E+00
    0.38686E-07        -0.62787E-10         0.00000E+00
    0.38689E-07        -0.66776E-10         0.00000E+00
    0.38691E-07        -0.70474E-10         0.00000E+00
    0.38693E-07        -0.73878E-10         0.00000E+00
    0.38696E-07        -0.76989E-10         0.00000E+00
    0.38698E-07        -0.79807E-10         0.00000E+00
    0.38701E-07        -0.82329E-10         0.00000E+00
    0.38704E-07        -0.84557E-10         0.00000E+00
    0.38707E-07        -0.86489E-10         0.00000E+00
    0.38710E-07        -0.88125E-10         0.00000E+00
    0.38712E-07        -0.89466E-10         0.00000E+00
    0.38715E-07        -0.90510E-10         0.00000E+00
    0.38718E-07        -0.91258E-10         0.00000E+00
    0.38721E-07        -0.91709E-10         0.00000E+00
    0.38724E-07        -0.91864E-10         0.00000E+00
    0.38727E-07        -0.91722E-10         0.00000E+00
    0.38730E-07        -0.91283E-10         0.00000E+00
    0.38733E-07        -0.90548E-10         0.00000E+00
    0.38736E-07        -0.89517E-10         0.00000E+00
    0.38739E-07        -0.88190E-10         0.00000E+00
    0.38742E-07        -0.86566E-10         0.00000E+00
    0.38745E-07        -0.84647E-10         0.00000E+00
    0.38747E-07        -0.82432E-10         0.00000E+00
    0.38750E-07        -0.79923E-10         0.00000E+00
    0.38752E-07        -0.77118E-10         0.00000E+00
    0.38755E-07        -0.74019E-10         0.00000E+00
    0.38757E-07        -0.70626E-10         0.00000E+00
    0.38759E-07        -0.66940E-10         0.00000E+00
    0.38761E-07        -0.62960E-10         0.00000E+00
    0.38763E-07        -0.58687E-10         0.00000E+00
    0.38765E-07        -0.54123E-10         0.00000E+00
    0.38767E-07        -0.49266E-10         0.00000E+00
    0.38768E-07        -0.44118E-10         0.00000E+00
    0.38770E-07        -0.38680E-10         0.00000E+00
    0.38771E-07        -0.32951E-10         0.00000E+00
    0.38772E-07        -0.26933E-10         0.00000E+00
    0.38772E-07        -0.20626E-10         0.00000E+00
    0.38773E-07        -0.14030E-10         0.00000E+00
    0.38773E-07        -0.71467E-11         0.00000E+00
    0.38773E-07        -0.36332E-11         0.00000E+00
    0.39302E-07        -0.42042E-11         0.00000E+00
    0.39302E-07        -0.82981E-11         0.00000E+00
    0.39302E-07        -0.16320E-10         0.00000E+00
    0.39303E-07        -0.24009E-10         0.00000E+00
    0.39304E-07        -0.31363E-10         0.00000E+00
    0.39305E-07        -0.38381E-10         0.00000E+00
    0.39306E-07        -0.45062E-10         0.00000E+00
    0.39307E-07        -0.51405E-10         0.00000E+00
    0.39309E-07        -0.57408E-10         0.00000E+00
    0.39311E-07        -0.63071E-10         0.00000E+00
    0.39313E-07        -0.68392E-10         0.00000E+00
    0.39315E-07        -0.73371E-10         0.00000E+00
    0.39317E-07        -0.78007E-10         0.00000E+00
    0.39319E-07        -0.82300E-10         0.00000E+00
    0.39322E-07        -0.86249E-10         0.00000E+00
    0.39324E-07        -0.89853E-10         0.00000E+00
    0.39327E-07        -0.93113E-10         0.00000E+00
    0.39330E-07        -0.96027E-10         0.00000E+00
    0.39332E-07        -0.98597E-10         0.00000E+00
    0.39335E-07        -0.10082E-09         0.00000E+00
    0.39338E-07        -0.10270E-09         0.00000E+00
    0.39341E-07        -0.10423E-09         0.00000E+00
    0.39344E-07        -0.10542E-09         0.00000E+00
    0.39347E-07        -0.10626E-09         0.00000E+00
    0.39350E-07        -0.10676E-09         0.00000E+00
    0.39353E-07        -0.10691E-09         0.00000E+00
    0.39356E-07        -0.10672E-09         0.00000E+00
    0.39359E-07        -0.10618E-09         0.00000E+00
    0.39362E-07        -0.10530E-09         0.00000E+00
    0.39365E-07        -0.10408E-09         0.00000E+00
    0.39368E-07        -0.10251E-09         0.00000E+00
    0.39371E-07        -0.10060E-09         0.00000E+00
    0.39374E-07        -0.98348E-10         0.00000E+00
    0.39376E-07        -0.95753E-10         0.00000E+00
    0.39379E-07        -0.92818E-10         0.00000E+00
    0.39382E-07        -0.89542E-10         0.00000E+00
    0.39384E-07        -0.85926E-10         0.00000E+00
    0.39386E-07        -0.81970E-10         0.00000E+00
    0.39389E-07        -0.77676E-10         0.00000E+00
    0.39391E-07        -0.73043E-10         0.00000E+00
    0.39393E-07        -0.68073E-10         0.00000E+00
    0.39394E-07        -0.62767E-10         0.00000E+00
    0.39396E-07        -0.57124E-10         0.00000E+00
    0.39398E-07        -0.51146E-10         0.00000E+00
    0.39399E-07        -0.44833E-10         0.00000E+00
    0.39400E-07        -0.38187E-10         0.00000E+00
    0.39401E-07        -0.31207E-10         0.00000E+00
    0.39402E-07        -0.23895E-10         0.00000E+00
    0.39402E-07        -0.16252E-10         0.00000E+00
    0.39403E-07        -0.82771E-11         0.00000E+00
    0.39403E-07        -0.42072E-11         0.00000E+00
    0.39979E-07        -0.48381E-11         0.00000E+00
    0.39979E-07        -0.95470E-11         0.00000E+00
    0.39980E-07        -0.18771E-10         0.00000E+00
    0.39980E-07        -0.27605E-10         0.00000E+00
    0.39981E-07        -0.36050E-10         0.00000E+00
    0.39982E-07        -0.44103E-10         0.00000E+00
    0.39984E-07        -0.51763E-10         0.00000E+00
    0.39985E-07        -0.59031E-10         0.00000E+00
    0.39987E-07        -0.65904E-10         0.00000E+00
    0.39988E-07        -0.72383E-10         0.00000E+00
    0.39990E-07        -0.78466E-10         0.00000E+00
    0.39993E-07        -0.84153E-10         0.00000E+00
    0.39995E-07        -0.89445E-10         0.00000E+00
    0.39997E-07        -0.94340E-10         0.00000E+00
    0.40000E-07        -0.98839E-10         0.00000E+00
    0.40002E-07        -0.10294E-09         0.00000E+00
    0.40005E-07        -0.10665E-09         0.00000E+00
    0.40008E-07        -0.10996E-09         0.00000E+00
    0.40011E-07        -0.11287E-09         0.00000E+00
    0.40013E-07        -0.11538E-09         0.00000E+00
    0.40016E-07        -0.11750E-09         0.00000E+00
    0.40019E-07        -0.11923E-09         0.00000E+00
    0.40022E-07        -0.12056E-09         0.00000E+00
    0.40026E-07        -0.12149E-09         0.00000E+00
    0.40029E-07        -0.12203E-09         0.00000E+00
    0.40032E-07        -0.12218E-09         0.00000E+00
    0.40035E-07        -0.12193E-09         0.00000E+00
    0.40038E-07        -0.12129E-09         0.00000E+00
    0.40041E-07        -0.12026E-09         0.00000E+00
    0.40044E-07        -0.11883E-09         0.00000E+00
    0.40047E-07        -0.11702E-09         0.00000E+00
    0.40050E-07        -0.11482E-09         0.00000E+00
    0.40052E-07        -0.11222E-09         0.00000E+00
    0.40055E-07        -0.10924E-09         0.00000E+00
    0.40058E-07        -0.10587E-09         0.00000E+00
    0.40060E-07        -0.10211E-09         0.00000E+00
    0.40063E-07        -0.97972E-10         0.00000E+00
    0.40065E-07        -0.93445E-10         0.00000E+00
    0.40068E-07        -0.88534E-10         0.00000E+00
    0.40070E-07        -0.83239E-10         0.00000E+00
    0.40072E-07        -0.77562E-10         0.00000E+00
    0.40073E-07        -0.71504E-10         0.00000E+00
    0.40075E-07        -0.65065E-10         0.00000E+00
    0.40077E-07        -0.58247E-10         0.00000E+00
    0.40078E-07        -0.51050E-10         0.00000E+00
    0.40079E-07        -0.43475E-10         0.00000E+00
    0.40080E-07        -0.35524E-10         0.00000E+00
    0.40081E-07        -0.27196E-10         0.00000E+00
    0.40081E-07        -0.18494E-10         0.00000E+00
    0.40082E-07        -0.94181E-11         0.00000E+00
    0.40082E-07        -0.47867E-11         0.00000E+00
    0.40706E-07        -0.54854E-11         0.00000E+00
    0.40706E-07        -0.10822E-10         0.00000E+00
    0.40706E-07        -0.21272E-10         0.00000E+00
    0.40707E-07        -0.31275E-10         0.00000E+00
    0.40708E-07        -0.40829E-10         0.00000E+00
    0.40709E-07        -0.49935E-10         0.00000E+00
    0.40710E-07        -0.58591E-10         0.00000E+00
    0.40712E-07        -0.66798E-10         0.00000E+00
    0.40713E-07        -0.74554E-10         0.00000E+00
    0.40715E-07        -0.81860E-10         0.00000E+00
    0.40717E-07        -0.88715E-10         0.00000E+00
    0.40719E-07        -0.95120E-10         0.00000E+00
    0.40722E-07        -0.10107E-09         0.00000E+00
    0.40724E-07        -0.10658E-09         0.00000E+00
    0.40727E-07        -0.11163E-09         0.00000E+00
    0.40729E-07        -0.11623E-09         0.00000E+00
    0.40732E-07        -0.12039E-09         0.00000E+00
    0.40735E-07        -0.12409E-09         0.00000E+00
    0.40738E-07        -0.12735E-09         0.00000E+00
    0.40741E-07        -0.13016E-09         0.00000E+00
    0.40744E-07        -0.13252E-09         0.00000E+00
    0.40747E-07        -0.13443E-09         0.00000E+00
    0.40750E-07        -0.13590E-09         0.00000E+00
    0.40753E-07        -0.13692E-09         0.00000E+00
    0.40756E-07        -0.13750E-09         0.00000E+00
    0.40759E-07        -0.13763E-09         0.00000E+00
    0.40762E-07        -0.13733E-09         0.00000E+00
    0.40765E-07        -0.13658E-09         0.00000E+00
    0.40768E-07        -0.13539E-09         0.00000E+00
    0.40771E-07        -0.13376E-09         0.00000E+00
    0.40774E-07        -0.13169E-09         0.00000E+00
    0.40777E-07        -0.12919E-09         0.00000E+00
    0.40780E-07        -0.12624E-09         0.00000E+00
    0.40783E-07        -0.12287E-09         0.00000E+00
    0.40785E-07        -0.11906E-09         0.00000E+00
    0.40788E-07        -0.11481E-09         0.00000E+00
    0.40791E-07        -0.11013E-09         0.00000E+00
    0.40793E-07        -0.10503E-09         0.00000E+00
    0.40795E-07        -0.99491E-10         0.00000E+00
    0.40797E-07        -0.93526E-10         0.00000E+00
    0.40799E-07        -0.87134E-10         0.00000E+00
    0.40801E-07        -0.80316E-10         0.00000E+00
    0.40803E-07        -0.73072E-10         0.00000E+00
    0.40804E-07        -0.65405E-10         0.00000E+00
    0.40806E-07        -0.57315E-10         0.00000E+00
    0.40807E-07        -0.48804E-10         0.00000E+00
    0.40808E-07        -0.39873E-10         0.00000E+00
    0.40809E-07        -0.30522E-10         0.00000E+00
    0.40809E-07        -0.20753E-10         0.00000E+00
    0.40810E-07        -0.10567E-10         0.00000E+00
    0.40810E-07        -0.53701E-11         0.00000E+00
    0.41480E-07        -0.61450E-11         0.00000E+00
    0.41481E-07        -0.12121E-10         0.00000E+00
    0.41481E-07        -0.23819E-10         0.00000E+00
    0.41482E-07        -0.35010E-10         0.00000E+00
    0.41482E-07        -0.45693E-10         0.00000E+00
    0.41484E-07        -0.55868E-10         0.00000E+00
    0.41485E-07        -0.65534E-10         0.00000E+00
    0.41486E-07        -0.74693E-10         0.00000E+00
    0.41488E-07        -0.83343E-10         0.00000E+00
    0.41490E-07        -0.91485E-10         0.00000E+00
    0.41492E-07        -0.99120E-10         0.00000E+00
    0.41494E-07        -0.10625E-09         0.00000E+00
    0.41496E-07        -0.11287E-09         0.00000E+00
    0.41499E-07        -0.11899E-09         0.00000E+00
    0.41501E-07        -0.12460E-09         0.00000E+00
    0.41504E-07        -0.12970E-09         0.00000E+00
    0.41507E-07        -0.13431E-09         0.00000E+00
    0.41510E-07        -0.13841E-09         0.00000E+00
    0.41513E-07        -0.14201E-09         0.00000E+00
    0.41516E-07        -0.14510E-09         0.00000E+00
    0.41519E-07        -0.14770E-09         0.00000E+00
    0.41522E-07        -0.14980E-09         0.00000E+00
    0.41525E-07        -0.15141E-09         0.00000E+00
    0.41528E-07        -0.15251E-09         0.00000E+00
    0.41531E-07        -0.15313E-09         0.00000E+00
    0.41534E-07        -0.15324E-09         0.00000E+00
    0.41537E-07        -0.15287E-09         0.00000E+00
    0.41540E-07        -0.15201E-09         0.00000E+00
    0.41543E-07        -0.15065E-09         0.00000E+00
    0.41546E-07        -0.14881E-09         0.00000E+00
    0.41549E-07        -0.14649E-09         0.00000E+00
    0.41552E-07        -0.14367E-09         0.00000E+00
    0.41555E-07        -0.14038E-09         0.00000E+00
    0.41558E-07        -0.13660E-09         0.00000E+00
    0.41561E-07        -0.13234E-09         0.00000E+00
    0.41563E-07        -0.12760E-09         0.00000E+00
    0.41566E-07        -0.12238E-09         0.00000E+00
    0.41568E-07        -0.11669E-09         0.00000E+00
    0.41571E-07        -0.11052E-09         0.00000E+00
    0.41573E-07        -0.10388E-09         0.00000E+00
    0.41575E-07        -0.96762E-10         0.00000E+00
    0.41577E-07        -0.89177E-10         0.00000E+00
    0.41578E-07        -0.81123E-10         0.00000E+00
    0.41580E-07        -0.72601E-10         0.00000E+00
    0.41581E-07        -0.63613E-10         0.00000E+00
    0.41582E-07        -0.54159E-10         0.00000E+00
    0.41583E-07        -0.44242E-10         0.00000E+00
    0.41584E-07        -0.33862E-10         0.00000E+00
    0.41585E-07        -0.23021E-10         0.00000E+00
    0.41585E-07        -0.11721E-10         0.00000E+00
    0.41585E-07        -0.59558E-11         0.00000E+00
    0.42302E-07        -0.68156E-11         0.00000E+00
    0.42302E-07        -0.13441E-10         0.00000E+00
    0.42302E-07        -0.26407E-10         0.00000E+00
    0.42303E-07        -0.38803E-10         0.00000E+00
    0.42304E-07        -0.50629E-10         0.00000E+00
    0.42305E-07        -0.61886E-10         0.00000E+00
    0.42306E-07        -0.72574E-10         0.00000E+00
    0.42308E-07        -0.82694E-10         0.00000E+00
    0.42309E-07        -0.92247E-10         0.00000E+00
    0.42311E-07        -0.10123E-09         0.00000E+00
    0.42313E-07        -0.10965E-09         0.00000E+00
    0.42315E-07        -0.11751E-09         0.00000E+00
    0.42318E-07        -0.12480E-09         0.00000E+00
    0.42320E-07        -0.13153E-09         0.00000E+00
    0.42323E-07        -0.13770E-09         0.00000E+00
    0.42325E-07        -0.14331E-09         0.00000E+00
    0.42328E-07        -0.14836E-09         0.00000E+00
    0.42331E-07        -0.15286E-09         0.00000E+00
    0.42334E-07        -0.15680E-09         0.00000E+00
    0.42337E-07        -0.16018E-09         0.00000E+00
    0.42340E-07        -0.16302E-09         0.00000E+00
    0.42343E-07        -0.16530E-09         0.00000E+00
    0.42346E-07        -0.16703E-09         0.00000E+00
    0.42349E-07        -0.16822E-09         0.00000E+00
    0.42353E-07        -0.16886E-09         0.00000E+00
    0.42356E-07        -0.16896E-09         0.00000E+00
    0.42359E-07        -0.16851E-09         0.00000E+00
    0.42362E-07        -0.16753E-09         0.00000E+00
    0.42365E-07        -0.16601E-09         0.00000E+00
    0.42368E-07        -0.16395E-09         0.00000E+00
    0.42371E-07        -0.16136E-09         0.00000E+00
    0.42374E-07        -0.15823E-09         0.00000E+00
    0.42377E-07        -0.15457E-09         0.00000E+00
    0.42380E-07        -0.15039E-09         0.00000E+00
    0.42383E-07        -0.14567E-09         0.00000E+00
    0.42385E-07        -0.14043E-09         0.00000E+00
    0.42388E-07        -0.13467E-09         0.00000E+00
    0.42390E-07        -0.12838E-09         0.00000E+00
    0.42392E-07        -0.12158E-09         0.00000E+00
    0.42394E-07        -0.11425E-09         0.00000E+00
    0.42396E-07        -0.10641E-09         0.00000E+00
    0.42398E-07        -0.98058E-10         0.00000E+00
    0.42400E-07        -0.89190E-10         0.00000E+00
    0.42402E-07        -0.79810E-10         0.00000E+00
    0.42403E-07        -0.69919E-10         0.00000E+00
    0.42404E-07        -0.59521E-10         0.00000E+00
    0.42405E-07        -0.48616E-10         0.00000E+00
    0.42406E-07        -0.37205E-10         0.00000E+00
    0.42406E-07        -0.25291E-10         0.00000E+00
    0.42407E-07        -0.12875E-10         0.00000E+00
    0.42407E-07        -0.65418E-11         0.00000E+00
    0.43168E-07        -0.74948E-11         0.00000E+00
    0.43168E-07        -0.14778E-10         0.00000E+00
    0.43169E-07        -0.29026E-10         0.00000E+00
    0.43169E-07        -0.42641E-10         0.00000E+00
    0.43170E-07        -0.55621E-10         0.00000E+00
    0.43171E-07        -0.67970E-10         0.00000E+00
    0.43173E-07        -0.79688E-10         0.00000E+00
    0.43174E-07        -0.90776E-10         0.00000E+00
    0.43176E-07        -0.10124E-09         0.00000E+00
    0.43178E-07        -0.11107E-09         0.00000E+00
    0.43180E-07        -0.12028E-09         0.00000E+00
    0.43182E-07        -0.12886E-09         0.00000E+00
    0.43184E-07        -0.13683E-09         0.00000E+00
    0.43187E-07        -0.14417E-09         0.00000E+00
    0.43189E-07        -0.15090E-09         0.00000E+00
    0.43192E-07        -0.15701E-09         0.00000E+00
    0.43195E-07        -0.16251E-09         0.00000E+00
    0.43198E-07        -0.16739E-09         0.00000E+00
    0.43201E-07        -0.17167E-09         0.00000E+00
    0.43204E-07        -0.17534E-09         0.00000E+00
    0.43207E-07        -0.17840E-09         0.00000E+00
    0.43210E-07        -0.18086E-09         0.00000E+00
    0.43213E-07        -0.18272E-09         0.00000E+00
    0.43216E-07        -0.18398E-09         0.00000E+00
    0.43219E-07        -0.18465E-09         0.00000E+00
    0.43222E-07        -0.18472E-09         0.00000E+00
    0.43226E-07        -0.18420E-09         0.00000E+00
    0.43229E-07        -0.18309E-09         0.00000E+00
    0.43232E-07        -0.18139E-09         0.00000E+00
    0.43235E-07        -0.17911E-09         0.00000E+00
    0.43238E-07        -0.17624E-09         0.00000E+00
    0.43241E-07        -0.17280E-09         0.00000E+00
    0.43244E-07        -0.16878E-09         0.00000E+00
    0.43247E-07        -0.16418E-09         0.00000E+00
    0.43249E-07        -0.15900E-09         0.00000E+00
    0.43252E-07        -0.15326E-09         0.00000E+00
    0.43254E-07        -0.14695E-09         0.00000E+00
    0.43257E-07        -0.14007E-09         0.00000E+00
    0.43259E-07        -0.13262E-09         0.00000E+00
    0.43261E-07        -0.12462E-09         0.00000E+00
    0.43263E-07        -0.11605E-09         0.00000E+00
    0.43265E-07        -0.10692E-09         0.00000E+00
    0.43267E-07        -0.97238E-10         0.00000E+00
    0.43268E-07        -0.87000E-10         0.00000E+00
    0.43270E-07        -0.76209E-10         0.00000E+00
    0.43271E-07        -0.64867E-10         0.00000E+00
    0.43272E-07        -0.52976E-10         0.00000E+00
    0.43272E-07        -0.40537E-10         0.00000E+00
    0.43273E-07        -0.27553E-10         0.00000E+00
    0.43273E-07        -0.14025E-10         0.00000E+00
    0.43273E-07        -0.71255E-11         0.00000E+00
    0.44078E-07        -0.81802E-11         0.00000E+00
    0.44078E-07        -0.16126E-10         0.00000E+00
    0.44079E-07        -0.31667E-10         0.00000E+00
    0.44080E-07        -0.46508E-10         0.00000E+00
    0.44080E-07        -0.60650E-10         0.00000E+00
    0.44082E-07        -0.74096E-10         0.00000E+00
    0.44083E-07        -0.86847E-10         0.00000E+00
    0.44084E-07        -0.98905E-10         0.00000E+00
    0.44086E-07        -0.11027E-09         0.00000E+00
    0.44088E-07        -0.12095E-09         0.00000E+00
    0.44090E-07        -0.13095E-09         0.00000E+00
    0.44092E-07        -0.14026E-09         0.00000E+00
    0.44095E-07        -0.14890E-09         0.00000E+00
    0.44097E-07        -0.15685E-09         0.00000E+00
    0.44100E-07        -0.16413E-09         0.00000E+00
    0.44102E-07        -0.17074E-09         0.00000E+00
    0.44105E-07        -0.17668E-09         0.00000E+00
    0.44108E-07        -0.18195E-09         0.00000E+00
    0.44111E-07        -0.18655E-09         0.00000E+00
    0.44114E-07        -0.19050E-09         0.00000E+00
    0.44117E-07        -0.19379E-09         0.00000E+00
    0.44120E-07        -0.19642E-09         0.00000E+00
    0.44123E-07        -0.19840E-09         0.00000E+00
    0.44126E-07        -0.19973E-09         0.00000E+00
    0.44130E-07        -0.20041E-09         0.00000E+00
    0.44133E-07        -0.20045E-09         0.00000E+00
    0.44136E-07        -0.19985E-09         0.00000E+00
    0.44139E-07        -0.19860E-09         0.00000E+00
    0.44142E-07        -0.19673E-09         0.00000E+00
    0.44145E-07        -0.19422E-09         0.00000E+00
    0.44148E-07        -0.19108E-09         0.00000E+00
    0.44151E-07        -0.18731E-09         0.00000E+00
    0.44154E-07        -0.18292E-09         0.00000E+00
    0.44157E-07        -0.17791E-09         0.00000E+00
    0.44159E-07        -0.17227E-09         0.00000E+00
    0.44162E-07        -0.16602E-09         0.00000E+00
    0.44164E-07        -0.15916E-09         0.00000E+00
    0.44167E-07        -0.15169E-09         0.00000E+00
    0.44169E-07        -0.14360E-09         0.00000E+00
    0.44171E-07        -0.13491E-09         0.00000E+00
    0.44173E-07        -0.12562E-09         0.00000E+00
    0.44175E-07        -0.11572E-09         0.00000E+00
    0.44177E-07        -0.10523E-09         0.00000E+00
    0.44178E-07        -0.94137E-10         0.00000E+00
    0.44179E-07        -0.82450E-10         0.00000E+00
    0.44181E-07        -0.70171E-10         0.00000E+00
    0.44181E-07        -0.57300E-10         0.00000E+00
    0.44182E-07        -0.43841E-10         0.00000E+00
    0.44183E-07        -0.29796E-10         0.00000E+00
    0.44183E-07        -0.15165E-10         0.00000E+00
    0.44183E-07        -0.77039E-11         0.00000E+00
    0.45030E-07        -0.88684E-11         0.00000E+00
    0.45031E-07        -0.17480E-10         0.00000E+00
    0.45031E-07        -0.34317E-10         0.00000E+00
    0.45032E-07        -0.50386E-10         0.00000E+00
    0.45033E-07        -0.65691E-10         0.00000E+00
    0.45034E-07        -0.80232E-10         0.00000E+00
    0.45035E-07        -0.94015E-10         0.00000E+00
    0.45037E-07        -0.10704E-09         0.00000E+00
    0.45038E-07        -0.11931E-09         0.00000E+00
    0.45040E-07        -0.13084E-09         0.00000E+00
    0.45042E-07        -0.14162E-09         0.00000E+00
    0.45044E-07        -0.15165E-09         0.00000E+00
    0.45047E-07        -0.16094E-09         0.00000E+00
    0.45049E-07        -0.16950E-09         0.00000E+00
    0.45052E-07        -0.17733E-09         0.00000E+00
    0.45054E-07        -0.18443E-09         0.00000E+00
    0.45057E-07        -0.19080E-09         0.00000E+00
    0.45060E-07        -0.19644E-09         0.00000E+00
    0.45063E-07        -0.20138E-09         0.00000E+00
    0.45066E-07        -0.20559E-09         0.00000E+00
    0.45069E-07        -0.20909E-09         0.00000E+00
    0.45072E-07        -0.21189E-09         0.00000E+00
    0.45075E-07        -0.21398E-09         0.00000E+00
    0.45078E-07        -0.21537E-09         0.00000E+00
    0.45081E-07        -0.21607E-09         0.00000E+00
    0.45084E-07        -0.21606E-09         0.00000E+00
    0.45088E-07        -0.21537E-09         0.00000E+00
    0.45091E-07        -0.21400E-09         0.00000E+00
    0.45094E-07        -0.21194E-09         0.00000E+00
    0.45097E-07        -0.20919E-09         0.00000E+00
    0.45100E-07        -0.20578E-09         0.00000E+00
    0.45103E-07        -0.20168E-09         0.00000E+00
    0.45105E-07        -0.19692E-09         0.00000E+00
    0.45108E-07        -0.19149E-09         0.00000E+00
    0.45111E-07        -0.18540E-09         0.00000E+00
    0.45113E-07        -0.17865E-09         0.00000E+00
    0.45116E-07        -0.17124E-09         0.00000E+00
    0.45118E-07        -0.16317E-09         0.00000E+00
    0.45120E-07        -0.15445E-09         0.00000E+00
    0.45122E-07        -0.14508E-09         0.00000E+00
    0.45124E-07        -0.13507E-09         0.00000E+00
    0.45126E-07        -0.12441E-09         0.00000E+00
    0.45128E-07        -0.11312E-09         0.00000E+00
    0.45129E-07        -0.10118E-09         0.00000E+00
    0.45131E-07        -0.88606E-10         0.00000E+00
    0.45132E-07        -0.75401E-10         0.00000E+00
    0.45133E-07        -0.61564E-10         0.00000E+00
    0.45133E-07        -0.47098E-10         0.00000E+00
    0.45134E-07        -0.32005E-10         0.00000E+00
    0.45134E-07        -0.16288E-10         0.00000E+00
    0.45134E-07        -0.82736E-11         0.00000E+00
    0.46022E-07        -0.95556E-11         0.00000E+00
    0.46023E-07        -0.18830E-10         0.00000E+00
    0.46023E-07        -0.36961E-10         0.00000E+00
    0.46024E-07        -0.54254E-10         0.00000E+00
    0.46025E-07        -0.70714E-10         0.00000E+00
    0.46026E-07        -0.86345E-10         0.00000E+00
    0.46027E-07        -0.10115E-09         0.00000E+00
    0.46028E-07        -0.11514E-09         0.00000E+00
    0.46030E-07        -0.12830E-09         0.00000E+00
    0.46032E-07        -0.14066E-09         0.00000E+00
    0.46034E-07        -0.15221E-09         0.00000E+00
    0.46036E-07        -0.16296E-09         0.00000E+00
    0.46039E-07        -0.17290E-09         0.00000E+00
    0.46041E-07        -0.18205E-09         0.00000E+00
    0.46044E-07        -0.19041E-09         0.00000E+00
    0.46046E-07        -0.19799E-09         0.00000E+00
    0.46049E-07        -0.20478E-09         0.00000E+00
    0.46052E-07        -0.21080E-09         0.00000E+00
    0.46055E-07        -0.21604E-09         0.00000E+00
    0.46058E-07        -0.22051E-09         0.00000E+00
    0.46061E-07        -0.22422E-09         0.00000E+00
    0.46064E-07        -0.22718E-09         0.00000E+00
    0.46067E-07        -0.22937E-09         0.00000E+00
    0.46070E-07        -0.23081E-09         0.00000E+00
    0.46073E-07        -0.23151E-09         0.00000E+00
    0.46076E-07        -0.23147E-09         0.00000E+00
    0.46079E-07        -0.23068E-09         0.00000E+00
    0.46082E-07        -0.22916E-09         0.00000E+00
    0.46085E-07        -0.22692E-09         0.00000E+00
    0.46088E-07        -0.22394E-09         0.00000E+00
    0.46091E-07        -0.22024E-09         0.00000E+00
    0.46093E-07        -0.21583E-09         0.00000E+00
    0.46096E-07        -0.21069E-09         0.00000E+00
    0.46099E-07        -0.20485E-09         0.00000E+00
    0.46102E-07        -0.19830E-09         0.00000E+00
    0.46104E-07        -0.19105E-09         0.00000E+00
    0.46106E-07        -0.18309E-09         0.00000E+00
    0.46109E-07        -0.17444E-09         0.00000E+00
    0.46111E-07        -0.16510E-09         0.00000E+00
    0.46113E-07        -0.15506E-09         0.00000E+00
    0.46115E-07        -0.14434E-09         0.00000E+00
    0.46117E-07        -0.13293E-09         0.00000E+00
    0.46118E-07        -0.12084E-09         0.00000E+00
    0.46120E-07        -0.10808E-09         0.00000E+00
    0.46121E-07        -0.94636E-10         0.00000E+00
    0.46122E-07        -0.80521E-10         0.00000E+00
    0.46123E-07        -0.65737E-10         0.00000E+00
    0.46124E-07        -0.50284E-10         0.00000E+00
    0.46124E-07        -0.34167E-10         0.00000E+00
    0.46124E-07        -0.17386E-10         0.00000E+00
    0.46125E-07        -0.88306E-11         0.00000E+00
    0.47052E-07        -0.10237E-10         0.00000E+00
    0.47052E-07        -0.20170E-10         0.00000E+00
    0.47053E-07        -0.39580E-10         0.00000E+00
    0.47053E-07        -0.58084E-10         0.00000E+00
    0.47054E-07        -0.75686E-10         0.00000E+00
    0.47055E-07        -0.92392E-10         0.00000E+00
    0.47056E-07        -0.10821E-09         0.00000E+00
    0.47058E-07        -0.12314E-09         0.00000E+00
    0.47060E-07        -0.13718E-09         0.00000E+00
    0.47061E-07        -0.15036E-09         0.00000E+00
    0.47063E-07        -0.16266E-09         0.00000E+00
    0.47066E-07        -0.17410E-09         0.00000E+00
    0.47068E-07        -0.18468E-09         0.00000E+00
    0.47070E-07        -0.19441E-09         0.00000E+00
    0.47073E-07        -0.20329E-09         0.00000E+00
    0.47075E-07        -0.21133E-09         0.00000E+00
    0.47078E-07        -0.21853E-09         0.00000E+00
    0.47081E-07        -0.22490E-09         0.00000E+00
    0.47084E-07        -0.23044E-09         0.00000E+00
    0.47086E-07        -0.23516E-09         0.00000E+00
    0.47089E-07        -0.23907E-09         0.00000E+00
    0.47092E-07        -0.24216E-09         0.00000E+00
    0.47095E-07        -0.24445E-09         0.00000E+00
    0.47098E-07        -0.24594E-09         0.00000E+00
    0.47101E-07        -0.24664E-09         0.00000E+00
    0.47104E-07        -0.24654E-09         0.00000E+00
    0.47107E-07        -0.24566E-09         0.00000E+00
    0.47110E-07        -0.24399E-09         0.00000E+00
    0.47113E-07        -0.24156E-09         0.00000E+00
    0.47116E-07        -0.23834E-09         0.00000E+00
    0.47119E-07        -0.23437E-09         0.00000E+00
    0.47121E-07        -0.22963E-09         0.00000E+00
    0.47124E-07        -0.22413E-09         0.00000E+00
    0.47127E-07        -0.21788E-09         0.00000E+00
    0.47129E-07        -0.21088E-09         0.00000E+00
    0.47132E-07        -0.20313E-09         0.00000E+00
    0.47134E-07        -0.19464E-09         0.00000E+00
    0.47136E-07        -0.18542E-09         0.00000E+00
    0.47138E-07        -0.17546E-09         0.00000E+00
    0.47140E-07        -0.16477E-09         0.00000E+00
    0.47142E-07        -0.15335E-09         0.00000E+00
    0.47144E-07        -0.14121E-09         0.00000E+00
    0.47145E-07        -0.12835E-09         0.00000E+00
    0.47147E-07        -0.11478E-09         0.00000E+00
    0.47148E-07        -0.10049E-09         0.00000E+00
    0.47149E-07        -0.85493E-10         0.00000E+00
    0.47150E-07        -0.69787E-10         0.00000E+00
    0.47151E-07        -0.53376E-10         0.00000E+00
    0.47151E-07        -0.36264E-10         0.00000E+00
    0.47151E-07        -0.18451E-10         0.00000E+00
    0.47152E-07        -0.93708E-11         0.00000E+00
    0.48117E-07        -0.10908E-10         0.00000E+00
    0.48117E-07        -0.21487E-10         0.00000E+00
    0.48117E-07        -0.42156E-10         0.00000E+00
    0.48118E-07        -0.61848E-10         0.00000E+00
    0.48119E-07        -0.80569E-10         0.00000E+00
    0.48120E-07        -0.98326E-10         0.00000E+00
    0.48121E-07        -0.11513E-09         0.00000E+00
    0.48122E-07        -0.13097E-09         0.00000E+00
    0.48124E-07        -0.14588E-09         0.00000E+00
    0.48126E-07        -0.15985E-09         0.00000E+00
    0.48128E-07        -0.17288E-09         0.00000E+00
    0.48130E-07        -0.18500E-09         0.00000E+00
    0.48132E-07        -0.19619E-09         0.00000E+00
    0.48134E-07        -0.20648E-09         0.00000E+00
    0.48137E-07        -0.21586E-09         0.00000E+00
    0.48139E-07        -0.22434E-09         0.00000E+00
    0.48142E-07        -0.23193E-09         0.00000E+00
    0.48145E-07        -0.23864E-09         0.00000E+00
    0.48147E-07        -0.24446E-09         0.00000E+00
    0.48150E-07        -0.24942E-09         0.00000E+00
    0.48153E-07        -0.25350E-09         0.00000E+00
    0.48156E-07        -0.25673E-09         0.00000E+00
    0.48159E-07        -0.25911E-09         0.00000E+00
    0.48162E-07        -0.26063E-09         0.00000E+00
    0.48164E-07        -0.26131E-09         0.00000E+00
    0.48167E-07        -0.26116E-09         0.00000E+00
    0.48170E-07        -0.26017E-09         0.00000E+00
    0.48173E-07        -0.25836E-09         0.00000E+00
    0.48176E-07        -0.25573E-09         0.00000E+00
    0.48179E-07        -0.25228E-09         0.00000E+00
    0.48181E-07        -0.24803E-09         0.00000E+00
    0.48184E-07        -0.24297E-09         0.00000E+00
    0.48186E-07        -0.23711E-09         0.00000E+00
    0.48189E-07        -0.23046E-09         0.00000E+00
    0.48191E-07        -0.22302E-09         0.00000E+00
    0.48194E-07        -0.21479E-09         0.00000E+00
    0.48196E-07        -0.20578E-09         0.00000E+00
    0.48198E-07        -0.19600E-09         0.00000E+00
    0.48200E-07        -0.18544E-09         0.00000E+00
    0.48202E-07        -0.17412E-09         0.00000E+00
    0.48204E-07        -0.16203E-09         0.00000E+00
    0.48205E-07        -0.14918E-09         0.00000E+00
    0.48207E-07        -0.13558E-09         0.00000E+00
    0.48208E-07        -0.12122E-09         0.00000E+00
    0.48209E-07        -0.10612E-09         0.00000E+00
    0.48210E-07        -0.90270E-10         0.00000E+00
    0.48211E-07        -0.73678E-10         0.00000E+00
    0.48212E-07        -0.56345E-10         0.00000E+00
    0.48212E-07        -0.38277E-10         0.00000E+00
    0.48213E-07        -0.19474E-10         0.00000E+00
    0.48213E-07        -0.98890E-11         0.00000E+00
    0.49214E-07        -0.11562E-10         0.00000E+00
    0.49214E-07        -0.22772E-10         0.00000E+00
    0.49214E-07        -0.44665E-10         0.00000E+00
    0.49215E-07        -0.65512E-10         0.00000E+00
    0.49215E-07        -0.85319E-10         0.00000E+00
    0.49217E-07        -0.10409E-09         0.00000E+00
    0.49218E-07        -0.12185E-09         0.00000E+00
    0.49219E-07        -0.13858E-09         0.00000E+00
    0.49221E-07        -0.15432E-09         0.00000E+00
    0.49222E-07        -0.16905E-09         0.00000E+00
    0.49224E-07        -0.18279E-09         0.00000E+00
    0.49226E-07        -0.19555E-09         0.00000E+00
    0.49228E-07        -0.20733E-09         0.00000E+00
    0.49231E-07        -0.21814E-09         0.00000E+00
    0.49233E-07        -0.22800E-09         0.00000E+00
    0.49235E-07        -0.23690E-09         0.00000E+00
    0.49238E-07        -0.24486E-09         0.00000E+00
    0.49240E-07        -0.25188E-09         0.00000E+00
    0.49243E-07        -0.25797E-09         0.00000E+00
    0.49246E-07        -0.26314E-09         0.00000E+00
    0.49248E-07        -0.26739E-09         0.00000E+00
    0.49251E-07        -0.27074E-09         0.00000E+00
    0.49254E-07        -0.27318E-09         0.00000E+00
    0.49257E-07        -0.27473E-09         0.00000E+00
    0.49259E-07        -0.27540E-09         0.00000E+00
    0.49262E-07        -0.27518E-09         0.00000E+00
    0.49265E-07        -0.27408E-09         0.00000E+00
    0.49268E-07        -0.27212E-09         0.00000E+00
    0.49270E-07        -0.26930E-09         0.00000E+00
    0.49273E-07        -0.26562E-09         0.00000E+00
    0.49275E-07        -0.26109E-09         0.00000E+00
    0.49278E-07        -0.25572E-09         0.00000E+00
    0.49280E-07        -0.24951E-09         0.00000E+00
    0.49283E-07        -0.24247E-09         0.00000E+00
    0.49285E-07        -0.23460E-09         0.00000E+00
    0.49287E-07        -0.22591E-09         0.00000E+00
    0.49289E-07        -0.21640E-09         0.00000E+00
    0.49291E-07        -0.20608E-09         0.00000E+00
    0.49293E-07        -0.19495E-09         0.00000E+00
    0.49295E-07        -0.18301E-09         0.00000E+00
    0.49297E-07        -0.17029E-09         0.00000E+00
    0.49298E-07        -0.15676E-09         0.00000E+00
    0.49300E-07        -0.14245E-09         0.00000E+00
    0.49301E-07        -0.12735E-09         0.00000E+00
    0.49302E-07        -0.11147E-09         0.00000E+00
    0.49303E-07        -0.94805E-10         0.00000E+00
    0.49304E-07        -0.77369E-10         0.00000E+00
    0.49304E-07        -0.59162E-10         0.00000E+00
    0.49305E-07        -0.40185E-10         0.00000E+00
    0.49305E-07        -0.20442E-10         0.00000E+00
    0.49305E-07        -0.10380E-10         0.00000E+00
    0.50340E-07        -0.12193E-10         0.00000E+00
    0.50340E-07        -0.24010E-10         0.00000E+00
    0.50340E-07        -0.47083E-10         0.00000E+00
    0.50341E-07        -0.69039E-10         0.00000E+00
    0.50341E-07        -0.89887E-10         0.00000E+00
    0.50342E-07        -0.10964E-09         0.00000E+00
    0.50344E-07        -0.12830E-09         0.00000E+00
    0.50345E-07        -0.14589E-09         0.00000E+00
    0.50346E-07        -0.16240E-09         0.00000E+00
    0.50348E-07        -0.17786E-09         0.00000E+00
    0.50350E-07        -0.19227E-09         0.00000E+00
    0.50352E-07        -0.20563E-09         0.00000E+00
    0.50354E-07        -0.21797E-09         0.00000E+00
    0.50356E-07        -0.22928E-09         0.00000E+00
    0.50358E-07        -0.23958E-09         0.00000E+00
    0.50360E-07        -0.24887E-09         0.00000E+00
    0.50363E-07        -0.25717E-09         0.00000E+00
    0.50365E-07        -0.26448E-09         0.00000E+00
    0.50368E-07        -0.27082E-09         0.00000E+00
    0.50370E-07        -0.27618E-09         0.00000E+00
    0.50373E-07        -0.28058E-09         0.00000E+00
    0.50375E-07        -0.28403E-09         0.00000E+00
    0.50378E-07        -0.28653E-09         0.00000E+00
    0.50380E-07        -0.28810E-09         0.00000E+00
    0.50383E-07        -0.28873E-09         0.00000E+00
    0.50386E-07        -0.28844E-09         0.00000E+00
    0.50388E-07        -0.28724E-09         0.00000E+00
    0.50391E-07        -0.28513E-09         0.00000E+00
    0.50393E-07        -0.28211E-09         0.00000E+00
    0.50396E-07        -0.27821E-09         0.00000E+00
    0.50398E-07        -0.27341E-09         0.00000E+00
    0.50400E-07        -0.26774E-09         0.00000E+00
    0.50403E-07        -0.26119E-09         0.00000E+00
    0.50405E-07        -0.25377E-09         0.00000E+00
    0.50407E-07        -0.24549E-09         0.00000E+00
    0.50409E-07        -0.23636E-09         0.00000E+00
    0.50411E-07        -0.22637E-09         0.00000E+00
    0.50413E-07        -0.21554E-09         0.00000E+00
    0.50415E-07        -0.20387E-09         0.00000E+00
    0.50416E-07        -0.19136E-09         0.00000E+00
    0.50418E-07        -0.17802E-09         0.00000E+00
    0.50419E-07        -0.16386E-09         0.00000E+00
    0.50421E-07        -0.14888E-09         0.00000E+00
    0.50422E-07        -0.13308E-09         0.00000E+00
    0.50423E-07        -0.11646E-09         0.00000E+00
    0.50424E-07        -0.99043E-10         0.00000E+00
    0.50424E-07        -0.80818E-10         0.00000E+00
    0.50425E-07        -0.61791E-10         0.00000E+00
    0.50425E-07        -0.41966E-10         0.00000E+00
    0.50426E-07        -0.21346E-10         0.00000E+00
    0.50426E-07        -0.10838E-10         0.00000E+00
    0.51491E-07        -0.12794E-10         0.00000E+00
    0.51492E-07        -0.25188E-10         0.00000E+00
    0.51492E-07        -0.49381E-10         0.00000E+00
    0.51493E-07        -0.72388E-10         0.00000E+00
    0.51493E-07        -0.94222E-10         0.00000E+00
    0.51494E-07        -0.11489E-09         0.00000E+00
    0.51495E-07        -0.13441E-09         0.00000E+00
    0.51497E-07        -0.15279E-09         0.00000E+00
    0.51498E-07        -0.17005E-09         0.00000E+00
    0.51499E-07        -0.18618E-09         0.00000E+00
    0.51501E-07        -0.20121E-09         0.00000E+00
    0.51503E-07        -0.21514E-09         0.00000E+00
    0.51505E-07        -0.22798E-09         0.00000E+00
    0.51507E-07        -0.23975E-09         0.00000E+00
    0.51509E-07        -0.25046E-09         0.00000E+00
    0.51511E-07        -0.26011E-09         0.00000E+00
    0.51513E-07        -0.26872E-09         0.00000E+00
    0.51515E-07        -0.27629E-09         0.00000E+00
    0.51518E-07        -0.28284E-09         0.00000E+00
    0.51520E-07        -0.28838E-09         0.00000E+00
    0.51522E-07        -0.29291E-09         0.00000E+00
    0.51525E-07        -0.29644E-09         0.00000E+00
    0.51527E-07        -0.29898E-09         0.00000E+00
    0.51529E-07        -0.30055E-09         0.00000E+00
    0.51532E-07        -0.30115E-09         0.00000E+00
    0.51534E-07        -0.30078E-09         0.00000E+00
    0.51537E-07        -0.29946E-09         0.00000E+00
    0.51539E-07        -0.29720E-09         0.00000E+00
    0.51541E-07        -0.29400E-09         0.00000E+00
    0.51543E-07        -0.28987E-09         0.00000E+00
    0.51546E-07        -0.28482E-09         0.00000E+00
    0.51548E-07        -0.27886E-09         0.00000E+00
    0.51550E-07        -0.27199E-09         0.00000E+00
    0.51552E-07        -0.26422E-09         0.00000E+00
    0.51554E-07        -0.25555E-09         0.00000E+00
    0.51556E-07        -0.24600E-09         0.00000E+00
    0.51558E-07        -0.23556E-09         0.00000E+00
    0.51559E-07        -0.22425E-09         0.00000E+00
    0.51561E-07        -0.21208E-09         0.00000E+00
    0.51562E-07        -0.19903E-09         0.00000E+00
    0.51564E-07        -0.18513E-09         0.00000E+00
    0.51565E-07        -0.17038E-09         0.00000E+00
    0.51566E-07        -0.15478E-09         0.00000E+00
    0.51567E-07        -0.13833E-09         0.00000E+00
    0.51568E-07        -0.12105E-09         0.00000E+00
    0.51569E-07        -0.10293E-09         0.00000E+00
    0.51570E-07        -0.83976E-10         0.00000E+00
    0.51570E-07        -0.64198E-10         0.00000E+00
    0.51571E-07        -0.43596E-10         0.00000E+00
    0.51571E-07        -0.22173E-10         0.00000E+00
    0.51571E-07        -0.11256E-10         0.00000E+00
    0.52666E-07        -0.13357E-10         0.00000E+00
    0.52666E-07        -0.26291E-10         0.00000E+00
    0.52666E-07        -0.51529E-10         0.00000E+00
    0.52667E-07        -0.75516E-10         0.00000E+00
    0.52667E-07        -0.98265E-10         0.00000E+00
    0.52668E-07        -0.11979E-09         0.00000E+00
    0.52669E-07        -0.14010E-09         0.00000E+00
    0.52670E-07        -0.15921E-09         0.00000E+00
    0.52672E-07        -0.17714E-09         0.00000E+00
    0.52673E-07        -0.19389E-09         0.00000E+00
    0.52675E-07        -0.20949E-09         0.00000E+00
    0.52676E-07        -0.22393E-09         0.00000E+00
    0.52678E-07        -0.23724E-09         0.00000E+00
    0.52680E-07        -0.24942E-09         0.00000E+00
    0.52682E-07        -0.26049E-09         0.00000E+00
    0.52683E-07        -0.27046E-09         0.00000E+00
    0.52685E-07        -0.27934E-09         0.00000E+00
    0.52687E-07        -0.28714E-09         0.00000E+00
    0.52690E-07        -0.29388E-09         0.00000E+00
    0.52692E-07        -0.29955E-09         0.00000E+00
    0.52694E-07        -0.30419E-09         0.00000E+00
    0.52696E-07        -0.30778E-09         0.00000E+00
    0.52698E-07        -0.31035E-09         0.00000E+00
    0.52700E-07        -0.31191E-09         0.00000E+00
    0.52702E-07        -0.31246E-09         0.00000E+00
    0.52704E-07        -0.31201E-09         0.00000E+00
    0.52707E-07        -0.31058E-09         0.00000E+00
    0.52709E-07        -0.30817E-09         0.00000E+00
    0.52711E-07        -0.30479E-09         0.00000E+00
    0.52713E-07        -0.30045E-09         0.00000E+00
    0.52715E-07        -0.29515E-09         0.00000E+00
    0.52717E-07        -0.28892E-09         0.00000E+00
    0.52718E-07        -0.28174E-09         0.00000E+00
    0.52720E-07        -0.27364E-09         0.00000E+00
    0.52722E-07        -0.26462E-09         0.00000E+00
    0.52724E-07        -0.25468E-09         0.00000E+00
    0.52725E-07        -0.24384E-09         0.00000E+00
    0.52727E-07        -0.23209E-09         0.00000E+00
    0.52728E-07        -0.21945E-09         0.00000E+00
    0.52730E-07        -0.20592E-09         0.00000E+00
    0.52731E-07        -0.19151E-09         0.00000E+00
    0.52732E-07        -0.17622E-09         0.00000E+00
    0.52733E-07        -0.16006E-09         0.00000E+00
    0.52734E-07        -0.14303E-09         0.00000E+00
    0.52735E-07        -0.12514E-09         0.00000E+00
    0.52735E-07        -0.10640E-09         0.00000E+00
    0.52736E-07        -0.86795E-10         0.00000E+00
    0.52736E-07        -0.66344E-10         0.00000E+00
    0.52737E-07        -0.45047E-10         0.00000E+00
    0.52737E-07        -0.22908E-10         0.00000E+00
    0.52737E-07        -0.11629E-10         0.00000E+00
    0.53858E-07        -0.13873E-10         0.00000E+00
    0.53858E-07        -0.27301E-10         0.00000E+00
    0.53858E-07        -0.53495E-10         0.00000E+00
    0.53859E-07        -0.78375E-10         0.00000E+00
    0.53860E-07        -0.10195E-09         0.00000E+00
    0.53860E-07        -0.12425E-09         0.00000E+00
    0.53861E-07        -0.14528E-09         0.00000E+00
    0.53862E-07        -0.16505E-09         0.00000E+00
    0.53863E-07        -0.18358E-09         0.00000E+00
    0.53865E-07        -0.20088E-09         0.00000E+00
    0.53866E-07        -0.21697E-09         0.00000E+00
    0.53867E-07        -0.23187E-09         0.00000E+00
    0.53869E-07        -0.24558E-09         0.00000E+00
    0.53871E-07        -0.25812E-09         0.00000E+00
    0.53872E-07        -0.26951E-09         0.00000E+00
    0.53874E-07        -0.27975E-09         0.00000E+00
    0.53876E-07        -0.28885E-09         0.00000E+00
    0.53878E-07        -0.29685E-09         0.00000E+00
    0.53879E-07        -0.30373E-09         0.00000E+00
    0.53881E-07        -0.30952E-09         0.00000E+00
    0.53883E-07        -0.31423E-09         0.00000E+00
    0.53885E-07        -0.31787E-09         0.00000E+00
    0.53887E-07        -0.32045E-09         0.00000E+00
    0.53889E-07        -0.32198E-09         0.00000E+00
    0.53891E-07        -0.32247E-09         0.00000E+00
    0.53892E-07        -0.32194E-09         0.00000E+00
    0.53894E-07        -0.32039E-09         0.00000E+00
    0.53896E-07        -0.31783E-09         0.00000E+00
    0.53898E-07        -0.31428E-09         0.00000E+00
    0.53899E-07        -0.30974E-09         0.00000E+00
    0.53901E-07        -0.30422E-09         0.00000E+00
    0.53903E-07        -0.29773E-09         0.00000E+00
    0.53904E-07        -0.29028E-09         0.00000E+00
    0.53906E-07        -0.28188E-09         0.00000E+00
    0.53907E-07        -0.27253E-09         0.00000E+00
    0.53909E-07        -0.26225E-09         0.00000E+00
    0.53910E-07        -0.25104E-09         0.00000E+00
    0.53911E-07        -0.23890E-09         0.00000E+00
    0.53913E-07        -0.22585E-09         0.00000E+00
    0.53914E-07        -0.21190E-09         0.00000E+00
    0.53915E-07        -0.19703E-09         0.00000E+00
    0.53916E-07        -0.18128E-09         0.00000E+00
    0.53917E-07        -0.16463E-09         0.00000E+00
    0.53917E-07        -0.14709E-09         0.00000E+00
    0.53918E-07        -0.12867E-09         0.00000E+00
    0.53919E-07        -0.10938E-09         0.00000E+00
    0.53919E-07        -0.89219E-10         0.00000E+00
    0.53920E-07        -0.68188E-10         0.00000E+00
    0.53920E-07        -0.46294E-10         0.00000E+00
    0.53920E-07        -0.23539E-10         0.00000E+00
    0.53920E-07        -0.11948E-10         0.00000E+00
    0.55065E-07        -0.14333E-10         0.00000E+00
    0.55065E-07        -0.28201E-10         0.00000E+00
    0.55065E-07        -0.55244E-10         0.00000E+00
    0.55065E-07        -0.80913E-10         0.00000E+00
    0.55066E-07        -0.10522E-09         0.00000E+00
    0.55067E-07        -0.12819E-09         0.00000E+00
    0.55067E-07        -0.14984E-09         0.00000E+00
    0.55068E-07        -0.17018E-09         0.00000E+00
    0.55069E-07        -0.18923E-09         0.00000E+00
    0.55070E-07        -0.20701E-09         0.00000E+00
    0.55072E-07        -0.22352E-09         0.00000E+00
    0.55073E-07        -0.23880E-09         0.00000E+00
    0.55074E-07        -0.25285E-09         0.00000E+00
    0.55075E-07        -0.26568E-09         0.00000E+00
    0.55077E-07        -0.27732E-09         0.00000E+00
    0.55078E-07        -0.28778E-09         0.00000E+00
    0.55080E-07        -0.29707E-09         0.00000E+00
    0.55081E-07        -0.30521E-09         0.00000E+00
    0.55083E-07        -0.31220E-09         0.00000E+00
    0.55084E-07        -0.31807E-09         0.00000E+00
    0.55086E-07        -0.32283E-09         0.00000E+00
    0.55087E-07        -0.32649E-09         0.00000E+00
    0.55089E-07        -0.32905E-09         0.00000E+00
    0.55091E-07        -0.33054E-09         0.00000E+00
    0.55092E-07        -0.33097E-09         0.00000E+00
    0.55094E-07        -0.33035E-09         0.00000E+00
    0.55095E-07        -0.32868E-09         0.00000E+00
    0.55097E-07        -0.32598E-09         0.00000E+00
    0.55098E-07        -0.32227E-09         0.00000E+00
    0.55099E-07        -0.31754E-09         0.00000E+00
    0.55101E-07        -0.31182E-09         0.00000E+00
    0.55102E-07        -0.30511E-09         0.00000E+00
    0.55103E-07        -0.29741E-09         0.00000E+00
    0.55105E-07        -0.28875E-09         0.00000E+00
    0.55106E-07        -0.27912E-09         0.00000E+00
    0.55107E-07        -0.26854E-09         0.00000E+00
    0.55108E-07        -0.25701E-09         0.00000E+00
    0.55109E-07        -0.24454E-09         0.00000E+00
    0.55110E-07        -0.23114E-09         0.00000E+00
    0.55111E-07        -0.21682E-09         0.00000E+00
    0.55112E-07        -0.20158E-09         0.00000E+00
    0.55113E-07        -0.18542E-09         0.00000E+00
    0.55113E-07        -0.16837E-09         0.00000E+00
    0.55114E-07        -0.15041E-09         0.00000E+00
    0.55114E-07        -0.13156E-09         0.00000E+00
    0.55115E-07        -0.11182E-09         0.00000E+00
    0.55115E-07        -0.91192E-10         0.00000E+00
    0.55116E-07        -0.69687E-10         0.00000E+00
    0.55116E-07        -0.47305E-10         0.00000E+00
    0.55116E-07        -0.24051E-10         0.00000E+00
    0.55116E-07        -0.12206E-10         0.00000E+00
    0.56281E-07        -0.14729E-10         0.00000E+00
    0.56281E-07        -0.28972E-10         0.00000E+00
    0.56281E-07        -0.56739E-10         0.00000E+00
    0.56282E-07        -0.83076E-10         0.00000E+00
    0.56282E-07        -0.10800E-09         0.00000E+00
    0.56283E-07        -0.13154E-09         0.00000E+00
    0.56283E-07        -0.15370E-09         0.00000E+00
    0.56284E-07        -0.17450E-09         0.00000E+00
    0.56285E-07        -0.19398E-09         0.00000E+00
    0.56286E-07        -0.21213E-09         0.00000E+00
    0.56287E-07        -0.22899E-09         0.00000E+00
    0.56288E-07        -0.24456E-09         0.00000E+00
    0.56289E-07        -0.25887E-09         0.00000E+00
    0.56290E-07        -0.27193E-09         0.00000E+00
    0.56291E-07        -0.28376E-09         0.00000E+00
    0.56292E-07        -0.29438E-09         0.00000E+00
    0.56293E-07        -0.30379E-09         0.00000E+00
    0.56294E-07        -0.31203E-09         0.00000E+00
    0.56295E-07        -0.31909E-09         0.00000E+00
    0.56297E-07        -0.32500E-09         0.00000E+00
    0.56298E-07        -0.32977E-09         0.00000E+00
    0.56299E-07        -0.33342E-09         0.00000E+00
    0.56300E-07        -0.33595E-09         0.00000E+00
    0.56301E-07        -0.33739E-09         0.00000E+00
    0.56303E-07        -0.33774E-09         0.00000E+00
    0.56304E-07        -0.33702E-09         0.00000E+00
    0.56305E-07        -0.33524E-09         0.00000E+00
    0.56306E-07        -0.33241E-09         0.00000E+00
    0.56307E-07        -0.32855E-09         0.00000E+00
    0.56308E-07        -0.32365E-09         0.00000E+00
    0.56309E-07        -0.31775E-09         0.00000E+00
    0.56310E-07        -0.31084E-09         0.00000E+00
    0.56311E-07        -0.30294E-09         0.00000E+00
    0.56312E-07        -0.29405E-09         0.00000E+00
    0.56313E-07        -0.28419E-09         0.00000E+00
    0.56314E-07        -0.27336E-09         0.00000E+00
    0.56314E-07        -0.26157E-09         0.00000E+00
    0.56315E-07        -0.24883E-09         0.00000E+00
    0.56316E-07        -0.23516E-09         0.00000E+00
    0.56316E-07        -0.22054E-09         0.00000E+00
    0.56317E-07        -0.20501E-09         0.00000E+00
    0.56318E-07        -0.18855E-09         0.00000E+00
    0.56318E-07        -0.17117E-09         0.00000E+00
    0.56319E-07        -0.15289E-09         0.00000E+00
    0.56319E-07        -0.13371E-09         0.00000E+00
    0.56319E-07        -0.11363E-09         0.00000E+00
    0.56319E-07        -0.92656E-10         0.00000E+00
    0.56320E-07        -0.70796E-10         0.00000E+00
    0.56320E-07        -0.48052E-10         0.00000E+00
    0.56320E-07        -0.24428E-10         0.00000E+00
    0.56320E-07        -0.12396E-10         0.00000E+00
    0.57502E-07        -0.15049E-10         0.00000E+00
    0.57502E-07        -0.29594E-10         0.00000E+00
    0.57502E-07        -0.57940E-10         0.00000E+00
    0.57503E-07        -0.84806E-10         0.00000E+00
    0.57503E-07        -0.11021E-09         0.00000E+00
    0.57503E-07        -0.13418E-09         0.00000E+00
    0.57504E-07        -0.15674E-09         0.00000E+00
    0.57504E-07        -0.17790E-09         0.00000E+00
    0.57505E-07        -0.19768E-09         0.00000E+00
    0.57506E-07        -0.21611E-09         0.00000E+00
    0.57506E-07        -0.23321E-09         0.00000E+00
    0.57507E-07        -0.24899E-09         0.00000E+00
    0.57508E-07        -0.26347E-09         0.00000E+00
    0.57509E-07        -0.27668E-09         0.00000E+00
    0.57509E-07        -0.28862E-09         0.00000E+00
    0.57510E-07        -0.29933E-09         0.00000E+00
    0.57511E-07        -0.30881E-09         0.00000E+00
    0.57512E-07        -0.31708E-09         0.00000E+00
    0.57513E-07        -0.32417E-09         0.00000E+00
    0.57513E-07        -0.33008E-09         0.00000E+00
    0.57514E-07        -0.33483E-09         0.00000E+00
    0.57515E-07        -0.33843E-09         0.00000E+00
    0.57516E-07        -0.34091E-09         0.00000E+00
    0.57517E-07        -0.34228E-09         0.00000E+00
    0.57517E-07        -0.34254E-09         0.00000E+00
    0.57518E-07        -0.34172E-09         0.00000E+00
    0.57519E-07        -0.33983E-09         0.00000E+00
    0.57519E-07        -0.33688E-09         0.00000E+00
    0.57520E-07        -0.33288E-09         0.00000E+00
    0.57521E-07        -0.32785E-09         0.00000E+00
    0.57521E-07        -0.32179E-09         0.00000E+00
    0.57522E-07        -0.31472E-09         0.00000E+00
    0.57523E-07        -0.30665E-09         0.00000E+00
    0.57523E-07        -0.29759E-09         0.00000E+00
    0.57524E-07        -0.28754E-09         0.00000E+00
    0.57524E-07        -0.27653E-09         0.00000E+00
    0.57524E-07        -0.26455E-09         0.00000E+00
    0.57525E-07        -0.25162E-09         0.00000E+00
    0.57525E-07        -0.23774E-09         0.00000E+00
    0.57526E-07        -0.22293E-09         0.00000E+00
    0.57526E-07        -0.20719E-09         0.00000E+00
    0.57526E-07        -0.19052E-09         0.00000E+00
    0.57526E-07        -0.17293E-09         0.00000E+00
    0.57527E-07        -0.15444E-09         0.00000E+00
    0.57527E-07        -0.13504E-09         0.00000E+00
    0.57527E-07        -0.11474E-09         0.00000E+00
    0.57527E-07        -0.93550E-10         0.00000E+00
    0.57527E-07        -0.71468E-10         0.00000E+00
    0.57527E-07        -0.48501E-10         0.00000E+00
    0.57527E-07        -0.24653E-10         0.00000E+00
    0.57527E-07        -0.12509E-10         0.00000E+00
    0.58723E-07        -0.15282E-10         0.00000E+00
    0.58723E-07        -0.30046E-10         0.00000E+00
    0.58724E-07        -0.58806E-10         0.00000E+00
    0.58724E-07        -0.86042E-10         0.00000E+00
    0.58724E-07        -0.11178E-09         0.00000E+00
    0.58724E-07        -0.13604E-09         0.00000E+00
    0.58725E-07        -0.15885E-09         0.00000E+00
    0.58725E-07        -0.18023E-09         0.00000E+00
    0.58725E-07        -0.20020E-09         0.00000E+00
    0.58726E-07        -0.21879E-09         0.00000E+00
    0.58726E-07        -0.23601E-09         0.00000E+00
    0.58726E-07        -0.25189E-09         0.00000E+00
    0.58727E-07        -0.26645E-09         0.00000E+00
    0.58727E-07        -0.27972E-09         0.00000E+00
    0.58728E-07        -0.29170E-09         0.00000E+00
    0.58728E-07        -0.30242E-09         0.00000E+00
    0.58728E-07        -0.31189E-09         0.00000E+00
    0.58729E-07        -0.32015E-09         0.00000E+00
    0.58729E-07        -0.32720E-09         0.00000E+00
    0.58730E-07        -0.33306E-09         0.00000E+00
    0.58730E-07        -0.33775E-09         0.00000E+00
    0.58730E-07        -0.34129E-09         0.00000E+00
    0.58731E-07        -0.34369E-09         0.00000E+00
    0.58731E-07        -0.34496E-09         0.00000E+00
    0.58731E-07        -0.34514E-09         0.00000E+00
    0.58731E-07        -0.34421E-09         0.00000E+00
    0.58732E-07        -0.34222E-09         0.00000E+00
    0.58732E-07        -0.33915E-09         0.00000E+00
    0.58732E-07        -0.33504E-09         0.00000E+00
    0.58732E-07        -0.32989E-09         0.00000E+00
    0.58732E-07        -0.32371E-09         0.00000E+00
    0.58733E-07        -0.31653E-09         0.00000E+00
    0.58733E-07        -0.30834E-09         0.00000E+00
    0.58733E-07        -0.29915E-09         0.00000E+00
    0.58733E-07        -0.28899E-09         0.00000E+00
    0.58733E-07        -0.27786E-09         0.00000E+00
    0.58733E-07        -0.26577E-09         0.00000E+00
    0.58733E-07        -0.25273E-09         0.00000E+00
    0.58733E-07        -0.23874E-09         0.00000E+00
    0.58733E-07        -0.22382E-09         0.00000E+00
    0.58733E-07        -0.20797E-09         0.00000E+00
    0.58733E-07        -0.19121E-09         0.00000E+00
    0.58733E-07        -0.17353E-09         0.00000E+00
    0.58733E-07        -0.15494E-09         0.00000E+00
    0.58733E-07        -0.13546E-09         0.00000E+00
    0.58733E-07        -0.11508E-09         0.00000E+00
    0.58733E-07        -0.93809E-10         0.00000E+00
    0.58733E-07        -0.71656E-10         0.00000E+00
    0.58733E-07        -0.48622E-10         0.00000E+00
    0.58733E-07        -0.24711E-10         0.00000E+00
    0.58733E-07        -0.12537E-10         0.00000E+00
    0.59939E-07        -0.15418E-10         0.00000E+00
    0.59939E-07        -0.30306E-10         0.00000E+00
    0.59939E-07        -0.59293E-10         0.00000E+00
    0.59939E-07        -0.86721E-10         0.00000E+00
    0.59940E-07        -0.11262E-09         0.00000E+00
    0.59940E-07        -0.13700E-09         0.00000E+00
    0.59940E-07        -0.15991E-09         0.00000E+00
    0.59940E-07        -0.18136E-09         0.00000E+00
    0.59940E-07        -0.20138E-09         0.00000E+00
    0.59940E-07        -0.21999E-09         0.00000E+00
    0.59940E-07        -0.23722E-09         0.00000E+00
    0.59940E-07        -0.25309E-09         0.00000E+00
    0.59940E-07        -0.26762E-09         0.00000E+00
    0.59940E-07        -0.28084E-09         0.00000E+00
    0.59940E-07        -0.29276E-09         0.00000E+00
    0.59940E-07        -0.30342E-09         0.00000E+00
    0.59940E-07        -0.31282E-09         0.00000E+00
    0.59940E-07        -0.32099E-09         0.00000E+00
    0.59940E-07        -0.32794E-09         0.00000E+00
    0.59940E-07        -0.33371E-09         0.00000E+00
    0.59940E-07        -0.33830E-09         0.00000E+00
    0.59940E-07        -0.34173E-09         0.00000E+00
    0.59939E-07        -0.34402E-09         0.00000E+00
    0.59939E-07        -0.34520E-09         0.00000E+00
    0.59939E-07        -0.34526E-09         0.00000E+00
    0.59939E-07        -0.34424E-09         0.00000E+00
    0.59938E-07        -0.34214E-09         0.00000E+00
    0.59938E-07        -0.33898E-09         0.00000E+00
    0.59938E-07        -0.33478E-09         0.00000E+00
    0.59937E-07        -0.32954E-09         0.00000E+00
    0.59937E-07        -0.32329E-09         0.00000E+00
    0.59937E-07        -0.31603E-09         0.00000E+00
    0.59936E-07        -0.30777E-09         0.00000E+00
    0.59936E-07        -0.29853E-09         0.00000E+00
    0.59936E-07        -0.28832E-09         0.00000E+00
    0.59935E-07        -0.27715E-09         0.00000E+00
    0.59935E-07        -0.26503E-09         0.00000E+00
    0.59935E-07        -0.25197E-09         0.00000E+00
    0.59934E-07        -0.23798E-09         0.00000E+00
    0.59934E-07        -0.22306E-09         0.00000E+00
    0.59934E-07        -0.20722E-09         0.00000E+00
    0.59933E-07        -0.19048E-09         0.00000E+00
    0.59933E-07        -0.17283E-09         0.00000E+00
    0.59933E-07        -0.15430E-09         0.00000E+00
    0.59932E-07        -0.13487E-09         0.00000E+00
    0.59932E-07        -0.11456E-09         0.00000E+00
    0.59932E-07        -0.93371E-10         0.00000E+00
    0.59932E-07        -0.71310E-10         0.00000E+00
    0.59932E-07        -0.48380E-10         0.00000E+00
    0.59932E-07        -0.24585E-10         0.00000E+00
    0.59932E-07        -0.12472E-10         0.00000E+00
    0.61145E-07        -0.15445E-10         0.00000E+00
    0.61145E-07        -0.30349E-10         0.00000E+00
    0.61145E-07        -0.59356E-10         0.00000E+00
    0.61145E-07        -0.86776E-10         0.00000E+00
    0.61144E-07        -0.11264E-09         0.00000E+00
    0.61144E-07        -0.13697E-09         0.00000E+00
    0.61144E-07        -0.15980E-09         0.00000E+00
    0.61144E-07        -0.18116E-09         0.00000E+00
    0.61144E-07        -0.20107E-09         0.00000E+00
    0.61144E-07        -0.21956E-09         0.00000E+00
    0.61143E-07        -0.23666E-09         0.00000E+00
    0.61143E-07        -0.25239E-09         0.00000E+00
    0.61143E-07        -0.26677E-09         0.00000E+00
    0.61142E-07        -0.27983E-09         0.00000E+00
    0.61142E-07        -0.29160E-09         0.00000E+00
    0.61141E-07        -0.30209E-09         0.00000E+00
    0.61141E-07        -0.31133E-09         0.00000E+00
    0.61140E-07        -0.31934E-09         0.00000E+00
    0.61139E-07        -0.32614E-09         0.00000E+00
    0.61139E-07        -0.33176E-09         0.00000E+00
    0.61138E-07        -0.33620E-09         0.00000E+00
    0.61137E-07        -0.33949E-09         0.00000E+00
    0.61137E-07        -0.34166E-09         0.00000E+00
    0.61136E-07        -0.34271E-09         0.00000E+00
    0.61135E-07        -0.34266E-09         0.00000E+00
    0.61134E-07        -0.34153E-09         0.00000E+00
    0.61133E-07        -0.33935E-09         0.00000E+00
    0.61133E-07        -0.33611E-09         0.00000E+00
    0.61132E-07        -0.33184E-09         0.00000E+00
    0.61131E-07        -0.32656E-09         0.00000E+00
    0.61130E-07        -0.32027E-09         0.00000E+00
    0.61129E-07        -0.31299E-09         0.00000E+00
    0.61128E-07        -0.30473E-09         0.00000E+00
    0.61127E-07        -0.29550E-09         0.00000E+00
    0.61126E-07        -0.28533E-09         0.00000E+00
    0.61125E-07        -0.27420E-09         0.00000E+00
    0.61125E-07        -0.26215E-09         0.00000E+00
    0.61124E-07        -0.24917E-09         0.00000E+00
    0.61123E-07        -0.23528E-09         0.00000E+00
    0.61122E-07        -0.22048E-09         0.00000E+00
    0.61122E-07        -0.20478E-09         0.00000E+00
    0.61121E-07        -0.18820E-09         0.00000E+00
    0.61120E-07        -0.17073E-09         0.00000E+00
    0.61120E-07        -0.15239E-09         0.00000E+00
    0.61119E-07        -0.13318E-09         0.00000E+00
    0.61119E-07        -0.11310E-09         0.00000E+00
    0.61119E-07        -0.92169E-10         0.00000E+00
    0.61118E-07        -0.70380E-10         0.00000E+00
    0.61118E-07        -0.47742E-10         0.00000E+00
    0.61118E-07        -0.24258E-10         0.00000E+00
    0.61118E-07        -0.12304E-10         0.00000E+00
    0.62333E-07        -0.15350E-10         0.00000E+00
    0.62333E-07        -0.30152E-10         0.00000E+00
    0.62333E-07        -0.58946E-10         0.00000E+00
    0.62333E-07        -0.86135E-10         0.00000E+00
    0.62333E-07        -0.11175E-09         0.00000E+00
    0.62333E-07        -0.13583E-09         0.00000E+00
    0.62332E-07        -0.15839E-09         0.00000E+00
    0.62332E-07        -0.17948E-09         0.00000E+00
    0.62331E-07        -0.19911E-09         0.00000E+00
    0.62331E-07        -0.21732E-09         0.00000E+00
    0.62330E-07        -0.23413E-09         0.00000E+00
    0.62329E-07        -0.24958E-09         0.00000E+00
    0.62328E-07        -0.26368E-09         0.00000E+00
    0.62327E-07        -0.27647E-09         0.00000E+00
    0.62326E-07        -0.28797E-09         0.00000E+00
    0.62325E-07        -0.29820E-09         0.00000E+00
    0.62324E-07        -0.30719E-09         0.00000E+00
    0.62323E-07        -0.31497E-09         0.00000E+00
    0.62322E-07        -0.32154E-09         0.00000E+00
    0.62321E-07        -0.32695E-09         0.00000E+00
    0.62319E-07        -0.33120E-09         0.00000E+00
    0.62318E-07        -0.33431E-09         0.00000E+00
    0.62317E-07        -0.33631E-09         0.00000E+00
    0.62315E-07        -0.33722E-09         0.00000E+00
    0.62314E-07        -0.33706E-09         0.00000E+00
    0.62312E-07        -0.33583E-09         0.00000E+00
    0.62311E-07        -0.33356E-09         0.00000E+00
    0.62309E-07        -0.33027E-09         0.00000E+00
    0.62308E-07        -0.32597E-09         0.00000E+00
    0.62306E-07        -0.32068E-09         0.00000E+00
    0.62305E-07        -0.31441E-09         0.00000E+00
    0.62303E-07        -0.30717E-09         0.00000E+00
    0.62302E-07        -0.29897E-09         0.00000E+00
    0.62301E-07        -0.28984E-09         0.00000E+00
    0.62299E-07        -0.27978E-09         0.00000E+00
    0.62298E-07        -0.26880E-09         0.00000E+00
    0.62296E-07        -0.25692E-09         0.00000E+00
    0.62295E-07        -0.24414E-09         0.00000E+00
    0.62294E-07        -0.23047E-09         0.00000E+00
    0.62293E-07        -0.21592E-09         0.00000E+00
    0.62292E-07        -0.20051E-09         0.00000E+00
    0.62291E-07        -0.18423E-09         0.00000E+00
    0.62290E-07        -0.16710E-09         0.00000E+00
    0.62289E-07        -0.14911E-09         0.00000E+00
    0.62288E-07        -0.13029E-09         0.00000E+00
    0.62288E-07        -0.11063E-09         0.00000E+00
    0.62287E-07        -0.90138E-10         0.00000E+00
    0.62287E-07        -0.68818E-10         0.00000E+00
    0.62286E-07        -0.46675E-10         0.00000E+00
    0.62286E-07        -0.23712E-10         0.00000E+00
    0.62286E-07        -0.12026E-10         0.00000E+00
    0.63500E-07        -0.15121E-10         0.00000E+00
    0.63500E-07        -0.29690E-10         0.00000E+00
    0.63500E-07        -0.58014E-10         0.00000E+00
    0.63499E-07        -0.84727E-10         0.00000E+00
    0.63499E-07        -0.10986E-09         0.00000E+00
    0.63499E-07        -0.13346E-09         0.00000E+00
    0.63498E-07        -0.15555E-09         0.00000E+00
    0.63497E-07        -0.17615E-09         0.00000E+00
    0.63496E-07        -0.19532E-09         0.00000E+00
    0.63495E-07        -0.21307E-09         0.00000E+00
    0.63494E-07        -0.22943E-09         0.00000E+00
    0.63493E-07        -0.24444E-09         0.00000E+00
    0.63491E-07        -0.25813E-09         0.00000E+00
    0.63490E-07        -0.27051E-09         0.00000E+00
    0.63489E-07        -0.28163E-09         0.00000E+00
    0.63487E-07        -0.29149E-09         0.00000E+00
    0.63485E-07        -0.30014E-09         0.00000E+00
    0.63483E-07        -0.30759E-09         0.00000E+00
    0.63482E-07        -0.31387E-09         0.00000E+00
    0.63480E-07        -0.31900E-09         0.00000E+00
    0.63478E-07        -0.32300E-09         0.00000E+00
    0.63476E-07        -0.32590E-09         0.00000E+00
    0.63474E-07        -0.32772E-09         0.00000E+00
    0.63472E-07        -0.32847E-09         0.00000E+00
    0.63469E-07        -0.32818E-09         0.00000E+00
    0.63467E-07        -0.32685E-09         0.00000E+00
    0.63465E-07        -0.32452E-09         0.00000E+00
    0.63463E-07        -0.32120E-09         0.00000E+00
    0.63461E-07        -0.31691E-09         0.00000E+00
    0.63459E-07        -0.31165E-09         0.00000E+00
    0.63457E-07        -0.30545E-09         0.00000E+00
    0.63454E-07        -0.29832E-09         0.00000E+00
    0.63452E-07        -0.29027E-09         0.00000E+00
    0.63450E-07        -0.28131E-09         0.00000E+00
    0.63448E-07        -0.27147E-09         0.00000E+00
    0.63446E-07        -0.26074E-09         0.00000E+00
    0.63445E-07        -0.24914E-09         0.00000E+00
    0.63443E-07        -0.23668E-09         0.00000E+00
    0.63441E-07        -0.22338E-09         0.00000E+00
    0.63439E-07        -0.20923E-09         0.00000E+00
    0.63438E-07        -0.19424E-09         0.00000E+00
    0.63436E-07        -0.17843E-09         0.00000E+00
    0.63435E-07        -0.16180E-09         0.00000E+00
    0.63434E-07        -0.14436E-09         0.00000E+00
    0.63433E-07        -0.12611E-09         0.00000E+00
    0.63432E-07        -0.10706E-09         0.00000E+00
    0.63431E-07        -0.87214E-10         0.00000E+00
    0.63431E-07        -0.66575E-10         0.00000E+00
    0.63430E-07        -0.45146E-10         0.00000E+00
    0.63430E-07        -0.22932E-10         0.00000E+00
    0.63430E-07        -0.11629E-10         0.00000E+00
    0.64638E-07        -0.14742E-10         0.00000E+00
    0.64638E-07        -0.28934E-10         0.00000E+00
    0.64638E-07        -0.56506E-10         0.00000E+00
    0.64638E-07        -0.82474E-10         0.00000E+00
    0.64637E-07        -0.10687E-09         0.00000E+00
    0.64636E-07        -0.12975E-09         0.00000E+00
    0.64635E-07        -0.15112E-09         0.00000E+00
    0.64634E-07        -0.17104E-09         0.00000E+00
    0.64633E-07        -0.18953E-09         0.00000E+00
    0.64631E-07        -0.20663E-09         0.00000E+00
    0.64630E-07        -0.22236E-09         0.00000E+00
    0.64628E-07        -0.23677E-09         0.00000E+00
    0.64626E-07        -0.24988E-09         0.00000E+00
    0.64624E-07        -0.26172E-09         0.00000E+00
    0.64622E-07        -0.27232E-09         0.00000E+00
    0.64620E-07        -0.28170E-09         0.00000E+00
    0.64617E-07        -0.28990E-09         0.00000E+00
    0.64615E-07        -0.29694E-09         0.00000E+00
    0.64612E-07        -0.30284E-09         0.00000E+00
    0.64610E-07        -0.30764E-09         0.00000E+00
    0.64607E-07        -0.31134E-09         0.00000E+00
    0.64604E-07        -0.31399E-09         0.00000E+00
    0.64602E-07        -0.31558E-09         0.00000E+00
    0.64599E-07        -0.31616E-09         0.00000E+00
    0.64596E-07        -0.31574E-09         0.00000E+00
    0.64593E-07        -0.31433E-09         0.00000E+00
    0.64590E-07        -0.31195E-09         0.00000E+00
    0.64587E-07        -0.30863E-09         0.00000E+00
    0.64584E-07        -0.30438E-09         0.00000E+00
    0.64581E-07        -0.29922E-09         0.00000E+00
    0.64579E-07        -0.29315E-09         0.00000E+00
    0.64576E-07        -0.28620E-09         0.00000E+00
    0.64573E-07        -0.27838E-09         0.00000E+00
    0.64570E-07        -0.26970E-09         0.00000E+00
    0.64568E-07        -0.26017E-09         0.00000E+00
    0.64565E-07        -0.24981E-09         0.00000E+00
    0.64563E-07        -0.23863E-09         0.00000E+00
    0.64560E-07        -0.22663E-09         0.00000E+00
    0.64558E-07        -0.21383E-09         0.00000E+00
    0.64556E-07        -0.20023E-09         0.00000E+00
    0.64554E-07        -0.18584E-09         0.00000E+00
    0.64552E-07        -0.17067E-09         0.00000E+00
    0.64551E-07        -0.15473E-09         0.00000E+00
    0.64549E-07        -0.13802E-09         0.00000E+00
    0.64548E-07        -0.12055E-09         0.00000E+00
    0.64547E-07        -0.10232E-09         0.00000E+00
    0.64546E-07        -0.83334E-10         0.00000E+00
    0.64545E-07        -0.63602E-10         0.00000E+00
    0.64544E-07        -0.43124E-10         0.00000E+00
    0.64544E-07        -0.21902E-10         0.00000E+00
    0.64544E-07        -0.11105E-10         0.00000E+00
    0.65742E-07        -0.14201E-10         0.00000E+00
    0.65742E-07        -0.27858E-10         0.00000E+00
    0.65742E-07        -0.54369E-10         0.00000E+00
    0.65741E-07        -0.79296E-10         0.00000E+00
    0.65740E-07        -0.10268E-09         0.00000E+00
    0.65739E-07        -0.12456E-09         0.00000E+00
    0.65738E-07        -0.14497E-09         0.00000E+00
    0.65736E-07        -0.16396E-09         0.00000E+00
    0.65735E-07        -0.18155E-09         0.00000E+00
    0.65733E-07        -0.19779E-09         0.00000E+00
    0.65731E-07        -0.21270E-09         0.00000E+00
    0.65728E-07        -0.22633E-09         0.00000E+00
    0.65726E-07        -0.23870E-09         0.00000E+00
    0.65723E-07        -0.24984E-09         0.00000E+00
    0.65721E-07        -0.25979E-09         0.00000E+00
    0.65718E-07        -0.26857E-09         0.00000E+00
    0.65715E-07        -0.27621E-09         0.00000E+00
    0.65711E-07        -0.28274E-09         0.00000E+00
    0.65708E-07        -0.28819E-09         0.00000E+00
    0.65705E-07        -0.29258E-09         0.00000E+00
    0.65701E-07        -0.29593E-09         0.00000E+00
    0.65698E-07        -0.29827E-09         0.00000E+00
    0.65694E-07        -0.29963E-09         0.00000E+00
    0.65691E-07        -0.30002E-09         0.00000E+00
    0.65687E-07        -0.29946E-09         0.00000E+00
    0.65683E-07        -0.29797E-09         0.00000E+00
    0.65680E-07        -0.29558E-09         0.00000E+00
    0.65676E-07        -0.29229E-09         0.00000E+00
    0.65672E-07        -0.28813E-09         0.00000E+00
    0.65669E-07        -0.28312E-09         0.00000E+00
    0.65665E-07        -0.27726E-09         0.00000E+00
    0.65661E-07        -0.27057E-09         0.00000E+00
    0.65658E-07        -0.26308E-09         0.00000E+00
    0.65655E-07        -0.25478E-09         0.00000E+00
    0.65651E-07        -0.24569E-09         0.00000E+00
    0.65648E-07        -0.23582E-09         0.00000E+00
    0.65645E-07        -0.22519E-09         0.00000E+00
    0.65642E-07        -0.21379E-09         0.00000E+00
    0.65639E-07        -0.20165E-09         0.00000E+00
    0.65637E-07        -0.18877E-09         0.00000E+00
    0.65634E-07        -0.17516E-09         0.00000E+00
    0.65632E-07        -0.16082E-09         0.00000E+00
    0.65630E-07        -0.14576E-09         0.00000E+00
    0.65628E-07        -0.12999E-09         0.00000E+00
    0.65626E-07        -0.11351E-09         0.00000E+00
    0.65625E-07        -0.96326E-10         0.00000E+00
    0.65624E-07        -0.78440E-10         0.00000E+00
    0.65623E-07        -0.59856E-10         0.00000E+00
    0.65622E-07        -0.40577E-10         0.00000E+00
    0.65622E-07        -0.20606E-10         0.00000E+00
    0.65621E-07        -0.10447E-10         0.00000E+00
    0.66806E-07        -0.13483E-10         0.00000E+00
    0.66806E-07        -0.26432E-10         0.00000E+00
    0.66805E-07        -0.51545E-10         0.00000E+00
    0.66804E-07        -0.75111E-10         0.00000E+00
    0.66803E-07        -0.97174E-10         0.00000E+00
    0.66802E-07        -0.11777E-09         0.00000E+00
    0.66800E-07        -0.13695E-09         0.00000E+00
    0.66798E-07        -0.15475E-09         0.00000E+00
    0.66796E-07        -0.17121E-09         0.00000E+00
    0.66794E-07        -0.18636E-09         0.00000E+00
    0.66791E-07        -0.20024E-09         0.00000E+00
    0.66788E-07        -0.21289E-09         0.00000E+00
    0.66785E-07        -0.22434E-09         0.00000E+00
    0.66782E-07        -0.23463E-09         0.00000E+00
    0.66778E-07        -0.24378E-09         0.00000E+00
    0.66774E-07        -0.25182E-09         0.00000E+00
    0.66771E-07        -0.25879E-09         0.00000E+00
    0.66767E-07        -0.26472E-09         0.00000E+00
    0.66763E-07        -0.26962E-09         0.00000E+00
    0.66758E-07        -0.27354E-09         0.00000E+00
    0.66754E-07        -0.27648E-09         0.00000E+00
    0.66750E-07        -0.27849E-09         0.00000E+00
    0.66745E-07        -0.27957E-09         0.00000E+00
    0.66741E-07        -0.27976E-09         0.00000E+00
    0.66736E-07        -0.27907E-09         0.00000E+00
    0.66732E-07        -0.27752E-09         0.00000E+00
    0.66727E-07        -0.27513E-09         0.00000E+00
    0.66723E-07        -0.27192E-09         0.00000E+00
    0.66718E-07        -0.26791E-09         0.00000E+00
    0.66714E-07        -0.26311E-09         0.00000E+00
    0.66709E-07        -0.25754E-09         0.00000E+00
    0.66705E-07        -0.25121E-09         0.00000E+00
    0.66701E-07        -0.24414E-09         0.00000E+00
    0.66697E-07        -0.23633E-09         0.00000E+00
    0.66693E-07        -0.22781E-09         0.00000E+00
    0.66689E-07        -0.21857E-09         0.00000E+00
    0.66685E-07        -0.20864E-09         0.00000E+00
    0.66682E-07        -0.19801E-09         0.00000E+00
    0.66678E-07        -0.18671E-09         0.00000E+00
    0.66675E-07        -0.17472E-09         0.00000E+00
    0.66672E-07        -0.16208E-09         0.00000E+00
    0.66669E-07        -0.14877E-09         0.00000E+00
    0.66667E-07        -0.13480E-09         0.00000E+00
    0.66665E-07        -0.12019E-09         0.00000E+00
    0.66663E-07        -0.10493E-09         0.00000E+00
    0.66661E-07        -0.89021E-10         0.00000E+00
    0.66659E-07        -0.72477E-10         0.00000E+00
    0.66658E-07        -0.55297E-10         0.00000E+00
    0.66657E-07        -0.37481E-10         0.00000E+00
    0.66657E-07        -0.19031E-10         0.00000E+00
    0.66657E-07        -0.96472E-11         0.00000E+00
    0.67822E-07        -0.12572E-10         0.00000E+00
    0.67822E-07        -0.24626E-10         0.00000E+00
    0.67821E-07        -0.47977E-10         0.00000E+00
    0.67820E-07        -0.69835E-10         0.00000E+00
    0.67819E-07        -0.90247E-10         0.00000E+00
    0.67817E-07        -0.10926E-09         0.00000E+00
    0.67815E-07        -0.12691E-09         0.00000E+00
    0.67813E-07        -0.14325E-09         0.00000E+00
    0.67810E-07        -0.15831E-09         0.00000E+00
    0.67807E-07        -0.17213E-09         0.00000E+00
    0.67804E-07        -0.18476E-09         0.00000E+00
    0.67800E-07        -0.19623E-09         0.00000E+00
    0.67797E-07        -0.20658E-09         0.00000E+00
    0.67793E-07        -0.21583E-09         0.00000E+00
    0.67788E-07        -0.22403E-09         0.00000E+00
    0.67784E-07        -0.23121E-09         0.00000E+00
    0.67779E-07        -0.23739E-09         0.00000E+00
    0.67774E-07        -0.24261E-09         0.00000E+00
    0.67769E-07        -0.24688E-09         0.00000E+00
    0.67764E-07        -0.25025E-09         0.00000E+00
    0.67759E-07        -0.25274E-09         0.00000E+00
    0.67754E-07        -0.25436E-09         0.00000E+00
    0.67749E-07        -0.25515E-09         0.00000E+00
    0.67743E-07        -0.25513E-09         0.00000E+00
    0.67738E-07        -0.25431E-09         0.00000E+00
    0.67733E-07        -0.25271E-09         0.00000E+00
    0.67727E-07        -0.25037E-09         0.00000E+00
    0.67722E-07        -0.24729E-09         0.00000E+00
    0.67716E-07        -0.24348E-09         0.00000E+00
    0.67711E-07        -0.23897E-09         0.00000E+00
    0.67706E-07        -0.23378E-09         0.00000E+00
    0.67701E-07        -0.22791E-09         0.00000E+00
    0.67696E-07        -0.22137E-09         0.00000E+00
    0.67691E-07        -0.21418E-09         0.00000E+00
    0.67686E-07        -0.20636E-09         0.00000E+00
    0.67681E-07        -0.19790E-09         0.00000E+00
    0.67677E-07        -0.18883E-09         0.00000E+00
    0.67673E-07        -0.17914E-09         0.00000E+00
    0.67669E-07        -0.16884E-09         0.00000E+00
    0.67665E-07        -0.15795E-09         0.00000E+00
    0.67662E-07        -0.14647E-09         0.00000E+00
    0.67658E-07        -0.13440E-09         0.00000E+00
    0.67655E-07        -0.12175E-09         0.00000E+00
    0.67653E-07        -0.10852E-09         0.00000E+00
    0.67650E-07        -0.94720E-10         0.00000E+00
    0.67648E-07        -0.80346E-10         0.00000E+00
    0.67647E-07        -0.65403E-10         0.00000E+00
    0.67645E-07        -0.49891E-10         0.00000E+00
    0.67644E-07        -0.33812E-10         0.00000E+00
    0.67644E-07        -0.17166E-10         0.00000E+00
    0.67643E-07        -0.87011E-11         0.00000E+00
    0.68785E-07        -0.11452E-10         0.00000E+00
    0.68785E-07        -0.22410E-10         0.00000E+00
    0.68785E-07        -0.43605E-10         0.00000E+00
    0.68783E-07        -0.63382E-10         0.00000E+00
    0.68782E-07        -0.81790E-10         0.00000E+00
    0.68780E-07        -0.98877E-10         0.00000E+00
    0.68777E-07        -0.11469E-09         0.00000E+00
    0.68774E-07        -0.12927E-09         0.00000E+00
    0.68771E-07        -0.14266E-09         0.00000E+00
    0.68767E-07        -0.15491E-09         0.00000E+00
    0.68763E-07        -0.16606E-09         0.00000E+00
    0.68759E-07        -0.17613E-09         0.00000E+00
    0.68755E-07        -0.18518E-09         0.00000E+00
    0.68750E-07        -0.19323E-09         0.00000E+00
    0.68745E-07        -0.20032E-09         0.00000E+00
    0.68740E-07        -0.20649E-09         0.00000E+00
    0.68734E-07        -0.21176E-09         0.00000E+00
    0.68728E-07        -0.21616E-09         0.00000E+00
    0.68723E-07        -0.21972E-09         0.00000E+00
    0.68717E-07        -0.22248E-09         0.00000E+00
    0.68711E-07        -0.22445E-09         0.00000E+00
    0.68704E-07        -0.22566E-09         0.00000E+00
    0.68698E-07        -0.22613E-09         0.00000E+00
    0.68692E-07        -0.22589E-09         0.00000E+00
    0.68686E-07        -0.22496E-09         0.00000E+00
    0.68679E-07        -0.22335E-09         0.00000E+00
    0.68673E-07        -0.22108E-09         0.00000E+00
    0.68667E-07        -0.21818E-09         0.00000E+00
    0.68660E-07        -0.21466E-09         0.00000E+00
    0.68654E-07        -0.21052E-09         0.00000E+00
    0.68648E-07        -0.20580E-09         0.00000E+00
    0.68642E-07        -0.20049E-09         0.00000E+00
    0.68636E-07        -0.19461E-09         0.00000E+00
    0.68630E-07        -0.18818E-09         0.00000E+00
    0.68625E-07        -0.18120E-09         0.00000E+00
    0.68620E-07        -0.17368E-09         0.00000E+00
    0.68615E-07        -0.16563E-09         0.00000E+00
    0.68610E-07        -0.15705E-09         0.00000E+00
    0.68605E-07        -0.14796E-09         0.00000E+00
    0.68601E-07        -0.13836E-09         0.00000E+00
    0.68597E-07        -0.12826E-09         0.00000E+00
    0.68593E-07        -0.11765E-09         0.00000E+00
    0.68589E-07        -0.10654E-09         0.00000E+00
    0.68586E-07        -0.94942E-10         0.00000E+00
    0.68584E-07        -0.82848E-10         0.00000E+00
    0.68581E-07        -0.70261E-10         0.00000E+00
    0.68579E-07        -0.57183E-10         0.00000E+00
    0.68578E-07        -0.43615E-10         0.00000E+00
    0.68577E-07        -0.29555E-10         0.00000E+00
    0.68576E-07        -0.15003E-10         0.00000E+00
    0.68576E-07        -0.76046E-11         0.00000E+00
    0.69689E-07        -0.10108E-10         0.00000E+00
    0.69689E-07        -0.19754E-10         0.00000E+00
    0.69688E-07        -0.38373E-10         0.00000E+00
    0.69687E-07        -0.55670E-10         0.00000E+00
    0.69685E-07        -0.71699E-10         0.00000E+00
    0.69682E-07        -0.86510E-10         0.00000E+00
    0.69679E-07        -0.10015E-09         0.00000E+00
    0.69676E-07        -0.11267E-09         0.00000E+00
    0.69672E-07        -0.12411E-09         0.00000E+00
    0.69668E-07        -0.13452E-09         0.00000E+00
    0.69663E-07        -0.14393E-09         0.00000E+00
    0.69658E-07        -0.15239E-09         0.00000E+00
    0.69653E-07        -0.15994E-09         0.00000E+00
    0.69647E-07        -0.16661E-09         0.00000E+00
    0.69642E-07        -0.17243E-09         0.00000E+00
    0.69635E-07        -0.17745E-09         0.00000E+00
    0.69629E-07        -0.18168E-09         0.00000E+00
    0.69623E-07        -0.18517E-09         0.00000E+00
    0.69616E-07        -0.18794E-09         0.00000E+00
    0.69609E-07        -0.19002E-09         0.00000E+00
    0.69602E-07        -0.19142E-09         0.00000E+00
    0.69595E-07        -0.19219E-09         0.00000E+00
    0.69587E-07        -0.19234E-09         0.00000E+00
    0.69580E-07        -0.19188E-09         0.00000E+00
    0.69573E-07        -0.19085E-09         0.00000E+00
    0.69566E-07        -0.18926E-09         0.00000E+00
    0.69558E-07        -0.18712E-09         0.00000E+00
    0.69551E-07        -0.18446E-09         0.00000E+00
    0.69544E-07        -0.18129E-09         0.00000E+00
    0.69537E-07        -0.17762E-09         0.00000E+00
    0.69530E-07        -0.17347E-09         0.00000E+00
    0.69523E-07        -0.16885E-09         0.00000E+00
    0.69516E-07        -0.16376E-09         0.00000E+00
    0.69510E-07        -0.15822E-09         0.00000E+00
    0.69504E-07        -0.15224E-09         0.00000E+00
    0.69497E-07        -0.14582E-09         0.00000E+00
    0.69492E-07        -0.13897E-09         0.00000E+00
    0.69486E-07        -0.13170E-09         0.00000E+00
    0.69481E-07        -0.12401E-09         0.00000E+00
    0.69476E-07        -0.11591E-09         0.00000E+00
    0.69471E-07        -0.10739E-09         0.00000E+00
    0.69467E-07        -0.98474E-10         0.00000E+00
    0.69463E-07        -0.89149E-10         0.00000E+00
    0.69460E-07        -0.79418E-10         0.00000E+00
    0.69457E-07        -0.69285E-10         0.00000E+00
    0.69454E-07        -0.58747E-10         0.00000E+00
    0.69452E-07        -0.47806E-10         0.00000E+00
    0.69450E-07        -0.36459E-10         0.00000E+00
    0.69449E-07        -0.24705E-10         0.00000E+00
    0.69448E-07        -0.12541E-10         0.00000E+00
    0.69448E-07        -0.63566E-11         0.00000E+00
    0.70527E-07        -0.85266E-11         0.00000E+00
    0.70527E-07        -0.16631E-10         0.00000E+00
    0.70526E-07        -0.32226E-10         0.00000E+00
    0.70524E-07        -0.46624E-10         0.00000E+00
    0.70522E-07        -0.59879E-10         0.00000E+00
    0.70519E-07        -0.72046E-10         0.00000E+00
    0.70516E-07        -0.83173E-10         0.00000E+00
    0.70512E-07        -0.93310E-10         0.00000E+00
    0.70507E-07        -0.10250E-09         0.00000E+00
    0.70503E-07        -0.11080E-09         0.00000E+00
    0.70497E-07        -0.11824E-09         0.00000E+00
    0.70492E-07        -0.12486E-09         0.00000E+00
    0.70485E-07        -0.13071E-09         0.00000E+00
    0.70479E-07        -0.13581E-09         0.00000E+00
    0.70472E-07        -0.14021E-09         0.00000E+00
    0.70465E-07        -0.14394E-09         0.00000E+00
    0.70458E-07        -0.14703E-09         0.00000E+00
    0.70450E-07        -0.14951E-09         0.00000E+00
    0.70443E-07        -0.15140E-09         0.00000E+00
    0.70435E-07        -0.15274E-09         0.00000E+00
    0.70427E-07        -0.15355E-09         0.00000E+00
    0.70419E-07        -0.15385E-09         0.00000E+00
    0.70411E-07        -0.15366E-09         0.00000E+00
    0.70402E-07        -0.15300E-09         0.00000E+00
    0.70394E-07        -0.15190E-09         0.00000E+00
    0.70386E-07        -0.15037E-09         0.00000E+00
    0.70378E-07        -0.14842E-09         0.00000E+00
    0.70369E-07        -0.14608E-09         0.00000E+00
    0.70361E-07        -0.14335E-09         0.00000E+00
    0.70353E-07        -0.14024E-09         0.00000E+00
    0.70345E-07        -0.13677E-09         0.00000E+00
    0.70338E-07        -0.13295E-09         0.00000E+00
    0.70330E-07        -0.12879E-09         0.00000E+00
    0.70323E-07        -0.12429E-09         0.00000E+00
    0.70316E-07        -0.11947E-09         0.00000E+00
    0.70309E-07        -0.11432E-09         0.00000E+00
    0.70303E-07        -0.10886E-09         0.00000E+00
    0.70296E-07        -0.10308E-09         0.00000E+00
    0.70291E-07        -0.96990E-10         0.00000E+00
    0.70285E-07        -0.90595E-10         0.00000E+00
    0.70280E-07        -0.83895E-10         0.00000E+00
    0.70275E-07        -0.76890E-10         0.00000E+00
    0.70271E-07        -0.69581E-10         0.00000E+00
    0.70267E-07        -0.61967E-10         0.00000E+00
    0.70263E-07        -0.54047E-10         0.00000E+00
    0.70260E-07        -0.45820E-10         0.00000E+00
    0.70258E-07        -0.37283E-10         0.00000E+00
    0.70256E-07        -0.28433E-10         0.00000E+00
    0.70255E-07        -0.19268E-10         0.00000E+00
    0.70254E-07        -0.97822E-11         0.00000E+00
    0.70253E-07        -0.49590E-11         0.00000E+00
    0.71293E-07        -0.66938E-11         0.00000E+00
    0.71293E-07        -0.13015E-10         0.00000E+00
    0.71292E-07        -0.25120E-10         0.00000E+00
    0.71290E-07        -0.36182E-10         0.00000E+00
    0.71287E-07        -0.46256E-10         0.00000E+00
    0.71284E-07        -0.55399E-10         0.00000E+00
    0.71280E-07        -0.63662E-10         0.00000E+00
    0.71276E-07        -0.71095E-10         0.00000E+00
    0.71271E-07        -0.77745E-10         0.00000E+00
    0.71265E-07        -0.83659E-10         0.00000E+00
    0.71259E-07        -0.88879E-10         0.00000E+00
    0.71253E-07        -0.93446E-10         0.00000E+00
    0.71246E-07        -0.97397E-10         0.00000E+00
    0.71238E-07        -0.10077E-09         0.00000E+00
    0.71231E-07        -0.10360E-09         0.00000E+00
    0.71223E-07        -0.10592E-09         0.00000E+00
    0.71215E-07        -0.10775E-09         0.00000E+00
    0.71206E-07        -0.10914E-09         0.00000E+00
    0.71198E-07        -0.11010E-09         0.00000E+00
    0.71189E-07        -0.11065E-09         0.00000E+00
    0.71180E-07        -0.11083E-09         0.00000E+00
    0.71171E-07        -0.11065E-09         0.00000E+00
    0.71162E-07        -0.11014E-09         0.00000E+00
    0.71153E-07        -0.10931E-09         0.00000E+00
    0.71143E-07        -0.10817E-09         0.00000E+00
    0.71134E-07        -0.10675E-09         0.00000E+00
    0.71125E-07        -0.10506E-09         0.00000E+00
    0.71116E-07        -0.10311E-09         0.00000E+00
    0.71107E-07        -0.10091E-09         0.00000E+00
    0.71098E-07        -0.98474E-10         0.00000E+00
    0.71089E-07        -0.95810E-10         0.00000E+00
    0.71081E-07        -0.92925E-10         0.00000E+00
    0.71073E-07        -0.89827E-10         0.00000E+00
    0.71065E-07        -0.86521E-10         0.00000E+00
    0.71057E-07        -0.83013E-10         0.00000E+00
    0.71049E-07        -0.79305E-10         0.00000E+00
    0.71042E-07        -0.75402E-10         0.00000E+00
    0.71035E-07        -0.71304E-10         0.00000E+00
    0.71029E-07        -0.67015E-10         0.00000E+00
    0.71023E-07        -0.62533E-10         0.00000E+00
    0.71017E-07        -0.57858E-10         0.00000E+00
    0.71012E-07        -0.52990E-10         0.00000E+00
    0.71007E-07        -0.47927E-10         0.00000E+00
    0.71003E-07        -0.42666E-10         0.00000E+00
    0.70999E-07        -0.37204E-10         0.00000E+00
    0.70996E-07        -0.31538E-10         0.00000E+00
    0.70993E-07        -0.25664E-10         0.00000E+00
    0.70991E-07        -0.19576E-10         0.00000E+00
    0.70989E-07        -0.13270E-10         0.00000E+00
    0.70989E-07        -0.67404E-11         0.00000E+00
    0.70988E-07        -0.34186E-11         0.00000E+00
    0.71981E-07        -0.46011E-11         0.00000E+00
    0.71981E-07        -0.88912E-11         0.00000E+00
    0.71979E-07        -0.17028E-10         0.00000E+00
    0.71977E-07        -0.24308E-10         0.00000E+00
    0.71974E-07        -0.30790E-10         0.00000E+00
    0.71971E-07        -0.36530E-10         0.00000E+00
    0.71966E-07        -0.41582E-10         0.00000E+00
    0.71961E-07        -0.45995E-10         0.00000E+00
    0.71956E-07        -0.49817E-10         0.00000E+00
    0.71949E-07        -0.53093E-10         0.00000E+00
    0.71943E-07        -0.55865E-10         0.00000E+00
    0.71936E-07        -0.58173E-10         0.00000E+00
    0.71928E-07        -0.60055E-10         0.00000E+00
    0.71920E-07        -0.61544E-10         0.00000E+00
    0.71911E-07        -0.62674E-10         0.00000E+00
    0.71903E-07        -0.63476E-10         0.00000E+00
    0.71894E-07        -0.63977E-10         0.00000E+00
    0.71884E-07        -0.64203E-10         0.00000E+00
    0.71875E-07        -0.64179E-10         0.00000E+00
    0.71865E-07        -0.63928E-10         0.00000E+00
    0.71855E-07        -0.63470E-10         0.00000E+00
    0.71845E-07        -0.62823E-10         0.00000E+00
    0.71835E-07        -0.62006E-10         0.00000E+00
    0.71825E-07        -0.61033E-10         0.00000E+00
    0.71815E-07        -0.59918E-10         0.00000E+00
    0.71805E-07        -0.58675E-10         0.00000E+00
    0.71795E-07        -0.57315E-10         0.00000E+00
    0.71785E-07        -0.55847E-10         0.00000E+00
    0.71776E-07        -0.54281E-10         0.00000E+00
    0.71766E-07        -0.52624E-10         0.00000E+00
    0.71757E-07        -0.50882E-10         0.00000E+00
    0.71747E-07        -0.49061E-10         0.00000E+00
    0.71738E-07        -0.47165E-10         0.00000E+00
    0.71730E-07        -0.45197E-10         0.00000E+00
    0.71721E-07        -0.43160E-10         0.00000E+00
    0.71713E-07        -0.41055E-10         0.00000E+00
    0.71705E-07        -0.38883E-10         0.00000E+00
    0.71698E-07        -0.36643E-10         0.00000E+00
    0.71691E-07        -0.34335E-10         0.00000E+00
    0.71684E-07        -0.31957E-10         0.00000E+00
    0.71678E-07        -0.29506E-10         0.00000E+00
    0.71673E-07        -0.26979E-10         0.00000E+00
    0.71668E-07        -0.24372E-10         0.00000E+00
    0.71663E-07        -0.21681E-10         0.00000E+00
    0.71659E-07        -0.18901E-10         0.00000E+00
    0.71655E-07        -0.16025E-10         0.00000E+00
    0.71653E-07        -0.13048E-10         0.00000E+00
    0.71650E-07        -0.99637E-11         0.00000E+00
    0.71649E-07        -0.67639E-11         0.00000E+00
    0.71648E-07        -0.34415E-11         0.00000E+00
    0.71647E-07        -0.17486E-11         0.00000E+00
    0.72585E-07        -0.22463E-11         0.00000E+00
    0.72584E-07        -0.42567E-11         0.00000E+00
    0.72583E-07        -0.79473E-11         0.00000E+00
    0.72580E-07        -0.11008E-10         0.00000E+00
    0.72577E-07        -0.13498E-10         0.00000E+00
    0.72573E-07        -0.15474E-10         0.00000E+00
    0.72568E-07        -0.16987E-10         0.00000E+00
    0.72563E-07        -0.18088E-10         0.00000E+00
    0.72557E-07        -0.18822E-10         0.00000E+00
    0.72550E-07        -0.19232E-10         0.00000E+00
    0.72542E-07        -0.19358E-10         0.00000E+00
    0.72535E-07        -0.19238E-10         0.00000E+00
    0.72526E-07        -0.18906E-10         0.00000E+00
    0.72517E-07        -0.18393E-10         0.00000E+00
    0.72508E-07        -0.17730E-10         0.00000E+00
    0.72499E-07        -0.16943E-10         0.00000E+00
    0.72489E-07        -0.16057E-10         0.00000E+00
    0.72479E-07        -0.15095E-10         0.00000E+00
    0.72469E-07        -0.14076E-10         0.00000E+00
    0.72458E-07        -0.13020E-10         0.00000E+00
    0.72448E-07        -0.11943E-10         0.00000E+00
    0.72437E-07        -0.10860E-10         0.00000E+00
    0.72426E-07        -0.97839E-11         0.00000E+00
    0.72415E-07        -0.87275E-11         0.00000E+00
    0.72405E-07        -0.77007E-11         0.00000E+00
    0.72394E-07        -0.67125E-11         0.00000E+00
    0.72383E-07        -0.57705E-11         0.00000E+00
    0.72373E-07        -0.48813E-11         0.00000E+00
    0.72362E-07        -0.40502E-11         0.00000E+00
    0.72352E-07        -0.32814E-11         0.00000E+00
    0.72342E-07        -0.25782E-11         0.00000E+00
    0.72332E-07        -0.19429E-11         0.00000E+00
    0.72323E-07        -0.13768E-11         0.00000E+00
    0.72314E-07        -0.88030E-12         0.00000E+00
    0.72305E-07        -0.45315E-12         0.00000E+00
    0.72296E-07        -0.94167E-13         0.00000E+00
    0.72288E-07         0.19857E-12         0.00000E+00
    0.72280E-07         0.42771E-12         0.00000E+00
    0.72273E-07         0.59660E-12         0.00000E+00
    0.72266E-07         0.70929E-12         0.00000E+00
    0.72259E-07         0.77047E-12         0.00000E+00
    0.72254E-07         0.78544E-12         0.00000E+00
    0.72248E-07         0.76015E-12         0.00000E+00
    0.72243E-07         0.70112E-12         0.00000E+00
    0.72239E-07         0.61543E-12         0.00000E+00
    0.72235E-07         0.51070E-12         0.00000E+00
    0.72232E-07         0.39508E-12         0.00000E+00
    0.72230E-07         0.27720E-12         0.00000E+00
    0.72228E-07         0.16615E-12         0.00000E+00
    0.72227E-07         0.71460E-13         0.00000E+00
    0.72227E-07         0.29419E-13         0.00000E+00
    0.73098E-07         0.36304E-12         0.00000E+00
    0.73097E-07         0.87086E-12         0.00000E+00
    0.73096E-07         0.20802E-11         0.00000E+00
    0.73093E-07         0.36470E-11         0.00000E+00
    0.73090E-07         0.55132E-11         0.00000E+00
    0.73085E-07         0.76249E-11         0.00000E+00
    0.73080E-07         0.99321E-11         0.00000E+00
    0.73074E-07         0.12389E-10         0.00000E+00
    0.73068E-07         0.14952E-10         0.00000E+00
    0.73060E-07         0.17583E-10         0.00000E+00
    0.73052E-07         0.20247E-10         0.00000E+00
    0.73044E-07         0.22910E-10         0.00000E+00
    0.73035E-07         0.25543E-10         0.00000E+00
    0.73026E-07         0.28120E-10         0.00000E+00
    0.73016E-07         0.30617E-10         0.00000E+00
    0.73006E-07         0.33011E-10         0.00000E+00
    0.72996E-07         0.35285E-10         0.00000E+00
    0.72985E-07         0.37421E-10         0.00000E+00
    0.72974E-07         0.39404E-10         0.00000E+00
    0.72963E-07         0.41221E-10         0.00000E+00
    0.72952E-07         0.42862E-10         0.00000E+00
    0.72941E-07         0.44317E-10         0.00000E+00
    0.72930E-07         0.45577E-10         0.00000E+00
    0.72918E-07         0.46636E-10         0.00000E+00
    0.72907E-07         0.47489E-10         0.00000E+00
    0.72896E-07         0.48132E-10         0.00000E+00
    0.72885E-07         0.48560E-10         0.00000E+00
    0.72874E-07         0.48773E-10         0.00000E+00
    0.72863E-07         0.48769E-10         0.00000E+00
    0.72853E-07         0.48547E-10         0.00000E+00
    0.72842E-07         0.48108E-10         0.00000E+00
    0.72832E-07         0.47453E-10         0.00000E+00
    0.72822E-07         0.46584E-10         0.00000E+00
    0.72813E-07         0.45503E-10         0.00000E+00
    0.72804E-07         0.44214E-10         0.00000E+00
    0.72795E-07         0.42720E-10         0.00000E+00
    0.72787E-07         0.41025E-10         0.00000E+00
    0.72779E-07         0.39135E-10         0.00000E+00
    0.72771E-07         0.37055E-10         0.00000E+00
    0.72764E-07         0.34791E-10         0.00000E+00
    0.72757E-07         0.32349E-10         0.00000E+00
    0.72751E-07         0.29737E-10         0.00000E+00
    0.72746E-07         0.26962E-10         0.00000E+00
    0.72741E-07         0.24032E-10         0.00000E+00
    0.72736E-07         0.20957E-10         0.00000E+00
    0.72732E-07         0.17744E-10         0.00000E+00
    0.72729E-07         0.14405E-10         0.00000E+00
    0.72727E-07         0.10950E-10         0.00000E+00
    0.72725E-07         0.73885E-11         0.00000E+00
    0.72724E-07         0.37327E-11         0.00000E+00
    0.72724E-07         0.18826E-11         0.00000E+00
    0.73515E-07         0.32036E-11         0.00000E+00
    0.73514E-07         0.64421E-11         0.00000E+00
    0.73513E-07         0.12949E-10         0.00000E+00
    0.73510E-07         0.19488E-10         0.00000E+00
    0.73506E-07         0.26006E-10         0.00000E+00
    0.73502E-07         0.32452E-10         0.00000E+00
    0.73496E-07         0.38782E-10         0.00000E+00
    0.73490E-07         0.44957E-10         0.00000E+00
    0.73483E-07         0.50941E-10         0.00000E+00
    0.73475E-07         0.56701E-10         0.00000E+00
    0.73467E-07         0.62210E-10         0.00000E+00
    0.73458E-07         0.67442E-10         0.00000E+00
    0.73449E-07         0.72377E-10         0.00000E+00
    0.73439E-07         0.76996E-10         0.00000E+00
    0.73429E-07         0.81284E-10         0.00000E+00
    0.73419E-07         0.85227E-10         0.00000E+00
    0.73408E-07         0.88815E-10         0.00000E+00
    0.73397E-07         0.92040E-10         0.00000E+00
    0.73386E-07         0.94893E-10         0.00000E+00
    0.73375E-07         0.97371E-10         0.00000E+00
    0.73364E-07         0.99471E-10         0.00000E+00
    0.73353E-07         0.10119E-09         0.00000E+00
    0.73341E-07         0.10252E-09         0.00000E+00
    0.73330E-07         0.10348E-09         0.00000E+00
    0.73319E-07         0.10405E-09         0.00000E+00
    0.73308E-07         0.10424E-09         0.00000E+00
    0.73297E-07         0.10406E-09         0.00000E+00
    0.73286E-07         0.10350E-09         0.00000E+00
    0.73275E-07         0.10257E-09         0.00000E+00
    0.73265E-07         0.10128E-09         0.00000E+00
    0.73254E-07         0.99621E-10         0.00000E+00
    0.73244E-07         0.97606E-10         0.00000E+00
    0.73234E-07         0.95238E-10         0.00000E+00
    0.73225E-07         0.92523E-10         0.00000E+00
    0.73216E-07         0.89466E-10         0.00000E+00
    0.73207E-07         0.86073E-10         0.00000E+00
    0.73199E-07         0.82350E-10         0.00000E+00
    0.73191E-07         0.78303E-10         0.00000E+00
    0.73183E-07         0.73940E-10         0.00000E+00
    0.73176E-07         0.69268E-10         0.00000E+00
    0.73170E-07         0.64294E-10         0.00000E+00
    0.73164E-07         0.59026E-10         0.00000E+00
    0.73158E-07         0.53474E-10         0.00000E+00
    0.73153E-07         0.47645E-10         0.00000E+00
    0.73149E-07         0.41549E-10         0.00000E+00
    0.73145E-07         0.35197E-10         0.00000E+00
    0.73142E-07         0.28599E-10         0.00000E+00
    0.73140E-07         0.21767E-10         0.00000E+00
    0.73138E-07         0.14712E-10         0.00000E+00
    0.73137E-07         0.74469E-11         0.00000E+00
    0.73136E-07         0.37634E-11         0.00000E+00
    0.73830E-07         0.62290E-11         0.00000E+00
    0.73829E-07         0.12361E-10         0.00000E+00
    0.73827E-07         0.24459E-10         0.00000E+00
    0.73825E-07         0.36202E-10         0.00000E+00
    0.73821E-07         0.47544E-10         0.00000E+00
    0.73816E-07         0.58444E-10         0.00000E+00
    0.73810E-07         0.68869E-10         0.00000E+00
    0.73804E-07         0.78788E-10         0.00000E+00
    0.73797E-07         0.88177E-10         0.00000E+00
    0.73789E-07         0.97016E-10         0.00000E+00
    0.73781E-07         0.10529E-09         0.00000E+00
    0.73772E-07         0.11298E-09         0.00000E+00
    0.73763E-07         0.12009E-09         0.00000E+00
    0.73753E-07         0.12660E-09         0.00000E+00
    0.73743E-07         0.13252E-09         0.00000E+00
    0.73733E-07         0.13784E-09         0.00000E+00
    0.73723E-07         0.14256E-09         0.00000E+00
    0.73712E-07         0.14669E-09         0.00000E+00
    0.73701E-07         0.15023E-09         0.00000E+00
    0.73691E-07         0.15320E-09         0.00000E+00
    0.73680E-07         0.15558E-09         0.00000E+00
    0.73669E-07         0.15740E-09         0.00000E+00
    0.73658E-07         0.15866E-09         0.00000E+00
    0.73647E-07         0.15937E-09         0.00000E+00
    0.73637E-07         0.15953E-09         0.00000E+00
    0.73626E-07         0.15917E-09         0.00000E+00
    0.73616E-07         0.15828E-09         0.00000E+00
    0.73605E-07         0.15687E-09         0.00000E+00
    0.73595E-07         0.15496E-09         0.00000E+00
    0.73585E-07         0.15254E-09         0.00000E+00
    0.73576E-07         0.14964E-09         0.00000E+00
    0.73566E-07         0.14626E-09         0.00000E+00
    0.73557E-07         0.14240E-09         0.00000E+00
    0.73548E-07         0.13807E-09         0.00000E+00
    0.73540E-07         0.13328E-09         0.00000E+00
    0.73532E-07         0.12804E-09         0.00000E+00
    0.73524E-07         0.12235E-09         0.00000E+00
    0.73517E-07         0.11622E-09         0.00000E+00
    0.73510E-07         0.10965E-09         0.00000E+00
    0.73503E-07         0.10266E-09         0.00000E+00
    0.73497E-07         0.95254E-10         0.00000E+00
    0.73491E-07         0.87433E-10         0.00000E+00
    0.73486E-07         0.79207E-10         0.00000E+00
    0.73481E-07         0.70585E-10         0.00000E+00
    0.73477E-07         0.61576E-10         0.00000E+00
    0.73474E-07         0.52189E-10         0.00000E+00
    0.73471E-07         0.42435E-10         0.00000E+00
    0.73468E-07         0.32324E-10         0.00000E+00
    0.73467E-07         0.21869E-10         0.00000E+00
    0.73466E-07         0.11081E-10         0.00000E+00
    0.73465E-07         0.56057E-11         0.00000E+00
    0.74036E-07         0.93581E-11         0.00000E+00
    0.74035E-07         0.18461E-10         0.00000E+00
    0.74033E-07         0.36267E-10         0.00000E+00
    0.74030E-07         0.53258E-10         0.00000E+00
    0.74027E-07         0.69402E-10         0.00000E+00
    0.74022E-07         0.84673E-10         0.00000E+00
    0.74016E-07         0.99054E-10         0.00000E+00
    0.74010E-07         0.11253E-09         0.00000E+00
    0.74003E-07         0.12510E-09         0.00000E+00
    0.73996E-07         0.13676E-09         0.00000E+00
    0.73988E-07         0.14751E-09         0.00000E+00
    0.73980E-07         0.15735E-09         0.00000E+00
    0.73971E-07         0.16631E-09         0.00000E+00
    0.73962E-07         0.17438E-09         0.00000E+00
    0.73953E-07         0.18159E-09         0.00000E+00
    0.73944E-07         0.18796E-09         0.00000E+00
    0.73935E-07         0.19349E-09         0.00000E+00
    0.73925E-07         0.19822E-09         0.00000E+00
    0.73916E-07         0.20215E-09         0.00000E+00
    0.73906E-07         0.20532E-09         0.00000E+00
    0.73896E-07         0.20774E-09         0.00000E+00
    0.73887E-07         0.20944E-09         0.00000E+00
    0.73877E-07         0.21042E-09         0.00000E+00
    0.73868E-07         0.21071E-09         0.00000E+00
    0.73859E-07         0.21034E-09         0.00000E+00
    0.73850E-07         0.20930E-09         0.00000E+00
    0.73841E-07         0.20763E-09         0.00000E+00
    0.73832E-07         0.20534E-09         0.00000E+00
    0.73823E-07         0.20243E-09         0.00000E+00
    0.73815E-07         0.19892E-09         0.00000E+00
    0.73807E-07         0.19483E-09         0.00000E+00
    0.73799E-07         0.19016E-09         0.00000E+00
    0.73791E-07         0.18493E-09         0.00000E+00
    0.73783E-07         0.17913E-09         0.00000E+00
    0.73776E-07         0.17278E-09         0.00000E+00
    0.73769E-07         0.16588E-09         0.00000E+00
    0.73763E-07         0.15844E-09         0.00000E+00
    0.73756E-07         0.15046E-09         0.00000E+00
    0.73750E-07         0.14195E-09         0.00000E+00
    0.73745E-07         0.13291E-09         0.00000E+00
    0.73740E-07         0.12334E-09         0.00000E+00
    0.73735E-07         0.11325E-09         0.00000E+00
    0.73730E-07         0.10265E-09         0.00000E+00
    0.73726E-07         0.91533E-10         0.00000E+00
    0.73723E-07         0.79910E-10         0.00000E+00
    0.73719E-07         0.67786E-10         0.00000E+00
    0.73717E-07         0.55170E-10         0.00000E+00
    0.73715E-07         0.42069E-10         0.00000E+00
    0.73713E-07         0.28494E-10         0.00000E+00
    0.73712E-07         0.14454E-10         0.00000E+00
    0.73712E-07         0.73197E-11         0.00000E+00
    0.74126E-07         0.12461E-10         0.00000E+00
    0.74125E-07         0.24474E-10         0.00000E+00
    0.74124E-07         0.47820E-10         0.00000E+00
    0.74121E-07         0.69803E-10         0.00000E+00
    0.74117E-07         0.90416E-10         0.00000E+00
    0.74113E-07         0.10966E-09         0.00000E+00
    0.74108E-07         0.12753E-09         0.00000E+00
    0.74103E-07         0.14406E-09         0.00000E+00
    0.74097E-07         0.15926E-09         0.00000E+00
    0.74090E-07         0.17317E-09         0.00000E+00
    0.74084E-07         0.18580E-09         0.00000E+00
    0.74077E-07         0.19720E-09         0.00000E+00
    0.74070E-07         0.20741E-09         0.00000E+00
    0.74062E-07         0.21646E-09         0.00000E+00
    0.74055E-07         0.22440E-09         0.00000E+00
    0.74048E-07         0.23126E-09         0.00000E+00
    0.74040E-07         0.23710E-09         0.00000E+00
    0.74033E-07         0.24194E-09         0.00000E+00
    0.74026E-07         0.24584E-09         0.00000E+00
    0.74019E-07         0.24883E-09         0.00000E+00
    0.74012E-07         0.25094E-09         0.00000E+00
    0.74005E-07         0.25222E-09         0.00000E+00
    0.73998E-07         0.25269E-09         0.00000E+00
    0.73991E-07         0.25238E-09         0.00000E+00
    0.73984E-07         0.25133E-09         0.00000E+00
    0.73978E-07         0.24955E-09         0.00000E+00
    0.73972E-07         0.24708E-09         0.00000E+00
    0.73966E-07         0.24393E-09         0.00000E+00
    0.73960E-07         0.24011E-09         0.00000E+00
    0.73954E-07         0.23565E-09         0.00000E+00
    0.73948E-07         0.23056E-09         0.00000E+00
    0.73943E-07         0.22484E-09         0.00000E+00
    0.73937E-07         0.21850E-09         0.00000E+00
    0.73932E-07         0.21156E-09         0.00000E+00
    0.73927E-07         0.20400E-09         0.00000E+00
    0.73922E-07         0.19585E-09         0.00000E+00
    0.73918E-07         0.18709E-09         0.00000E+00
    0.73913E-07         0.17772E-09         0.00000E+00
    0.73909E-07         0.16775E-09         0.00000E+00
    0.73905E-07         0.15717E-09         0.00000E+00
    0.73901E-07         0.14598E-09         0.00000E+00
    0.73898E-07         0.13417E-09         0.00000E+00
    0.73895E-07         0.12175E-09         0.00000E+00
    0.73892E-07         0.10870E-09         0.00000E+00
    0.73889E-07         0.95025E-10         0.00000E+00
    0.73887E-07         0.80728E-10         0.00000E+00
    0.73885E-07         0.65806E-10         0.00000E+00
    0.73883E-07         0.50262E-10         0.00000E+00
    0.73882E-07         0.34101E-10         0.00000E+00
    0.73881E-07         0.17328E-10         0.00000E+00
    0.73881E-07         0.87894E-11         0.00000E+00
    0.74093E-07         0.15314E-10         0.00000E+00
    0.74092E-07         0.29955E-10         0.00000E+00
    0.74091E-07         0.58221E-10         0.00000E+00
    0.74089E-07         0.84467E-10         0.00000E+00
    0.74086E-07         0.10872E-09         0.00000E+00
    0.74082E-07         0.13103E-09         0.00000E+00
    0.74079E-07         0.15144E-09         0.00000E+00
    0.74075E-07         0.17001E-09         0.00000E+00
    0.74070E-07         0.18682E-09         0.00000E+00
    0.74066E-07         0.20193E-09         0.00000E+00
    0.74062E-07         0.21543E-09         0.00000E+00
    0.74058E-07         0.22738E-09         0.00000E+00
    0.74053E-07         0.23787E-09         0.00000E+00
    0.74049E-07         0.24697E-09         0.00000E+00
    0.74045E-07         0.25477E-09         0.00000E+00
    0.74041E-07         0.26134E-09         0.00000E+00
    0.74038E-07         0.26675E-09         0.00000E+00
    0.74034E-07         0.27107E-09         0.00000E+00
    0.74031E-07         0.27436E-09         0.00000E+00
    0.74028E-07         0.27668E-09         0.00000E+00
    0.74025E-07         0.27808E-09         0.00000E+00
    0.74022E-07         0.27862E-09         0.00000E+00
    0.74020E-07         0.27834E-09         0.00000E+00
    0.74017E-07         0.27729E-09         0.00000E+00
    0.74015E-07         0.27549E-09         0.00000E+00
    0.74013E-07         0.27298E-09         0.00000E+00
    0.74011E-07         0.26979E-09         0.00000E+00
    0.74009E-07         0.26593E-09         0.00000E+00
    0.74007E-07         0.26144E-09         0.00000E+00
    0.74005E-07         0.25633E-09         0.00000E+00
    0.74003E-07         0.25060E-09         0.00000E+00
    0.74002E-07         0.24427E-09         0.00000E+00
    0.74000E-07         0.23733E-09         0.00000E+00
    0.73999E-07         0.22980E-09         0.00000E+00
    0.73997E-07         0.22166E-09         0.00000E+00
    0.73996E-07         0.21292E-09         0.00000E+00
    0.73994E-07         0.20356E-09         0.00000E+00
    0.73993E-07         0.19357E-09         0.00000E+00
    0.73991E-07         0.18294E-09         0.00000E+00
    0.73990E-07         0.17166E-09         0.00000E+00
    0.73989E-07         0.15972E-09         0.00000E+00
    0.73987E-07         0.14708E-09         0.00000E+00
    0.73986E-07         0.13374E-09         0.00000E+00
    0.73984E-07         0.11968E-09         0.00000E+00
    0.73983E-07         0.10488E-09         0.00000E+00
    0.73982E-07         0.89331E-10         0.00000E+00
    0.73981E-07         0.73016E-10         0.00000E+00
    0.73980E-07         0.55924E-10         0.00000E+00
    0.73980E-07         0.38047E-10         0.00000E+00
    0.73979E-07         0.19381E-10         0.00000E+00
    0.73979E-07         0.98513E-11         0.00000E+00
    0.73926E-07         0.17612E-10         0.00000E+00
    0.73925E-07         0.34216E-10         0.00000E+00
    0.73925E-07         0.65984E-10         0.00000E+00
    0.73923E-07         0.94933E-10         0.00000E+00
    0.73922E-07         0.12118E-09         0.00000E+00
    0.73921E-07         0.14483E-09         0.00000E+00
    0.73920E-07         0.16602E-09         0.00000E+00
    0.73919E-07         0.18486E-09         0.00000E+00
    0.73918E-07         0.20152E-09         0.00000E+00
    0.73917E-07         0.21613E-09         0.00000E+00
    0.73917E-07         0.22885E-09         0.00000E+00
    0.73918E-07         0.23981E-09         0.00000E+00
    0.73919E-07         0.24916E-09         0.00000E+00
    0.73920E-07         0.25703E-09         0.00000E+00
    0.73921E-07         0.26354E-09         0.00000E+00
    0.73923E-07         0.26879E-09         0.00000E+00
    0.73926E-07         0.27289E-09         0.00000E+00
    0.73928E-07         0.27593E-09         0.00000E+00
    0.73931E-07         0.27800E-09         0.00000E+00
    0.73934E-07         0.27917E-09         0.00000E+00
    0.73938E-07         0.27951E-09         0.00000E+00
    0.73941E-07         0.27908E-09         0.00000E+00
    0.73945E-07         0.27793E-09         0.00000E+00
    0.73949E-07         0.27610E-09         0.00000E+00
    0.73953E-07         0.27363E-09         0.00000E+00
    0.73957E-07         0.27057E-09         0.00000E+00
    0.73962E-07         0.26693E-09         0.00000E+00
    0.73966E-07         0.26275E-09         0.00000E+00
    0.73970E-07         0.25803E-09         0.00000E+00
    0.73974E-07         0.25278E-09         0.00000E+00
    0.73978E-07         0.24703E-09         0.00000E+00
    0.73982E-07         0.24077E-09         0.00000E+00
    0.73986E-07         0.23400E-09         0.00000E+00
    0.73990E-07         0.22671E-09         0.00000E+00
    0.73993E-07         0.21890E-09         0.00000E+00
    0.73996E-07         0.21055E-09         0.00000E+00
    0.74000E-07         0.20165E-09         0.00000E+00
    0.74002E-07         0.19216E-09         0.00000E+00
    0.74005E-07         0.18206E-09         0.00000E+00
    0.74007E-07         0.17132E-09         0.00000E+00
    0.74010E-07         0.15991E-09         0.00000E+00
    0.74011E-07         0.14778E-09         0.00000E+00
    0.74013E-07         0.13490E-09         0.00000E+00
    0.74014E-07         0.12122E-09         0.00000E+00
    0.74015E-07         0.10670E-09         0.00000E+00
    0.74016E-07         0.91297E-10         0.00000E+00
    0.74016E-07         0.74978E-10         0.00000E+00
    0.74017E-07         0.57711E-10         0.00000E+00
    0.74017E-07         0.39468E-10         0.00000E+00
    0.74017E-07         0.20217E-10         0.00000E+00
    0.74017E-07         0.10336E-10         0.00000E+00
    0.73611E-07         0.18431E-10         0.00000E+00
    0.73611E-07         0.35649E-10         0.00000E+00
    0.73612E-07         0.68188E-10         0.00000E+00
    0.73613E-07         0.96963E-10         0.00000E+00
    0.73614E-07         0.12212E-09         0.00000E+00
    0.73617E-07         0.14392E-09         0.00000E+00
    0.73621E-07         0.16268E-09         0.00000E+00
    0.73626E-07         0.17873E-09         0.00000E+00
    0.73632E-07         0.19237E-09         0.00000E+00
    0.73639E-07         0.20387E-09         0.00000E+00
    0.73647E-07         0.21348E-09         0.00000E+00
    0.73655E-07         0.22143E-09         0.00000E+00
    0.73664E-07         0.22790E-09         0.00000E+00
    0.73674E-07         0.23306E-09         0.00000E+00
    0.73685E-07         0.23707E-09         0.00000E+00
    0.73696E-07         0.24004E-09         0.00000E+00
    0.73707E-07         0.24210E-09         0.00000E+00
    0.73719E-07         0.24333E-09         0.00000E+00
    0.73731E-07         0.24383E-09         0.00000E+00
    0.73743E-07         0.24365E-09         0.00000E+00
    0.73756E-07         0.24287E-09         0.00000E+00
    0.73768E-07         0.24154E-09         0.00000E+00
    0.73781E-07         0.23971E-09         0.00000E+00
    0.73794E-07         0.23742E-09         0.00000E+00
    0.73806E-07         0.23469E-09         0.00000E+00
    0.73819E-07         0.23156E-09         0.00000E+00
    0.73832E-07         0.22804E-09         0.00000E+00
    0.73844E-07         0.22416E-09         0.00000E+00
    0.73856E-07         0.21993E-09         0.00000E+00
    0.73868E-07         0.21536E-09         0.00000E+00
    0.73880E-07         0.21044E-09         0.00000E+00
    0.73891E-07         0.20518E-09         0.00000E+00
    0.73903E-07         0.19958E-09         0.00000E+00
    0.73913E-07         0.19362E-09         0.00000E+00
    0.73924E-07         0.18729E-09         0.00000E+00
    0.73934E-07         0.18058E-09         0.00000E+00
    0.73943E-07         0.17345E-09         0.00000E+00
    0.73952E-07         0.16588E-09         0.00000E+00
    0.73961E-07         0.15782E-09         0.00000E+00
    0.73968E-07         0.14925E-09         0.00000E+00
    0.73976E-07         0.14010E-09         0.00000E+00
    0.73982E-07         0.13031E-09         0.00000E+00
    0.73988E-07         0.11982E-09         0.00000E+00
    0.73993E-07         0.10854E-09         0.00000E+00
    0.73998E-07         0.96384E-10         0.00000E+00
    0.74001E-07         0.83254E-10         0.00000E+00
    0.74004E-07         0.69045E-10         0.00000E+00
    0.74006E-07         0.53656E-10         0.00000E+00
    0.74008E-07         0.37006E-10         0.00000E+00
    0.74009E-07         0.19066E-10         0.00000E+00
    0.74009E-07         0.97749E-11         0.00000E+00
    0.73121E-07         0.17632E-10         0.00000E+00
    0.73122E-07         0.32632E-10         0.00000E+00
    0.73128E-07         0.59458E-10         0.00000E+00
    0.73136E-07         0.80688E-10         0.00000E+00
    0.73147E-07         0.97618E-10         0.00000E+00
    0.73161E-07         0.11119E-09         0.00000E+00
    0.73176E-07         0.12209E-09         0.00000E+00
    0.73193E-07         0.13084E-09         0.00000E+00
    0.73212E-07         0.13783E-09         0.00000E+00
    0.73232E-07         0.14338E-09         0.00000E+00
    0.73252E-07         0.14773E-09         0.00000E+00
    0.73274E-07         0.15107E-09         0.00000E+00
    0.73297E-07         0.15355E-09         0.00000E+00
    0.73320E-07         0.15530E-09         0.00000E+00
    0.73343E-07         0.15644E-09         0.00000E+00
    0.73367E-07         0.15703E-09         0.00000E+00
    0.73391E-07         0.15715E-09         0.00000E+00
    0.73416E-07         0.15687E-09         0.00000E+00
    0.73440E-07         0.15623E-09         0.00000E+00
    0.73464E-07         0.15528E-09         0.00000E+00
    0.73489E-07         0.15404E-09         0.00000E+00
    0.73513E-07         0.15256E-09         0.00000E+00
    0.73537E-07         0.15085E-09         0.00000E+00
    0.73561E-07         0.14894E-09         0.00000E+00
    0.73585E-07         0.14684E-09         0.00000E+00
    0.73608E-07         0.14457E-09         0.00000E+00
    0.73631E-07         0.14214E-09         0.00000E+00
    0.73653E-07         0.13955E-09         0.00000E+00
    0.73676E-07         0.13682E-09         0.00000E+00
    0.73697E-07         0.13394E-09         0.00000E+00
    0.73719E-07         0.13091E-09         0.00000E+00
    0.73740E-07         0.12774E-09         0.00000E+00
    0.73760E-07         0.12442E-09         0.00000E+00
    0.73779E-07         0.12094E-09         0.00000E+00
    0.73799E-07         0.11730E-09         0.00000E+00
    0.73817E-07         0.11347E-09         0.00000E+00
    0.73835E-07         0.10945E-09         0.00000E+00
    0.73852E-07         0.10521E-09         0.00000E+00
    0.73868E-07         0.10072E-09         0.00000E+00
    0.73883E-07         0.95958E-10         0.00000E+00
    0.73898E-07         0.90878E-10         0.00000E+00
    0.73911E-07         0.85431E-10         0.00000E+00
    0.73924E-07         0.79555E-10         0.00000E+00
    0.73935E-07         0.73169E-10         0.00000E+00
    0.73945E-07         0.66173E-10         0.00000E+00
    0.73954E-07         0.58434E-10         0.00000E+00
    0.73962E-07         0.49779E-10         0.00000E+00
    0.73968E-07         0.39973E-10         0.00000E+00
    0.73973E-07         0.28693E-10         0.00000E+00
    0.73976E-07         0.15488E-10         0.00000E+00
    0.73977E-07         0.83377E-11         0.00000E+00
    0.72826E-07         0.00000E+00         0.00000E+00
    0.72830E-07         0.00000E+00         0.00000E+00
    0.72839E-07         0.00000E+00         0.00000E+00
    0.72854E-07         0.00000E+00         0.00000E+00
    0.72872E-07         0.00000E+00         0.00000E+00
    0.72893E-07         0.00000E+00         0.00000E+00
    0.72916E-07         0.00000E+00         0.00000E+00
    0.72941E-07         0.00000E+00         0.00000E+00
    0.72968E-07         0.00000E+00         0.00000E+00
    0.72997E-07        -0.18626E-20         0.00000E+00
    0.73026E-07         0.00000E+00         0.00000E+00
    0.73056E-07         0.18626E-20         0.00000E+00
    0.73086E-07         0.00000E+00         0.00000E+00
    0.73117E-07         0.00000E+00         0.00000E+00
    0.73148E-07         0.00000E+00         0.00000E+00
    0.73180E-07         0.00000E+00         0.00000E+00
    0.73211E-07         0.00000E+00         0.00000E+00
    0.73242E-07         0.18626E-20         0.00000E+00
    0.73274E-07         0.00000E+00         0.00000E+00
    0.73305E-07        -0.18626E-20         0.00000E+00
    0.73336E-07         0.00000E+00         0.00000E+00
    0.73367E-07         0.00000E+00         0.00000E+00
    0.73397E-07         0.00000E+00         0.00000E+00
    0.73427E-07         0.00000E+00         0.00000E+00
    0.73457E-07         0.00000E+00         0.00000E+00
    0.73486E-07         0.00000E+00         0.00000E+00
    0.73514E-07         0.00000E+00         0.00000E+00
    0.73543E-07         0.00000E+00         0.00000E+00
    0.73570E-07         0.00000E+00         0.00000E+00
    0.73597E-07         0.00000E+00         0.00000E+00
    0.73624E-07         0.00000E+00         0.00000E+00
    0.73650E-07         0.00000E+00         0.00000E+00
    0.73675E-07         0.00000E+00         0.00000E+00
    0.73699E-07         0.00000E+00         0.00000E+00
    0.73723E-07         0.00000E+00         0.00000E+00
    0.73746E-07         0.00000E+00         0.00000E+00
    0.73769E-07         0.00000E+00         0.00000E+00
    0.73790E-07         0.00000E+00         0.00000E+00
    0.73811E-07         0.00000E+00         0.00000E+00
    0.73830E-07        -0.27940E-20         0.00000E+00
    0.73849E-07        -0.18626E-20         0.00000E+00
    0.73867E-07         0.18626E-20         0.00000E+00
    0.73883E-07         0.18626E-20         0.00000E+00
    0.73899E-07         0.00000E+00         0.00000E+00
    0.73912E-07         0.00000E+00         0.00000E+00
    0.73925E-07         0.00000E+00         0.00000E+00
    0.73936E-07         0.00000E+00         0.00000E+00
    0.73945E-07         0.18626E-20         0.00000E+00
    0.73952E-07         0.93132E-21         0.00000E+00
    0.73956E-07         0.00000E+00         0.00000E+00
    0.73958E-07         0.37253E-20         0.00000E+00
CELL_DATA       5000
TENSORS stressef double 
    0.86063E+07        -0.76837E+05         0.00000E+00
   -0.76837E+05         0.19732E+08         0.00000E+00
    0.00000E+00         0.00000E+00         0.00000E+00
 
    0.82554E+07        -0.95633E+05         0.00000E+00
   -0.95633E+05         0.19709E+08         0.00000E+00
    0.00000E+00         0.00000E+00         0.00000E+00
 
    0.79483E+07        -0.10472E+06         0.00000E+00
   -0.10472E+06         0.19679E+08         0.00000E+00
    0.00000E+00         0.00000E+00         0.00000E+00
 
    0.76742E+07        -0.10828E+06         0.00000E+00
   -0.10828E+06         0.19645E+08         0.00000E+00
    0.00000E+00         0.00000E+00         0.00000E+00
 
    0.74259E+07        -0.10857E+06         0.00000E+00
   -0.10857E+06         0.19608E+08         0.00000E+00
    0.00000E+00         0.00000E+00         0.00000E+00
 
    0.71982E+07        -0.10684E+06         0.00000E+00
   -0.10684E+06         0.19570E+08         0.00000E+00
    0.00000E+00         0.00000E+00         0.00000E+00
 
    0.69872E+07        -0.10381E+06         0.00000E+00
   -0.10381E+06         0.19532E+08         0.00000E+00
    0.00000E+00         0.00000E+00         0.00000E+00
 
    0.67900E+07        -0.99909E+05         0.00000E+00
   -0.99909E+05         0.19495E+08         0.00000E+00
    0.00000E+00         0.00000E+00         0.00000E+00
 
    0.66044E+07        -0.95405E+05         0.00000E+00
   -0.95405E+05         0.19458E+08         0.00000E+00
    0.00000E+00         0.00000E+00         0.00000E+00
 
    0.64286E+07        -0.90468E+05         0.00000E+00
   -0.90468E+05         0.19424E+08         0.00000E+00
    0.00000E+00         0.00000E+00         0.00000E+00
 
    0.62611E+07        -0.85211E+05         0.00000E+00
   -0.85211E+05         0.19390E+08         0.00000E+00
    0.00000E+00         0.00000E+00         0.00000E+00
 
    0.61007E+07        -0.79711E+05         0.00000E+00
   -0.79711E+05         0.19359E+08         0.00000E+00
    0.00000E+00         0.00000E+00         0.00000E+00
 
    0.59464E+07        -0.74021E+05         0.00000E+00
   -0.74021E+05         0.19330E+08         0.00000E+00
    0.00000E+00         0.00000E+00         0.00000E+00
 
    0.57973E+07        -0.68179E+05         0.00000E+00
   -0.68179E+05         0.19303E+08         0.00000E+00
    0.00000E+00         0.00000E+00         0.00000E+00
 
    0.56526E+07        -0.62209E+05         0.00000E+00
   -0.62209E+05         0.19278E+08         0.00000E+00
    0.00000E+00         0.00000E+00         0.00000E+00
 
    0.55118E+07        -0.56132E+05         0.00000E+00
   -0.56132E+05         0.19255E+08         0.00000E+00
    0.00000E+00         0.00000E+00         0.00000E+00
 
    0.53742E+07        -0.49959E+05         0.00000E+00
   -0.49959E+05         0.19235E+08         0.00000E+00
    0.00000E+00         0.00000E+00         0.00000E+00
 
    0.52393E+07        -0.43698E+05         0.00000E+00
   -0.43698E+05         0.19217E+08         0.00000E+00
    0.00000E+00         0.00000E+00         0.00000E+00
 
    0.51067E+07        -0.37354E+05         0.00000E+00
   -0.37354E+05         0.19201E+08         0.00000E+00
    0.00000E+00         0.00000E+00         0.00000E+00
 
    0.49760E+07        -0.30930E+05         0.00000E+00
   -0.30930E+05         0.19188E+08         0.00000E+00
    0.00000E+00         0.00000E+00         0.00000E+00
 
    0.48467E+07        -0.24423E+05         0.00000E+00
   -0.24423E+05         0.19178E+08         0.00000E+00
    0.00000E+00         0.00000E+00         0.00000E+00
 
    0.47186E+07        -0.17831E+05         0.00000E+00
   -0.17831E+05         0.19170E+08         0.00000E+00
    0.00000E+00         0.00000E+00         0.00000E+00
 
    0.45912E+07        -0.11151E+05         0.00000E+00
   -0.11151E+05         0.19164E+08         0.00000E+00
    0.00000E+00         0.00000E+00         0.00000E+00
 
    0.44644E+07        -0.43754E+04         0.00000E+00
   -0.43754E+04         0.19162E+08         0.00000E+00
    0.00000E+00         0.00000E+00         0.00000E+00
 
    0.43377E+07         0.25036E+04         0.00000E+00
    0.25036E+04         0.19162E+08         0.00000E+00
    0.00000E+00         0.00000E+00         0.00000E+00
 
    0.42109E+07         0.94955E+04         0.00000E+00
    0.94955E+04         0.19164E+08         0.00000E+00
    0.00000E+00         0.00000E+00         0.00000E+00
 
    0.40837E+07         0.16612E+05         0.00000E+00
    0.16612E+05         0.19170E+08         0.00000E+00
    0.00000E+00         0.00000E+00         0.00000E+00
 
    0.39559E+07         0.23867E+05         0.00000E+00
    0.23867E+05         0.19178E+08         0.00000E+00
    0.00000E+00         0.00000E+00         0.00000E+00
 
    0.38272E+07         0.31275E+05         0.00000E+00
    0.31275E+05         0.19190E+08         0.00000E+00
    0.00000E+00         0.00000E+00         0.00000E+00
 
    0.36973E+07         0.38857E+05         0.00000E+00
    0.38857E+05         0.19204E+08         0.00000E+00
    0.00000E+00         0.00000E+00         0.00000E+00
 
    0.35660E+07         0.46632E+05         0.00000E+00
    0.46632E+05         0.19221E+08         0.00000E+00
    0.00000E+00         0.00000E+00         0.00000E+00
 
    0.34329E+07         0.54626E+05         0.00000E+00
    0.54626E+05         0.19242E+08         0.00000E+00
    0.00000E+00         0.00000E+00         0.00000E+00
 
    0.32978E+07         0.62868E+05         0.00000E+00
    0.62868E+05         0.19265E+08         0.00000E+00
    0.00000E+00         0.00000E+00         0.00000E+00
 
    0.31603E+07         0.71393E+05         0.00000E+00
    0.71393E+05         0.19292E+08         0.00000E+00
    0.00000E+00         0.00000E+00         0.00000E+00
 
    0.30202E+07         0.80243E+05         0.00000E+00
    0.80243E+05         0.19323E+08         0.00000E+00
    0.00000E+00         0.00000E+00         0.00000E+00
 
    0.28771E+07         0.89465E+05         0.00000E+00
    0.89465E+05         0.19357E+08         0.00000E+00
    0.00000E+00         0.00000E+00         0.00000E+00
 
    0.27305E+07         0.99120E+05         0.00000E+00
    0.99120E+05         0.19395E+08         0.00000E+00
    0.00000E+00         0.00000E+00         0.00000E+00
 
    0.25801E+07         0.10928E+06         0.00000E+00
    0.10928E+06         0.19436E+08         0.00000E+00
    0.00000E+00         0.00000E+00         0.00000E+00
 
    0.24254E+07         0.12004E+06         0.00000E+00
    0.12004E+06         0.19482E+08         0.00000E+00
    0.00000E+00         0.00000E+00         0.00000E+00
 
    0.22657E+07         0.13151E+06         0.00000E+00
    0.13151E+06         0.19533E+08         0.00000E+00
    0.00000E+00         0.00000E+00         0.00000E+00
 
    0.21006E+07         0.14383E+06         0.00000E+00
    0.14383E+06         0.19588E+08         0.00000E+00
    0.00000E+00         0.00000E+00         0.00000E+00
 
    0.19291E+07         0.15720E+06         0.00000E+00
    0.15720E+06         0.19648E+08         0.00000E+00
    0.00000E+00         0.00000E+00         0.00000E+00
 
    0.17505E+07         0.17186E+06         0.00000E+00
    0.17186E+06         0.19713E+08         0.00000E+00
    0.00000E+00         0.00000E+00         0.00000E+00
 
    0.15636E+07         0.18817E+06         0.00000E+00
    0.18817E+06         0.19785E+08         0.00000E+00
    0.00000E+00         0.00000E+00         0.00000E+00
 
    0.13670E+07         0.20659E+06         0.00000E+00
    0.20659E+06         0.19864E+08         0.00000E+00
    0.00000E+00         0.00000E+00         0.00000E+00
 
    0.11590E+07         0.22782E+06         0.00000E+00
    0.22782E+06         0.19950E+08         0.00000E+00
    0.00000E+00         0.00000E+00         0.00000E+00
 
    0.93724E+06         0.25289E+06         0.00000E+00
    0.25289E+06         0.20045E+08         0.00000E+00
    0.00000E+00         0.00000E+00         0.00000E+00
 
    0.69870E+06         0.28336E+06         0.00000E+00
    0.28336E+06         0.20150E+08         0.00000E+00
    0.00000E+00         0.00000E+00         0.00000E+00
 
    0.43895E+06         0.32180E+06         0.00000E+00
    0.32180E+06         0.20268E+08         0.00000E+00
    0.00000E+00         0.00000E+00         0.00000E+00
 
    0.15157E+06         0.37245E+06         0.00000E+00
    0.37245E+06         0.20401E+08         0.00000E+00
    0.00000E+00         0.00000E+00         0.00000E+00
 
    0.77518E+07        -0.58572E+05         0.00000E+00
   -0.58572E+05         0.19230E+08         0.00000E+00
    0.00000E+00         0.00000E+00         0.00000E+00
 
    0.75245E+07        -0.12563E+06         0.00000E+00
   -0.12563E+06         0.19237E+08         0.00000E+00
    0.00000E+00         0.00000E+00         0.00000E+00
 
    0.72975E+07        -0.17130E+06         0.00000E+00
   -0.17130E+06         0.19240E+08         0.00000E+00
    0.00000E+00         0.00000E+00         0.00000E+00
 
    0.70770E+07        -0.20130E+06         0.00000E+00
   -0.20130E+06         0.19237E+08         0.00000E+00
    0.00000E+00         0.00000E+00         0.00000E+00
 
    0.68654E+07        -0.21981E+06         0.00000E+00
   -0.21981E+06         0.19230E+08         0.00000E+00
    0.00000E+00         0.00000E+00         0.00000E+00
 
    0.66634E+07        -0.22984E+06         0.00000E+00
   -0.22984E+06         0.19220E+08         0.00000E+00
    0.00000E+00         0.00000E+00         0.00000E+00
 
    0.64709E+07        -0.23354E+06         0.00000E+00
   -0.23354E+06         0.19207E+08         0.00000E+00
    0.00000E+00         0.00000E+00         0.00000E+00
 
    0.62872E+07        -0.23250E+06         0.00000E+00
   -0.23250E+06         0.19192E+08         0.00000E+00
    0.00000E+00         0.00000E+00         0.00000E+00
 
    0.61117E+07        -0.22785E+06         0.00000E+00
   -0.22785E+06         0.19176E+08         0.00000E+00
    0.00000E+00         0.00000E+00         0.00000E+00
 
    0.59435E+07        -0.22042E+06         0.00000E+00
   -0.22042E+06         0.19159E+08         0.00000E+00
    0.00000E+00         0.00000E+00         0.00000E+00
 
    0.57818E+07        -0.21083E+06         0.00000E+00
   -0.21083E+06         0.19142E+08         0.00000E+00
    0.00000E+00         0.00000E+00         0.00000E+00
 
    0.56260E+07        -0.19953E+06         0.00000E+00
   -0.19953E+06         0.19126E+08         0.00000E+00
    0.00000E+00         0.00000E+00         0.00000E+00
 
    0.54753E+07        -0.18687E+06         0.00000E+00
   -0.18687E+06         0.19109E+08         0.00000E+00
    0.00000E+00         0.00000E+00         0.00000E+00
 
    0.53291E+07        -0.17310E+06         0.00000E+00
   -0.17310E+06         0.19094E+08         0.00000E+00
    0.00000E+00         0.00000E+00         0.00000E+00
 
    0.51868E+07        -0.15843E+06         0.00000E+00
   -0.15843E+06         0.19080E+08         0.00000E+00
    0.00000E+00         0.00000E+00         0.00000E+00
 
    0.50479E+07        -0.14299E+06         0.00000E+00
   -0.14299E+06         0.19067E+08         0.00000E+00
    0.00000E+00         0.00000E+00         0.00000E+00
 
    0.49120E+07        -0.12690E+06         0.00000E+00
   -0.12690E+06         0.19055E+08         0.00000E+00
    0.00000E+00         0.00000E+00         0.00000E+00
 
    0.47786E+07        -0.11025E+06         0.00000E+00
   -0.11025E+06         0.19045E+08         0.00000E+00
    0.00000E+00         0.00000E+00         0.00000E+00
 
    0.46474E+07        -0.93088E+05         0.00000E+00
   -0.93088E+05         0.19037E+08         0.00000E+00
    0.00000E+00         0.00000E+00         0.00000E+00
 
    0.45179E+07        -0.75472E+05         0.00000E+00
   -0.75472E+05         0.19030E+08         0.00000E+00
    0.00000E+00         0.00000E+00         0.00000E+00
 
    0.43897E+07        -0.57428E+05         0.00000E+00
   -0.57428E+05         0.19026E+08         0.00000E+00
    0.00000E+00         0.00000E+00         0.00000E+00
 
    0.42627E+07        -0.38976E+05         0.00000E+00
   -0.38976E+05         0.19024E+08         0.00000E+00
    0.00000E+00         0.00000E+00         0.00000E+00
 
    0.41365E+07        -0.20125E+05         0.00000E+00
   -0.20125E+05         0.19023E+08         0.00000E+00
    0.00000E+00         0.00000E+00         0.00000E+00
 
    0.40108E+07        -0.87384E+03         0.00000E+00
   -0.87384E+03         0.19025E+08         0.00000E+00
    0.00000E+00         0.00000E+00         0.00000E+00
 
    0.38853E+07         0.18784E+05         0.00000E+00
    0.18784E+05         0.19030E+08         0.00000E+00
    0.00000E+00         0.00000E+00         0.00000E+00
 
    0.37598E+07         0.38863E+05         0.00000E+00
    0.38863E+05         0.19036E+08         0.00000E+00
    0.00000E+00         0.00000E+00         0.00000E+00
 
    0.36341E+07         0.59387E+05         0.00000E+00
    0.59387E+05         0.19046E+08         0.00000E+00
    0.00000E+00         0.00000E+00         0.00000E+00
 
    0.35078E+07         0.80385E+05         0.00000E+00
    0.80385E+05         0.19057E+08         0.00000E+00
    0.00000E+00         0.00000E+00         0.00000E+00
 
    0.33807E+07         0.10189E+06         0.00000E+00
    0.10189E+06         0.19072E+08         0.00000E+00
    0.00000E+00         0.00000E+00         0.00000E+00
 
    0.32527E+07         0.12396E+06         0.00000E+00
    0.12396E+06         0.19089E+08         0.00000E+00
    0.00000E+00         0.00000E+00         0.00000E+00
 
    0.31234E+07         0.14664E+06         0.00000E+00
    0.14664E+06         0.19109E+08         0.00000E+00
    0.00000E+00         0.00000E+00         0.00000E+00
 
    0.29926E+07         0.16999E+06         0.00000E+00
    0.16999E+06         0.19131E+08         0.00000E+00
    0.00000E+00         0.00000E+00         0.00000E+00
 
    0.28601E+07         0.19410E+06         0.00000E+00
    0.19410E+06         0.19157E+08         0.00000E+00
    0.00000E+00         0.00000E+00         0.00000E+00
 
    0.27256E+07         0.21905E+06         0.00000E+00
    0.21905E+06         0.19186E+08         0.00000E+00
    0.00000E+00         0.00000E+00         0.00000E+00
 
    0.25889E+07         0.24496E+06         0.00000E+00
    0.24496E+06         0.19218E+08         0.00000E+00
    0.00000E+00         0.00000E+00         0.00000E+00
 
    0.24496E+07         0.27195E+06         0.00000E+00
    0.27195E+06         0.19253E+08         0.00000E+00
    0.00000E+00         0.00000E+00         0.00000E+00
 
    0.23076E+07         0.30017E+06         0.00000E+00
    0.30017E+06         0.19292E+08         0.00000E+00
    0.00000E+00         0.00000E+00         0.00000E+00
 
    0.21625E+07         0.32981E+06         0.00000E+00
    0.32981E+06         0.19334E+08         0.00000E+00
    0.00000E+00         0.00000E+00         0.00000E+00
 
    0.20139E+07         0.36110E+06         0.00000E+00
    0.36110E+06         0.19381E+08         0.00000E+00
    0.00000E+00         0.00000E+00         0.00000E+00
 
    0.18617E+07         0.39430E+06         0.00000E+00
    0.39430E+06         0.19431E+08         0.00000E+00
    0.00000E+00         0.00000E+00         0.00000E+00
 
    0.17053E+07         0.42975E+06         0.00000E+00
    0.42975E+06         0.19485E+08         0.00000E+00
    0.00000E+00         0.00000E+00         0.00000E+00
 
    0.15446E+07         0.46788E+06         0.00000E+00
    0.46788E+06         0.19544E+08         0.00000E+00
    0.00000E+00         0.00000E+00         0.00000E+00
 
    0.13790E+07         0.50920E+06         0.00000E+00
    0.50920E+06         0.19607E+08         0.00000E+00
    0.00000E+00         0.00000E+00         0.00000E+00
 
    0.12085E+07         0.55437E+06         0.00000E+00
    0.55437E+06         0.19675E+08         0.00000E+00
    0.00000E+00         0.00000E+00         0.00000E+00
 
    0.10326E+07         0.60426E+06         0.00000E+00
    0.60426E+06         0.19748E+08         0.00000E+00
    0.00000E+00         0.00000E+00         0.00000E+00
 
    0.85140E+06         0.65994E+06         0.00000E+00
    0.65994E+06         0.19827E+08         0.00000E+00
    0.00000E+00         0.00000E+00         0.00000E+00
 
    0.66514E+06         0.72285E+06         0.00000E+00
    0.72285E+06         0.19911E+08         0.00000E+00
    0.00000E+00         0.00000E+00         0.00000E+00
 
    0.47476E+06         0.79484E+06         0.00000E+00
    0.79484E+06         0.20000E+08         0.00000E+00
    0.00000E+00         0.00000E+00         0.00000E+00
 
    0.28250E+06         0.87831E+06         0.00000E+00
    0.87831E+06         0.20094E+08         0.00000E+00
    0.00000E+00         0.00000E+00         0.00000E+00
 
    0.93147E+05         0.97629E+06         0.00000E+00
    0.97629E+06         0.20192E+08         0.00000E+00
    0.00000E+00         0.00000E+00         0.00000E+00
 
    0.68832E+07        -0.42788E+05         0.00000E+00
   -0.42788E+05         0.18706E+08         0.00000E+00
    0.00000E+00         0.00000E+00         0.00000E+00
 
    0.67261E+07        -0.10149E+06         0.00000E+00
   -0.10149E+06         0.18709E+08         0.00000E+00
    0.00000E+00         0.00000E+00         0.00000E+00
 
    0.65655E+07        -0.15071E+06         0.00000E+00
   -0.15071E+06         0.18714E+08         0.00000E+00
    0.00000E+00         0.00000E+00         0.00000E+00
 
    0.64028E+07        -0.18985E+06         0.00000E+00
   -0.18985E+06         0.18720E+08         0.00000E+00
    0.00000E+00         0.00000E+00         0.00000E+00
 
    0.62397E+07        -0.21940E+06         0.00000E+00
   -0.21940E+06         0.18726E+08         0.00000E+00
    0.00000E+00         0.00000E+00         0.00000E+00
 
    0.60776E+07        -0.24030E+06         0.00000E+00
   -0.24030E+06         0.18730E+08         0.00000E+00
    0.00000E+00         0.00000E+00         0.00000E+00
 
    0.59176E+07        -0.25364E+06         0.00000E+00
   -0.25364E+06         0.18734E+08         0.00000E+00
    0.00000E+00         0.00000E+00         0.00000E+00
 
    0.57604E+07        -0.26047E+06         0.00000E+00
   -0.26047E+06         0.18736E+08         0.00000E+00
    0.00000E+00         0.00000E+00         0.00000E+00
 
    0.56065E+07        -0.26176E+06         0.00000E+00
   -0.26176E+06         0.18738E+08         0.00000E+00
    0.00000E+00         0.00000E+00         0.00000E+00
 
    0.54560E+07        -0.25835E+06         0.00000E+00
   -0.25835E+06         0.18738E+08         0.00000E+00
    0.00000E+00         0.00000E+00         0.00000E+00
 
    0.53088E+07        -0.25097E+06         0.00000E+00
   -0.25097E+06         0.18738E+08         0.00000E+00
    0.00000E+00         0.00000E+00         0.00000E+00
 
    0.51650E+07        -0.24022E+06         0.00000E+00
   -0.24022E+06         0.18737E+08         0.00000E+00
    0.00000E+00         0.00000E+00         0.00000E+00
 
    0.50243E+07        -0.22661E+06         0.00000E+00
   -0.22661E+06         0.18736E+08         0.00000E+00
    0.00000E+00         0.00000E+00         0.00000E+00
 
    0.48865E+07        -0.21055E+06         0.00000E+00
   -0.21055E+06         0.18735E+08         0.00000E+00
    0.00000E+00         0.00000E+00         0.00000E+00
 
    0.47514E+07        -0.19240E+06         0.00000E+00
   -0.19240E+06         0.18735E+08         0.00000E+00
    0.00000E+00         0.00000E+00         0.00000E+00
 
    0.46187E+07        -0.17242E+06         0.00000E+00
   -0.17242E+06         0.18734E+08         0.00000E+00
    0.00000E+00         0.00000E+00         0.00000E+00
 
    0.44882E+07        -0.15085E+06         0.00000E+00
   -0.15085E+06         0.18735E+08         0.00000E+00
    0.00000E+00         0.00000E+00         0.00000E+00
 
    0.43595E+07        -0.12787E+06         0.00000E+00
   -0.12787E+06         0.18736E+08         0.00000E+00
    0.00000E+00         0.00000E+00         0.00000E+00
 
    0.42325E+07        -0.10364E+06         0.00000E+00
   -0.10364E+06         0.18738E+08         0.00000E+00
    0.00000E+00         0.00000E+00         0.00000E+00
 
    0.41068E+07        -0.78273E+05         0.00000E+00
   -0.78273E+05         0.18742E+08         0.00000E+00
    0.00000E+00         0.00000E+00         0.00000E+00
 
    0.39823E+07        -0.51857E+05         0.00000E+00
   -0.51857E+05         0.18746E+08         0.00000E+00
    0.00000E+00         0.00000E+00         0.00000E+00
 
    0.38587E+07        -0.24464E+05         0.00000E+00
   -0.24464E+05         0.18752E+08         0.00000E+00
    0.00000E+00         0.00000E+00         0.00000E+00
 
    0.37357E+07         0.38570E+04         0.00000E+00
    0.38570E+04         0.18760E+08         0.00000E+00
    0.00000E+00         0.00000E+00         0.00000E+00
 
    0.36132E+07         0.33074E+05         0.00000E+00
    0.33074E+05         0.18769E+08         0.00000E+00
    0.00000E+00         0.00000E+00         0.00000E+00
 
    0.34910E+07         0.63169E+05         0.00000E+00
    0.63169E+05         0.18780E+08         0.00000E+00
    0.00000E+00         0.00000E+00         0.00000E+00
 
    0.33688E+07         0.94141E+05         0.00000E+00
    0.94141E+05         0.18793E+08         0.00000E+00
    0.00000E+00         0.00000E+00         0.00000E+00
 
    0.32464E+07         0.12600E+06         0.00000E+00
    0.12600E+06         0.18808E+08         0.00000E+00
    0.00000E+00         0.00000E+00         0.00000E+00
 
    0.31236E+07         0.15877E+06         0.00000E+00
    0.15877E+06         0.18825E+08         0.00000E+00
    0.00000E+00         0.00000E+00         0.00000E+00
 
    0.30003E+07         0.19249E+06         0.00000E+00
    0.19249E+06         0.18845E+08         0.00000E+00
    0.00000E+00         0.00000E+00         0.00000E+00
 
    0.28763E+07         0.22721E+06         0.00000E+00
    0.22721E+06         0.18866E+08         0.00000E+00
    0.00000E+00         0.00000E+00         0.00000E+00
 
    0.27514E+07         0.26300E+06         0.00000E+00
    0.26300E+06         0.18890E+08         0.00000E+00
    0.00000E+00         0.00000E+00         0.00000E+00
 
    0.26254E+07         0.29993E+06         0.00000E+00
    0.29993E+06         0.18916E+08         0.00000E+00
    0.00000E+00         0.00000E+00         0.00000E+00
 
    0.24982E+07         0.33809E+06         0.00000E+00
    0.33809E+06         0.18945E+08         0.00000E+00
    0.00000E+00         0.00000E+00         0.00000E+00
 
    0.23695E+07         0.37761E+06         0.00000E+00
    0.37761E+06         0.18976E+08         0.00000E+00
    0.00000E+00         0.00000E+00         0.00000E+00
 
    0.22393E+07         0.41861E+06         0.00000E+00
    0.41861E+06         0.19010E+08         0.00000E+00
    0.00000E+00         0.00000E+00         0.00000E+00
 
    0.21073E+07         0.46124E+06         0.00000E+00
    0.46124E+06         0.19047E+08         0.00000E+00
    0.00000E+00         0.00000E+00         0.00000E+00
 
    0.19735E+07         0.50569E+06         0.00000E+00
    0.50569E+06         0.19087E+08         0.00000E+00
    0.00000E+00         0.00000E+00         0.00000E+00
 
    0.18377E+07         0.55218E+06         0.00000E+00
    0.55218E+06         0.19129E+08         0.00000E+00
    0.00000E+00         0.00000E+00         0.00000E+00
 
    0.16999E+07         0.60093E+06         0.00000E+00
    0.60093E+06         0.19175E+08         0.00000E+00
    0.00000E+00         0.00000E+00         0.00000E+00
 
    0.15598E+07         0.65223E+06         0.00000E+00
    0.65223E+06         0.19224E+08         0.00000E+00
    0.00000E+00         0.00000E+00         0.00000E+00
 
    0.14175E+07         0.70641E+06         0.00000E+00
    0.70641E+06         0.19276E+08         0.00000E+00
    0.00000E+00         0.00000E+00         0.00000E+00
 
    0.12731E+07         0.76383E+06         0.00000E+00
    0.76383E+06         0.19331E+08         0.00000E+00
    0.00000E+00         0.00000E+00         0.00000E+00
 
    0.11265E+07         0.82492E+06         0.00000E+00
    0.82492E+06         0.19390E+08         0.00000E+00
    0.00000E+00         0.00000E+00         0.00000E+00
 
    0.97806E+06         0.89013E+06         0.00000E+00
    0.89013E+06         0.19451E+08         0.00000E+00
    0.00000E+00         0.00000E+00         0.00000E+00
 
    0.82798E+06         0.95996E+06         0.00000E+00
    0.95996E+06         0.19516E+08         0.00000E+00
    0.00000E+00         0.00000E+00         0.00000E+00
 
    0.67678E+06         0.10349E+07         0.00000E+00
    0.10349E+07         0.19583E+08         0.00000E+00
    0.00000E+00         0.00000E+00         0.00000E+00
 
    0.52511E+06         0.11155E+07         0.00000E+00
    0.11155E+07         0.19653E+08         0.00000E+00
    0.00000E+00         0.00000E+00         0.00000E+00
 
    0.37376E+06         0.12019E+07         0.00000E+00
    0.12019E+07         0.19724E+08         0.00000E+00
    0.00000E+00         0.00000E+00         0.00000E+00
 
    0.22347E+06         0.12942E+07         0.00000E+00
    0.12942E+07         0.19797E+08         0.00000E+00
    0.00000E+00         0.00000E+00         0.00000E+00
 
    0.74334E+05         0.13916E+07         0.00000E+00
    0.13916E+07         0.19870E+08         0.00000E+00
    0.00000E+00         0.00000E+00         0.00000E+00
 
    0.60740E+07        -0.33975E+05         0.00000E+00
   -0.33975E+05         0.18186E+08         0.00000E+00
    0.00000E+00         0.00000E+00         0.00000E+00
 
    0.59591E+07        -0.81873E+05         0.00000E+00
   -0.81873E+05         0.18189E+08         0.00000E+00
    0.00000E+00         0.00000E+00         0.00000E+00
 
    0.58401E+07        -0.12256E+06         0.00000E+00
   -0.12256E+06         0.18194E+08         0.00000E+00
    0.00000E+00         0.00000E+00         0.00000E+00
 
    0.57180E+07        -0.15640E+06         0.00000E+00
   -0.15640E+06         0.18200E+08         0.00000E+00
    0.00000E+00         0.00000E+00         0.00000E+00
 
    0.55933E+07        -0.18358E+06         0.00000E+00
   -0.18358E+06         0.18208E+08         0.00000E+00
    0.00000E+00         0.00000E+00         0.00000E+00
 
    0.54668E+07        -0.20432E+06         0.00000E+00
   -0.20432E+06         0.18216E+08         0.00000E+00
    0.00000E+00         0.00000E+00         0.00000E+00
 
    0.53392E+07        -0.21893E+06         0.00000E+00
   -0.21893E+06         0.18226E+08         0.00000E+00
    0.00000E+00         0.00000E+00         0.00000E+00
 
    0.52110E+07        -0.22779E+06         0.00000E+00
   -0.22779E+06         0.18235E+08         0.00000E+00
    0.00000E+00         0.00000E+00         0.00000E+00
 
    0.50828E+07        -0.23135E+06         0.00000E+00
   -0.23135E+06         0.18245E+08         0.00000E+00
    0.00000E+00         0.00000E+00         0.00000E+00
 
    0.49549E+07        -0.23006E+06         0.00000E+00
   -0.23006E+06         0.18254E+08         0.00000E+00
    0.00000E+00         0.00000E+00         0.00000E+00
 
    0.48277E+07        -0.22436E+06         0.00000E+00
   -0.22436E+06         0.18264E+08         0.00000E+00
    0.00000E+00         0.00000E+00         0.00000E+00
 
    0.47014E+07        -0.21468E+06         0.00000E+00
   -0.21468E+06         0.18274E+08         0.00000E+00
    0.00000E+00         0.00000E+00         0.00000E+00
 
    0.45761E+07        -0.20141E+06         0.00000E+00
   -0.20141E+06         0.18283E+08         0.00000E+00
    0.00000E+00         0.00000E+00         0.00000E+00
 
    0.44519E+07        -0.18493E+06         0.00000E+00
   -0.18493E+06         0.18293E+08         0.00000E+00
    0.00000E+00         0.00000E+00         0.00000E+00
 
    0.43288E+07        -0.16554E+06         0.00000E+00
   -0.16554E+06         0.18303E+08         0.00000E+00
    0.00000E+00         0.00000E+00         0.00000E+00
 
    0.42068E+07        -0.14353E+06         0.00000E+00
   -0.14353E+06         0.18313E+08         0.00000E+00
    0.00000E+00         0.00000E+00         0.00000E+00
 
    0.40858E+07        -0.11915E+06         0.00000E+00
   -0.11915E+06         0.18324E+08         0.00000E+00
    0.00000E+00         0.00000E+00         0.00000E+00
 
    0.39658E+07        -0.92615E+05         0.00000E+00
   -0.92615E+05         0.18335E+08         0.00000E+00
    0.00000E+00         0.00000E+00         0.00000E+00
 
    0.38466E+07        -0.64104E+05         0.00000E+00
   -0.64104E+05         0.18347E+08         0.00000E+00
    0.00000E+00         0.00000E+00         0.00000E+00
 
    0.37282E+07        -0.33773E+05         0.00000E+00
   -0.33773E+05         0.18359E+08         0.00000E+00
    0.00000E+00         0.00000E+00         0.00000E+00
 
    0.36104E+07        -0.17493E+04         0.00000E+00
   -0.17493E+04         0.18372E+08         0.00000E+00
    0.00000E+00         0.00000E+00         0.00000E+00
 
    0.34931E+07         0.31864E+05         0.00000E+00
    0.31864E+05         0.18387E+08         0.00000E+00
    0.00000E+00         0.00000E+00         0.00000E+00
 
    0.33762E+07         0.66986E+05         0.00000E+00
    0.66986E+05         0.18402E+08         0.00000E+00
    0.00000E+00         0.00000E+00         0.00000E+00
 
    0.32595E+07         0.10355E+06         0.00000E+00
    0.10355E+06         0.18419E+08         0.00000E+00
    0.00000E+00         0.00000E+00         0.00000E+00
 
    0.31430E+07         0.14152E+06         0.00000E+00
    0.14152E+06         0.18437E+08         0.00000E+00
    0.00000E+00         0.00000E+00         0.00000E+00
 
    0.30264E+07         0.18087E+06         0.00000E+00
    0.18087E+06         0.18456E+08         0.00000E+00
    0.00000E+00         0.00000E+00         0.00000E+00
 
    0.29098E+07         0.22158E+06         0.00000E+00
    0.22158E+06         0.18477E+08         0.00000E+00
    0.00000E+00         0.00000E+00         0.00000E+00
 
    0.27928E+07         0.26366E+06         0.00000E+00
    0.26366E+06         0.18500E+08         0.00000E+00
    0.00000E+00         0.00000E+00         0.00000E+00
 
    0.26756E+07         0.30714E+06         0.00000E+00
    0.30714E+06         0.18524E+08         0.00000E+00
    0.00000E+00         0.00000E+00         0.00000E+00
 
    0.25578E+07         0.35204E+06         0.00000E+00
    0.35204E+06         0.18550E+08         0.00000E+00
    0.00000E+00         0.00000E+00         0.00000E+00
 
    0.24395E+07         0.39842E+06         0.00000E+00
    0.39842E+06         0.18577E+08         0.00000E+00
    0.00000E+00         0.00000E+00         0.00000E+00
 
    0.23205E+07         0.44634E+06         0.00000E+00
    0.44634E+06         0.18607E+08         0.00000E+00
    0.00000E+00         0.00000E+00         0.00000E+00
 
    0.22007E+07         0.49589E+06         0.00000E+00
    0.49589E+06         0.18638E+08         0.00000E+00
    0.00000E+00         0.00000E+00         0.00000E+00
 
    0.20801E+07         0.54715E+06         0.00000E+00
    0.54715E+06         0.18672E+08         0.00000E+00
    0.00000E+00         0.00000E+00         0.00000E+00
 
    0.19586E+07         0.60024E+06         0.00000E+00
    0.60024E+06         0.18708E+08         0.00000E+00
    0.00000E+00         0.00000E+00         0.00000E+00
 
    0.18361E+07         0.65528E+06         0.00000E+00
    0.65528E+06         0.18745E+08         0.00000E+00
    0.00000E+00         0.00000E+00         0.00000E+00
 
    0.17126E+07         0.71241E+06         0.00000E+00
    0.71241E+06         0.18785E+08         0.00000E+00
    0.00000E+00         0.00000E+00         0.00000E+00
 
    0.15881E+07         0.77181E+06         0.00000E+00
    0.77181E+06         0.18827E+08         0.00000E+00
    0.00000E+00         0.00000E+00         0.00000E+00
 
    0.14627E+07         0.83363E+06         0.00000E+00
    0.83363E+06         0.18872E+08         0.00000E+00
    0.00000E+00         0.00000E+00         0.00000E+00
 
    0.13363E+07         0.89806E+06         0.00000E+00
    0.89806E+06         0.18918E+08         0.00000E+00
    0.00000E+00         0.00000E+00         0.00000E+00
 
    0.12091E+07         0.96532E+06         0.00000E+00
    0.96532E+06         0.18967E+08         0.00000E+00
    0.00000E+00         0.00000E+00         0.00000E+00
 
    0.10812E+07         0.10356E+07         0.00000E+00
    0.10356E+07         0.19017E+08         0.00000E+00
    0.00000E+00         0.00000E+00         0.00000E+00
 
    0.95271E+06         0.11091E+07         0.00000E+00
    0.11091E+07         0.19070E+08         0.00000E+00
    0.00000E+00         0.00000E+00         0.00000E+00
 
    0.82393E+06         0.11861E+07         0.00000E+00
    0.11861E+07         0.19124E+08         0.00000E+00
    0.00000E+00         0.00000E+00         0.00000E+00
 
    0.69509E+06         0.12666E+07         0.00000E+00
    0.12666E+07         0.19180E+08         0.00000E+00
    0.00000E+00         0.00000E+00         0.00000E+00
 
    0.56650E+06         0.13509E+07         0.00000E+00
    0.13509E+07         0.19238E+08         0.00000E+00
    0.00000E+00         0.00000E+00         0.00000E+00
 
    0.43849E+06         0.14390E+07         0.00000E+00
    0.14390E+07         0.19297E+08         0.00000E+00
    0.00000E+00         0.00000E+00         0.00000E+00
 
    0.31138E+06         0.15311E+07         0.00000E+00
    0.15311E+07         0.19357E+08         0.00000E+00
    0.00000E+00         0.00000E+00         0.00000E+00
 
    0.18552E+06         0.16272E+07         0.00000E+00
    0.16272E+07         0.19417E+08         0.00000E+00
    0.00000E+00         0.00000E+00         0.00000E+00
 
    0.61476E+05         0.17276E+07         0.00000E+00
    0.17276E+07         0.19478E+08         0.00000E+00
    0.00000E+00         0.00000E+00         0.00000E+00
 
    0.53259E+07        -0.25474E+05         0.00000E+00
   -0.25474E+05         0.17664E+08         0.00000E+00
    0.00000E+00         0.00000E+00         0.00000E+00
 
    0.52423E+07        -0.61755E+05         0.00000E+00
   -0.61755E+05         0.17667E+08         0.00000E+00
    0.00000E+00         0.00000E+00         0.00000E+00
 
    0.51541E+07        -0.92666E+05         0.00000E+00
   -0.92666E+05         0.17672E+08         0.00000E+00
    0.00000E+00         0.00000E+00         0.00000E+00
 
    0.50620E+07        -0.11824E+06         0.00000E+00
   -0.11824E+06         0.17679E+08         0.00000E+00
    0.00000E+00         0.00000E+00         0.00000E+00
 
    0.49664E+07        -0.13859E+06         0.00000E+00
   -0.13859E+06         0.17688E+08         0.00000E+00
    0.00000E+00         0.00000E+00         0.00000E+00
 
    0.48679E+07        -0.15387E+06         0.00000E+00
   -0.15387E+06         0.17698E+08         0.00000E+00
    0.00000E+00         0.00000E+00         0.00000E+00
 
    0.47670E+07        -0.16425E+06         0.00000E+00
   -0.16425E+06         0.17709E+08         0.00000E+00
    0.00000E+00         0.00000E+00         0.00000E+00
 
    0.46641E+07        -0.16992E+06         0.00000E+00
   -0.16992E+06         0.17721E+08         0.00000E+00
    0.00000E+00         0.00000E+00         0.00000E+00
 
    0.45596E+07        -0.17107E+06         0.00000E+00
   -0.17107E+06         0.17734E+08         0.00000E+00
    0.00000E+00         0.00000E+00         0.00000E+00
 
    0.44538E+07        -0.16793E+06         0.00000E+00
   -0.16793E+06         0.17748E+08         0.00000E+00
    0.00000E+00         0.00000E+00         0.00000E+00
 
    0.43470E+07        -0.16073E+06         0.00000E+00
   -0.16073E+06         0.17763E+08         0.00000E+00
    0.00000E+00         0.00000E+00         0.00000E+00
 
    0.42395E+07        -0.14970E+06         0.00000E+00
   -0.14970E+06         0.17778E+08         0.00000E+00
    0.00000E+00         0.00000E+00         0.00000E+00
 
    0.41315E+07        -0.13509E+06         0.00000E+00
   -0.13509E+06         0.17793E+08         0.00000E+00
    0.00000E+00         0.00000E+00         0.00000E+00
 
    0.40232E+07        -0.11712E+06         0.00000E+00
   -0.11712E+06         0.17809E+08         0.00000E+00
    0.00000E+00         0.00000E+00         0.00000E+00
 
    0.39147E+07        -0.96012E+05         0.00000E+00
   -0.96012E+05         0.17825E+08         0.00000E+00
    0.00000E+00         0.00000E+00         0.00000E+00
 
    0.38061E+07        -0.71982E+05         0.00000E+00
   -0.71982E+05         0.17842E+08         0.00000E+00
    0.00000E+00         0.00000E+00         0.00000E+00
 
    0.36976E+07        -0.45217E+05         0.00000E+00
   -0.45217E+05         0.17860E+08         0.00000E+00
    0.00000E+00         0.00000E+00         0.00000E+00
 
    0.35890E+07        -0.15891E+05         0.00000E+00
   -0.15891E+05         0.17878E+08         0.00000E+00
    0.00000E+00         0.00000E+00         0.00000E+00
 
    0.34805E+07         0.15836E+05         0.00000E+00
    0.15836E+05         0.17896E+08         0.00000E+00
    0.00000E+00         0.00000E+00         0.00000E+00
 
    0.33721E+07         0.49826E+05         0.00000E+00
    0.49826E+05         0.17915E+08         0.00000E+00
    0.00000E+00         0.00000E+00         0.00000E+00
 
    0.32638E+07         0.85957E+05         0.00000E+00
    0.85957E+05         0.17935E+08         0.00000E+00
    0.00000E+00         0.00000E+00         0.00000E+00
 
    0.31554E+07         0.12413E+06         0.00000E+00
    0.12413E+06         0.17956E+08         0.00000E+00
    0.00000E+00         0.00000E+00         0.00000E+00
 
    0.30471E+07         0.16424E+06         0.00000E+00
    0.16424E+06         0.17977E+08         0.00000E+00
    0.00000E+00         0.00000E+00         0.00000E+00
 
    0.29387E+07         0.20624E+06         0.00000E+00
    0.20624E+06         0.18000E+08         0.00000E+00
    0.00000E+00         0.00000E+00         0.00000E+00
 
    0.28302E+07         0.25005E+06         0.00000E+00
    0.25005E+06         0.18023E+08         0.00000E+00
    0.00000E+00         0.00000E+00         0.00000E+00
 
    0.27216E+07         0.29565E+06         0.00000E+00
    0.29565E+06         0.18048E+08         0.00000E+00
    0.00000E+00         0.00000E+00         0.00000E+00
 
    0.26128E+07         0.34300E+06         0.00000E+00
    0.34300E+06         0.18073E+08         0.00000E+00
    0.00000E+00         0.00000E+00         0.00000E+00
 
    0.25038E+07         0.39210E+06         0.00000E+00
    0.39210E+06         0.18100E+08         0.00000E+00
    0.00000E+00         0.00000E+00         0.00000E+00
 
    0.23945E+07         0.44293E+06         0.00000E+00
    0.44293E+06         0.18128E+08         0.00000E+00
    0.00000E+00         0.00000E+00         0.00000E+00
 
    0.22849E+07         0.49552E+06         0.00000E+00
    0.49552E+06         0.18157E+08         0.00000E+00
    0.00000E+00         0.00000E+00         0.00000E+00
 
    0.21749E+07         0.54989E+06         0.00000E+00
    0.54989E+06         0.18188E+08         0.00000E+00
    0.00000E+00         0.00000E+00         0.00000E+00
 
    0.20645E+07         0.60607E+06         0.00000E+00
    0.60607E+06         0.18220E+08         0.00000E+00
    0.00000E+00         0.00000E+00         0.00000E+00
 
    0.19537E+07         0.66412E+06         0.00000E+00
    0.66412E+06         0.18253E+08         0.00000E+00
    0.00000E+00         0.00000E+00         0.00000E+00
 
    0.18424E+07         0.72409E+06         0.00000E+00
    0.72409E+06         0.18288E+08         0.00000E+00
    0.00000E+00         0.00000E+00         0.00000E+00
 
    0.17308E+07         0.78604E+06         0.00000E+00
    0.78604E+06         0.18325E+08         0.00000E+00
    0.00000E+00         0.00000E+00         0.00000E+00
 
    0.16187E+07         0.85006E+06         0.00000E+00
    0.85006E+06         0.18362E+08         0.00000E+00
    0.00000E+00         0.00000E+00         0.00000E+00
 
    0.15062E+07         0.91622E+06         0.00000E+00
    0.91622E+06         0.18402E+08         0.00000E+00
    0.00000E+00         0.00000E+00         0.00000E+00
 
    0.13933E+07         0.98462E+06         0.00000E+00
    0.98462E+06         0.18443E+08         0.00000E+00
    0.00000E+00         0.00000E+00         0.00000E+00
 
    0.12802E+07         0.10554E+07         0.00000E+00
    0.10554E+07         0.18485E+08         0.00000E+00
    0.00000E+00         0.00000E+00         0.00000E+00
 
    0.11668E+07         0.11285E+07         0.00000E+00
    0.11285E+07         0.18529E+08         0.00000E+00
    0.00000E+00         0.00000E+00         0.00000E+00
 
    0.10533E+07         0.12042E+07         0.00000E+00
    0.12042E+07         0.18574E+08         0.00000E+00
    0.00000E+00         0.00000E+00         0.00000E+00
 
    0.93987E+06         0.12825E+07         0.00000E+00
    0.12825E+07         0.18620E+08         0.00000E+00
    0.00000E+00         0.00000E+00         0.00000E+00
 
    0.82654E+06         0.13635E+07         0.00000E+00
    0.13635E+07         0.18668E+08         0.00000E+00
    0.00000E+00         0.00000E+00         0.00000E+00
 
    0.71351E+06         0.14473E+07         0.00000E+00
    0.14473E+07         0.18716E+08         0.00000E+00
    0.00000E+00         0.00000E+00         0.00000E+00
 
    0.60096E+06         0.15339E+07         0.00000E+00
    0.15339E+07         0.18766E+08         0.00000E+00
    0.00000E+00         0.00000E+00         0.00000E+00
 
    0.48909E+06         0.16235E+07         0.00000E+00
    0.16235E+07         0.18817E+08         0.00000E+00
    0.00000E+00         0.00000E+00         0.00000E+00
 
    0.37812E+06         0.17159E+07         0.00000E+00
    0.17159E+07         0.18868E+08         0.00000E+00
    0.00000E+00         0.00000E+00         0.00000E+00
 
    0.26827E+06         0.18114E+07         0.00000E+00
    0.18114E+07         0.18920E+08         0.00000E+00
    0.00000E+00         0.00000E+00         0.00000E+00
 
    0.15983E+06         0.19098E+07         0.00000E+00
    0.19098E+07         0.18972E+08         0.00000E+00
    0.00000E+00         0.00000E+00         0.00000E+00
 
    0.52991E+05         0.20110E+07         0.00000E+00
    0.20110E+07         0.19025E+08         0.00000E+00
    0.00000E+00         0.00000E+00         0.00000E+00
 
    0.46412E+07        -0.17810E+05         0.00000E+00
   -0.17810E+05         0.17143E+08         0.00000E+00
    0.00000E+00         0.00000E+00         0.00000E+00
 
    0.45812E+07        -0.42105E+05         0.00000E+00
   -0.42105E+05         0.17145E+08         0.00000E+00
    0.00000E+00         0.00000E+00         0.00000E+00
 
    0.45166E+07        -0.62249E+05         0.00000E+00
   -0.62249E+05         0.17150E+08         0.00000E+00
    0.00000E+00         0.00000E+00         0.00000E+00
 
    0.44478E+07        -0.78257E+05         0.00000E+00
   -0.78257E+05         0.17157E+08         0.00000E+00
    0.00000E+00         0.00000E+00         0.00000E+00
 
    0.43753E+07        -0.90150E+05         0.00000E+00
   -0.90150E+05         0.17166E+08         0.00000E+00
    0.00000E+00         0.00000E+00         0.00000E+00
 
    0.42993E+07        -0.97978E+05         0.00000E+00
   -0.97978E+05         0.17176E+08         0.00000E+00
    0.00000E+00         0.00000E+00         0.00000E+00
 
    0.42202E+07        -0.10181E+06         0.00000E+00
   -0.10181E+06         0.17188E+08         0.00000E+00
    0.00000E+00         0.00000E+00         0.00000E+00
 
    0.41385E+07        -0.10174E+06         0.00000E+00
   -0.10174E+06         0.17202E+08         0.00000E+00
    0.00000E+00         0.00000E+00         0.00000E+00
 
    0.40543E+07        -0.97875E+05         0.00000E+00
   -0.97875E+05         0.17216E+08         0.00000E+00
    0.00000E+00         0.00000E+00         0.00000E+00
 
    0.39680E+07        -0.90320E+05         0.00000E+00
   -0.90320E+05         0.17232E+08         0.00000E+00
    0.00000E+00         0.00000E+00         0.00000E+00
 
    0.38798E+07        -0.79201E+05         0.00000E+00
   -0.79201E+05         0.17249E+08         0.00000E+00
    0.00000E+00         0.00000E+00         0.00000E+00
 
    0.37900E+07        -0.64647E+05         0.00000E+00
   -0.64647E+05         0.17266E+08         0.00000E+00
    0.00000E+00         0.00000E+00         0.00000E+00
 
    0.36989E+07        -0.46793E+05         0.00000E+00
   -0.46793E+05         0.17285E+08         0.00000E+00
    0.00000E+00         0.00000E+00         0.00000E+00
 
    0.36065E+07        -0.25772E+05         0.00000E+00
   -0.25772E+05         0.17304E+08         0.00000E+00
    0.00000E+00         0.00000E+00         0.00000E+00
 
    0.35131E+07        -0.17191E+04         0.00000E+00
   -0.17191E+04         0.17324E+08         0.00000E+00
    0.00000E+00         0.00000E+00         0.00000E+00
 
    0.34188E+07         0.25234E+05         0.00000E+00
    0.25234E+05         0.17344E+08         0.00000E+00
    0.00000E+00         0.00000E+00         0.00000E+00
 
    0.33237E+07         0.54961E+05         0.00000E+00
    0.54961E+05         0.17366E+08         0.00000E+00
    0.00000E+00         0.00000E+00         0.00000E+00
 
    0.32280E+07         0.87342E+05         0.00000E+00
    0.87342E+05         0.17387E+08         0.00000E+00
    0.00000E+00         0.00000E+00         0.00000E+00
 
    0.31317E+07         0.12226E+06         0.00000E+00
    0.12226E+06         0.17410E+08         0.00000E+00
    0.00000E+00         0.00000E+00         0.00000E+00
 
    0.30348E+07         0.15962E+06         0.00000E+00
    0.15962E+06         0.17433E+08         0.00000E+00
    0.00000E+00         0.00000E+00         0.00000E+00
 
    0.29375E+07         0.19933E+06         0.00000E+00
    0.19933E+06         0.17457E+08         0.00000E+00
    0.00000E+00         0.00000E+00         0.00000E+00
 
    0.28398E+07         0.24128E+06         0.00000E+00
    0.24128E+06         0.17482E+08         0.00000E+00
    0.00000E+00         0.00000E+00         0.00000E+00
 
    0.27418E+07         0.28543E+06         0.00000E+00
    0.28543E+06         0.17507E+08         0.00000E+00
    0.00000E+00         0.00000E+00         0.00000E+00
 
    0.26433E+07         0.33169E+06         0.00000E+00
    0.33169E+06         0.17533E+08         0.00000E+00
    0.00000E+00         0.00000E+00         0.00000E+00
 
    0.25446E+07         0.38002E+06         0.00000E+00
    0.38002E+06         0.17560E+08         0.00000E+00
    0.00000E+00         0.00000E+00         0.00000E+00
 
    0.24455E+07         0.43037E+06         0.00000E+00
    0.43037E+06         0.17588E+08         0.00000E+00
    0.00000E+00         0.00000E+00         0.00000E+00
 
    0.23461E+07         0.48271E+06         0.00000E+00
    0.48271E+06         0.17616E+08         0.00000E+00
    0.00000E+00         0.00000E+00         0.00000E+00
 
    0.22464E+07         0.53701E+06         0.00000E+00
    0.53701E+06         0.17645E+08         0.00000E+00
    0.00000E+00         0.00000E+00         0.00000E+00
 
    0.21464E+07         0.59327E+06         0.00000E+00
    0.59327E+06         0.17676E+08         0.00000E+00
    0.00000E+00         0.00000E+00         0.00000E+00
 
    0.20461E+07         0.65146E+06         0.00000E+00
    0.65146E+06         0.17707E+08         0.00000E+00
    0.00000E+00         0.00000E+00         0.00000E+00
 
    0.19456E+07         0.71160E+06         0.00000E+00
    0.71160E+06         0.17739E+08         0.00000E+00
    0.00000E+00         0.00000E+00         0.00000E+00
 
    0.18448E+07         0.77370E+06         0.00000E+00
    0.77370E+06         0.17773E+08         0.00000E+00
    0.00000E+00         0.00000E+00         0.00000E+00
 
    0.17437E+07         0.83777E+06         0.00000E+00
    0.83777E+06         0.17807E+08         0.00000E+00
    0.00000E+00         0.00000E+00         0.00000E+00
 
    0.16425E+07         0.90384E+06         0.00000E+00
    0.90384E+06         0.17842E+08         0.00000E+00
    0.00000E+00         0.00000E+00         0.00000E+00
 
    0.15410E+07         0.97193E+06         0.00000E+00
    0.97193E+06         0.17878E+08         0.00000E+00
    0.00000E+00         0.00000E+00         0.00000E+00
 
    0.14394E+07         0.10421E+07         0.00000E+00
    0.10421E+07         0.17916E+08         0.00000E+00
    0.00000E+00         0.00000E+00         0.00000E+00
 
    0.13378E+07         0.11143E+07         0.00000E+00
    0.11143E+07         0.17954E+08         0.00000E+00
    0.00000E+00         0.00000E+00         0.00000E+00
 
    0.12360E+07         0.11887E+07         0.00000E+00
    0.11887E+07         0.17993E+08         0.00000E+00
    0.00000E+00         0.00000E+00         0.00000E+00
 
    0.11343E+07         0.12652E+07         0.00000E+00
    0.12652E+07         0.18033E+08         0.00000E+00
    0.00000E+00         0.00000E+00         0.00000E+00
 
    0.10328E+07         0.13440E+07         0.00000E+00
    0.13440E+07         0.18075E+08         0.00000E+00
    0.00000E+00         0.00000E+00         0.00000E+00
 
    0.93136E+06         0.14250E+07         0.00000E+00
    0.14250E+07         0.18117E+08         0.00000E+00
    0.00000E+00         0.00000E+00         0.00000E+00
 
    0.83026E+06         0.15082E+07         0.00000E+00
    0.15082E+07         0.18159E+08         0.00000E+00
    0.00000E+00         0.00000E+00         0.00000E+00
 
    0.72955E+06         0.15938E+07         0.00000E+00
    0.15938E+07         0.18203E+08         0.00000E+00
    0.00000E+00         0.00000E+00         0.00000E+00
 
    0.62936E+06         0.16817E+07         0.00000E+00
    0.16817E+07         0.18247E+08         0.00000E+00
    0.00000E+00         0.00000E+00         0.00000E+00
 
    0.52982E+06         0.17720E+07         0.00000E+00
    0.17720E+07         0.18292E+08         0.00000E+00
    0.00000E+00         0.00000E+00         0.00000E+00
 
    0.43106E+06         0.18646E+07         0.00000E+00
    0.18646E+07         0.18337E+08         0.00000E+00
    0.00000E+00         0.00000E+00         0.00000E+00
 
    0.33322E+06         0.19595E+07         0.00000E+00
    0.19595E+07         0.18383E+08         0.00000E+00
    0.00000E+00         0.00000E+00         0.00000E+00
 
    0.23645E+06         0.20568E+07         0.00000E+00
    0.20568E+07         0.18429E+08         0.00000E+00
    0.00000E+00         0.00000E+00         0.00000E+00
 
    0.14090E+06         0.21563E+07         0.00000E+00
    0.21563E+07         0.18475E+08         0.00000E+00
    0.00000E+00         0.00000E+00         0.00000E+00
 
    0.46723E+05         0.22581E+07         0.00000E+00
    0.22581E+07         0.18522E+08         0.00000E+00
    0.00000E+00         0.00000E+00         0.00000E+00
 
    0.40192E+07        -0.10677E+05         0.00000E+00
   -0.10677E+05         0.16622E+08         0.00000E+00
    0.00000E+00         0.00000E+00         0.00000E+00
 
    0.39775E+07        -0.23263E+05         0.00000E+00
   -0.23263E+05         0.16624E+08         0.00000E+00
    0.00000E+00         0.00000E+00         0.00000E+00
 
    0.39314E+07        -0.32596E+05         0.00000E+00
   -0.32596E+05         0.16629E+08         0.00000E+00
    0.00000E+00         0.00000E+00         0.00000E+00
 
    0.38811E+07        -0.38651E+05         0.00000E+00
   -0.38651E+05         0.16636E+08         0.00000E+00
    0.00000E+00         0.00000E+00         0.00000E+00
 
    0.38269E+07        -0.41424E+05         0.00000E+00
   -0.41424E+05         0.16644E+08         0.00000E+00
    0.00000E+00         0.00000E+00         0.00000E+00
 
    0.37691E+07        -0.40921E+05         0.00000E+00
   -0.40921E+05         0.16655E+08         0.00000E+00
    0.00000E+00         0.00000E+00         0.00000E+00
 
    0.37081E+07        -0.37161E+05         0.00000E+00
   -0.37161E+05         0.16667E+08         0.00000E+00
    0.00000E+00         0.00000E+00         0.00000E+00
 
    0.36439E+07        -0.30173E+05         0.00000E+00
   -0.30173E+05         0.16680E+08         0.00000E+00
    0.00000E+00         0.00000E+00         0.00000E+00
 
    0.35770E+07        -0.20001E+05         0.00000E+00
   -0.20001E+05         0.16695E+08         0.00000E+00
    0.00000E+00         0.00000E+00         0.00000E+00
 
    0.35075E+07        -0.66948E+04         0.00000E+00
   -0.66948E+04         0.16712E+08         0.00000E+00
    0.00000E+00         0.00000E+00         0.00000E+00
 
    0.34357E+07         0.96864E+04         0.00000E+00
    0.96864E+04         0.16729E+08         0.00000E+00
    0.00000E+00         0.00000E+00         0.00000E+00
 
    0.33619E+07         0.29077E+05         0.00000E+00
    0.29077E+05         0.16747E+08         0.00000E+00
    0.00000E+00         0.00000E+00         0.00000E+00
 
    0.32861E+07         0.51407E+05         0.00000E+00
    0.51407E+05         0.16767E+08         0.00000E+00
    0.00000E+00         0.00000E+00         0.00000E+00
 
    0.32086E+07         0.76603E+05         0.00000E+00
    0.76603E+05         0.16787E+08         0.00000E+00
    0.00000E+00         0.00000E+00         0.00000E+00
 
    0.31295E+07         0.10459E+06         0.00000E+00
    0.10459E+06         0.16809E+08         0.00000E+00
    0.00000E+00         0.00000E+00         0.00000E+00
 
    0.30491E+07         0.13529E+06         0.00000E+00
    0.13529E+06         0.16831E+08         0.00000E+00
    0.00000E+00         0.00000E+00         0.00000E+00
 
    0.29673E+07         0.16862E+06         0.00000E+00
    0.16862E+06         0.16854E+08         0.00000E+00
    0.00000E+00         0.00000E+00         0.00000E+00
 
    0.28845E+07         0.20452E+06         0.00000E+00
    0.20452E+06         0.16877E+08         0.00000E+00
    0.00000E+00         0.00000E+00         0.00000E+00
 
    0.28006E+07         0.24291E+06         0.00000E+00
    0.24291E+06         0.16902E+08         0.00000E+00
    0.00000E+00         0.00000E+00         0.00000E+00
 
    0.27158E+07         0.28371E+06         0.00000E+00
    0.28371E+06         0.16927E+08         0.00000E+00
    0.00000E+00         0.00000E+00         0.00000E+00
 
    0.26302E+07         0.32687E+06         0.00000E+00
    0.32687E+06         0.16953E+08         0.00000E+00
    0.00000E+00         0.00000E+00         0.00000E+00
 
    0.25438E+07         0.37233E+06         0.00000E+00
    0.37233E+06         0.16979E+08         0.00000E+00
    0.00000E+00         0.00000E+00         0.00000E+00
 
    0.24567E+07         0.42002E+06         0.00000E+00
    0.42002E+06         0.17006E+08         0.00000E+00
    0.00000E+00         0.00000E+00         0.00000E+00
 
    0.23690E+07         0.46991E+06         0.00000E+00
    0.46991E+06         0.17034E+08         0.00000E+00
    0.00000E+00         0.00000E+00         0.00000E+00
 
    0.22808E+07         0.52193E+06         0.00000E+00
    0.52193E+06         0.17063E+08         0.00000E+00
    0.00000E+00         0.00000E+00         0.00000E+00
 
    0.21920E+07         0.57607E+06         0.00000E+00
    0.57607E+06         0.17092E+08         0.00000E+00
    0.00000E+00         0.00000E+00         0.00000E+00
 
    0.21028E+07         0.63227E+06         0.00000E+00
    0.63227E+06         0.17122E+08         0.00000E+00
    0.00000E+00         0.00000E+00         0.00000E+00
 
    0.20132E+07         0.69052E+06         0.00000E+00
    0.69052E+06         0.17152E+08         0.00000E+00
    0.00000E+00         0.00000E+00         0.00000E+00
 
    0.19232E+07         0.75080E+06         0.00000E+00
    0.75080E+06         0.17183E+08         0.00000E+00
    0.00000E+00         0.00000E+00         0.00000E+00
 
    0.18329E+07         0.81308E+06         0.00000E+00
    0.81308E+06         0.17215E+08         0.00000E+00
    0.00000E+00         0.00000E+00         0.00000E+00
 
    0.17423E+07         0.87736E+06         0.00000E+00
    0.87736E+06         0.17248E+08         0.00000E+00
    0.00000E+00         0.00000E+00         0.00000E+00
 
    0.16514E+07         0.94363E+06         0.00000E+00
    0.94363E+06         0.17282E+08         0.00000E+00
    0.00000E+00         0.00000E+00         0.00000E+00
 
    0.15603E+07         0.10119E+07         0.00000E+00
    0.10119E+07         0.17316E+08         0.00000E+00
    0.00000E+00         0.00000E+00         0.00000E+00
 
    0.14691E+07         0.10821E+07         0.00000E+00
    0.10821E+07         0.17350E+08         0.00000E+00
    0.00000E+00         0.00000E+00         0.00000E+00
 
    0.13778E+07         0.11543E+07         0.00000E+00
    0.11543E+07         0.17386E+08         0.00000E+00
    0.00000E+00         0.00000E+00         0.00000E+00
 
    0.12865E+07         0.12286E+07         0.00000E+00
    0.12286E+07         0.17422E+08         0.00000E+00
    0.00000E+00         0.00000E+00         0.00000E+00
 
    0.11951E+07         0.13048E+07         0.00000E+00
    0.13048E+07         0.17459E+08         0.00000E+00
    0.00000E+00         0.00000E+00         0.00000E+00
 
    0.11038E+07         0.13830E+07         0.00000E+00
    0.13830E+07         0.17496E+08         0.00000E+00
    0.00000E+00         0.00000E+00         0.00000E+00
 
    0.10127E+07         0.14632E+07         0.00000E+00
    0.14632E+07         0.17534E+08         0.00000E+00
    0.00000E+00         0.00000E+00         0.00000E+00
 
    0.92173E+06         0.15455E+07         0.00000E+00
    0.15455E+07         0.17573E+08         0.00000E+00
    0.00000E+00         0.00000E+00         0.00000E+00
 
    0.83106E+06         0.16298E+07         0.00000E+00
    0.16298E+07         0.17612E+08         0.00000E+00
    0.00000E+00         0.00000E+00         0.00000E+00
 
    0.74075E+06         0.17161E+07         0.00000E+00
    0.17161E+07         0.17652E+08         0.00000E+00
    0.00000E+00         0.00000E+00         0.00000E+00
 
    0.65089E+06         0.18044E+07         0.00000E+00
    0.18044E+07         0.17692E+08         0.00000E+00
    0.00000E+00         0.00000E+00         0.00000E+00
 
    0.56155E+06         0.18947E+07         0.00000E+00
    0.18947E+07         0.17732E+08         0.00000E+00
    0.00000E+00         0.00000E+00         0.00000E+00
 
    0.47283E+06         0.19870E+07         0.00000E+00
    0.19870E+07         0.17773E+08         0.00000E+00
    0.00000E+00         0.00000E+00         0.00000E+00
 
    0.38482E+06         0.20814E+07         0.00000E+00
    0.20814E+07         0.17814E+08         0.00000E+00
    0.00000E+00         0.00000E+00         0.00000E+00
 
    0.29762E+06         0.21776E+07         0.00000E+00
    0.21776E+07         0.17855E+08         0.00000E+00
    0.00000E+00         0.00000E+00         0.00000E+00
 
    0.21132E+06         0.22758E+07         0.00000E+00
    0.22758E+07         0.17897E+08         0.00000E+00
    0.00000E+00         0.00000E+00         0.00000E+00
 
    0.12602E+06         0.23759E+07         0.00000E+00
    0.23759E+07         0.17938E+08         0.00000E+00
    0.00000E+00         0.00000E+00         0.00000E+00
 
    0.41816E+05         0.24778E+07         0.00000E+00
    0.24778E+07         0.17980E+08         0.00000E+00
    0.00000E+00         0.00000E+00         0.00000E+00
 
    0.34579E+07        -0.41032E+04         0.00000E+00
   -0.41032E+04         0.16102E+08         0.00000E+00
    0.00000E+00         0.00000E+00         0.00000E+00
 
    0.34306E+07        -0.55082E+04         0.00000E+00
   -0.55082E+04         0.16105E+08         0.00000E+00
    0.00000E+00         0.00000E+00         0.00000E+00
 
    0.33991E+07        -0.43596E+04         0.00000E+00
   -0.43596E+04         0.16109E+08         0.00000E+00
    0.00000E+00         0.00000E+00         0.00000E+00
 
    0.33635E+07        -0.61480E+03         0.00000E+00
   -0.61480E+03         0.16116E+08         0.00000E+00
    0.00000E+00         0.00000E+00         0.00000E+00
 
    0.33241E+07         0.57583E+04         0.00000E+00
    0.57583E+04         0.16124E+08         0.00000E+00
    0.00000E+00         0.00000E+00         0.00000E+00
 
    0.32811E+07         0.14781E+05         0.00000E+00
    0.14781E+05         0.16134E+08         0.00000E+00
    0.00000E+00         0.00000E+00         0.00000E+00
 
    0.32347E+07         0.26465E+05         0.00000E+00
    0.26465E+05         0.16145E+08         0.00000E+00
    0.00000E+00         0.00000E+00         0.00000E+00
 
    0.31852E+07         0.40812E+05         0.00000E+00
    0.40812E+05         0.16159E+08         0.00000E+00
    0.00000E+00         0.00000E+00         0.00000E+00
 
    0.31329E+07         0.57818E+05         0.00000E+00
    0.57818E+05         0.16173E+08         0.00000E+00
    0.00000E+00         0.00000E+00         0.00000E+00
 
    0.30778E+07         0.77470E+05         0.00000E+00
    0.77470E+05         0.16189E+08         0.00000E+00
    0.00000E+00         0.00000E+00         0.00000E+00
 
    0.30201E+07         0.99747E+05         0.00000E+00
    0.99747E+05         0.16206E+08         0.00000E+00
    0.00000E+00         0.00000E+00         0.00000E+00
 
    0.29602E+07         0.12463E+06         0.00000E+00
    0.12463E+06         0.16225E+08         0.00000E+00
    0.00000E+00         0.00000E+00         0.00000E+00
 
    0.28981E+07         0.15207E+06         0.00000E+00
    0.15207E+06         0.16244E+08         0.00000E+00
    0.00000E+00         0.00000E+00         0.00000E+00
 
    0.28340E+07         0.18206E+06         0.00000E+00
    0.18206E+06         0.16265E+08         0.00000E+00
    0.00000E+00         0.00000E+00         0.00000E+00
 
    0.27681E+07         0.21454E+06         0.00000E+00
    0.21454E+06         0.16286E+08         0.00000E+00
    0.00000E+00         0.00000E+00         0.00000E+00
 
    0.27005E+07         0.24948E+06         0.00000E+00
    0.24948E+06         0.16308E+08         0.00000E+00
    0.00000E+00         0.00000E+00         0.00000E+00
 
    0.26313E+07         0.28684E+06         0.00000E+00
    0.28684E+06         0.16332E+08         0.00000E+00
    0.00000E+00         0.00000E+00         0.00000E+00
 
    0.25607E+07         0.32657E+06         0.00000E+00
    0.32657E+06         0.16356E+08         0.00000E+00
    0.00000E+00         0.00000E+00         0.00000E+00
 
    0.24888E+07         0.36864E+06         0.00000E+00
    0.36864E+06         0.16380E+08         0.00000E+00
    0.00000E+00         0.00000E+00         0.00000E+00
 
    0.24158E+07         0.41300E+06         0.00000E+00
    0.41300E+06         0.16406E+08         0.00000E+00
    0.00000E+00         0.00000E+00         0.00000E+00
 
    0.23416E+07         0.45960E+06         0.00000E+00
    0.45960E+06         0.16432E+08         0.00000E+00
    0.00000E+00         0.00000E+00         0.00000E+00
 
    0.22664E+07         0.50842E+06         0.00000E+00
    0.50842E+06         0.16459E+08         0.00000E+00
    0.00000E+00         0.00000E+00         0.00000E+00
 
    0.21904E+07         0.55941E+06         0.00000E+00
    0.55941E+06         0.16486E+08         0.00000E+00
    0.00000E+00         0.00000E+00         0.00000E+00
 
    0.21135E+07         0.61253E+06         0.00000E+00
    0.61253E+06         0.16514E+08         0.00000E+00
    0.00000E+00         0.00000E+00         0.00000E+00
 
    0.20359E+07         0.66776E+06         0.00000E+00
    0.66776E+06         0.16543E+08         0.00000E+00
    0.00000E+00         0.00000E+00         0.00000E+00
 
    0.19576E+07         0.72506E+06         0.00000E+00
    0.72506E+06         0.16572E+08         0.00000E+00
    0.00000E+00         0.00000E+00         0.00000E+00
 
    0.18786E+07         0.78441E+06         0.00000E+00
    0.78441E+06         0.16602E+08         0.00000E+00
    0.00000E+00         0.00000E+00         0.00000E+00
 
    0.17992E+07         0.84577E+06         0.00000E+00
    0.84577E+06         0.16633E+08         0.00000E+00
    0.00000E+00         0.00000E+00         0.00000E+00
 
    0.17193E+07         0.90913E+06         0.00000E+00
    0.90913E+06         0.16664E+08         0.00000E+00
    0.00000E+00         0.00000E+00         0.00000E+00
 
    0.16390E+07         0.97447E+06         0.00000E+00
    0.97447E+06         0.16695E+08         0.00000E+00
    0.00000E+00         0.00000E+00         0.00000E+00
 
    0.15583E+07         0.10418E+07         0.00000E+00
    0.10418E+07         0.16728E+08         0.00000E+00
    0.00000E+00         0.00000E+00         0.00000E+00
 
    0.14773E+07         0.11110E+07         0.00000E+00
    0.11110E+07         0.16760E+08         0.00000E+00
    0.00000E+00         0.00000E+00         0.00000E+00
 
    0.13961E+07         0.11822E+07         0.00000E+00
    0.11822E+07         0.16793E+08         0.00000E+00
    0.00000E+00         0.00000E+00         0.00000E+00
 
    0.13147E+07         0.12553E+07         0.00000E+00
    0.12553E+07         0.16827E+08         0.00000E+00
    0.00000E+00         0.00000E+00         0.00000E+00
 
    0.12332E+07         0.13303E+07         0.00000E+00
    0.13303E+07         0.16861E+08         0.00000E+00
    0.00000E+00         0.00000E+00         0.00000E+00
 
    0.11516E+07         0.14072E+07         0.00000E+00
    0.14072E+07         0.16896E+08         0.00000E+00
    0.00000E+00         0.00000E+00         0.00000E+00
 
    0.10700E+07         0.14860E+07         0.00000E+00
    0.14860E+07         0.16930E+08         0.00000E+00
    0.00000E+00         0.00000E+00         0.00000E+00
 
    0.98846E+06         0.15666E+07         0.00000E+00
    0.15666E+07         0.16966E+08         0.00000E+00
    0.00000E+00         0.00000E+00         0.00000E+00
 
    0.90705E+06         0.16492E+07         0.00000E+00
    0.16492E+07         0.17002E+08         0.00000E+00
    0.00000E+00         0.00000E+00         0.00000E+00
 
    0.82581E+06         0.17336E+07         0.00000E+00
    0.17336E+07         0.17038E+08         0.00000E+00
    0.00000E+00         0.00000E+00         0.00000E+00
 
    0.74482E+06         0.18198E+07         0.00000E+00
    0.18198E+07         0.17074E+08         0.00000E+00
    0.00000E+00         0.00000E+00         0.00000E+00
 
    0.66414E+06         0.19079E+07         0.00000E+00
    0.19079E+07         0.17111E+08         0.00000E+00
    0.00000E+00         0.00000E+00         0.00000E+00
 
    0.58383E+06         0.19978E+07         0.00000E+00
    0.19978E+07         0.17148E+08         0.00000E+00
    0.00000E+00         0.00000E+00         0.00000E+00
 
    0.50396E+06         0.20894E+07         0.00000E+00
    0.20894E+07         0.17185E+08         0.00000E+00
    0.00000E+00         0.00000E+00         0.00000E+00
 
    0.42460E+06         0.21829E+07         0.00000E+00
    0.21829E+07         0.17222E+08         0.00000E+00
    0.00000E+00         0.00000E+00         0.00000E+00
 
    0.34582E+06         0.22781E+07         0.00000E+00
    0.22781E+07         0.17259E+08         0.00000E+00
    0.00000E+00         0.00000E+00         0.00000E+00
 
    0.26767E+06         0.23749E+07         0.00000E+00
    0.23749E+07         0.17297E+08         0.00000E+00
    0.00000E+00         0.00000E+00         0.00000E+00
 
    0.19023E+06         0.24735E+07         0.00000E+00
    0.24735E+07         0.17335E+08         0.00000E+00
    0.00000E+00         0.00000E+00         0.00000E+00
 
    0.11356E+06         0.25737E+07         0.00000E+00
    0.25737E+07         0.17372E+08         0.00000E+00
    0.00000E+00         0.00000E+00         0.00000E+00
 
    0.37710E+05         0.26755E+07         0.00000E+00
    0.26755E+07         0.17410E+08         0.00000E+00
    0.00000E+00         0.00000E+00         0.00000E+00
 
    0.29544E+07         0.18979E+04         0.00000E+00
    0.18979E+04         0.15585E+08         0.00000E+00
    0.00000E+00         0.00000E+00         0.00000E+00
 
    0.29383E+07         0.10939E+05         0.00000E+00
    0.10939E+05         0.15587E+08         0.00000E+00
    0.00000E+00         0.00000E+00         0.00000E+00
 
    0.29182E+07         0.21978E+05         0.00000E+00
    0.21978E+05         0.15591E+08         0.00000E+00
    0.00000E+00         0.00000E+00         0.00000E+00
 
    0.28943E+07         0.35072E+05         0.00000E+00
    0.35072E+05         0.15597E+08         0.00000E+00
    0.00000E+00         0.00000E+00         0.00000E+00
 
    0.28668E+07         0.50266E+05         0.00000E+00
    0.50266E+05         0.15605E+08         0.00000E+00
    0.00000E+00         0.00000E+00         0.00000E+00
 
    0.28358E+07         0.67598E+05         0.00000E+00
    0.67598E+05         0.15614E+08         0.00000E+00
    0.00000E+00         0.00000E+00         0.00000E+00
 
    0.28016E+07         0.87099E+05         0.00000E+00
    0.87099E+05         0.15625E+08         0.00000E+00
    0.00000E+00         0.00000E+00         0.00000E+00
 
    0.27643E+07         0.10879E+06         0.00000E+00
    0.10879E+06         0.15638E+08         0.00000E+00
    0.00000E+00         0.00000E+00         0.00000E+00
 
    0.27241E+07         0.13269E+06         0.00000E+00
    0.13269E+06         0.15652E+08         0.00000E+00
    0.00000E+00         0.00000E+00         0.00000E+00
 
    0.26811E+07         0.15882E+06         0.00000E+00
    0.15882E+06         0.15667E+08         0.00000E+00
    0.00000E+00         0.00000E+00         0.00000E+00
 
    0.26356E+07         0.18717E+06         0.00000E+00
    0.18717E+06         0.15683E+08         0.00000E+00
    0.00000E+00         0.00000E+00         0.00000E+00
 
    0.25878E+07         0.21774E+06         0.00000E+00
    0.21774E+06         0.15701E+08         0.00000E+00
    0.00000E+00         0.00000E+00         0.00000E+00
 
    0.25376E+07         0.25053E+06         0.00000E+00
    0.25053E+06         0.15720E+08         0.00000E+00
    0.00000E+00         0.00000E+00         0.00000E+00
 
    0.24854E+07         0.28553E+06         0.00000E+00
    0.28553E+06         0.15739E+08         0.00000E+00
    0.00000E+00         0.00000E+00         0.00000E+00
 
    0.24312E+07         0.32274E+06         0.00000E+00
    0.32274E+06         0.15760E+08         0.00000E+00
    0.00000E+00         0.00000E+00         0.00000E+00
 
    0.23752E+07         0.36212E+06         0.00000E+00
    0.36212E+06         0.15782E+08         0.00000E+00
    0.00000E+00         0.00000E+00         0.00000E+00
 
    0.23174E+07         0.40368E+06         0.00000E+00
    0.40368E+06         0.15804E+08         0.00000E+00
    0.00000E+00         0.00000E+00         0.00000E+00
 
    0.22581E+07         0.44737E+06         0.00000E+00
    0.44737E+06         0.15828E+08         0.00000E+00
    0.00000E+00         0.00000E+00         0.00000E+00
 
    0.21974E+07         0.49320E+06         0.00000E+00
    0.49320E+06         0.15852E+08         0.00000E+00
    0.00000E+00         0.00000E+00         0.00000E+00
 
    0.21353E+07         0.54113E+06         0.00000E+00
    0.54113E+06         0.15876E+08         0.00000E+00
    0.00000E+00         0.00000E+00         0.00000E+00
 
    0.20719E+07         0.59113E+06         0.00000E+00
    0.59113E+06         0.15902E+08         0.00000E+00
    0.00000E+00         0.00000E+00         0.00000E+00
 
    0.20074E+07         0.64320E+06         0.00000E+00
    0.64320E+06         0.15928E+08         0.00000E+00
    0.00000E+00         0.00000E+00         0.00000E+00
 
    0.19419E+07         0.69729E+06         0.00000E+00
    0.69729E+06         0.15955E+08         0.00000E+00
    0.00000E+00         0.00000E+00         0.00000E+00
 
    0.18754E+07         0.75340E+06         0.00000E+00
    0.75340E+06         0.15982E+08         0.00000E+00
    0.00000E+00         0.00000E+00         0.00000E+00
 
    0.18080E+07         0.81150E+06         0.00000E+00
    0.81150E+06         0.16010E+08         0.00000E+00
    0.00000E+00         0.00000E+00         0.00000E+00
 
    0.17398E+07         0.87156E+06         0.00000E+00
    0.87156E+06         0.16039E+08         0.00000E+00
    0.00000E+00         0.00000E+00         0.00000E+00
 
    0.16709E+07         0.93357E+06         0.00000E+00
    0.93357E+06         0.16068E+08         0.00000E+00
    0.00000E+00         0.00000E+00         0.00000E+00
 
    0.16013E+07         0.99750E+06         0.00000E+00
    0.99750E+06         0.16097E+08         0.00000E+00
    0.00000E+00         0.00000E+00         0.00000E+00
 
    0.15312E+07         0.10633E+07         0.00000E+00
    0.10633E+07         0.16127E+08         0.00000E+00
    0.00000E+00         0.00000E+00         0.00000E+00
 
    0.14605E+07         0.11311E+07         0.00000E+00
    0.11311E+07         0.16158E+08         0.00000E+00
    0.00000E+00         0.00000E+00         0.00000E+00
 
    0.13895E+07         0.12007E+07         0.00000E+00
    0.12007E+07         0.16188E+08         0.00000E+00
    0.00000E+00         0.00000E+00         0.00000E+00
 
    0.13180E+07         0.12721E+07         0.00000E+00
    0.12721E+07         0.16219E+08         0.00000E+00
    0.00000E+00         0.00000E+00         0.00000E+00
 
    0.12462E+07         0.13454E+07         0.00000E+00
    0.13454E+07         0.16251E+08         0.00000E+00
    0.00000E+00         0.00000E+00         0.00000E+00
 
    0.11742E+07         0.14205E+07         0.00000E+00
    0.14205E+07         0.16283E+08         0.00000E+00
    0.00000E+00         0.00000E+00         0.00000E+00
 
    0.11020E+07         0.14974E+07         0.00000E+00
    0.14974E+07         0.16315E+08         0.00000E+00
    0.00000E+00         0.00000E+00         0.00000E+00
 
    0.10296E+07         0.15761E+07         0.00000E+00
    0.15761E+07         0.16348E+08         0.00000E+00
    0.00000E+00         0.00000E+00         0.00000E+00
 
    0.95720E+06         0.16565E+07         0.00000E+00
    0.16565E+07         0.16381E+08         0.00000E+00
    0.00000E+00         0.00000E+00         0.00000E+00
 
    0.88475E+06         0.17387E+07         0.00000E+00
    0.17387E+07         0.16414E+08         0.00000E+00
    0.00000E+00         0.00000E+00         0.00000E+00
 
    0.81235E+06         0.18227E+07         0.00000E+00
    0.18227E+07         0.16447E+08         0.00000E+00
    0.00000E+00         0.00000E+00         0.00000E+00
 
    0.74005E+06         0.19083E+07         0.00000E+00
    0.19083E+07         0.16480E+08         0.00000E+00
    0.00000E+00         0.00000E+00         0.00000E+00
 
    0.66790E+06         0.19957E+07         0.00000E+00
    0.19957E+07         0.16514E+08         0.00000E+00
    0.00000E+00         0.00000E+00         0.00000E+00
 
    0.59596E+06         0.20847E+07         0.00000E+00
    0.20847E+07         0.16548E+08         0.00000E+00
    0.00000E+00         0.00000E+00         0.00000E+00
 
    0.52428E+06         0.21754E+07         0.00000E+00
    0.21754E+07         0.16582E+08         0.00000E+00
    0.00000E+00         0.00000E+00         0.00000E+00
 
    0.45292E+06         0.22678E+07         0.00000E+00
    0.22678E+07         0.16616E+08         0.00000E+00
    0.00000E+00         0.00000E+00         0.00000E+00
 
    0.38192E+06         0.23617E+07         0.00000E+00
    0.23617E+07         0.16650E+08         0.00000E+00
    0.00000E+00         0.00000E+00         0.00000E+00
 
    0.31134E+06         0.24572E+07         0.00000E+00
    0.24572E+07         0.16684E+08         0.00000E+00
    0.00000E+00         0.00000E+00         0.00000E+00
 
    0.24122E+06         0.25542E+07         0.00000E+00
    0.25542E+07         0.16718E+08         0.00000E+00
    0.00000E+00         0.00000E+00         0.00000E+00
 
    0.17161E+06         0.26527E+07         0.00000E+00
    0.26527E+07         0.16753E+08         0.00000E+00
    0.00000E+00         0.00000E+00         0.00000E+00
 
    0.10255E+06         0.27528E+07         0.00000E+00
    0.27528E+07         0.16787E+08         0.00000E+00
    0.00000E+00         0.00000E+00         0.00000E+00
 
    0.34082E+05         0.28542E+07         0.00000E+00
    0.28542E+07         0.16821E+08         0.00000E+00
    0.00000E+00         0.00000E+00         0.00000E+00
 
    0.25048E+07         0.73115E+04         0.00000E+00
    0.73115E+04         0.15070E+08         0.00000E+00
    0.00000E+00         0.00000E+00         0.00000E+00
 
    0.24975E+07         0.25944E+05         0.00000E+00
    0.25944E+05         0.15072E+08         0.00000E+00
    0.00000E+00         0.00000E+00         0.00000E+00
 
    0.24864E+07         0.46131E+05         0.00000E+00
    0.46131E+05         0.15076E+08         0.00000E+00
    0.00000E+00         0.00000E+00         0.00000E+00
 
    0.24718E+07         0.67933E+05         0.00000E+00
    0.67933E+05         0.15081E+08         0.00000E+00
    0.00000E+00         0.00000E+00         0.00000E+00
 
    0.24538E+07         0.91407E+05         0.00000E+00
    0.91407E+05         0.15088E+08         0.00000E+00
    0.00000E+00         0.00000E+00         0.00000E+00
 
    0.24325E+07         0.11660E+06         0.00000E+00
    0.11660E+06         0.15097E+08         0.00000E+00
    0.00000E+00         0.00000E+00         0.00000E+00
 
    0.24082E+07         0.14355E+06         0.00000E+00
    0.14355E+06         0.15107E+08         0.00000E+00
    0.00000E+00         0.00000E+00         0.00000E+00
 
    0.23809E+07         0.17230E+06         0.00000E+00
    0.17230E+06         0.15119E+08         0.00000E+00
    0.00000E+00         0.00000E+00         0.00000E+00
 
    0.23509E+07         0.20288E+06         0.00000E+00
    0.20288E+06         0.15132E+08         0.00000E+00
    0.00000E+00         0.00000E+00         0.00000E+00
 
    0.23182E+07         0.23530E+06         0.00000E+00
    0.23530E+06         0.15146E+08         0.00000E+00
    0.00000E+00         0.00000E+00         0.00000E+00
 
    0.22830E+07         0.26960E+06         0.00000E+00
    0.26960E+06         0.15161E+08         0.00000E+00
    0.00000E+00         0.00000E+00         0.00000E+00
 
    0.22454E+07         0.30579E+06         0.00000E+00
    0.30579E+06         0.15178E+08         0.00000E+00
    0.00000E+00         0.00000E+00         0.00000E+00
 
    0.22056E+07         0.34388E+06         0.00000E+00
    0.34388E+06         0.15195E+08         0.00000E+00
    0.00000E+00         0.00000E+00         0.00000E+00
 
    0.21637E+07         0.38387E+06         0.00000E+00
    0.38387E+06         0.15214E+08         0.00000E+00
    0.00000E+00         0.00000E+00         0.00000E+00
 
    0.21198E+07         0.42578E+06         0.00000E+00
    0.42578E+06         0.15233E+08         0.00000E+00
    0.00000E+00         0.00000E+00         0.00000E+00
 
    0.20741E+07         0.46959E+06         0.00000E+00
    0.46959E+06         0.15254E+08         0.00000E+00
    0.00000E+00         0.00000E+00         0.00000E+00
 
    0.20266E+07         0.51532E+06         0.00000E+00
    0.51532E+06         0.15275E+08         0.00000E+00
    0.00000E+00         0.00000E+00         0.00000E+00
 
    0.19774E+07         0.56295E+06         0.00000E+00
    0.56295E+06         0.15297E+08         0.00000E+00
    0.00000E+00         0.00000E+00         0.00000E+00
 
    0.19267E+07         0.61249E+06         0.00000E+00
    0.61249E+06         0.15320E+08         0.00000E+00
    0.00000E+00         0.00000E+00         0.00000E+00
 
    0.18747E+07         0.66391E+06         0.00000E+00
    0.66391E+06         0.15343E+08         0.00000E+00
    0.00000E+00         0.00000E+00         0.00000E+00
 
    0.18212E+07         0.71722E+06         0.00000E+00
    0.71722E+06         0.15368E+08         0.00000E+00
    0.00000E+00         0.00000E+00         0.00000E+00
 
    0.17666E+07         0.77240E+06         0.00000E+00
    0.77240E+06         0.15392E+08         0.00000E+00
    0.00000E+00         0.00000E+00         0.00000E+00
 
    0.17108E+07         0.82944E+06         0.00000E+00
    0.82944E+06         0.15418E+08         0.00000E+00
    0.00000E+00         0.00000E+00         0.00000E+00
 
    0.16539E+07         0.88832E+06         0.00000E+00
    0.88832E+06         0.15444E+08         0.00000E+00
    0.00000E+00         0.00000E+00         0.00000E+00
 
    0.15961E+07         0.94904E+06         0.00000E+00
    0.94904E+06         0.15470E+08         0.00000E+00
    0.00000E+00         0.00000E+00         0.00000E+00
 
    0.15374E+07         0.10116E+07         0.00000E+00
    0.10116E+07         0.15497E+08         0.00000E+00
    0.00000E+00         0.00000E+00         0.00000E+00
 
    0.14779E+07         0.10759E+07         0.00000E+00
    0.10759E+07         0.15525E+08         0.00000E+00
    0.00000E+00         0.00000E+00         0.00000E+00
 
    0.14177E+07         0.11421E+07         0.00000E+00
    0.11421E+07         0.15553E+08         0.00000E+00
    0.00000E+00         0.00000E+00         0.00000E+00
 
    0.13567E+07         0.12100E+07         0.00000E+00
    0.12100E+07         0.15581E+08         0.00000E+00
    0.00000E+00         0.00000E+00         0.00000E+00
 
    0.12952E+07         0.12796E+07         0.00000E+00
    0.12796E+07         0.15609E+08         0.00000E+00
    0.00000E+00         0.00000E+00         0.00000E+00
 
    0.12332E+07         0.13510E+07         0.00000E+00
    0.13510E+07         0.15638E+08         0.00000E+00
    0.00000E+00         0.00000E+00         0.00000E+00
 
    0.11707E+07         0.14242E+07         0.00000E+00
    0.14242E+07         0.15668E+08         0.00000E+00
    0.00000E+00         0.00000E+00         0.00000E+00
 
    0.11078E+07         0.14990E+07         0.00000E+00
    0.14990E+07         0.15697E+08         0.00000E+00
    0.00000E+00         0.00000E+00         0.00000E+00
 
    0.10446E+07         0.15756E+07         0.00000E+00
    0.15756E+07         0.15727E+08         0.00000E+00
    0.00000E+00         0.00000E+00         0.00000E+00
 
    0.98113E+06         0.16538E+07         0.00000E+00
    0.16538E+07         0.15757E+08         0.00000E+00
    0.00000E+00         0.00000E+00         0.00000E+00
 
    0.91741E+06         0.17337E+07         0.00000E+00
    0.17337E+07         0.15787E+08         0.00000E+00
    0.00000E+00         0.00000E+00         0.00000E+00
 
    0.85354E+06         0.18153E+07         0.00000E+00
    0.18153E+07         0.15818E+08         0.00000E+00
    0.00000E+00         0.00000E+00         0.00000E+00
 
    0.78955E+06         0.18985E+07         0.00000E+00
    0.18985E+07         0.15849E+08         0.00000E+00
    0.00000E+00         0.00000E+00         0.00000E+00
 
    0.72551E+06         0.19833E+07         0.00000E+00
    0.19833E+07         0.15879E+08         0.00000E+00
    0.00000E+00         0.00000E+00         0.00000E+00
 
    0.66147E+06         0.20696E+07         0.00000E+00
    0.20696E+07         0.15910E+08         0.00000E+00
    0.00000E+00         0.00000E+00         0.00000E+00
 
    0.59747E+06         0.21576E+07         0.00000E+00
    0.21576E+07         0.15941E+08         0.00000E+00
    0.00000E+00         0.00000E+00         0.00000E+00
 
    0.53357E+06         0.22471E+07         0.00000E+00
    0.22471E+07         0.15972E+08         0.00000E+00
    0.00000E+00         0.00000E+00         0.00000E+00
 
    0.46980E+06         0.23381E+07         0.00000E+00
    0.23381E+07         0.16003E+08         0.00000E+00
    0.00000E+00         0.00000E+00         0.00000E+00
 
    0.40622E+06         0.24307E+07         0.00000E+00
    0.24307E+07         0.16034E+08         0.00000E+00
    0.00000E+00         0.00000E+00         0.00000E+00
 
    0.34286E+06         0.25247E+07         0.00000E+00
    0.25247E+07         0.16066E+08         0.00000E+00
    0.00000E+00         0.00000E+00         0.00000E+00
 
    0.27977E+06         0.26201E+07         0.00000E+00
    0.26201E+07         0.16097E+08         0.00000E+00
    0.00000E+00         0.00000E+00         0.00000E+00
 
    0.21698E+06         0.27170E+07         0.00000E+00
    0.27170E+07         0.16128E+08         0.00000E+00
    0.00000E+00         0.00000E+00         0.00000E+00
 
    0.15453E+06         0.28153E+07         0.00000E+00
    0.28153E+07         0.16159E+08         0.00000E+00
    0.00000E+00         0.00000E+00         0.00000E+00
 
    0.92439E+05         0.29149E+07         0.00000E+00
    0.29149E+07         0.16189E+08         0.00000E+00
    0.00000E+00         0.00000E+00         0.00000E+00
 
    0.30745E+05         0.30159E+07         0.00000E+00
    0.30159E+07         0.16220E+08         0.00000E+00
    0.00000E+00         0.00000E+00         0.00000E+00
 
    0.21051E+07         0.12140E+05         0.00000E+00
    0.12140E+05         0.14558E+08         0.00000E+00
    0.00000E+00         0.00000E+00         0.00000E+00
 
    0.21045E+07         0.39449E+05         0.00000E+00
    0.39449E+05         0.14560E+08         0.00000E+00
    0.00000E+00         0.00000E+00         0.00000E+00
 
    0.21004E+07         0.67956E+05         0.00000E+00
    0.67956E+05         0.14564E+08         0.00000E+00
    0.00000E+00         0.00000E+00         0.00000E+00
 
    0.20931E+07         0.97727E+05         0.00000E+00
    0.97727E+05         0.14568E+08         0.00000E+00
    0.00000E+00         0.00000E+00         0.00000E+00
 
    0.20827E+07         0.12882E+06         0.00000E+00
    0.12882E+06         0.14575E+08         0.00000E+00
    0.00000E+00         0.00000E+00         0.00000E+00
 
    0.20693E+07         0.16128E+06         0.00000E+00
    0.16128E+06         0.14583E+08         0.00000E+00
    0.00000E+00         0.00000E+00         0.00000E+00
 
    0.20530E+07         0.19517E+06         0.00000E+00
    0.19517E+06         0.14592E+08         0.00000E+00
    0.00000E+00         0.00000E+00         0.00000E+00
 
    0.20340E+07         0.23052E+06         0.00000E+00
    0.23052E+06         0.14603E+08         0.00000E+00
    0.00000E+00         0.00000E+00         0.00000E+00
 
    0.20124E+07         0.26737E+06         0.00000E+00
    0.26737E+06         0.14614E+08         0.00000E+00
    0.00000E+00         0.00000E+00         0.00000E+00
 
    0.19882E+07         0.30576E+06         0.00000E+00
    0.30576E+06         0.14627E+08         0.00000E+00
    0.00000E+00         0.00000E+00         0.00000E+00
 
    0.19617E+07         0.34572E+06         0.00000E+00
    0.34572E+06         0.14641E+08         0.00000E+00
    0.00000E+00         0.00000E+00         0.00000E+00
 
    0.19329E+07         0.38726E+06         0.00000E+00
    0.38726E+06         0.14656E+08         0.00000E+00
    0.00000E+00         0.00000E+00         0.00000E+00
 
    0.19020E+07         0.43042E+06         0.00000E+00
    0.43042E+06         0.14673E+08         0.00000E+00
    0.00000E+00         0.00000E+00         0.00000E+00
 
    0.18690E+07         0.47520E+06         0.00000E+00
    0.47520E+06         0.14690E+08         0.00000E+00
    0.00000E+00         0.00000E+00         0.00000E+00
 
    0.18340E+07         0.52163E+06         0.00000E+00
    0.52163E+06         0.14708E+08         0.00000E+00
    0.00000E+00         0.00000E+00         0.00000E+00
 
    0.17972E+07         0.56972E+06         0.00000E+00
    0.56972E+06         0.14727E+08         0.00000E+00
    0.00000E+00         0.00000E+00         0.00000E+00
 
    0.17587E+07         0.61947E+06         0.00000E+00
    0.61947E+06         0.14746E+08         0.00000E+00
    0.00000E+00         0.00000E+00         0.00000E+00
 
    0.17186E+07         0.67090E+06         0.00000E+00
    0.67090E+06         0.14767E+08         0.00000E+00
    0.00000E+00         0.00000E+00         0.00000E+00
 
    0.16769E+07         0.72400E+06         0.00000E+00
    0.72400E+06         0.14788E+08         0.00000E+00
    0.00000E+00         0.00000E+00         0.00000E+00
 
    0.16338E+07         0.77877E+06         0.00000E+00
    0.77877E+06         0.14810E+08         0.00000E+00
    0.00000E+00         0.00000E+00         0.00000E+00
 
    0.15893E+07         0.83523E+06         0.00000E+00
    0.83523E+06         0.14832E+08         0.00000E+00
    0.00000E+00         0.00000E+00         0.00000E+00
 
    0.15435E+07         0.89335E+06         0.00000E+00
    0.89335E+06         0.14856E+08         0.00000E+00
    0.00000E+00         0.00000E+00         0.00000E+00
 
    0.14966E+07         0.95316E+06         0.00000E+00
    0.95316E+06         0.14879E+08         0.00000E+00
    0.00000E+00         0.00000E+00         0.00000E+00
 
    0.14486E+07         0.10146E+07         0.00000E+00
    0.10146E+07         0.14903E+08         0.00000E+00
    0.00000E+00         0.00000E+00         0.00000E+00
 
    0.13996E+07         0.10778E+07         0.00000E+00
    0.10778E+07         0.14928E+08         0.00000E+00
    0.00000E+00         0.00000E+00         0.00000E+00
 
    0.13496E+07         0.11425E+07         0.00000E+00
    0.11425E+07         0.14953E+08         0.00000E+00
    0.00000E+00         0.00000E+00         0.00000E+00
 
    0.12987E+07         0.12090E+07         0.00000E+00
    0.12090E+07         0.14978E+08         0.00000E+00
    0.00000E+00         0.00000E+00         0.00000E+00
 
    0.12471E+07         0.12770E+07         0.00000E+00
    0.12770E+07         0.15004E+08         0.00000E+00
    0.00000E+00         0.00000E+00         0.00000E+00
 
    0.11947E+07         0.13467E+07         0.00000E+00
    0.13467E+07         0.15031E+08         0.00000E+00
    0.00000E+00         0.00000E+00         0.00000E+00
 
    0.11417E+07         0.14181E+07         0.00000E+00
    0.14181E+07         0.15057E+08         0.00000E+00
    0.00000E+00         0.00000E+00         0.00000E+00
 
    0.10881E+07         0.14910E+07         0.00000E+00
    0.14910E+07         0.15084E+08         0.00000E+00
    0.00000E+00         0.00000E+00         0.00000E+00
 
    0.10339E+07         0.15655E+07         0.00000E+00
    0.15655E+07         0.15111E+08         0.00000E+00
    0.00000E+00         0.00000E+00         0.00000E+00
 
    0.97927E+06         0.16416E+07         0.00000E+00
    0.16416E+07         0.15138E+08         0.00000E+00
    0.00000E+00         0.00000E+00         0.00000E+00
 
    0.92423E+06         0.17193E+07         0.00000E+00
    0.17193E+07         0.15166E+08         0.00000E+00
    0.00000E+00         0.00000E+00         0.00000E+00
 
    0.86884E+06         0.17985E+07         0.00000E+00
    0.17985E+07         0.15194E+08         0.00000E+00
    0.00000E+00         0.00000E+00         0.00000E+00
 
    0.81314E+06         0.18793E+07         0.00000E+00
    0.18793E+07         0.15221E+08         0.00000E+00
    0.00000E+00         0.00000E+00         0.00000E+00
 
    0.75720E+06         0.19615E+07         0.00000E+00
    0.19615E+07         0.15249E+08         0.00000E+00
    0.00000E+00         0.00000E+00         0.00000E+00
 
    0.70106E+06         0.20453E+07         0.00000E+00
    0.20453E+07         0.15278E+08         0.00000E+00
    0.00000E+00         0.00000E+00         0.00000E+00
 
    0.64477E+06         0.21306E+07         0.00000E+00
    0.21306E+07         0.15306E+08         0.00000E+00
    0.00000E+00         0.00000E+00         0.00000E+00
 
    0.58838E+06         0.22174E+07         0.00000E+00
    0.22174E+07         0.15334E+08         0.00000E+00
    0.00000E+00         0.00000E+00         0.00000E+00
 
    0.53193E+06         0.23056E+07         0.00000E+00
    0.23056E+07         0.15362E+08         0.00000E+00
    0.00000E+00         0.00000E+00         0.00000E+00
 
    0.47547E+06         0.23953E+07         0.00000E+00
    0.23953E+07         0.15390E+08         0.00000E+00
    0.00000E+00         0.00000E+00         0.00000E+00
 
    0.41904E+06         0.24863E+07         0.00000E+00
    0.24863E+07         0.15419E+08         0.00000E+00
    0.00000E+00         0.00000E+00         0.00000E+00
 
    0.36266E+06         0.25788E+07         0.00000E+00
    0.25788E+07         0.15447E+08         0.00000E+00
    0.00000E+00         0.00000E+00         0.00000E+00
 
    0.30639E+06         0.26726E+07         0.00000E+00
    0.26726E+07         0.15475E+08         0.00000E+00
    0.00000E+00         0.00000E+00         0.00000E+00
 
    0.25025E+06         0.27678E+07         0.00000E+00
    0.27678E+07         0.15503E+08         0.00000E+00
    0.00000E+00         0.00000E+00         0.00000E+00
 
    0.19428E+06         0.28643E+07         0.00000E+00
    0.28643E+07         0.15531E+08         0.00000E+00
    0.00000E+00         0.00000E+00         0.00000E+00
 
    0.13849E+06         0.29622E+07         0.00000E+00
    0.29622E+07         0.15559E+08         0.00000E+00
    0.00000E+00         0.00000E+00         0.00000E+00
 
    0.82927E+05         0.30613E+07         0.00000E+00
    0.30613E+07         0.15587E+08         0.00000E+00
    0.00000E+00         0.00000E+00         0.00000E+00
 
    0.27601E+05         0.31616E+07         0.00000E+00
    0.31616E+07         0.15615E+08         0.00000E+00
    0.00000E+00         0.00000E+00         0.00000E+00
 
    0.17509E+07         0.16400E+05         0.00000E+00
    0.16400E+05         0.14050E+08         0.00000E+00
    0.00000E+00         0.00000E+00         0.00000E+00
 
    0.17553E+07         0.51460E+05         0.00000E+00
    0.51460E+05         0.14052E+08         0.00000E+00
    0.00000E+00         0.00000E+00         0.00000E+00
 
    0.17567E+07         0.87435E+05         0.00000E+00
    0.87435E+05         0.14055E+08         0.00000E+00
    0.00000E+00         0.00000E+00         0.00000E+00
 
    0.17552E+07         0.12439E+06         0.00000E+00
    0.12439E+06         0.14059E+08         0.00000E+00
    0.00000E+00         0.00000E+00         0.00000E+00
 
    0.17508E+07         0.16238E+06         0.00000E+00
    0.16238E+06         0.14065E+08         0.00000E+00
    0.00000E+00         0.00000E+00         0.00000E+00
 
    0.17437E+07         0.20146E+06         0.00000E+00
    0.20146E+06         0.14072E+08         0.00000E+00
    0.00000E+00         0.00000E+00         0.00000E+00
 
    0.17339E+07         0.24168E+06         0.00000E+00
    0.24168E+06         0.14080E+08         0.00000E+00
    0.00000E+00         0.00000E+00         0.00000E+00
 
    0.17217E+07         0.28309E+06         0.00000E+00
    0.28309E+06         0.14090E+08         0.00000E+00
    0.00000E+00         0.00000E+00         0.00000E+00
 
    0.17070E+07         0.32573E+06         0.00000E+00
    0.32573E+06         0.14101E+08         0.00000E+00
    0.00000E+00         0.00000E+00         0.00000E+00
 
    0.16899E+07         0.36963E+06         0.00000E+00
    0.36963E+06         0.14112E+08         0.00000E+00
    0.00000E+00         0.00000E+00         0.00000E+00
 
    0.16707E+07         0.41484E+06         0.00000E+00
    0.41484E+06         0.14125E+08         0.00000E+00
    0.00000E+00         0.00000E+00         0.00000E+00
 
    0.16493E+07         0.46138E+06         0.00000E+00
    0.46138E+06         0.14139E+08         0.00000E+00
    0.00000E+00         0.00000E+00         0.00000E+00
 
    0.16258E+07         0.50927E+06         0.00000E+00
    0.50927E+06         0.14153E+08         0.00000E+00
    0.00000E+00         0.00000E+00         0.00000E+00
 
    0.16004E+07         0.55855E+06         0.00000E+00
    0.55855E+06         0.14169E+08         0.00000E+00
    0.00000E+00         0.00000E+00         0.00000E+00
 
    0.15732E+07         0.60923E+06         0.00000E+00
    0.60923E+06         0.14185E+08         0.00000E+00
    0.00000E+00         0.00000E+00         0.00000E+00
 
    0.15442E+07         0.66134E+06         0.00000E+00
    0.66134E+06         0.14203E+08         0.00000E+00
    0.00000E+00         0.00000E+00         0.00000E+00
 
    0.15135E+07         0.71488E+06         0.00000E+00
    0.71488E+06         0.14221E+08         0.00000E+00
    0.00000E+00         0.00000E+00         0.00000E+00
 
    0.14812E+07         0.76988E+06         0.00000E+00
    0.76988E+06         0.14239E+08         0.00000E+00
    0.00000E+00         0.00000E+00         0.00000E+00
 
    0.14475E+07         0.82634E+06         0.00000E+00
    0.82634E+06         0.14259E+08         0.00000E+00
    0.00000E+00         0.00000E+00         0.00000E+00
 
    0.14123E+07         0.88426E+06         0.00000E+00
    0.88426E+06         0.14279E+08         0.00000E+00
    0.00000E+00         0.00000E+00         0.00000E+00
 
    0.13757E+07         0.94367E+06         0.00000E+00
    0.94367E+06         0.14299E+08         0.00000E+00
    0.00000E+00         0.00000E+00         0.00000E+00
 
    0.13379E+07         0.10046E+07         0.00000E+00
    0.10046E+07         0.14320E+08         0.00000E+00
    0.00000E+00         0.00000E+00         0.00000E+00
 
    0.12990E+07         0.10669E+07         0.00000E+00
    0.10669E+07         0.14342E+08         0.00000E+00
    0.00000E+00         0.00000E+00         0.00000E+00
 
    0.12589E+07         0.11308E+07         0.00000E+00
    0.11308E+07         0.14364E+08         0.00000E+00
    0.00000E+00         0.00000E+00         0.00000E+00
 
    0.12178E+07         0.11962E+07         0.00000E+00
    0.11962E+07         0.14387E+08         0.00000E+00
    0.00000E+00         0.00000E+00         0.00000E+00
 
    0.11757E+07         0.12630E+07         0.00000E+00
    0.12630E+07         0.14410E+08         0.00000E+00
    0.00000E+00         0.00000E+00         0.00000E+00
 
    0.11327E+07         0.13313E+07         0.00000E+00
    0.13313E+07         0.14433E+08         0.00000E+00
    0.00000E+00         0.00000E+00         0.00000E+00
 
    0.10889E+07         0.14011E+07         0.00000E+00
    0.14011E+07         0.14457E+08         0.00000E+00
    0.00000E+00         0.00000E+00         0.00000E+00
 
    0.10443E+07         0.14724E+07         0.00000E+00
    0.14724E+07         0.14481E+08         0.00000E+00
    0.00000E+00         0.00000E+00         0.00000E+00
 
    0.99902E+06         0.15452E+07         0.00000E+00
    0.15452E+07         0.14505E+08         0.00000E+00
    0.00000E+00         0.00000E+00         0.00000E+00
 
    0.95309E+06         0.16194E+07         0.00000E+00
    0.16194E+07         0.14529E+08         0.00000E+00
    0.00000E+00         0.00000E+00         0.00000E+00
 
    0.90659E+06         0.16950E+07         0.00000E+00
    0.16950E+07         0.14554E+08         0.00000E+00
    0.00000E+00         0.00000E+00         0.00000E+00
 
    0.85955E+06         0.17722E+07         0.00000E+00
    0.17722E+07         0.14579E+08         0.00000E+00
    0.00000E+00         0.00000E+00         0.00000E+00
 
    0.81204E+06         0.18507E+07         0.00000E+00
    0.18507E+07         0.14604E+08         0.00000E+00
    0.00000E+00         0.00000E+00         0.00000E+00
 
    0.76412E+06         0.19307E+07         0.00000E+00
    0.19307E+07         0.14629E+08         0.00000E+00
    0.00000E+00         0.00000E+00         0.00000E+00
 
    0.71582E+06         0.20121E+07         0.00000E+00
    0.20121E+07         0.14655E+08         0.00000E+00
    0.00000E+00         0.00000E+00         0.00000E+00
 
    0.66721E+06         0.20949E+07         0.00000E+00
    0.20949E+07         0.14680E+08         0.00000E+00
    0.00000E+00         0.00000E+00         0.00000E+00
 
    0.61832E+06         0.21791E+07         0.00000E+00
    0.21791E+07         0.14706E+08         0.00000E+00
    0.00000E+00         0.00000E+00         0.00000E+00
 
    0.56920E+06         0.22646E+07         0.00000E+00
    0.22646E+07         0.14731E+08         0.00000E+00
    0.00000E+00         0.00000E+00         0.00000E+00
 
    0.51990E+06         0.23515E+07         0.00000E+00
    0.23515E+07         0.14757E+08         0.00000E+00
    0.00000E+00         0.00000E+00         0.00000E+00
 
    0.47045E+06         0.24398E+07         0.00000E+00
    0.24398E+07         0.14782E+08         0.00000E+00
    0.00000E+00         0.00000E+00         0.00000E+00
 
    0.42090E+06         0.25294E+07         0.00000E+00
    0.25294E+07         0.14808E+08         0.00000E+00
    0.00000E+00         0.00000E+00         0.00000E+00
 
    0.37128E+06         0.26203E+07         0.00000E+00
    0.26203E+07         0.14834E+08         0.00000E+00
    0.00000E+00         0.00000E+00         0.00000E+00
 
    0.32162E+06         0.27126E+07         0.00000E+00
    0.27126E+07         0.14859E+08         0.00000E+00
    0.00000E+00         0.00000E+00         0.00000E+00
 
    0.27196E+06         0.28061E+07         0.00000E+00
    0.28061E+07         0.14884E+08         0.00000E+00
    0.00000E+00         0.00000E+00         0.00000E+00
 
    0.22233E+06         0.29009E+07         0.00000E+00
    0.29009E+07         0.14910E+08         0.00000E+00
    0.00000E+00         0.00000E+00         0.00000E+00
 
    0.17276E+06         0.29969E+07         0.00000E+00
    0.29969E+07         0.14935E+08         0.00000E+00
    0.00000E+00         0.00000E+00         0.00000E+00
 
    0.12326E+06         0.30941E+07         0.00000E+00
    0.30941E+07         0.14960E+08         0.00000E+00
    0.00000E+00         0.00000E+00         0.00000E+00
 
    0.73871E+05         0.31926E+07         0.00000E+00
    0.31926E+07         0.14985E+08         0.00000E+00
    0.00000E+00         0.00000E+00         0.00000E+00
 
    0.24602E+05         0.32922E+07         0.00000E+00
    0.32922E+07         0.15009E+08         0.00000E+00
    0.00000E+00         0.00000E+00         0.00000E+00
 
    0.14380E+07         0.20126E+05         0.00000E+00
    0.20126E+05         0.13547E+08         0.00000E+00
    0.00000E+00         0.00000E+00         0.00000E+00
 
    0.14462E+07         0.62034E+05         0.00000E+00
    0.62034E+05         0.13548E+08         0.00000E+00
    0.00000E+00         0.00000E+00         0.00000E+00
 
    0.14517E+07         0.10463E+06         0.00000E+00
    0.10463E+06         0.13551E+08         0.00000E+00
    0.00000E+00         0.00000E+00         0.00000E+00
 
    0.14546E+07         0.14798E+06         0.00000E+00
    0.14798E+06         0.13554E+08         0.00000E+00
    0.00000E+00         0.00000E+00         0.00000E+00
 
    0.14550E+07         0.19214E+06         0.00000E+00
    0.19214E+06         0.13560E+08         0.00000E+00
    0.00000E+00         0.00000E+00         0.00000E+00
 
    0.14529E+07         0.23716E+06         0.00000E+00
    0.23716E+06         0.13566E+08         0.00000E+00
    0.00000E+00         0.00000E+00         0.00000E+00
 
    0.14484E+07         0.28309E+06         0.00000E+00
    0.28309E+06         0.13573E+08         0.00000E+00
    0.00000E+00         0.00000E+00         0.00000E+00
 
    0.14416E+07         0.32998E+06         0.00000E+00
    0.32998E+06         0.13582E+08         0.00000E+00
    0.00000E+00         0.00000E+00         0.00000E+00
 
    0.14326E+07         0.37786E+06         0.00000E+00
    0.37786E+06         0.13591E+08         0.00000E+00
    0.00000E+00         0.00000E+00         0.00000E+00
 
    0.14215E+07         0.42679E+06         0.00000E+00
    0.42679E+06         0.13601E+08         0.00000E+00
    0.00000E+00         0.00000E+00         0.00000E+00
 
    0.14082E+07         0.47679E+06         0.00000E+00
    0.47679E+06         0.13613E+08         0.00000E+00
    0.00000E+00         0.00000E+00         0.00000E+00
 
    0.13930E+07         0.52789E+06         0.00000E+00
    0.52789E+06         0.13625E+08         0.00000E+00
    0.00000E+00         0.00000E+00         0.00000E+00
 
    0.13759E+07         0.58014E+06         0.00000E+00
    0.58014E+06         0.13638E+08         0.00000E+00
    0.00000E+00         0.00000E+00         0.00000E+00
 
    0.13570E+07         0.63355E+06         0.00000E+00
    0.63355E+06         0.13652E+08         0.00000E+00
    0.00000E+00         0.00000E+00         0.00000E+00
 
    0.13363E+07         0.68816E+06         0.00000E+00
    0.68816E+06         0.13667E+08         0.00000E+00
    0.00000E+00         0.00000E+00         0.00000E+00
 
    0.13140E+07         0.74398E+06         0.00000E+00
    0.74398E+06         0.13683E+08         0.00000E+00
    0.00000E+00         0.00000E+00         0.00000E+00
 
    0.12901E+07         0.80103E+06         0.00000E+00
    0.80103E+06         0.13699E+08         0.00000E+00
    0.00000E+00         0.00000E+00         0.00000E+00
 
    0.12647E+07         0.85933E+06         0.00000E+00
    0.85933E+06         0.13716E+08         0.00000E+00
    0.00000E+00         0.00000E+00         0.00000E+00
 
    0.12378E+07         0.91890E+06         0.00000E+00
    0.91890E+06         0.13733E+08         0.00000E+00
    0.00000E+00         0.00000E+00         0.00000E+00
 
    0.12095E+07         0.97975E+06         0.00000E+00
    0.97975E+06         0.13751E+08         0.00000E+00
    0.00000E+00         0.00000E+00         0.00000E+00
 
    0.11800E+07         0.10419E+07         0.00000E+00
    0.10419E+07         0.13770E+08         0.00000E+00
    0.00000E+00         0.00000E+00         0.00000E+00
 
    0.11492E+07         0.11053E+07         0.00000E+00
    0.11053E+07         0.13789E+08         0.00000E+00
    0.00000E+00         0.00000E+00         0.00000E+00
 
    0.11173E+07         0.11701E+07         0.00000E+00
    0.11701E+07         0.13808E+08         0.00000E+00
    0.00000E+00         0.00000E+00         0.00000E+00
 
    0.10843E+07         0.12362E+07         0.00000E+00
    0.12362E+07         0.13828E+08         0.00000E+00
    0.00000E+00         0.00000E+00         0.00000E+00
 
    0.10502E+07         0.13036E+07         0.00000E+00
    0.13036E+07         0.13849E+08         0.00000E+00
    0.00000E+00         0.00000E+00         0.00000E+00
 
    0.10152E+07         0.13723E+07         0.00000E+00
    0.13723E+07         0.13869E+08         0.00000E+00
    0.00000E+00         0.00000E+00         0.00000E+00
 
    0.97931E+06         0.14423E+07         0.00000E+00
    0.14423E+07         0.13891E+08         0.00000E+00
    0.00000E+00         0.00000E+00         0.00000E+00
 
    0.94255E+06         0.15137E+07         0.00000E+00
    0.15137E+07         0.13912E+08         0.00000E+00
    0.00000E+00         0.00000E+00         0.00000E+00
 
    0.90502E+06         0.15864E+07         0.00000E+00
    0.15864E+07         0.13934E+08         0.00000E+00
    0.00000E+00         0.00000E+00         0.00000E+00
 
    0.86676E+06         0.16604E+07         0.00000E+00
    0.16604E+07         0.13956E+08         0.00000E+00
    0.00000E+00         0.00000E+00         0.00000E+00
 
    0.82783E+06         0.17357E+07         0.00000E+00
    0.17357E+07         0.13978E+08         0.00000E+00
    0.00000E+00         0.00000E+00         0.00000E+00
 
    0.78828E+06         0.18124E+07         0.00000E+00
    0.18124E+07         0.14000E+08         0.00000E+00
    0.00000E+00         0.00000E+00         0.00000E+00
 
    0.74817E+06         0.18903E+07         0.00000E+00
    0.18903E+07         0.14023E+08         0.00000E+00
    0.00000E+00         0.00000E+00         0.00000E+00
 
    0.70755E+06         0.19696E+07         0.00000E+00
    0.19696E+07         0.14045E+08         0.00000E+00
    0.00000E+00         0.00000E+00         0.00000E+00
 
    0.66646E+06         0.20502E+07         0.00000E+00
    0.20502E+07         0.14068E+08         0.00000E+00
    0.00000E+00         0.00000E+00         0.00000E+00
 
    0.62495E+06         0.21320E+07         0.00000E+00
    0.21320E+07         0.14091E+08         0.00000E+00
    0.00000E+00         0.00000E+00         0.00000E+00
 
    0.58307E+06         0.22152E+07         0.00000E+00
    0.22152E+07         0.14114E+08         0.00000E+00
    0.00000E+00         0.00000E+00         0.00000E+00
 
    0.54086E+06         0.22996E+07         0.00000E+00
    0.22996E+07         0.14137E+08         0.00000E+00
    0.00000E+00         0.00000E+00         0.00000E+00
 
    0.49836E+06         0.23853E+07         0.00000E+00
    0.23853E+07         0.14160E+08         0.00000E+00
    0.00000E+00         0.00000E+00         0.00000E+00
 
    0.45561E+06         0.24723E+07         0.00000E+00
    0.24723E+07         0.14183E+08         0.00000E+00
    0.00000E+00         0.00000E+00         0.00000E+00
 
    0.41264E+06         0.25605E+07         0.00000E+00
    0.25605E+07         0.14206E+08         0.00000E+00
    0.00000E+00         0.00000E+00         0.00000E+00
 
    0.36951E+06         0.26499E+07         0.00000E+00
    0.26499E+07         0.14229E+08         0.00000E+00
    0.00000E+00         0.00000E+00         0.00000E+00
 
    0.32623E+06         0.27406E+07         0.00000E+00
    0.27406E+07         0.14252E+08         0.00000E+00
    0.00000E+00         0.00000E+00         0.00000E+00
 
    0.28284E+06         0.28324E+07         0.00000E+00
    0.28324E+07         0.14274E+08         0.00000E+00
    0.00000E+00         0.00000E+00         0.00000E+00
 
    0.23937E+06         0.29255E+07         0.00000E+00
    0.29255E+07         0.14297E+08         0.00000E+00
    0.00000E+00         0.00000E+00         0.00000E+00
 
    0.19585E+06         0.30197E+07         0.00000E+00
    0.30197E+07         0.14319E+08         0.00000E+00
    0.00000E+00         0.00000E+00         0.00000E+00
 
    0.15230E+06         0.31152E+07         0.00000E+00
    0.31152E+07         0.14342E+08         0.00000E+00
    0.00000E+00         0.00000E+00         0.00000E+00
 
    0.10875E+06         0.32118E+07         0.00000E+00
    0.32118E+07         0.14364E+08         0.00000E+00
    0.00000E+00         0.00000E+00         0.00000E+00
 
    0.65223E+05         0.33095E+07         0.00000E+00
    0.33095E+07         0.14386E+08         0.00000E+00
    0.00000E+00         0.00000E+00         0.00000E+00
 
    0.21733E+05         0.34084E+07         0.00000E+00
    0.34084E+07         0.14408E+08         0.00000E+00
    0.00000E+00         0.00000E+00         0.00000E+00
 
    0.11621E+07         0.23356E+05         0.00000E+00
    0.23356E+05         0.13047E+08         0.00000E+00
    0.00000E+00         0.00000E+00         0.00000E+00
 
    0.11732E+07         0.71261E+05         0.00000E+00
    0.71261E+05         0.13048E+08         0.00000E+00
    0.00000E+00         0.00000E+00         0.00000E+00
 
    0.11819E+07         0.11968E+06         0.00000E+00
    0.11968E+06         0.13051E+08         0.00000E+00
    0.00000E+00         0.00000E+00         0.00000E+00
 
    0.11882E+07         0.16867E+06         0.00000E+00
    0.16867E+06         0.13054E+08         0.00000E+00
    0.00000E+00         0.00000E+00         0.00000E+00
 
    0.11923E+07         0.21828E+06         0.00000E+00
    0.21828E+06         0.13059E+08         0.00000E+00
    0.00000E+00         0.00000E+00         0.00000E+00
 
    0.11942E+07         0.26857E+06         0.00000E+00
    0.26857E+06         0.13064E+08         0.00000E+00
    0.00000E+00         0.00000E+00         0.00000E+00
 
    0.11939E+07         0.31958E+06         0.00000E+00
    0.31958E+06         0.13071E+08         0.00000E+00
    0.00000E+00         0.00000E+00         0.00000E+00
 
    0.11915E+07         0.37135E+06         0.00000E+00
    0.37135E+06         0.13078E+08         0.00000E+00
    0.00000E+00         0.00000E+00         0.00000E+00
 
    0.11871E+07         0.42394E+06         0.00000E+00
    0.42394E+06         0.13086E+08         0.00000E+00
    0.00000E+00         0.00000E+00         0.00000E+00
 
    0.11808E+07         0.47737E+06         0.00000E+00
    0.47737E+06         0.13096E+08         0.00000E+00
    0.00000E+00         0.00000E+00         0.00000E+00
 
    0.11726E+07         0.53169E+06         0.00000E+00
    0.53169E+06         0.13106E+08         0.00000E+00
    0.00000E+00         0.00000E+00         0.00000E+00
 
    0.11626E+07         0.58692E+06         0.00000E+00
    0.58692E+06         0.13117E+08         0.00000E+00
    0.00000E+00         0.00000E+00         0.00000E+00
 
    0.11508E+07         0.64311E+06         0.00000E+00
    0.64311E+06         0.13128E+08         0.00000E+00
    0.00000E+00         0.00000E+00         0.00000E+00
 
    0.11373E+07         0.70027E+06         0.00000E+00
    0.70027E+06         0.13141E+08         0.00000E+00
    0.00000E+00         0.00000E+00         0.00000E+00
 
    0.11222E+07         0.75844E+06         0.00000E+00
    0.75844E+06         0.13154E+08         0.00000E+00
    0.00000E+00         0.00000E+00         0.00000E+00
 
    0.11056E+07         0.81764E+06         0.00000E+00
    0.81764E+06         0.13168E+08         0.00000E+00
    0.00000E+00         0.00000E+00         0.00000E+00
 
    0.10875E+07         0.87789E+06         0.00000E+00
    0.87789E+06         0.13182E+08         0.00000E+00
    0.00000E+00         0.00000E+00         0.00000E+00
 
    0.10679E+07         0.93921E+06         0.00000E+00
    0.93921E+06         0.13197E+08         0.00000E+00
    0.00000E+00         0.00000E+00         0.00000E+00
 
    0.10470E+07         0.10016E+07         0.00000E+00
    0.10016E+07         0.13213E+08         0.00000E+00
    0.00000E+00         0.00000E+00         0.00000E+00
 
    0.10248E+07         0.10651E+07         0.00000E+00
    0.10651E+07         0.13229E+08         0.00000E+00
    0.00000E+00         0.00000E+00         0.00000E+00
 
    0.10014E+07         0.11298E+07         0.00000E+00
    0.11298E+07         0.13245E+08         0.00000E+00
    0.00000E+00         0.00000E+00         0.00000E+00
 
    0.97677E+06         0.11956E+07         0.00000E+00
    0.11956E+07         0.13262E+08         0.00000E+00
    0.00000E+00         0.00000E+00         0.00000E+00
 
    0.95104E+06         0.12625E+07         0.00000E+00
    0.12625E+07         0.13280E+08         0.00000E+00
    0.00000E+00         0.00000E+00         0.00000E+00
 
    0.92426E+06         0.13306E+07         0.00000E+00
    0.13306E+07         0.13298E+08         0.00000E+00
    0.00000E+00         0.00000E+00         0.00000E+00
 
    0.89649E+06         0.13998E+07         0.00000E+00
    0.13998E+07         0.13316E+08         0.00000E+00
    0.00000E+00         0.00000E+00         0.00000E+00
 
    0.86777E+06         0.14702E+07         0.00000E+00
    0.14702E+07         0.13335E+08         0.00000E+00
    0.00000E+00         0.00000E+00         0.00000E+00
 
    0.83816E+06         0.15418E+07         0.00000E+00
    0.15418E+07         0.13354E+08         0.00000E+00
    0.00000E+00         0.00000E+00         0.00000E+00
 
    0.80772E+06         0.16146E+07         0.00000E+00
    0.16146E+07         0.13373E+08         0.00000E+00
    0.00000E+00         0.00000E+00         0.00000E+00
 
    0.77650E+06         0.16885E+07         0.00000E+00
    0.16885E+07         0.13392E+08         0.00000E+00
    0.00000E+00         0.00000E+00         0.00000E+00
 
    0.74456E+06         0.17637E+07         0.00000E+00
    0.17637E+07         0.13412E+08         0.00000E+00
    0.00000E+00         0.00000E+00         0.00000E+00
 
    0.71193E+06         0.18400E+07         0.00000E+00
    0.18400E+07         0.13432E+08         0.00000E+00
    0.00000E+00         0.00000E+00         0.00000E+00
 
    0.67868E+06         0.19175E+07         0.00000E+00
    0.19175E+07         0.13452E+08         0.00000E+00
    0.00000E+00         0.00000E+00         0.00000E+00
 
    0.64485E+06         0.19962E+07         0.00000E+00
    0.19962E+07         0.13472E+08         0.00000E+00
    0.00000E+00         0.00000E+00         0.00000E+00
 
    0.61047E+06         0.20761E+07         0.00000E+00
    0.20761E+07         0.13492E+08         0.00000E+00
    0.00000E+00         0.00000E+00         0.00000E+00
 
    0.57561E+06         0.21571E+07         0.00000E+00
    0.21571E+07         0.13512E+08         0.00000E+00
    0.00000E+00         0.00000E+00         0.00000E+00
 
    0.54029E+06         0.22394E+07         0.00000E+00
    0.22394E+07         0.13533E+08         0.00000E+00
    0.00000E+00         0.00000E+00         0.00000E+00
 
    0.50457E+06         0.23228E+07         0.00000E+00
    0.23228E+07         0.13553E+08         0.00000E+00
    0.00000E+00         0.00000E+00         0.00000E+00
 
    0.46848E+06         0.24073E+07         0.00000E+00
    0.24073E+07         0.13574E+08         0.00000E+00
    0.00000E+00         0.00000E+00         0.00000E+00
 
    0.43206E+06         0.24930E+07         0.00000E+00
    0.24930E+07         0.13594E+08         0.00000E+00
    0.00000E+00         0.00000E+00         0.00000E+00
 
    0.39535E+06         0.25799E+07         0.00000E+00
    0.25799E+07         0.13615E+08         0.00000E+00
    0.00000E+00         0.00000E+00         0.00000E+00
 
    0.35838E+06         0.26680E+07         0.00000E+00
    0.26680E+07         0.13635E+08         0.00000E+00
    0.00000E+00         0.00000E+00         0.00000E+00
 
    0.32118E+06         0.27571E+07         0.00000E+00
    0.27571E+07         0.13655E+08         0.00000E+00
    0.00000E+00         0.00000E+00         0.00000E+00
 
    0.28379E+06         0.28474E+07         0.00000E+00
    0.28474E+07         0.13676E+08         0.00000E+00
    0.00000E+00         0.00000E+00         0.00000E+00
 
    0.24624E+06         0.29389E+07         0.00000E+00
    0.29389E+07         0.13696E+08         0.00000E+00
    0.00000E+00         0.00000E+00         0.00000E+00
 
    0.20855E+06         0.30314E+07         0.00000E+00
    0.30314E+07         0.13716E+08         0.00000E+00
    0.00000E+00         0.00000E+00         0.00000E+00
 
    0.17076E+06         0.31251E+07         0.00000E+00
    0.31251E+07         0.13736E+08         0.00000E+00
    0.00000E+00         0.00000E+00         0.00000E+00
 
    0.13289E+06         0.32198E+07         0.00000E+00
    0.32198E+07         0.13756E+08         0.00000E+00
    0.00000E+00         0.00000E+00         0.00000E+00
 
    0.94954E+05         0.33157E+07         0.00000E+00
    0.33157E+07         0.13775E+08         0.00000E+00
    0.00000E+00         0.00000E+00         0.00000E+00
 
    0.56984E+05         0.34126E+07         0.00000E+00
    0.34126E+07         0.13794E+08         0.00000E+00
    0.00000E+00         0.00000E+00         0.00000E+00
 
    0.18996E+05         0.35106E+07         0.00000E+00
    0.35106E+07         0.13814E+08         0.00000E+00
    0.00000E+00         0.00000E+00         0.00000E+00
 
    0.91954E+06         0.26139E+05         0.00000E+00
    0.26139E+05         0.12553E+08         0.00000E+00
    0.00000E+00         0.00000E+00         0.00000E+00
 
    0.93271E+06         0.79250E+05         0.00000E+00
    0.79250E+05         0.12554E+08         0.00000E+00
    0.00000E+00         0.00000E+00         0.00000E+00
 
    0.94376E+06         0.13274E+06         0.00000E+00
    0.13274E+06         0.12556E+08         0.00000E+00
    0.00000E+00         0.00000E+00         0.00000E+00
 
    0.95273E+06         0.18665E+06         0.00000E+00
    0.18665E+06         0.12559E+08         0.00000E+00
    0.00000E+00         0.00000E+00         0.00000E+00
 
    0.95969E+06         0.24105E+06         0.00000E+00
    0.24105E+06         0.12563E+08         0.00000E+00
    0.00000E+00         0.00000E+00         0.00000E+00
 
    0.96467E+06         0.29596E+06         0.00000E+00
    0.29596E+06         0.12567E+08         0.00000E+00
    0.00000E+00         0.00000E+00         0.00000E+00
 
    0.96773E+06         0.35145E+06         0.00000E+00
    0.35145E+06         0.12573E+08         0.00000E+00
    0.00000E+00         0.00000E+00         0.00000E+00
 
    0.96892E+06         0.40755E+06         0.00000E+00
    0.40755E+06         0.12580E+08         0.00000E+00
    0.00000E+00         0.00000E+00         0.00000E+00
 
    0.96829E+06         0.46429E+06         0.00000E+00
    0.46429E+06         0.12587E+08         0.00000E+00
    0.00000E+00         0.00000E+00         0.00000E+00
 
    0.96591E+06         0.52173E+06         0.00000E+00
    0.52173E+06         0.12595E+08         0.00000E+00
    0.00000E+00         0.00000E+00         0.00000E+00
 
    0.96182E+06         0.57989E+06         0.00000E+00
    0.57989E+06         0.12604E+08         0.00000E+00
    0.00000E+00         0.00000E+00         0.00000E+00
 
    0.95607E+06         0.63881E+06         0.00000E+00
    0.63881E+06         0.12614E+08         0.00000E+00
    0.00000E+00         0.00000E+00         0.00000E+00
 
    0.94873E+06         0.69851E+06         0.00000E+00
    0.69851E+06         0.12624E+08         0.00000E+00
    0.00000E+00         0.00000E+00         0.00000E+00
 
    0.93985E+06         0.75903E+06         0.00000E+00
    0.75903E+06         0.12635E+08         0.00000E+00
    0.00000E+00         0.00000E+00         0.00000E+00
 
    0.92948E+06         0.82040E+06         0.00000E+00
    0.82040E+06         0.12646E+08         0.00000E+00
    0.00000E+00         0.00000E+00         0.00000E+00
 
    0.91768E+06         0.88264E+06         0.00000E+00
    0.88264E+06         0.12659E+08         0.00000E+00
    0.00000E+00         0.00000E+00         0.00000E+00
 
    0.90451E+06         0.94577E+06         0.00000E+00
    0.94577E+06         0.12671E+08         0.00000E+00
    0.00000E+00         0.00000E+00         0.00000E+00
 
    0.89001E+06         0.10098E+07         0.00000E+00
    0.10098E+07         0.12685E+08         0.00000E+00
    0.00000E+00         0.00000E+00         0.00000E+00
 
    0.87425E+06         0.10748E+07         0.00000E+00
    0.10748E+07         0.12698E+08         0.00000E+00
    0.00000E+00         0.00000E+00         0.00000E+00
 
    0.85727E+06         0.11407E+07         0.00000E+00
    0.11407E+07         0.12713E+08         0.00000E+00
    0.00000E+00         0.00000E+00         0.00000E+00
 
    0.83913E+06         0.12076E+07         0.00000E+00
    0.12076E+07         0.12727E+08         0.00000E+00
    0.00000E+00         0.00000E+00         0.00000E+00
 
    0.81989E+06         0.12755E+07         0.00000E+00
    0.12755E+07         0.12743E+08         0.00000E+00
    0.00000E+00         0.00000E+00         0.00000E+00
 
    0.79959E+06         0.13444E+07         0.00000E+00
    0.13444E+07         0.12758E+08         0.00000E+00
    0.00000E+00         0.00000E+00         0.00000E+00
 
    0.77828E+06         0.14143E+07         0.00000E+00
    0.14143E+07         0.12774E+08         0.00000E+00
    0.00000E+00         0.00000E+00         0.00000E+00
 
    0.75602E+06         0.14852E+07         0.00000E+00
    0.14852E+07         0.12790E+08         0.00000E+00
    0.00000E+00         0.00000E+00         0.00000E+00
 
    0.73286E+06         0.15571E+07         0.00000E+00
    0.15571E+07         0.12807E+08         0.00000E+00
    0.00000E+00         0.00000E+00         0.00000E+00
 
    0.70884E+06         0.16301E+07         0.00000E+00
    0.16301E+07         0.12823E+08         0.00000E+00
    0.00000E+00         0.00000E+00         0.00000E+00
 
    0.68402E+06         0.17041E+07         0.00000E+00
    0.17041E+07         0.12840E+08         0.00000E+00
    0.00000E+00         0.00000E+00         0.00000E+00
 
    0.65843E+06         0.17792E+07         0.00000E+00
    0.17792E+07         0.12858E+08         0.00000E+00
    0.00000E+00         0.00000E+00         0.00000E+00
 
    0.63213E+06         0.18553E+07         0.00000E+00
    0.18553E+07         0.12875E+08         0.00000E+00
    0.00000E+00         0.00000E+00         0.00000E+00
 
    0.60515E+06         0.19325E+07         0.00000E+00
    0.19325E+07         0.12893E+08         0.00000E+00
    0.00000E+00         0.00000E+00         0.00000E+00
 
    0.57756E+06         0.20108E+07         0.00000E+00
    0.20108E+07         0.12910E+08         0.00000E+00
    0.00000E+00         0.00000E+00         0.00000E+00
 
    0.54938E+06         0.20901E+07         0.00000E+00
    0.20901E+07         0.12928E+08         0.00000E+00
    0.00000E+00         0.00000E+00         0.00000E+00
 
    0.52065E+06         0.21704E+07         0.00000E+00
    0.21704E+07         0.12946E+08         0.00000E+00
    0.00000E+00         0.00000E+00         0.00000E+00
 
    0.49143E+06         0.22519E+07         0.00000E+00
    0.22519E+07         0.12964E+08         0.00000E+00
    0.00000E+00         0.00000E+00         0.00000E+00
 
    0.46174E+06         0.23344E+07         0.00000E+00
    0.23344E+07         0.12982E+08         0.00000E+00
    0.00000E+00         0.00000E+00         0.00000E+00
 
    0.43162E+06         0.24179E+07         0.00000E+00
    0.24179E+07         0.13000E+08         0.00000E+00
    0.00000E+00         0.00000E+00         0.00000E+00
 
    0.40112E+06         0.25026E+07         0.00000E+00
    0.25026E+07         0.13018E+08         0.00000E+00
    0.00000E+00         0.00000E+00         0.00000E+00
 
    0.37027E+06         0.25882E+07         0.00000E+00
    0.25882E+07         0.13036E+08         0.00000E+00
    0.00000E+00         0.00000E+00         0.00000E+00
 
    0.33910E+06         0.26750E+07         0.00000E+00
    0.26750E+07         0.13054E+08         0.00000E+00
    0.00000E+00         0.00000E+00         0.00000E+00
 
    0.30764E+06         0.27628E+07         0.00000E+00
    0.27628E+07         0.13072E+08         0.00000E+00
    0.00000E+00         0.00000E+00         0.00000E+00
 
    0.27593E+06         0.28516E+07         0.00000E+00
    0.28516E+07         0.13090E+08         0.00000E+00
    0.00000E+00         0.00000E+00         0.00000E+00
 
    0.24399E+06         0.29415E+07         0.00000E+00
    0.29415E+07         0.13108E+08         0.00000E+00
    0.00000E+00         0.00000E+00         0.00000E+00
 
    0.21186E+06         0.30324E+07         0.00000E+00
    0.30324E+07         0.13126E+08         0.00000E+00
    0.00000E+00         0.00000E+00         0.00000E+00
 
    0.17956E+06         0.31244E+07         0.00000E+00
    0.31244E+07         0.13143E+08         0.00000E+00
    0.00000E+00         0.00000E+00         0.00000E+00
 
    0.14711E+06         0.32174E+07         0.00000E+00
    0.32174E+07         0.13161E+08         0.00000E+00
    0.00000E+00         0.00000E+00         0.00000E+00
 
    0.11455E+06         0.33114E+07         0.00000E+00
    0.33114E+07         0.13178E+08         0.00000E+00
    0.00000E+00         0.00000E+00         0.00000E+00
 
    0.81901E+05         0.34064E+07         0.00000E+00
    0.34064E+07         0.13195E+08         0.00000E+00
    0.00000E+00         0.00000E+00         0.00000E+00
 
    0.49176E+05         0.35025E+07         0.00000E+00
    0.35025E+07         0.13212E+08         0.00000E+00
    0.00000E+00         0.00000E+00         0.00000E+00
 
    0.16399E+05         0.35996E+07         0.00000E+00
    0.35996E+07         0.13228E+08         0.00000E+00
    0.00000E+00         0.00000E+00         0.00000E+00
 
    0.70678E+06         0.28520E+05         0.00000E+00
    0.28520E+05         0.12064E+08         0.00000E+00
    0.00000E+00         0.00000E+00         0.00000E+00
 
    0.72143E+06         0.86121E+05         0.00000E+00
    0.86121E+05         0.12064E+08         0.00000E+00
    0.00000E+00         0.00000E+00         0.00000E+00
 
    0.73422E+06         0.14399E+06         0.00000E+00
    0.14399E+06         0.12066E+08         0.00000E+00
    0.00000E+00         0.00000E+00         0.00000E+00
 
    0.74517E+06         0.20218E+06         0.00000E+00
    0.20218E+06         0.12069E+08         0.00000E+00
    0.00000E+00         0.00000E+00         0.00000E+00
 
    0.75433E+06         0.26073E+06         0.00000E+00
    0.26073E+06         0.12072E+08         0.00000E+00
    0.00000E+00         0.00000E+00         0.00000E+00
 
    0.76174E+06         0.31968E+06         0.00000E+00
    0.31968E+06         0.12076E+08         0.00000E+00
    0.00000E+00         0.00000E+00         0.00000E+00
 
    0.76744E+06         0.37907E+06         0.00000E+00
    0.37907E+06         0.12081E+08         0.00000E+00
    0.00000E+00         0.00000E+00         0.00000E+00
 
    0.77148E+06         0.43895E+06         0.00000E+00
    0.43895E+06         0.12087E+08         0.00000E+00
    0.00000E+00         0.00000E+00         0.00000E+00
 
    0.77389E+06         0.49935E+06         0.00000E+00
    0.49935E+06         0.12093E+08         0.00000E+00
    0.00000E+00         0.00000E+00         0.00000E+00
 
    0.77471E+06         0.56031E+06         0.00000E+00
    0.56031E+06         0.12101E+08         0.00000E+00
    0.00000E+00         0.00000E+00         0.00000E+00
 
    0.77400E+06         0.62185E+06         0.00000E+00
    0.62185E+06         0.12108E+08         0.00000E+00
    0.00000E+00         0.00000E+00         0.00000E+00
 
    0.77180E+06         0.68402E+06         0.00000E+00
    0.68402E+06         0.12117E+08         0.00000E+00
    0.00000E+00         0.00000E+00         0.00000E+00
 
    0.76816E+06         0.74684E+06         0.00000E+00
    0.74684E+06         0.12126E+08         0.00000E+00
    0.00000E+00         0.00000E+00         0.00000E+00
 
    0.76311E+06         0.81034E+06         0.00000E+00
    0.81034E+06         0.12135E+08         0.00000E+00
    0.00000E+00         0.00000E+00         0.00000E+00
 
    0.75670E+06         0.87454E+06         0.00000E+00
    0.87454E+06         0.12145E+08         0.00000E+00
    0.00000E+00         0.00000E+00         0.00000E+00
 
    0.74899E+06         0.93948E+06         0.00000E+00
    0.93948E+06         0.12156E+08         0.00000E+00
    0.00000E+00         0.00000E+00         0.00000E+00
 
    0.74002E+06         0.10052E+07         0.00000E+00
    0.10052E+07         0.12167E+08         0.00000E+00
    0.00000E+00         0.00000E+00         0.00000E+00
 
    0.72983E+06         0.10716E+07         0.00000E+00
    0.10716E+07         0.12179E+08         0.00000E+00
    0.00000E+00         0.00000E+00         0.00000E+00
 
    0.71847E+06         0.11389E+07         0.00000E+00
    0.11389E+07         0.12191E+08         0.00000E+00
    0.00000E+00         0.00000E+00         0.00000E+00
 
    0.70599E+06         0.12070E+07         0.00000E+00
    0.12070E+07         0.12204E+08         0.00000E+00
    0.00000E+00         0.00000E+00         0.00000E+00
 
    0.69243E+06         0.12759E+07         0.00000E+00
    0.12759E+07         0.12216E+08         0.00000E+00
    0.00000E+00         0.00000E+00         0.00000E+00
 
    0.67783E+06         0.13457E+07         0.00000E+00
    0.13457E+07         0.12230E+08         0.00000E+00
    0.00000E+00         0.00000E+00         0.00000E+00
 
    0.66225E+06         0.14163E+07         0.00000E+00
    0.14163E+07         0.12243E+08         0.00000E+00
    0.00000E+00         0.00000E+00         0.00000E+00
 
    0.64573E+06         0.14878E+07         0.00000E+00
    0.14878E+07         0.12257E+08         0.00000E+00
    0.00000E+00         0.00000E+00         0.00000E+00
 
    0.62830E+06         0.15602E+07         0.00000E+00
    0.15602E+07         0.12272E+08         0.00000E+00
    0.00000E+00         0.00000E+00         0.00000E+00
 
    0.61002E+06         0.16335E+07         0.00000E+00
    0.16335E+07         0.12286E+08         0.00000E+00
    0.00000E+00         0.00000E+00         0.00000E+00
 
    0.59093E+06         0.17077E+07         0.00000E+00
    0.17077E+07         0.12301E+08         0.00000E+00
    0.00000E+00         0.00000E+00         0.00000E+00
 
    0.57106E+06         0.17828E+07         0.00000E+00
    0.17828E+07         0.12316E+08         0.00000E+00
    0.00000E+00         0.00000E+00         0.00000E+00
 
    0.55047E+06         0.18589E+07         0.00000E+00
    0.18589E+07         0.12331E+08         0.00000E+00
    0.00000E+00         0.00000E+00         0.00000E+00
 
    0.52919E+06         0.19359E+07         0.00000E+00
    0.19359E+07         0.12346E+08         0.00000E+00
    0.00000E+00         0.00000E+00         0.00000E+00
 
    0.50726E+06         0.20138E+07         0.00000E+00
    0.20138E+07         0.12362E+08         0.00000E+00
    0.00000E+00         0.00000E+00         0.00000E+00
 
    0.48472E+06         0.20927E+07         0.00000E+00
    0.20927E+07         0.12377E+08         0.00000E+00
    0.00000E+00         0.00000E+00         0.00000E+00
 
    0.46160E+06         0.21725E+07         0.00000E+00
    0.21725E+07         0.12393E+08         0.00000E+00
    0.00000E+00         0.00000E+00         0.00000E+00
 
    0.43796E+06         0.22533E+07         0.00000E+00
    0.22533E+07         0.12409E+08         0.00000E+00
    0.00000E+00         0.00000E+00         0.00000E+00
 
    0.41382E+06         0.23350E+07         0.00000E+00
    0.23350E+07         0.12424E+08         0.00000E+00
    0.00000E+00         0.00000E+00         0.00000E+00
 
    0.38922E+06         0.24177E+07         0.00000E+00
    0.24177E+07         0.12440E+08         0.00000E+00
    0.00000E+00         0.00000E+00         0.00000E+00
 
    0.36419E+06         0.25013E+07         0.00000E+00
    0.25013E+07         0.12456E+08         0.00000E+00
    0.00000E+00         0.00000E+00         0.00000E+00
 
    0.33876E+06         0.25859E+07         0.00000E+00
    0.25859E+07         0.12472E+08         0.00000E+00
    0.00000E+00         0.00000E+00         0.00000E+00
 
    0.31298E+06         0.26715E+07         0.00000E+00
    0.26715E+07         0.12488E+08         0.00000E+00
    0.00000E+00         0.00000E+00         0.00000E+00
 
    0.28687E+06         0.27580E+07         0.00000E+00
    0.27580E+07         0.12503E+08         0.00000E+00
    0.00000E+00         0.00000E+00         0.00000E+00
 
    0.26046E+06         0.28455E+07         0.00000E+00
    0.28455E+07         0.12519E+08         0.00000E+00
    0.00000E+00         0.00000E+00         0.00000E+00
 
    0.23379E+06         0.29340E+07         0.00000E+00
    0.29340E+07         0.12535E+08         0.00000E+00
    0.00000E+00         0.00000E+00         0.00000E+00
 
    0.20687E+06         0.30234E+07         0.00000E+00
    0.30234E+07         0.12550E+08         0.00000E+00
    0.00000E+00         0.00000E+00         0.00000E+00
 
    0.17975E+06         0.31138E+07         0.00000E+00
    0.31138E+07         0.12565E+08         0.00000E+00
    0.00000E+00         0.00000E+00         0.00000E+00
 
    0.15244E+06         0.32051E+07         0.00000E+00
    0.32051E+07         0.12581E+08         0.00000E+00
    0.00000E+00         0.00000E+00         0.00000E+00
 
    0.12496E+06         0.32974E+07         0.00000E+00
    0.32974E+07         0.12596E+08         0.00000E+00
    0.00000E+00         0.00000E+00         0.00000E+00
 
    0.97358E+05         0.33906E+07         0.00000E+00
    0.33906E+07         0.12610E+08         0.00000E+00
    0.00000E+00         0.00000E+00         0.00000E+00
 
    0.69639E+05         0.34848E+07         0.00000E+00
    0.34848E+07         0.12625E+08         0.00000E+00
    0.00000E+00         0.00000E+00         0.00000E+00
 
    0.41831E+05         0.35799E+07         0.00000E+00
    0.35799E+07         0.12639E+08         0.00000E+00
    0.00000E+00         0.00000E+00         0.00000E+00
 
    0.13953E+05         0.36760E+07         0.00000E+00
    0.36760E+07         0.12654E+08         0.00000E+00
    0.00000E+00         0.00000E+00         0.00000E+00
 
    0.52067E+06         0.30547E+05         0.00000E+00
    0.30547E+05         0.11580E+08         0.00000E+00
    0.00000E+00         0.00000E+00         0.00000E+00
 
    0.53634E+06         0.91996E+05         0.00000E+00
    0.91996E+05         0.11581E+08         0.00000E+00
    0.00000E+00         0.00000E+00         0.00000E+00
 
    0.55037E+06         0.15363E+06         0.00000E+00
    0.15363E+06         0.11582E+08         0.00000E+00
    0.00000E+00         0.00000E+00         0.00000E+00
 
    0.56279E+06         0.21550E+06         0.00000E+00
    0.21550E+06         0.11585E+08         0.00000E+00
    0.00000E+00         0.00000E+00         0.00000E+00
 
    0.57363E+06         0.27763E+06         0.00000E+00
    0.27763E+06         0.11588E+08         0.00000E+00
    0.00000E+00         0.00000E+00         0.00000E+00
 
    0.58292E+06         0.34007E+06         0.00000E+00
    0.34007E+06         0.11591E+08         0.00000E+00
    0.00000E+00         0.00000E+00         0.00000E+00
 
    0.59069E+06         0.40285E+06         0.00000E+00
    0.40285E+06         0.11595E+08         0.00000E+00
    0.00000E+00         0.00000E+00         0.00000E+00
 
    0.59699E+06         0.46601E+06         0.00000E+00
    0.46601E+06         0.11600E+08         0.00000E+00
    0.00000E+00         0.00000E+00         0.00000E+00
 
    0.60183E+06         0.52959E+06         0.00000E+00
    0.52959E+06         0.11606E+08         0.00000E+00
    0.00000E+00         0.00000E+00         0.00000E+00
 
    0.60526E+06         0.59362E+06         0.00000E+00
    0.59362E+06         0.11612E+08         0.00000E+00
    0.00000E+00         0.00000E+00         0.00000E+00
 
    0.60731E+06         0.65812E+06         0.00000E+00
    0.65812E+06         0.11619E+08         0.00000E+00
    0.00000E+00         0.00000E+00         0.00000E+00
 
    0.60802E+06         0.72313E+06         0.00000E+00
    0.72313E+06         0.11626E+08         0.00000E+00
    0.00000E+00         0.00000E+00         0.00000E+00
 
    0.60743E+06         0.78867E+06         0.00000E+00
    0.78867E+06         0.11634E+08         0.00000E+00
    0.00000E+00         0.00000E+00         0.00000E+00
 
    0.60557E+06         0.85478E+06         0.00000E+00
    0.85478E+06         0.11642E+08         0.00000E+00
    0.00000E+00         0.00000E+00         0.00000E+00
 
    0.60249E+06         0.92148E+06         0.00000E+00
    0.92148E+06         0.11651E+08         0.00000E+00
    0.00000E+00         0.00000E+00         0.00000E+00
 
    0.59821E+06         0.98879E+06         0.00000E+00
    0.98879E+06         0.11660E+08         0.00000E+00
    0.00000E+00         0.00000E+00         0.00000E+00
 
    0.59279E+06         0.10567E+07         0.00000E+00
    0.10567E+07         0.11670E+08         0.00000E+00
    0.00000E+00         0.00000E+00         0.00000E+00
 
    0.58626E+06         0.11253E+07         0.00000E+00
    0.11253E+07         0.11680E+08         0.00000E+00
    0.00000E+00         0.00000E+00         0.00000E+00
 
    0.57866E+06         0.11946E+07         0.00000E+00
    0.11946E+07         0.11691E+08         0.00000E+00
    0.00000E+00         0.00000E+00         0.00000E+00
 
    0.57003E+06         0.12646E+07         0.00000E+00
    0.12646E+07         0.11702E+08         0.00000E+00
    0.00000E+00         0.00000E+00         0.00000E+00
 
    0.56040E+06         0.13353E+07         0.00000E+00
    0.13353E+07         0.11713E+08         0.00000E+00
    0.00000E+00         0.00000E+00         0.00000E+00
 
    0.54982E+06         0.14067E+07         0.00000E+00
    0.14067E+07         0.11725E+08         0.00000E+00
    0.00000E+00         0.00000E+00         0.00000E+00
 
    0.53833E+06         0.14789E+07         0.00000E+00
    0.14789E+07         0.11736E+08         0.00000E+00
    0.00000E+00         0.00000E+00         0.00000E+00
 
    0.52596E+06         0.15518E+07         0.00000E+00
    0.15518E+07         0.11749E+08         0.00000E+00
    0.00000E+00         0.00000E+00         0.00000E+00
 
    0.51275E+06         0.16255E+07         0.00000E+00
    0.16255E+07         0.11761E+08         0.00000E+00
    0.00000E+00         0.00000E+00         0.00000E+00
 
    0.49874E+06         0.17000E+07         0.00000E+00
    0.17000E+07         0.11774E+08         0.00000E+00
    0.00000E+00         0.00000E+00         0.00000E+00
 
    0.48397E+06         0.17752E+07         0.00000E+00
    0.17752E+07         0.11787E+08         0.00000E+00
    0.00000E+00         0.00000E+00         0.00000E+00
 
    0.46847E+06         0.18513E+07         0.00000E+00
    0.18513E+07         0.11800E+08         0.00000E+00
    0.00000E+00         0.00000E+00         0.00000E+00
 
    0.45228E+06         0.19282E+07         0.00000E+00
    0.19282E+07         0.11813E+08         0.00000E+00
    0.00000E+00         0.00000E+00         0.00000E+00
 
    0.43544E+06         0.20059E+07         0.00000E+00
    0.20059E+07         0.11826E+08         0.00000E+00
    0.00000E+00         0.00000E+00         0.00000E+00
 
    0.41799E+06         0.20845E+07         0.00000E+00
    0.20845E+07         0.11840E+08         0.00000E+00
    0.00000E+00         0.00000E+00         0.00000E+00
 
    0.39995E+06         0.21639E+07         0.00000E+00
    0.21639E+07         0.11853E+08         0.00000E+00
    0.00000E+00         0.00000E+00         0.00000E+00
 
    0.38136E+06         0.22441E+07         0.00000E+00
    0.22441E+07         0.11867E+08         0.00000E+00
    0.00000E+00         0.00000E+00         0.00000E+00
 
    0.36226E+06         0.23252E+07         0.00000E+00
    0.23252E+07         0.11880E+08         0.00000E+00
    0.00000E+00         0.00000E+00         0.00000E+00
 
    0.34268E+06         0.24072E+07         0.00000E+00
    0.24072E+07         0.11894E+08         0.00000E+00
    0.00000E+00         0.00000E+00         0.00000E+00
 
    0.32266E+06         0.24900E+07         0.00000E+00
    0.24900E+07         0.11908E+08         0.00000E+00
    0.00000E+00         0.00000E+00         0.00000E+00
 
    0.30221E+06         0.25736E+07         0.00000E+00
    0.25736E+07         0.11922E+08         0.00000E+00
    0.00000E+00         0.00000E+00         0.00000E+00
 
    0.28139E+06         0.26582E+07         0.00000E+00
    0.26582E+07         0.11935E+08         0.00000E+00
    0.00000E+00         0.00000E+00         0.00000E+00
 
    0.26020E+06         0.27436E+07         0.00000E+00
    0.27436E+07         0.11949E+08         0.00000E+00
    0.00000E+00         0.00000E+00         0.00000E+00
 
    0.23869E+06         0.28298E+07         0.00000E+00
    0.28298E+07         0.11963E+08         0.00000E+00
    0.00000E+00         0.00000E+00         0.00000E+00
 
    0.21689E+06         0.29170E+07         0.00000E+00
    0.29170E+07         0.11976E+08         0.00000E+00
    0.00000E+00         0.00000E+00         0.00000E+00
 
    0.19482E+06         0.30050E+07         0.00000E+00
    0.30050E+07         0.11989E+08         0.00000E+00
    0.00000E+00         0.00000E+00         0.00000E+00
 
    0.17250E+06         0.30939E+07         0.00000E+00
    0.30939E+07         0.12003E+08         0.00000E+00
    0.00000E+00         0.00000E+00         0.00000E+00
 
    0.14997E+06         0.31837E+07         0.00000E+00
    0.31837E+07         0.12016E+08         0.00000E+00
    0.00000E+00         0.00000E+00         0.00000E+00
 
    0.12725E+06         0.32743E+07         0.00000E+00
    0.32743E+07         0.12029E+08         0.00000E+00
    0.00000E+00         0.00000E+00         0.00000E+00
 
    0.10437E+06         0.33658E+07         0.00000E+00
    0.33658E+07         0.12042E+08         0.00000E+00
    0.00000E+00         0.00000E+00         0.00000E+00
 
    0.81350E+05         0.34582E+07         0.00000E+00
    0.34582E+07         0.12054E+08         0.00000E+00
    0.00000E+00         0.00000E+00         0.00000E+00
 
    0.58211E+05         0.35515E+07         0.00000E+00
    0.35515E+07         0.12067E+08         0.00000E+00
    0.00000E+00         0.00000E+00         0.00000E+00
 
    0.34976E+05         0.36457E+07         0.00000E+00
    0.36457E+07         0.12079E+08         0.00000E+00
    0.00000E+00         0.00000E+00         0.00000E+00
 
    0.11669E+05         0.37407E+07         0.00000E+00
    0.37407E+07         0.12091E+08         0.00000E+00
    0.00000E+00         0.00000E+00         0.00000E+00
 
    0.35838E+06         0.32265E+05         0.00000E+00
    0.32265E+05         0.11102E+08         0.00000E+00
    0.00000E+00         0.00000E+00         0.00000E+00
 
    0.37472E+06         0.96992E+05         0.00000E+00
    0.96992E+05         0.11103E+08         0.00000E+00
    0.00000E+00         0.00000E+00         0.00000E+00
 
    0.38962E+06         0.16184E+06         0.00000E+00
    0.16184E+06         0.11104E+08         0.00000E+00
    0.00000E+00         0.00000E+00         0.00000E+00
 
    0.40311E+06         0.22685E+06         0.00000E+00
    0.22685E+06         0.11106E+08         0.00000E+00
    0.00000E+00         0.00000E+00         0.00000E+00
 
    0.41520E+06         0.29205E+06         0.00000E+00
    0.29205E+06         0.11109E+08         0.00000E+00
    0.00000E+00         0.00000E+00         0.00000E+00
 
    0.42593E+06         0.35749E+06         0.00000E+00
    0.35749E+06         0.11112E+08         0.00000E+00
    0.00000E+00         0.00000E+00         0.00000E+00
 
    0.43531E+06         0.42319E+06         0.00000E+00
    0.42319E+06         0.11116E+08         0.00000E+00
    0.00000E+00         0.00000E+00         0.00000E+00
 
    0.44338E+06         0.48918E+06         0.00000E+00
    0.48918E+06         0.11120E+08         0.00000E+00
    0.00000E+00         0.00000E+00         0.00000E+00
 
    0.45016E+06         0.55550E+06         0.00000E+00
    0.55550E+06         0.11125E+08         0.00000E+00
    0.00000E+00         0.00000E+00         0.00000E+00
 
    0.45568E+06         0.62217E+06         0.00000E+00
    0.62217E+06         0.11130E+08         0.00000E+00
    0.00000E+00         0.00000E+00         0.00000E+00
 
    0.45997E+06         0.68923E+06         0.00000E+00
    0.68923E+06         0.11136E+08         0.00000E+00
    0.00000E+00         0.00000E+00         0.00000E+00
 
    0.46306E+06         0.75671E+06         0.00000E+00
    0.75671E+06         0.11142E+08         0.00000E+00
    0.00000E+00         0.00000E+00         0.00000E+00
 
    0.46499E+06         0.82462E+06         0.00000E+00
    0.82462E+06         0.11149E+08         0.00000E+00
    0.00000E+00         0.00000E+00         0.00000E+00
 
    0.46578E+06         0.89299E+06         0.00000E+00
    0.89299E+06         0.11156E+08         0.00000E+00
    0.00000E+00         0.00000E+00         0.00000E+00
 
    0.46546E+06         0.96185E+06         0.00000E+00
    0.96185E+06         0.11164E+08         0.00000E+00
    0.00000E+00         0.00000E+00         0.00000E+00
 
    0.46407E+06         0.10312E+07         0.00000E+00
    0.10312E+07         0.11172E+08         0.00000E+00
    0.00000E+00         0.00000E+00         0.00000E+00
 
    0.46164E+06         0.11011E+07         0.00000E+00
    0.11011E+07         0.11180E+08         0.00000E+00
    0.00000E+00         0.00000E+00         0.00000E+00
 
    0.45821E+06         0.11716E+07         0.00000E+00
    0.11716E+07         0.11189E+08         0.00000E+00
    0.00000E+00         0.00000E+00         0.00000E+00
 
    0.45380E+06         0.12426E+07         0.00000E+00
    0.12426E+07         0.11198E+08         0.00000E+00
    0.00000E+00         0.00000E+00         0.00000E+00
 
    0.44845E+06         0.13142E+07         0.00000E+00
    0.13142E+07         0.11208E+08         0.00000E+00
    0.00000E+00         0.00000E+00         0.00000E+00
 
    0.44219E+06         0.13865E+07         0.00000E+00
    0.13865E+07         0.11217E+08         0.00000E+00
    0.00000E+00         0.00000E+00         0.00000E+00
 
    0.43506E+06         0.14593E+07         0.00000E+00
    0.14593E+07         0.11227E+08         0.00000E+00
    0.00000E+00         0.00000E+00         0.00000E+00
 
    0.42709E+06         0.15328E+07         0.00000E+00
    0.15328E+07         0.11238E+08         0.00000E+00
    0.00000E+00         0.00000E+00         0.00000E+00
 
    0.41832E+06         0.16070E+07         0.00000E+00
    0.16070E+07         0.11248E+08         0.00000E+00
    0.00000E+00         0.00000E+00         0.00000E+00
 
    0.40877E+06         0.16818E+07         0.00000E+00
    0.16818E+07         0.11259E+08         0.00000E+00
    0.00000E+00         0.00000E+00         0.00000E+00
 
    0.39848E+06         0.17573E+07         0.00000E+00
    0.17573E+07         0.11270E+08         0.00000E+00
    0.00000E+00         0.00000E+00         0.00000E+00
 
    0.38748E+06         0.18335E+07         0.00000E+00
    0.18335E+07         0.11281E+08         0.00000E+00
    0.00000E+00         0.00000E+00         0.00000E+00
 
    0.37581E+06         0.19104E+07         0.00000E+00
    0.19104E+07         0.11292E+08         0.00000E+00
    0.00000E+00         0.00000E+00         0.00000E+00
 
    0.36349E+06         0.19880E+07         0.00000E+00
    0.19880E+07         0.11304E+08         0.00000E+00
    0.00000E+00         0.00000E+00         0.00000E+00
 
    0.35057E+06         0.20663E+07         0.00000E+00
    0.20663E+07         0.11315E+08         0.00000E+00
    0.00000E+00         0.00000E+00         0.00000E+00
 
    0.33707E+06         0.21454E+07         0.00000E+00
    0.21454E+07         0.11327E+08         0.00000E+00
    0.00000E+00         0.00000E+00         0.00000E+00
 
    0.32302E+06         0.22252E+07         0.00000E+00
    0.22252E+07         0.11339E+08         0.00000E+00
    0.00000E+00         0.00000E+00         0.00000E+00
 
    0.30845E+06         0.23058E+07         0.00000E+00
    0.23058E+07         0.11350E+08         0.00000E+00
    0.00000E+00         0.00000E+00         0.00000E+00
 
    0.29340E+06         0.23871E+07         0.00000E+00
    0.23871E+07         0.11362E+08         0.00000E+00
    0.00000E+00         0.00000E+00         0.00000E+00
 
    0.27789E+06         0.24692E+07         0.00000E+00
    0.24692E+07         0.11374E+08         0.00000E+00
    0.00000E+00         0.00000E+00         0.00000E+00
 
    0.26196E+06         0.25520E+07         0.00000E+00
    0.25520E+07         0.11386E+08         0.00000E+00
    0.00000E+00         0.00000E+00         0.00000E+00
 
    0.24564E+06         0.26356E+07         0.00000E+00
    0.26356E+07         0.11397E+08         0.00000E+00
    0.00000E+00         0.00000E+00         0.00000E+00
 
    0.22894E+06         0.27200E+07         0.00000E+00
    0.27200E+07         0.11409E+08         0.00000E+00
    0.00000E+00         0.00000E+00         0.00000E+00
 
    0.21190E+06         0.28052E+07         0.00000E+00
    0.28052E+07         0.11421E+08         0.00000E+00
    0.00000E+00         0.00000E+00         0.00000E+00
 
    0.19456E+06         0.28911E+07         0.00000E+00
    0.28911E+07         0.11432E+08         0.00000E+00
    0.00000E+00         0.00000E+00         0.00000E+00
 
    0.17692E+06         0.29779E+07         0.00000E+00
    0.29779E+07         0.11444E+08         0.00000E+00
    0.00000E+00         0.00000E+00         0.00000E+00
 
    0.15903E+06         0.30654E+07         0.00000E+00
    0.30654E+07         0.11455E+08         0.00000E+00
    0.00000E+00         0.00000E+00         0.00000E+00
 
    0.14090E+06         0.31537E+07         0.00000E+00
    0.31537E+07         0.11466E+08         0.00000E+00
    0.00000E+00         0.00000E+00         0.00000E+00
 
    0.12257E+06         0.32428E+07         0.00000E+00
    0.32428E+07         0.11477E+08         0.00000E+00
    0.00000E+00         0.00000E+00         0.00000E+00
 
    0.10406E+06         0.33327E+07         0.00000E+00
    0.33327E+07         0.11488E+08         0.00000E+00
    0.00000E+00         0.00000E+00         0.00000E+00
 
    0.85381E+05         0.34235E+07         0.00000E+00
    0.34235E+07         0.11499E+08         0.00000E+00
    0.00000E+00         0.00000E+00         0.00000E+00
 
    0.66571E+05         0.35150E+07         0.00000E+00
    0.35150E+07         0.11510E+08         0.00000E+00
    0.00000E+00         0.00000E+00         0.00000E+00
 
    0.47648E+05         0.36073E+07         0.00000E+00
    0.36073E+07         0.11520E+08         0.00000E+00
    0.00000E+00         0.00000E+00         0.00000E+00
 
    0.28635E+05         0.37004E+07         0.00000E+00
    0.37004E+07         0.11530E+08         0.00000E+00
    0.00000E+00         0.00000E+00         0.00000E+00
 
    0.95547E+04         0.37944E+07         0.00000E+00
    0.37944E+07         0.11540E+08         0.00000E+00
    0.00000E+00         0.00000E+00         0.00000E+00
 
    0.21744E+06         0.33713E+05         0.00000E+00
    0.33713E+05         0.10631E+08         0.00000E+00
    0.00000E+00         0.00000E+00         0.00000E+00
 
    0.23418E+06         0.10122E+06         0.00000E+00
    0.10122E+06         0.10631E+08         0.00000E+00
    0.00000E+00         0.00000E+00         0.00000E+00
 
    0.24966E+06         0.16879E+06         0.00000E+00
    0.16879E+06         0.10633E+08         0.00000E+00
    0.00000E+00         0.00000E+00         0.00000E+00
 
    0.26389E+06         0.23648E+06         0.00000E+00
    0.23648E+06         0.10634E+08         0.00000E+00
    0.00000E+00         0.00000E+00         0.00000E+00
 
    0.27690E+06         0.30430E+06         0.00000E+00
    0.30430E+06         0.10636E+08         0.00000E+00
    0.00000E+00         0.00000E+00         0.00000E+00
 
    0.28870E+06         0.37228E+06         0.00000E+00
    0.37228E+06         0.10639E+08         0.00000E+00
    0.00000E+00         0.00000E+00         0.00000E+00
 
    0.29931E+06         0.44047E+06         0.00000E+00
    0.44047E+06         0.10642E+08         0.00000E+00
    0.00000E+00         0.00000E+00         0.00000E+00
 
    0.30877E+06         0.50888E+06         0.00000E+00
    0.50888E+06         0.10646E+08         0.00000E+00
    0.00000E+00         0.00000E+00         0.00000E+00
 
    0.31708E+06         0.57755E+06         0.00000E+00
    0.57755E+06         0.10650E+08         0.00000E+00
    0.00000E+00         0.00000E+00         0.00000E+00
 
    0.32427E+06         0.64649E+06         0.00000E+00
    0.64649E+06         0.10655E+08         0.00000E+00
    0.00000E+00         0.00000E+00         0.00000E+00
 
    0.33037E+06         0.71575E+06         0.00000E+00
    0.71575E+06         0.10660E+08         0.00000E+00
    0.00000E+00         0.00000E+00         0.00000E+00
 
    0.33540E+06         0.78534E+06         0.00000E+00
    0.78534E+06         0.10665E+08         0.00000E+00
    0.00000E+00         0.00000E+00         0.00000E+00
 
    0.33938E+06         0.85528E+06         0.00000E+00
    0.85528E+06         0.10671E+08         0.00000E+00
    0.00000E+00         0.00000E+00         0.00000E+00
 
    0.34235E+06         0.92560E+06         0.00000E+00
    0.92560E+06         0.10677E+08         0.00000E+00
    0.00000E+00         0.00000E+00         0.00000E+00
 
    0.34433E+06         0.99633E+06         0.00000E+00
    0.99633E+06         0.10684E+08         0.00000E+00
    0.00000E+00         0.00000E+00         0.00000E+00
 
    0.34534E+06         0.10675E+07         0.00000E+00
    0.10675E+07         0.10690E+08         0.00000E+00
    0.00000E+00         0.00000E+00         0.00000E+00
 
    0.34542E+06         0.11391E+07         0.00000E+00
    0.11391E+07         0.10698E+08         0.00000E+00
    0.00000E+00         0.00000E+00         0.00000E+00
 
    0.34459E+06         0.12111E+07         0.00000E+00
    0.12111E+07         0.10705E+08         0.00000E+00
    0.00000E+00         0.00000E+00         0.00000E+00
 
    0.34288E+06         0.12837E+07         0.00000E+00
    0.12837E+07         0.10713E+08         0.00000E+00
    0.00000E+00         0.00000E+00         0.00000E+00
 
    0.34032E+06         0.13567E+07         0.00000E+00
    0.13567E+07         0.10721E+08         0.00000E+00
    0.00000E+00         0.00000E+00         0.00000E+00
 
    0.33694E+06         0.14303E+07         0.00000E+00
    0.14303E+07         0.10730E+08         0.00000E+00
    0.00000E+00         0.00000E+00         0.00000E+00
 
    0.33276E+06         0.15043E+07         0.00000E+00
    0.15043E+07         0.10738E+08         0.00000E+00
    0.00000E+00         0.00000E+00         0.00000E+00
 
    0.32781E+06         0.15790E+07         0.00000E+00
    0.15790E+07         0.10747E+08         0.00000E+00
    0.00000E+00         0.00000E+00         0.00000E+00
 
    0.32213E+06         0.16542E+07         0.00000E+00
    0.16542E+07         0.10756E+08         0.00000E+00
    0.00000E+00         0.00000E+00         0.00000E+00
 
    0.31574E+06         0.17300E+07         0.00000E+00
    0.17300E+07         0.10765E+08         0.00000E+00
    0.00000E+00         0.00000E+00         0.00000E+00
 
    0.30868E+06         0.18063E+07         0.00000E+00
    0.18063E+07         0.10775E+08         0.00000E+00
    0.00000E+00         0.00000E+00         0.00000E+00
 
    0.30096E+06         0.18833E+07         0.00000E+00
    0.18833E+07         0.10784E+08         0.00000E+00
    0.00000E+00         0.00000E+00         0.00000E+00
 
    0.29263E+06         0.19609E+07         0.00000E+00
    0.19609E+07         0.10794E+08         0.00000E+00
    0.00000E+00         0.00000E+00         0.00000E+00
 
    0.28370E+06         0.20390E+07         0.00000E+00
    0.20390E+07         0.10804E+08         0.00000E+00
    0.00000E+00         0.00000E+00         0.00000E+00
 
    0.27421E+06         0.21179E+07         0.00000E+00
    0.21179E+07         0.10814E+08         0.00000E+00
    0.00000E+00         0.00000E+00         0.00000E+00
 
    0.26418E+06         0.21973E+07         0.00000E+00
    0.21973E+07         0.10824E+08         0.00000E+00
    0.00000E+00         0.00000E+00         0.00000E+00
 
    0.25365E+06         0.22775E+07         0.00000E+00
    0.22775E+07         0.10834E+08         0.00000E+00
    0.00000E+00         0.00000E+00         0.00000E+00
 
    0.24264E+06         0.23582E+07         0.00000E+00
    0.23582E+07         0.10844E+08         0.00000E+00
    0.00000E+00         0.00000E+00         0.00000E+00
 
    0.23117E+06         0.24397E+07         0.00000E+00
    0.24397E+07         0.10854E+08         0.00000E+00
    0.00000E+00         0.00000E+00         0.00000E+00
 
    0.21929E+06         0.25218E+07         0.00000E+00
    0.25218E+07         0.10864E+08         0.00000E+00
    0.00000E+00         0.00000E+00         0.00000E+00
 
    0.20700E+06         0.26046E+07         0.00000E+00
    0.26046E+07         0.10874E+08         0.00000E+00
    0.00000E+00         0.00000E+00         0.00000E+00
 
    0.19435E+06         0.26881E+07         0.00000E+00
    0.26881E+07         0.10884E+08         0.00000E+00
    0.00000E+00         0.00000E+00         0.00000E+00
 
    0.18135E+06         0.27723E+07         0.00000E+00
    0.27723E+07         0.10894E+08         0.00000E+00
    0.00000E+00         0.00000E+00         0.00000E+00
 
    0.16803E+06         0.28571E+07         0.00000E+00
    0.28571E+07         0.10903E+08         0.00000E+00
    0.00000E+00         0.00000E+00         0.00000E+00
 
    0.15442E+06         0.29427E+07         0.00000E+00
    0.29427E+07         0.10913E+08         0.00000E+00
    0.00000E+00         0.00000E+00         0.00000E+00
 
    0.14054E+06         0.30290E+07         0.00000E+00
    0.30290E+07         0.10923E+08         0.00000E+00
    0.00000E+00         0.00000E+00         0.00000E+00
 
    0.12642E+06         0.31160E+07         0.00000E+00
    0.31160E+07         0.10932E+08         0.00000E+00
    0.00000E+00         0.00000E+00         0.00000E+00
 
    0.11209E+06         0.32037E+07         0.00000E+00
    0.32037E+07         0.10942E+08         0.00000E+00
    0.00000E+00         0.00000E+00         0.00000E+00
 
    0.97558E+05         0.32921E+07         0.00000E+00
    0.32921E+07         0.10951E+08         0.00000E+00
    0.00000E+00         0.00000E+00         0.00000E+00
 
    0.82858E+05         0.33813E+07         0.00000E+00
    0.33813E+07         0.10960E+08         0.00000E+00
    0.00000E+00         0.00000E+00         0.00000E+00
 
    0.68012E+05         0.34711E+07         0.00000E+00
    0.34711E+07         0.10969E+08         0.00000E+00
    0.00000E+00         0.00000E+00         0.00000E+00
 
    0.53042E+05         0.35617E+07         0.00000E+00
    0.35617E+07         0.10977E+08         0.00000E+00
    0.00000E+00         0.00000E+00         0.00000E+00
 
    0.37971E+05         0.36531E+07         0.00000E+00
    0.36531E+07         0.10986E+08         0.00000E+00
    0.00000E+00         0.00000E+00         0.00000E+00
 
    0.22821E+05         0.37451E+07         0.00000E+00
    0.37451E+07         0.10994E+08         0.00000E+00
    0.00000E+00         0.00000E+00         0.00000E+00
 
    0.76148E+04         0.38379E+07         0.00000E+00
    0.38379E+07         0.11002E+08         0.00000E+00
    0.00000E+00         0.00000E+00         0.00000E+00
 
    0.95660E+05         0.34928E+05         0.00000E+00
    0.34928E+05         0.10166E+08         0.00000E+00
    0.00000E+00         0.00000E+00         0.00000E+00
 
    0.11259E+06         0.10477E+06         0.00000E+00
    0.10477E+06         0.10166E+08         0.00000E+00
    0.00000E+00         0.00000E+00         0.00000E+00
 
    0.12841E+06         0.17465E+06         0.00000E+00
    0.17465E+06         0.10167E+08         0.00000E+00
    0.00000E+00         0.00000E+00         0.00000E+00
 
    0.14314E+06         0.24459E+06         0.00000E+00
    0.24459E+06         0.10168E+08         0.00000E+00
    0.00000E+00         0.00000E+00         0.00000E+00
 
    0.15679E+06         0.31462E+06         0.00000E+00
    0.31462E+06         0.10170E+08         0.00000E+00
    0.00000E+00         0.00000E+00         0.00000E+00
 
    0.16938E+06         0.38477E+06         0.00000E+00
    0.38477E+06         0.10173E+08         0.00000E+00
    0.00000E+00         0.00000E+00         0.00000E+00
 
    0.18092E+06         0.45507E+06         0.00000E+00
    0.45507E+06         0.10175E+08         0.00000E+00
    0.00000E+00         0.00000E+00         0.00000E+00
 
    0.19143E+06         0.52553E+06         0.00000E+00
    0.52553E+06         0.10178E+08         0.00000E+00
    0.00000E+00         0.00000E+00         0.00000E+00
 
    0.20093E+06         0.59619E+06         0.00000E+00
    0.59619E+06         0.10182E+08         0.00000E+00
    0.00000E+00         0.00000E+00         0.00000E+00
 
    0.20944E+06         0.66707E+06         0.00000E+00
    0.66707E+06         0.10186E+08         0.00000E+00
    0.00000E+00         0.00000E+00         0.00000E+00
 
    0.21699E+06         0.73819E+06         0.00000E+00
    0.73819E+06         0.10190E+08         0.00000E+00
    0.00000E+00         0.00000E+00         0.00000E+00
 
    0.22358E+06         0.80958E+06         0.00000E+00
    0.80958E+06         0.10195E+08         0.00000E+00
    0.00000E+00         0.00000E+00         0.00000E+00
 
    0.22924E+06         0.88125E+06         0.00000E+00
    0.88125E+06         0.10200E+08         0.00000E+00
    0.00000E+00         0.00000E+00         0.00000E+00
 
    0.23399E+06         0.95323E+06         0.00000E+00
    0.95323E+06         0.10205E+08         0.00000E+00
    0.00000E+00         0.00000E+00         0.00000E+00
 
    0.23786E+06         0.10255E+07         0.00000E+00
    0.10255E+07         0.10211E+08         0.00000E+00
    0.00000E+00         0.00000E+00         0.00000E+00
 
    0.24086E+06         0.10982E+07         0.00000E+00
    0.10982E+07         0.10217E+08         0.00000E+00
    0.00000E+00         0.00000E+00         0.00000E+00
 
    0.24303E+06         0.11712E+07         0.00000E+00
    0.11712E+07         0.10223E+08         0.00000E+00
    0.00000E+00         0.00000E+00         0.00000E+00
 
    0.24438E+06         0.12446E+07         0.00000E+00
    0.12446E+07         0.10229E+08         0.00000E+00
    0.00000E+00         0.00000E+00         0.00000E+00
 
    0.24494E+06         0.13185E+07         0.00000E+00
    0.13185E+07         0.10236E+08         0.00000E+00
    0.00000E+00         0.00000E+00         0.00000E+00
 
    0.24473E+06         0.13927E+07         0.00000E+00
    0.13927E+07         0.10243E+08         0.00000E+00
    0.00000E+00         0.00000E+00         0.00000E+00
 
    0.24378E+06         0.14674E+07         0.00000E+00
    0.14674E+07         0.10250E+08         0.00000E+00
    0.00000E+00         0.00000E+00         0.00000E+00
 
    0.24212E+06         0.15425E+07         0.00000E+00
    0.15425E+07         0.10257E+08         0.00000E+00
    0.00000E+00         0.00000E+00         0.00000E+00
 
    0.23976E+06         0.16181E+07         0.00000E+00
    0.16181E+07         0.10265E+08         0.00000E+00
    0.00000E+00         0.00000E+00         0.00000E+00
 
    0.23673E+06         0.16942E+07         0.00000E+00
    0.16942E+07         0.10273E+08         0.00000E+00
    0.00000E+00         0.00000E+00         0.00000E+00
 
    0.23306E+06         0.17707E+07         0.00000E+00
    0.17707E+07         0.10281E+08         0.00000E+00
    0.00000E+00         0.00000E+00         0.00000E+00
 
    0.22877E+06         0.18478E+07         0.00000E+00
    0.18478E+07         0.10289E+08         0.00000E+00
    0.00000E+00         0.00000E+00         0.00000E+00
 
    0.22390E+06         0.19254E+07         0.00000E+00
    0.19254E+07         0.10297E+08         0.00000E+00
    0.00000E+00         0.00000E+00         0.00000E+00
 
    0.21846E+06         0.20035E+07         0.00000E+00
    0.20035E+07         0.10305E+08         0.00000E+00
    0.00000E+00         0.00000E+00         0.00000E+00
 
    0.21247E+06         0.20821E+07         0.00000E+00
    0.20821E+07         0.10313E+08         0.00000E+00
    0.00000E+00         0.00000E+00         0.00000E+00
 
    0.20598E+06         0.21613E+07         0.00000E+00
    0.21613E+07         0.10322E+08         0.00000E+00
    0.00000E+00         0.00000E+00         0.00000E+00
 
    0.19899E+06         0.22411E+07         0.00000E+00
    0.22411E+07         0.10330E+08         0.00000E+00
    0.00000E+00         0.00000E+00         0.00000E+00
 
    0.19154E+06         0.23214E+07         0.00000E+00
    0.23214E+07         0.10338E+08         0.00000E+00
    0.00000E+00         0.00000E+00         0.00000E+00
 
    0.18365E+06         0.24023E+07         0.00000E+00
    0.24023E+07         0.10347E+08         0.00000E+00
    0.00000E+00         0.00000E+00         0.00000E+00
 
    0.17535E+06         0.24838E+07         0.00000E+00
    0.24838E+07         0.10355E+08         0.00000E+00
    0.00000E+00         0.00000E+00         0.00000E+00
 
    0.16666E+06         0.25659E+07         0.00000E+00
    0.25659E+07         0.10364E+08         0.00000E+00
    0.00000E+00         0.00000E+00         0.00000E+00
 
    0.15760E+06         0.26486E+07         0.00000E+00
    0.26486E+07         0.10372E+08         0.00000E+00
    0.00000E+00         0.00000E+00         0.00000E+00
 
    0.14820E+06         0.27319E+07         0.00000E+00
    0.27319E+07         0.10381E+08         0.00000E+00
    0.00000E+00         0.00000E+00         0.00000E+00
 
    0.13849E+06         0.28158E+07         0.00000E+00
    0.28158E+07         0.10389E+08         0.00000E+00
    0.00000E+00         0.00000E+00         0.00000E+00
 
    0.12848E+06         0.29003E+07         0.00000E+00
    0.29003E+07         0.10397E+08         0.00000E+00
    0.00000E+00         0.00000E+00         0.00000E+00
 
    0.11821E+06         0.29855E+07         0.00000E+00
    0.29855E+07         0.10405E+08         0.00000E+00
    0.00000E+00         0.00000E+00         0.00000E+00
 
    0.10770E+06         0.30712E+07         0.00000E+00
    0.30712E+07         0.10413E+08         0.00000E+00
    0.00000E+00         0.00000E+00         0.00000E+00
 
    0.96960E+05         0.31576E+07         0.00000E+00
    0.31576E+07         0.10421E+08         0.00000E+00
    0.00000E+00         0.00000E+00         0.00000E+00
 
    0.86026E+05         0.32447E+07         0.00000E+00
    0.32447E+07         0.10428E+08         0.00000E+00
    0.00000E+00         0.00000E+00         0.00000E+00
 
    0.74917E+05         0.33324E+07         0.00000E+00
    0.33324E+07         0.10436E+08         0.00000E+00
    0.00000E+00         0.00000E+00         0.00000E+00
 
    0.63656E+05         0.34207E+07         0.00000E+00
    0.34207E+07         0.10443E+08         0.00000E+00
    0.00000E+00         0.00000E+00         0.00000E+00
 
    0.52266E+05         0.35097E+07         0.00000E+00
    0.35097E+07         0.10450E+08         0.00000E+00
    0.00000E+00         0.00000E+00         0.00000E+00
 
    0.40769E+05         0.35993E+07         0.00000E+00
    0.35993E+07         0.10457E+08         0.00000E+00
    0.00000E+00         0.00000E+00         0.00000E+00
 
    0.29186E+05         0.36896E+07         0.00000E+00
    0.36896E+07         0.10464E+08         0.00000E+00
    0.00000E+00         0.00000E+00         0.00000E+00
 
    0.17540E+05         0.37806E+07         0.00000E+00
    0.37806E+07         0.10470E+08         0.00000E+00
    0.00000E+00         0.00000E+00         0.00000E+00
 
    0.58518E+04         0.38722E+07         0.00000E+00
    0.38722E+07         0.10476E+08         0.00000E+00
    0.00000E+00         0.00000E+00         0.00000E+00
 
   -0.88820E+04         0.35943E+05         0.00000E+00
    0.35943E+05         0.97068E+07         0.00000E+00
    0.00000E+00         0.00000E+00         0.00000E+00
 
    0.80723E+04         0.10775E+06         0.00000E+00
    0.10775E+06         0.97072E+07         0.00000E+00
    0.00000E+00         0.00000E+00         0.00000E+00
 
    0.24056E+05         0.17956E+06         0.00000E+00
    0.17956E+06         0.97080E+07         0.00000E+00
    0.00000E+00         0.00000E+00         0.00000E+00
 
    0.39079E+05         0.25140E+06         0.00000E+00
    0.25140E+06         0.97092E+07         0.00000E+00
    0.00000E+00         0.00000E+00         0.00000E+00
 
    0.53154E+05         0.32329E+06         0.00000E+00
    0.32329E+06         0.97108E+07         0.00000E+00
    0.00000E+00         0.00000E+00         0.00000E+00
 
    0.66292E+05         0.39525E+06         0.00000E+00
    0.39525E+06         0.97127E+07         0.00000E+00
    0.00000E+00         0.00000E+00         0.00000E+00
 
    0.78509E+05         0.46732E+06         0.00000E+00
    0.46732E+06         0.97150E+07         0.00000E+00
    0.00000E+00         0.00000E+00         0.00000E+00
 
    0.89817E+05         0.53951E+06         0.00000E+00
    0.53951E+06         0.97177E+07         0.00000E+00
    0.00000E+00         0.00000E+00         0.00000E+00
 
    0.10023E+06         0.61185E+06         0.00000E+00
    0.61185E+06         0.97207E+07         0.00000E+00
    0.00000E+00         0.00000E+00         0.00000E+00
 
    0.10977E+06         0.68436E+06         0.00000E+00
    0.68436E+06         0.97240E+07         0.00000E+00
    0.00000E+00         0.00000E+00         0.00000E+00
 
    0.11845E+06         0.75705E+06         0.00000E+00
    0.75705E+06         0.97276E+07         0.00000E+00
    0.00000E+00         0.00000E+00         0.00000E+00
 
    0.12628E+06         0.82995E+06         0.00000E+00
    0.82995E+06         0.97316E+07         0.00000E+00
    0.00000E+00         0.00000E+00         0.00000E+00
 
    0.13329E+06         0.90308E+06         0.00000E+00
    0.90308E+06         0.97358E+07         0.00000E+00
    0.00000E+00         0.00000E+00         0.00000E+00
 
    0.13949E+06         0.97646E+06         0.00000E+00
    0.97646E+06         0.97403E+07         0.00000E+00
    0.00000E+00         0.00000E+00         0.00000E+00
 
    0.14490E+06         0.10501E+07         0.00000E+00
    0.10501E+07         0.97451E+07         0.00000E+00
    0.00000E+00         0.00000E+00         0.00000E+00
 
    0.14954E+06         0.11240E+07         0.00000E+00
    0.11240E+07         0.97502E+07         0.00000E+00
    0.00000E+00         0.00000E+00         0.00000E+00
 
    0.15343E+06         0.11983E+07         0.00000E+00
    0.11983E+07         0.97554E+07         0.00000E+00
    0.00000E+00         0.00000E+00         0.00000E+00
 
    0.15659E+06         0.12728E+07         0.00000E+00
    0.12728E+07         0.97609E+07         0.00000E+00
    0.00000E+00         0.00000E+00         0.00000E+00
 
    0.15905E+06         0.13477E+07         0.00000E+00
    0.13477E+07         0.97666E+07         0.00000E+00
    0.00000E+00         0.00000E+00         0.00000E+00
 
    0.16082E+06         0.14229E+07         0.00000E+00
    0.14229E+07         0.97725E+07         0.00000E+00
    0.00000E+00         0.00000E+00         0.00000E+00
 
    0.16192E+06         0.14985E+07         0.00000E+00
    0.14985E+07         0.97786E+07         0.00000E+00
    0.00000E+00         0.00000E+00         0.00000E+00
 
    0.16237E+06         0.15745E+07         0.00000E+00
    0.15745E+07         0.97849E+07         0.00000E+00
    0.00000E+00         0.00000E+00         0.00000E+00
 
    0.16221E+06         0.16509E+07         0.00000E+00
    0.16509E+07         0.97913E+07         0.00000E+00
    0.00000E+00         0.00000E+00         0.00000E+00
 
    0.16144E+06         0.17277E+07         0.00000E+00
    0.17277E+07         0.97978E+07         0.00000E+00
    0.00000E+00         0.00000E+00         0.00000E+00
 
    0.16010E+06         0.18049E+07         0.00000E+00
    0.18049E+07         0.98045E+07         0.00000E+00
    0.00000E+00         0.00000E+00         0.00000E+00
 
    0.15819E+06         0.18825E+07         0.00000E+00
    0.18825E+07         0.98112E+07         0.00000E+00
    0.00000E+00         0.00000E+00         0.00000E+00
 
    0.15576E+06         0.19606E+07         0.00000E+00
    0.19606E+07         0.98181E+07         0.00000E+00
    0.00000E+00         0.00000E+00         0.00000E+00
 
    0.15281E+06         0.20391E+07         0.00000E+00
    0.20391E+07         0.98250E+07         0.00000E+00
    0.00000E+00         0.00000E+00         0.00000E+00
 
    0.14938E+06         0.21181E+07         0.00000E+00
    0.21181E+07         0.98319E+07         0.00000E+00
    0.00000E+00         0.00000E+00         0.00000E+00
 
    0.14547E+06         0.21975E+07         0.00000E+00
    0.21975E+07         0.98390E+07         0.00000E+00
    0.00000E+00         0.00000E+00         0.00000E+00
 
    0.14113E+06         0.22775E+07         0.00000E+00
    0.22775E+07         0.98460E+07         0.00000E+00
    0.00000E+00         0.00000E+00         0.00000E+00
 
    0.13637E+06         0.23579E+07         0.00000E+00
    0.23579E+07         0.98531E+07         0.00000E+00
    0.00000E+00         0.00000E+00         0.00000E+00
 
    0.13120E+06         0.24389E+07         0.00000E+00
    0.24389E+07         0.98601E+07         0.00000E+00
    0.00000E+00         0.00000E+00         0.00000E+00
 
    0.12567E+06         0.25203E+07         0.00000E+00
    0.25203E+07         0.98671E+07         0.00000E+00
    0.00000E+00         0.00000E+00         0.00000E+00
 
    0.11978E+06         0.26023E+07         0.00000E+00
    0.26023E+07         0.98741E+07         0.00000E+00
    0.00000E+00         0.00000E+00         0.00000E+00
 
    0.11356E+06         0.26848E+07         0.00000E+00
    0.26848E+07         0.98811E+07         0.00000E+00
    0.00000E+00         0.00000E+00         0.00000E+00
 
    0.10703E+06         0.27678E+07         0.00000E+00
    0.27678E+07         0.98879E+07         0.00000E+00
    0.00000E+00         0.00000E+00         0.00000E+00
 
    0.10022E+06         0.28514E+07         0.00000E+00
    0.28514E+07         0.98947E+07         0.00000E+00
    0.00000E+00         0.00000E+00         0.00000E+00
 
    0.93144E+05         0.29355E+07         0.00000E+00
    0.29355E+07         0.99014E+07         0.00000E+00
    0.00000E+00         0.00000E+00         0.00000E+00
 
    0.85829E+05         0.30202E+07         0.00000E+00
    0.30202E+07         0.99080E+07         0.00000E+00
    0.00000E+00         0.00000E+00         0.00000E+00
 
    0.78296E+05         0.31054E+07         0.00000E+00
    0.31054E+07         0.99144E+07         0.00000E+00
    0.00000E+00         0.00000E+00         0.00000E+00
 
    0.70567E+05         0.31912E+07         0.00000E+00
    0.31912E+07         0.99207E+07         0.00000E+00
    0.00000E+00         0.00000E+00         0.00000E+00
 
    0.62664E+05         0.32775E+07         0.00000E+00
    0.32775E+07         0.99268E+07         0.00000E+00
    0.00000E+00         0.00000E+00         0.00000E+00
 
    0.54608E+05         0.33644E+07         0.00000E+00
    0.33644E+07         0.99327E+07         0.00000E+00
    0.00000E+00         0.00000E+00         0.00000E+00
 
    0.46420E+05         0.34519E+07         0.00000E+00
    0.34519E+07         0.99385E+07         0.00000E+00
    0.00000E+00         0.00000E+00         0.00000E+00
 
    0.38124E+05         0.35400E+07         0.00000E+00
    0.35400E+07         0.99440E+07         0.00000E+00
    0.00000E+00         0.00000E+00         0.00000E+00
 
    0.29738E+05         0.36287E+07         0.00000E+00
    0.36287E+07         0.99494E+07         0.00000E+00
    0.00000E+00         0.00000E+00         0.00000E+00
 
    0.21286E+05         0.37179E+07         0.00000E+00
    0.37179E+07         0.99545E+07         0.00000E+00
    0.00000E+00         0.00000E+00         0.00000E+00
 
    0.12788E+05         0.38077E+07         0.00000E+00
    0.38077E+07         0.99593E+07         0.00000E+00
    0.00000E+00         0.00000E+00         0.00000E+00
 
    0.42651E+04         0.38982E+07         0.00000E+00
    0.38982E+07         0.99638E+07         0.00000E+00
    0.00000E+00         0.00000E+00         0.00000E+00
 
   -0.97861E+05         0.36788E+05         0.00000E+00
    0.36788E+05         0.92545E+07         0.00000E+00
    0.00000E+00         0.00000E+00         0.00000E+00
 
   -0.81008E+05         0.11023E+06         0.00000E+00
    0.11023E+06         0.92549E+07         0.00000E+00
    0.00000E+00         0.00000E+00         0.00000E+00
 
   -0.65008E+05         0.18364E+06         0.00000E+00
    0.18364E+06         0.92556E+07         0.00000E+00
    0.00000E+00         0.00000E+00         0.00000E+00
 
   -0.49853E+05         0.25706E+06         0.00000E+00
    0.25706E+06         0.92566E+07         0.00000E+00
    0.00000E+00         0.00000E+00         0.00000E+00
 
   -0.35532E+05         0.33050E+06         0.00000E+00
    0.33050E+06         0.92579E+07         0.00000E+00
    0.00000E+00         0.00000E+00         0.00000E+00
 
   -0.22036E+05         0.40399E+06         0.00000E+00
    0.40399E+06         0.92595E+07         0.00000E+00
    0.00000E+00         0.00000E+00         0.00000E+00
 
   -0.93541E+04         0.47754E+06         0.00000E+00
    0.47754E+06         0.92615E+07         0.00000E+00
    0.00000E+00         0.00000E+00         0.00000E+00
 
    0.25267E+04         0.55117E+06         0.00000E+00
    0.55117E+06         0.92638E+07         0.00000E+00
    0.00000E+00         0.00000E+00         0.00000E+00
 
    0.13618E+05         0.62491E+06         0.00000E+00
    0.62491E+06         0.92663E+07         0.00000E+00
    0.00000E+00         0.00000E+00         0.00000E+00
 
    0.23934E+05         0.69877E+06         0.00000E+00
    0.69877E+06         0.92691E+07         0.00000E+00
    0.00000E+00         0.00000E+00         0.00000E+00
 
    0.33488E+05         0.77278E+06         0.00000E+00
    0.77278E+06         0.92722E+07         0.00000E+00
    0.00000E+00         0.00000E+00         0.00000E+00
 
    0.42294E+05         0.84694E+06         0.00000E+00
    0.84694E+06         0.92755E+07         0.00000E+00
    0.00000E+00         0.00000E+00         0.00000E+00
 
    0.50367E+05         0.92128E+06         0.00000E+00
    0.92128E+06         0.92791E+07         0.00000E+00
    0.00000E+00         0.00000E+00         0.00000E+00
 
    0.57724E+05         0.99582E+06         0.00000E+00
    0.99582E+06         0.92830E+07         0.00000E+00
    0.00000E+00         0.00000E+00         0.00000E+00
 
    0.64380E+05         0.10706E+07         0.00000E+00
    0.10706E+07         0.92870E+07         0.00000E+00
    0.00000E+00         0.00000E+00         0.00000E+00
 
    0.70351E+05         0.11455E+07         0.00000E+00
    0.11455E+07         0.92913E+07         0.00000E+00
    0.00000E+00         0.00000E+00         0.00000E+00
 
    0.75656E+05         0.12208E+07         0.00000E+00
    0.12208E+07         0.92957E+07         0.00000E+00
    0.00000E+00         0.00000E+00         0.00000E+00
 
    0.80310E+05         0.12963E+07         0.00000E+00
    0.12963E+07         0.93004E+07         0.00000E+00
    0.00000E+00         0.00000E+00         0.00000E+00
 
    0.84333E+05         0.13720E+07         0.00000E+00
    0.13720E+07         0.93052E+07         0.00000E+00
    0.00000E+00         0.00000E+00         0.00000E+00
 
    0.87742E+05         0.14481E+07         0.00000E+00
    0.14481E+07         0.93101E+07         0.00000E+00
    0.00000E+00         0.00000E+00         0.00000E+00
 
    0.90556E+05         0.15244E+07         0.00000E+00
    0.15244E+07         0.93153E+07         0.00000E+00
    0.00000E+00         0.00000E+00         0.00000E+00
 
    0.92793E+05         0.16011E+07         0.00000E+00
    0.16011E+07         0.93205E+07         0.00000E+00
    0.00000E+00         0.00000E+00         0.00000E+00
 
    0.94473E+05         0.16781E+07         0.00000E+00
    0.16781E+07         0.93259E+07         0.00000E+00
    0.00000E+00         0.00000E+00         0.00000E+00
 
    0.95616E+05         0.17554E+07         0.00000E+00
    0.17554E+07         0.93314E+07         0.00000E+00
    0.00000E+00         0.00000E+00         0.00000E+00
 
    0.96239E+05         0.18331E+07         0.00000E+00
    0.18331E+07         0.93369E+07         0.00000E+00
    0.00000E+00         0.00000E+00         0.00000E+00
 
    0.96365E+05         0.19112E+07         0.00000E+00
    0.19112E+07         0.93426E+07         0.00000E+00
    0.00000E+00         0.00000E+00         0.00000E+00
 
    0.96011E+05         0.19896E+07         0.00000E+00
    0.19896E+07         0.93483E+07         0.00000E+00
    0.00000E+00         0.00000E+00         0.00000E+00
 
    0.95199E+05         0.20684E+07         0.00000E+00
    0.20684E+07         0.93540E+07         0.00000E+00
    0.00000E+00         0.00000E+00         0.00000E+00
 
    0.93949E+05         0.21476E+07         0.00000E+00
    0.21476E+07         0.93598E+07         0.00000E+00
    0.00000E+00         0.00000E+00         0.00000E+00
 
    0.92281E+05         0.22273E+07         0.00000E+00
    0.22273E+07         0.93657E+07         0.00000E+00
    0.00000E+00         0.00000E+00         0.00000E+00
 
    0.90216E+05         0.23073E+07         0.00000E+00
    0.23073E+07         0.93715E+07         0.00000E+00
    0.00000E+00         0.00000E+00         0.00000E+00
 
    0.87773E+05         0.23878E+07         0.00000E+00
    0.23878E+07         0.93773E+07         0.00000E+00
    0.00000E+00         0.00000E+00         0.00000E+00
 
    0.84974E+05         0.24687E+07         0.00000E+00
    0.24687E+07         0.93831E+07         0.00000E+00
    0.00000E+00         0.00000E+00         0.00000E+00
 
    0.81839E+05         0.25500E+07         0.00000E+00
    0.25500E+07         0.93888E+07         0.00000E+00
    0.00000E+00         0.00000E+00         0.00000E+00
 
    0.78389E+05         0.26318E+07         0.00000E+00
    0.26318E+07         0.93945E+07         0.00000E+00
    0.00000E+00         0.00000E+00         0.00000E+00
 
    0.74645E+05         0.27140E+07         0.00000E+00
    0.27140E+07         0.94002E+07         0.00000E+00
    0.00000E+00         0.00000E+00         0.00000E+00
 
    0.70627E+05         0.27967E+07         0.00000E+00
    0.27967E+07         0.94057E+07         0.00000E+00
    0.00000E+00         0.00000E+00         0.00000E+00
 
    0.66355E+05         0.28799E+07         0.00000E+00
    0.28799E+07         0.94112E+07         0.00000E+00
    0.00000E+00         0.00000E+00         0.00000E+00
 
    0.61852E+05         0.29636E+07         0.00000E+00
    0.29636E+07         0.94165E+07         0.00000E+00
    0.00000E+00         0.00000E+00         0.00000E+00
 
    0.57136E+05         0.30477E+07         0.00000E+00
    0.30477E+07         0.94217E+07         0.00000E+00
    0.00000E+00         0.00000E+00         0.00000E+00
 
    0.52230E+05         0.31323E+07         0.00000E+00
    0.31323E+07         0.94268E+07         0.00000E+00
    0.00000E+00         0.00000E+00         0.00000E+00
 
    0.47152E+05         0.32174E+07         0.00000E+00
    0.32174E+07         0.94317E+07         0.00000E+00
    0.00000E+00         0.00000E+00         0.00000E+00
 
    0.41925E+05         0.33030E+07         0.00000E+00
    0.33030E+07         0.94365E+07         0.00000E+00
    0.00000E+00         0.00000E+00         0.00000E+00
 
    0.36568E+05         0.33891E+07         0.00000E+00
    0.33891E+07         0.94411E+07         0.00000E+00
    0.00000E+00         0.00000E+00         0.00000E+00
 
    0.31102E+05         0.34757E+07         0.00000E+00
    0.34757E+07         0.94454E+07         0.00000E+00
    0.00000E+00         0.00000E+00         0.00000E+00
 
    0.25548E+05         0.35629E+07         0.00000E+00
    0.35629E+07         0.94496E+07         0.00000E+00
    0.00000E+00         0.00000E+00         0.00000E+00
 
    0.19925E+05         0.36505E+07         0.00000E+00
    0.36505E+07         0.94535E+07         0.00000E+00
    0.00000E+00         0.00000E+00         0.00000E+00
 
    0.14255E+05         0.37387E+07         0.00000E+00
    0.37387E+07         0.94572E+07         0.00000E+00
    0.00000E+00         0.00000E+00         0.00000E+00
 
    0.85569E+04         0.38274E+07         0.00000E+00
    0.38274E+07         0.94606E+07         0.00000E+00
    0.00000E+00         0.00000E+00         0.00000E+00
 
    0.28518E+04         0.39166E+07         0.00000E+00
    0.39166E+07         0.94637E+07         0.00000E+00
    0.00000E+00         0.00000E+00         0.00000E+00
 
   -0.17275E+06         0.37486E+05         0.00000E+00
    0.37486E+05         0.88088E+07         0.00000E+00
    0.00000E+00         0.00000E+00         0.00000E+00
 
   -0.15610E+06         0.11228E+06         0.00000E+00
    0.11228E+06         0.88091E+07         0.00000E+00
    0.00000E+00         0.00000E+00         0.00000E+00
 
   -0.14020E+06         0.18703E+06         0.00000E+00
    0.18703E+06         0.88097E+07         0.00000E+00
    0.00000E+00         0.00000E+00         0.00000E+00
 
   -0.12505E+06         0.26175E+06         0.00000E+00
    0.26175E+06         0.88106E+07         0.00000E+00
    0.00000E+00         0.00000E+00         0.00000E+00
 
   -0.11063E+06         0.33648E+06         0.00000E+00
    0.33648E+06         0.88117E+07         0.00000E+00
    0.00000E+00         0.00000E+00         0.00000E+00
 
   -0.96937E+05         0.41122E+06         0.00000E+00
    0.41122E+06         0.88131E+07         0.00000E+00
    0.00000E+00         0.00000E+00         0.00000E+00
 
   -0.83963E+05         0.48599E+06         0.00000E+00
    0.48599E+06         0.88147E+07         0.00000E+00
    0.00000E+00         0.00000E+00         0.00000E+00
 
   -0.71696E+05         0.56082E+06         0.00000E+00
    0.56082E+06         0.88166E+07         0.00000E+00
    0.00000E+00         0.00000E+00         0.00000E+00
 
   -0.60127E+05         0.63572E+06         0.00000E+00
    0.63572E+06         0.88188E+07         0.00000E+00
    0.00000E+00         0.00000E+00         0.00000E+00
 
   -0.49243E+05         0.71070E+06         0.00000E+00
    0.71070E+06         0.88212E+07         0.00000E+00
    0.00000E+00         0.00000E+00         0.00000E+00
 
   -0.39033E+05         0.78578E+06         0.00000E+00
    0.78578E+06         0.88238E+07         0.00000E+00
    0.00000E+00         0.00000E+00         0.00000E+00
 
   -0.29485E+05         0.86098E+06         0.00000E+00
    0.86098E+06         0.88266E+07         0.00000E+00
    0.00000E+00         0.00000E+00         0.00000E+00
 
   -0.20586E+05         0.93632E+06         0.00000E+00
    0.93632E+06         0.88296E+07         0.00000E+00
    0.00000E+00         0.00000E+00         0.00000E+00
 
   -0.12322E+05         0.10118E+07         0.00000E+00
    0.10118E+07         0.88328E+07         0.00000E+00
    0.00000E+00         0.00000E+00         0.00000E+00
 
   -0.46802E+04         0.10875E+07         0.00000E+00
    0.10875E+07         0.88362E+07         0.00000E+00
    0.00000E+00         0.00000E+00         0.00000E+00
 
    0.23547E+04         0.11633E+07         0.00000E+00
    0.11633E+07         0.88398E+07         0.00000E+00
    0.00000E+00         0.00000E+00         0.00000E+00
 
    0.87971E+04         0.12393E+07         0.00000E+00
    0.12393E+07         0.88435E+07         0.00000E+00
    0.00000E+00         0.00000E+00         0.00000E+00
 
    0.14662E+05         0.13156E+07         0.00000E+00
    0.13156E+07         0.88474E+07         0.00000E+00
    0.00000E+00         0.00000E+00         0.00000E+00
 
    0.19965E+05         0.13920E+07         0.00000E+00
    0.13920E+07         0.88515E+07         0.00000E+00
    0.00000E+00         0.00000E+00         0.00000E+00
 
    0.24723E+05         0.14687E+07         0.00000E+00
    0.14687E+07         0.88556E+07         0.00000E+00
    0.00000E+00         0.00000E+00         0.00000E+00
 
    0.28950E+05         0.15457E+07         0.00000E+00
    0.15457E+07         0.88599E+07         0.00000E+00
    0.00000E+00         0.00000E+00         0.00000E+00
 
    0.32665E+05         0.16229E+07         0.00000E+00
    0.16229E+07         0.88643E+07         0.00000E+00
    0.00000E+00         0.00000E+00         0.00000E+00
 
    0.35883E+05         0.17004E+07         0.00000E+00
    0.17004E+07         0.88687E+07         0.00000E+00
    0.00000E+00         0.00000E+00         0.00000E+00
 
    0.38622E+05         0.17781E+07         0.00000E+00
    0.17781E+07         0.88733E+07         0.00000E+00
    0.00000E+00         0.00000E+00         0.00000E+00
 
    0.40899E+05         0.18562E+07         0.00000E+00
    0.18562E+07         0.88779E+07         0.00000E+00
    0.00000E+00         0.00000E+00         0.00000E+00
 
    0.42732E+05         0.19345E+07         0.00000E+00
    0.19345E+07         0.88826E+07         0.00000E+00
    0.00000E+00         0.00000E+00         0.00000E+00
 
    0.44138E+05         0.20132E+07         0.00000E+00
    0.20132E+07         0.88873E+07         0.00000E+00
    0.00000E+00         0.00000E+00         0.00000E+00
 
    0.45136E+05         0.20922E+07         0.00000E+00
    0.20922E+07         0.88920E+07         0.00000E+00
    0.00000E+00         0.00000E+00         0.00000E+00
 
    0.45743E+05         0.21716E+07         0.00000E+00
    0.21716E+07         0.88968E+07         0.00000E+00
    0.00000E+00         0.00000E+00         0.00000E+00
 
    0.45978E+05         0.22513E+07         0.00000E+00
    0.22513E+07         0.89015E+07         0.00000E+00
    0.00000E+00         0.00000E+00         0.00000E+00
 
    0.45860E+05         0.23313E+07         0.00000E+00
    0.23313E+07         0.89063E+07         0.00000E+00
    0.00000E+00         0.00000E+00         0.00000E+00
 
    0.45407E+05         0.24117E+07         0.00000E+00
    0.24117E+07         0.89110E+07         0.00000E+00
    0.00000E+00         0.00000E+00         0.00000E+00
 
    0.44637E+05         0.24925E+07         0.00000E+00
    0.24925E+07         0.89157E+07         0.00000E+00
    0.00000E+00         0.00000E+00         0.00000E+00
 
    0.43570E+05         0.25736E+07         0.00000E+00
    0.25736E+07         0.89203E+07         0.00000E+00
    0.00000E+00         0.00000E+00         0.00000E+00
 
    0.42224E+05         0.26551E+07         0.00000E+00
    0.26551E+07         0.89249E+07         0.00000E+00
    0.00000E+00         0.00000E+00         0.00000E+00
 
    0.40619E+05         0.27371E+07         0.00000E+00
    0.27371E+07         0.89293E+07         0.00000E+00
    0.00000E+00         0.00000E+00         0.00000E+00
 
    0.38773E+05         0.28194E+07         0.00000E+00
    0.28194E+07         0.89337E+07         0.00000E+00
    0.00000E+00         0.00000E+00         0.00000E+00
 
    0.36705E+05         0.29021E+07         0.00000E+00
    0.29021E+07         0.89380E+07         0.00000E+00
    0.00000E+00         0.00000E+00         0.00000E+00
 
    0.34434E+05         0.29852E+07         0.00000E+00
    0.29852E+07         0.89422E+07         0.00000E+00
    0.00000E+00         0.00000E+00         0.00000E+00
 
    0.31981E+05         0.30688E+07         0.00000E+00
    0.30688E+07         0.89462E+07         0.00000E+00
    0.00000E+00         0.00000E+00         0.00000E+00
 
    0.29363E+05         0.31528E+07         0.00000E+00
    0.31528E+07         0.89501E+07         0.00000E+00
    0.00000E+00         0.00000E+00         0.00000E+00
 
    0.26601E+05         0.32372E+07         0.00000E+00
    0.32372E+07         0.89538E+07         0.00000E+00
    0.00000E+00         0.00000E+00         0.00000E+00
 
    0.23713E+05         0.33220E+07         0.00000E+00
    0.33220E+07         0.89573E+07         0.00000E+00
    0.00000E+00         0.00000E+00         0.00000E+00
 
    0.20719E+05         0.34073E+07         0.00000E+00
    0.34073E+07         0.89606E+07         0.00000E+00
    0.00000E+00         0.00000E+00         0.00000E+00
 
    0.17637E+05         0.34930E+07         0.00000E+00
    0.34930E+07         0.89638E+07         0.00000E+00
    0.00000E+00         0.00000E+00         0.00000E+00
 
    0.14489E+05         0.35792E+07         0.00000E+00
    0.35792E+07         0.89667E+07         0.00000E+00
    0.00000E+00         0.00000E+00         0.00000E+00
 
    0.11292E+05         0.36658E+07         0.00000E+00
    0.36658E+07         0.89694E+07         0.00000E+00
    0.00000E+00         0.00000E+00         0.00000E+00
 
    0.80665E+04         0.37528E+07         0.00000E+00
    0.37528E+07         0.89718E+07         0.00000E+00
    0.00000E+00         0.00000E+00         0.00000E+00
 
    0.48318E+04         0.38403E+07         0.00000E+00
    0.38403E+07         0.89740E+07         0.00000E+00
    0.00000E+00         0.00000E+00         0.00000E+00
 
    0.16073E+04         0.39283E+07         0.00000E+00
    0.39283E+07         0.89759E+07         0.00000E+00
    0.00000E+00         0.00000E+00         0.00000E+00
 
   -0.23484E+06         0.38059E+05         0.00000E+00
    0.38059E+05         0.83698E+07         0.00000E+00
    0.00000E+00         0.00000E+00         0.00000E+00
 
   -0.21848E+06         0.11396E+06         0.00000E+00
    0.11396E+06         0.83700E+07         0.00000E+00
    0.00000E+00         0.00000E+00         0.00000E+00
 
   -0.20278E+06         0.18980E+06         0.00000E+00
    0.18980E+06         0.83705E+07         0.00000E+00
    0.00000E+00         0.00000E+00         0.00000E+00
 
   -0.18774E+06         0.26561E+06         0.00000E+00
    0.26561E+06         0.83712E+07         0.00000E+00
    0.00000E+00         0.00000E+00         0.00000E+00
 
   -0.17334E+06         0.34138E+06         0.00000E+00
    0.34138E+06         0.83722E+07         0.00000E+00
    0.00000E+00         0.00000E+00         0.00000E+00
 
   -0.15959E+06         0.41716E+06         0.00000E+00
    0.41716E+06         0.83734E+07         0.00000E+00
    0.00000E+00         0.00000E+00         0.00000E+00
 
   -0.14647E+06         0.49293E+06         0.00000E+00
    0.49293E+06         0.83747E+07         0.00000E+00
    0.00000E+00         0.00000E+00         0.00000E+00
 
   -0.13398E+06         0.56874E+06         0.00000E+00
    0.56874E+06         0.83764E+07         0.00000E+00
    0.00000E+00         0.00000E+00         0.00000E+00
 
   -0.12210E+06         0.64458E+06         0.00000E+00
    0.64458E+06         0.83782E+07         0.00000E+00
    0.00000E+00         0.00000E+00         0.00000E+00
 
   -0.11083E+06         0.72047E+06         0.00000E+00
    0.72047E+06         0.83802E+07         0.00000E+00
    0.00000E+00         0.00000E+00         0.00000E+00
 
   -0.10016E+06         0.79643E+06         0.00000E+00
    0.79643E+06         0.83823E+07         0.00000E+00
    0.00000E+00         0.00000E+00         0.00000E+00
 
   -0.90066E+05         0.87248E+06         0.00000E+00
    0.87248E+06         0.83847E+07         0.00000E+00
    0.00000E+00         0.00000E+00         0.00000E+00
 
   -0.80550E+05         0.94863E+06         0.00000E+00
    0.94863E+06         0.83872E+07         0.00000E+00
    0.00000E+00         0.00000E+00         0.00000E+00
 
   -0.71596E+05         0.10249E+07         0.00000E+00
    0.10249E+07         0.83899E+07         0.00000E+00
    0.00000E+00         0.00000E+00         0.00000E+00
 
   -0.63192E+05         0.11013E+07         0.00000E+00
    0.11013E+07         0.83928E+07         0.00000E+00
    0.00000E+00         0.00000E+00         0.00000E+00
 
   -0.55327E+05         0.11778E+07         0.00000E+00
    0.11778E+07         0.83958E+07         0.00000E+00
    0.00000E+00         0.00000E+00         0.00000E+00
 
   -0.47987E+05         0.12545E+07         0.00000E+00
    0.12545E+07         0.83989E+07         0.00000E+00
    0.00000E+00         0.00000E+00         0.00000E+00
 
   -0.41158E+05         0.13313E+07         0.00000E+00
    0.13313E+07         0.84021E+07         0.00000E+00
    0.00000E+00         0.00000E+00         0.00000E+00
 
   -0.34828E+05         0.14083E+07         0.00000E+00
    0.14083E+07         0.84055E+07         0.00000E+00
    0.00000E+00         0.00000E+00         0.00000E+00
 
   -0.28981E+05         0.14855E+07         0.00000E+00
    0.14855E+07         0.84089E+07         0.00000E+00
    0.00000E+00         0.00000E+00         0.00000E+00
 
   -0.23605E+05         0.15629E+07         0.00000E+00
    0.15629E+07         0.84124E+07         0.00000E+00
    0.00000E+00         0.00000E+00         0.00000E+00
 
   -0.18684E+05         0.16405E+07         0.00000E+00
    0.16405E+07         0.84160E+07         0.00000E+00
    0.00000E+00         0.00000E+00         0.00000E+00
 
   -0.14203E+05         0.17183E+07         0.00000E+00
    0.17183E+07         0.84197E+07         0.00000E+00
    0.00000E+00         0.00000E+00         0.00000E+00
 
   -0.10147E+05         0.17964E+07         0.00000E+00
    0.17964E+07         0.84235E+07         0.00000E+00
    0.00000E+00         0.00000E+00         0.00000E+00
 
   -0.65001E+04         0.18747E+07         0.00000E+00
    0.18747E+07         0.84272E+07         0.00000E+00
    0.00000E+00         0.00000E+00         0.00000E+00
 
   -0.32475E+04         0.19533E+07         0.00000E+00
    0.19533E+07         0.84311E+07         0.00000E+00
    0.00000E+00         0.00000E+00         0.00000E+00
 
   -0.37279E+03         0.20321E+07         0.00000E+00
    0.20321E+07         0.84349E+07         0.00000E+00
    0.00000E+00         0.00000E+00         0.00000E+00
 
    0.21402E+04         0.21112E+07         0.00000E+00
    0.21112E+07         0.84387E+07         0.00000E+00
    0.00000E+00         0.00000E+00         0.00000E+00
 
    0.43078E+04         0.21905E+07         0.00000E+00
    0.21905E+07         0.84426E+07         0.00000E+00
    0.00000E+00         0.00000E+00         0.00000E+00
 
    0.61465E+04         0.22702E+07         0.00000E+00
    0.22702E+07         0.84464E+07         0.00000E+00
    0.00000E+00         0.00000E+00         0.00000E+00
 
    0.76730E+04         0.23501E+07         0.00000E+00
    0.23501E+07         0.84502E+07         0.00000E+00
    0.00000E+00         0.00000E+00         0.00000E+00
 
    0.89044E+04         0.24304E+07         0.00000E+00
    0.24304E+07         0.84539E+07         0.00000E+00
    0.00000E+00         0.00000E+00         0.00000E+00
 
    0.98574E+04         0.25110E+07         0.00000E+00
    0.25110E+07         0.84577E+07         0.00000E+00
    0.00000E+00         0.00000E+00         0.00000E+00
 
    0.10549E+05         0.25919E+07         0.00000E+00
    0.25919E+07         0.84613E+07         0.00000E+00
    0.00000E+00         0.00000E+00         0.00000E+00
 
    0.10998E+05         0.26731E+07         0.00000E+00
    0.26731E+07         0.84648E+07         0.00000E+00
    0.00000E+00         0.00000E+00         0.00000E+00
 
    0.11219E+05         0.27546E+07         0.00000E+00
    0.27546E+07         0.84683E+07         0.00000E+00
    0.00000E+00         0.00000E+00         0.00000E+00
 
    0.11232E+05         0.28365E+07         0.00000E+00
    0.28365E+07         0.84717E+07         0.00000E+00
    0.00000E+00         0.00000E+00         0.00000E+00
 
    0.11054E+05         0.29187E+07         0.00000E+00
    0.29187E+07         0.84749E+07         0.00000E+00
    0.00000E+00         0.00000E+00         0.00000E+00
 
    0.10702E+05         0.30013E+07         0.00000E+00
    0.30013E+07         0.84780E+07         0.00000E+00
    0.00000E+00         0.00000E+00         0.00000E+00
 
    0.10194E+05         0.30843E+07         0.00000E+00
    0.30843E+07         0.84810E+07         0.00000E+00
    0.00000E+00         0.00000E+00         0.00000E+00
 
    0.95488E+04         0.31676E+07         0.00000E+00
    0.31676E+07         0.84838E+07         0.00000E+00
    0.00000E+00         0.00000E+00         0.00000E+00
 
    0.87834E+04         0.32512E+07         0.00000E+00
    0.32512E+07         0.84865E+07         0.00000E+00
    0.00000E+00         0.00000E+00         0.00000E+00
 
    0.79161E+04         0.33353E+07         0.00000E+00
    0.33353E+07         0.84889E+07         0.00000E+00
    0.00000E+00         0.00000E+00         0.00000E+00
 
    0.69652E+04         0.34197E+07         0.00000E+00
    0.34197E+07         0.84912E+07         0.00000E+00
    0.00000E+00         0.00000E+00         0.00000E+00
 
    0.59487E+04         0.35045E+07         0.00000E+00
    0.35045E+07         0.84933E+07         0.00000E+00
    0.00000E+00         0.00000E+00         0.00000E+00
 
    0.48850E+04         0.35896E+07         0.00000E+00
    0.35896E+07         0.84951E+07         0.00000E+00
    0.00000E+00         0.00000E+00         0.00000E+00
 
    0.37923E+04         0.36752E+07         0.00000E+00
    0.36752E+07         0.84967E+07         0.00000E+00
    0.00000E+00         0.00000E+00         0.00000E+00
 
    0.26892E+04         0.37612E+07         0.00000E+00
    0.37612E+07         0.84981E+07         0.00000E+00
    0.00000E+00         0.00000E+00         0.00000E+00
 
    0.15940E+04         0.38475E+07         0.00000E+00
    0.38475E+07         0.84992E+07         0.00000E+00
    0.00000E+00         0.00000E+00         0.00000E+00
 
    0.52536E+03         0.39342E+07         0.00000E+00
    0.39342E+07         0.85000E+07         0.00000E+00
    0.00000E+00         0.00000E+00         0.00000E+00
 
   -0.28526E+06         0.38528E+05         0.00000E+00
    0.38528E+05         0.79373E+07         0.00000E+00
    0.00000E+00         0.00000E+00         0.00000E+00
 
   -0.26926E+06         0.11533E+06         0.00000E+00
    0.11533E+06         0.79375E+07         0.00000E+00
    0.00000E+00         0.00000E+00         0.00000E+00
 
   -0.25385E+06         0.19207E+06         0.00000E+00
    0.19207E+06         0.79379E+07         0.00000E+00
    0.00000E+00         0.00000E+00         0.00000E+00
 
   -0.23902E+06         0.26874E+06         0.00000E+00
    0.26874E+06         0.79385E+07         0.00000E+00
    0.00000E+00         0.00000E+00         0.00000E+00
 
   -0.22476E+06         0.34538E+06         0.00000E+00
    0.34538E+06         0.79393E+07         0.00000E+00
    0.00000E+00         0.00000E+00         0.00000E+00
 
   -0.21106E+06         0.42198E+06         0.00000E+00
    0.42198E+06         0.79403E+07         0.00000E+00
    0.00000E+00         0.00000E+00         0.00000E+00
 
   -0.19793E+06         0.49857E+06         0.00000E+00
    0.49857E+06         0.79415E+07         0.00000E+00
    0.00000E+00         0.00000E+00         0.00000E+00
 
   -0.18534E+06         0.57516E+06         0.00000E+00
    0.57516E+06         0.79428E+07         0.00000E+00
    0.00000E+00         0.00000E+00         0.00000E+00
 
   -0.17330E+06         0.65177E+06         0.00000E+00
    0.65177E+06         0.79443E+07         0.00000E+00
    0.00000E+00         0.00000E+00         0.00000E+00
 
   -0.16180E+06         0.72840E+06         0.00000E+00
    0.72840E+06         0.79460E+07         0.00000E+00
    0.00000E+00         0.00000E+00         0.00000E+00
 
   -0.15082E+06         0.80506E+06         0.00000E+00
    0.80506E+06         0.79478E+07         0.00000E+00
    0.00000E+00         0.00000E+00         0.00000E+00
 
   -0.14037E+06         0.88178E+06         0.00000E+00
    0.88178E+06         0.79498E+07         0.00000E+00
    0.00000E+00         0.00000E+00         0.00000E+00
 
   -0.13041E+06         0.95857E+06         0.00000E+00
    0.95857E+06         0.79519E+07         0.00000E+00
    0.00000E+00         0.00000E+00         0.00000E+00
 
   -0.12096E+06         0.10354E+07         0.00000E+00
    0.10354E+07         0.79542E+07         0.00000E+00
    0.00000E+00         0.00000E+00         0.00000E+00
 
   -0.11199E+06         0.11124E+07         0.00000E+00
    0.11124E+07         0.79565E+07         0.00000E+00
    0.00000E+00         0.00000E+00         0.00000E+00
 
   -0.10350E+06         0.11894E+07         0.00000E+00
    0.11894E+07         0.79590E+07         0.00000E+00
    0.00000E+00         0.00000E+00         0.00000E+00
 
   -0.95476E+05         0.12666E+07         0.00000E+00
    0.12666E+07         0.79616E+07         0.00000E+00
    0.00000E+00         0.00000E+00         0.00000E+00
 
   -0.87902E+05         0.13439E+07         0.00000E+00
    0.13439E+07         0.79642E+07         0.00000E+00
    0.00000E+00         0.00000E+00         0.00000E+00
 
   -0.80769E+05         0.14213E+07         0.00000E+00
    0.14213E+07         0.79670E+07         0.00000E+00
    0.00000E+00         0.00000E+00         0.00000E+00
 
   -0.74064E+05         0.14989E+07         0.00000E+00
    0.14989E+07         0.79698E+07         0.00000E+00
    0.00000E+00         0.00000E+00         0.00000E+00
 
   -0.67775E+05         0.15766E+07         0.00000E+00
    0.15766E+07         0.79727E+07         0.00000E+00
    0.00000E+00         0.00000E+00         0.00000E+00
 
   -0.61888E+05         0.16545E+07         0.00000E+00
    0.16545E+07         0.79757E+07         0.00000E+00
    0.00000E+00         0.00000E+00         0.00000E+00
 
   -0.56390E+05         0.17326E+07         0.00000E+00
    0.17326E+07         0.79787E+07         0.00000E+00
    0.00000E+00         0.00000E+00         0.00000E+00
 
   -0.51268E+05         0.18108E+07         0.00000E+00
    0.18108E+07         0.79817E+07         0.00000E+00
    0.00000E+00         0.00000E+00         0.00000E+00
 
   -0.46508E+05         0.18893E+07         0.00000E+00
    0.18893E+07         0.79848E+07         0.00000E+00
    0.00000E+00         0.00000E+00         0.00000E+00
 
   -0.42095E+05         0.19679E+07         0.00000E+00
    0.19679E+07         0.79878E+07         0.00000E+00
    0.00000E+00         0.00000E+00         0.00000E+00
 
   -0.38015E+05         0.20468E+07         0.00000E+00
    0.20468E+07         0.79909E+07         0.00000E+00
    0.00000E+00         0.00000E+00         0.00000E+00
 
   -0.34254E+05         0.21259E+07         0.00000E+00
    0.21259E+07         0.79940E+07         0.00000E+00
    0.00000E+00         0.00000E+00         0.00000E+00
 
   -0.30796E+05         0.22052E+07         0.00000E+00
    0.22052E+07         0.79970E+07         0.00000E+00
    0.00000E+00         0.00000E+00         0.00000E+00
 
   -0.27628E+05         0.22847E+07         0.00000E+00
    0.22847E+07         0.80000E+07         0.00000E+00
    0.00000E+00         0.00000E+00         0.00000E+00
 
   -0.24733E+05         0.23645E+07         0.00000E+00
    0.23645E+07         0.80030E+07         0.00000E+00
    0.00000E+00         0.00000E+00         0.00000E+00
 
   -0.22096E+05         0.24446E+07         0.00000E+00
    0.24446E+07         0.80059E+07         0.00000E+00
    0.00000E+00         0.00000E+00         0.00000E+00
 
   -0.19702E+05         0.25249E+07         0.00000E+00
    0.25249E+07         0.80088E+07         0.00000E+00
    0.00000E+00         0.00000E+00         0.00000E+00
 
   -0.17535E+05         0.26055E+07         0.00000E+00
    0.26055E+07         0.80115E+07         0.00000E+00
    0.00000E+00         0.00000E+00         0.00000E+00
 
   -0.15579E+05         0.26863E+07         0.00000E+00
    0.26863E+07         0.80142E+07         0.00000E+00
    0.00000E+00         0.00000E+00         0.00000E+00
 
   -0.13818E+05         0.27674E+07         0.00000E+00
    0.27674E+07         0.80168E+07         0.00000E+00
    0.00000E+00         0.00000E+00         0.00000E+00
 
   -0.12236E+05         0.28488E+07         0.00000E+00
    0.28488E+07         0.80193E+07         0.00000E+00
    0.00000E+00         0.00000E+00         0.00000E+00
 
   -0.10817E+05         0.29305E+07         0.00000E+00
    0.29305E+07         0.80216E+07         0.00000E+00
    0.00000E+00         0.00000E+00         0.00000E+00
 
   -0.95445E+04         0.30125E+07         0.00000E+00
    0.30125E+07         0.80238E+07         0.00000E+00
    0.00000E+00         0.00000E+00         0.00000E+00
 
   -0.84016E+04         0.30948E+07         0.00000E+00
    0.30948E+07         0.80259E+07         0.00000E+00
    0.00000E+00         0.00000E+00         0.00000E+00
 
   -0.73719E+04         0.31774E+07         0.00000E+00
    0.31774E+07         0.80278E+07         0.00000E+00
    0.00000E+00         0.00000E+00         0.00000E+00
 
   -0.64387E+04         0.32603E+07         0.00000E+00
    0.32603E+07         0.80295E+07         0.00000E+00
    0.00000E+00         0.00000E+00         0.00000E+00
 
   -0.55851E+04         0.33435E+07         0.00000E+00
    0.33435E+07         0.80311E+07         0.00000E+00
    0.00000E+00         0.00000E+00         0.00000E+00
 
   -0.47941E+04         0.34271E+07         0.00000E+00
    0.34271E+07         0.80324E+07         0.00000E+00
    0.00000E+00         0.00000E+00         0.00000E+00
 
   -0.40487E+04         0.35109E+07         0.00000E+00
    0.35109E+07         0.80336E+07         0.00000E+00
    0.00000E+00         0.00000E+00         0.00000E+00
 
   -0.33317E+04         0.35951E+07         0.00000E+00
    0.35951E+07         0.80345E+07         0.00000E+00
    0.00000E+00         0.00000E+00         0.00000E+00
 
   -0.26259E+04         0.36796E+07         0.00000E+00
    0.36796E+07         0.80351E+07         0.00000E+00
    0.00000E+00         0.00000E+00         0.00000E+00
 
   -0.19138E+04         0.37644E+07         0.00000E+00
    0.37644E+07         0.80356E+07         0.00000E+00
    0.00000E+00         0.00000E+00         0.00000E+00
 
   -0.11781E+04         0.38496E+07         0.00000E+00
    0.38496E+07         0.80357E+07         0.00000E+00
    0.00000E+00         0.00000E+00         0.00000E+00
 
   -0.40104E+03         0.39351E+07         0.00000E+00
    0.39351E+07         0.80356E+07         0.00000E+00
    0.00000E+00         0.00000E+00         0.00000E+00
 
   -0.32503E+06         0.38907E+05         0.00000E+00
    0.38907E+05         0.75114E+07         0.00000E+00
    0.00000E+00         0.00000E+00         0.00000E+00
 
   -0.30946E+06         0.11644E+06         0.00000E+00
    0.11644E+06         0.75115E+07         0.00000E+00
    0.00000E+00         0.00000E+00         0.00000E+00
 
   -0.29441E+06         0.19390E+06         0.00000E+00
    0.19390E+06         0.75119E+07         0.00000E+00
    0.00000E+00         0.00000E+00         0.00000E+00
 
   -0.27986E+06         0.27128E+06         0.00000E+00
    0.27128E+06         0.75124E+07         0.00000E+00
    0.00000E+00         0.00000E+00         0.00000E+00
 
   -0.26583E+06         0.34860E+06         0.00000E+00
    0.34860E+06         0.75131E+07         0.00000E+00
    0.00000E+00         0.00000E+00         0.00000E+00
 
   -0.25229E+06         0.42587E+06         0.00000E+00
    0.42587E+06         0.75139E+07         0.00000E+00
    0.00000E+00         0.00000E+00         0.00000E+00
 
   -0.23925E+06         0.50311E+06         0.00000E+00
    0.50311E+06         0.75149E+07         0.00000E+00
    0.00000E+00         0.00000E+00         0.00000E+00
 
   -0.22670E+06         0.58033E+06         0.00000E+00
    0.58033E+06         0.75160E+07         0.00000E+00
    0.00000E+00         0.00000E+00         0.00000E+00
 
   -0.21462E+06         0.65754E+06         0.00000E+00
    0.65754E+06         0.75173E+07         0.00000E+00
    0.00000E+00         0.00000E+00         0.00000E+00
 
   -0.20303E+06         0.73475E+06         0.00000E+00
    0.73475E+06         0.75187E+07         0.00000E+00
    0.00000E+00         0.00000E+00         0.00000E+00
 
   -0.19189E+06         0.81197E+06         0.00000E+00
    0.81197E+06         0.75202E+07         0.00000E+00
    0.00000E+00         0.00000E+00         0.00000E+00
 
   -0.18122E+06         0.88921E+06         0.00000E+00
    0.88921E+06         0.75218E+07         0.00000E+00
    0.00000E+00         0.00000E+00         0.00000E+00
 
   -0.17099E+06         0.96650E+06         0.00000E+00
    0.96650E+06         0.75236E+07         0.00000E+00
    0.00000E+00         0.00000E+00         0.00000E+00
 
   -0.16121E+06         0.10438E+07         0.00000E+00
    0.10438E+07         0.75254E+07         0.00000E+00
    0.00000E+00         0.00000E+00         0.00000E+00
 
   -0.15185E+06         0.11212E+07         0.00000E+00
    0.11212E+07         0.75274E+07         0.00000E+00
    0.00000E+00         0.00000E+00         0.00000E+00
 
   -0.14292E+06         0.11987E+07         0.00000E+00
    0.11987E+07         0.75294E+07         0.00000E+00
    0.00000E+00         0.00000E+00         0.00000E+00
 
   -0.13439E+06         0.12762E+07         0.00000E+00
    0.12762E+07         0.75315E+07         0.00000E+00
    0.00000E+00         0.00000E+00         0.00000E+00
 
   -0.12627E+06         0.13538E+07         0.00000E+00
    0.13538E+07         0.75337E+07         0.00000E+00
    0.00000E+00         0.00000E+00         0.00000E+00
 
   -0.11853E+06         0.14315E+07         0.00000E+00
    0.14315E+07         0.75359E+07         0.00000E+00
    0.00000E+00         0.00000E+00         0.00000E+00
 
   -0.11117E+06         0.15094E+07         0.00000E+00
    0.15094E+07         0.75382E+07         0.00000E+00
    0.00000E+00         0.00000E+00         0.00000E+00
 
   -0.10418E+06         0.15873E+07         0.00000E+00
    0.15873E+07         0.75406E+07         0.00000E+00
    0.00000E+00         0.00000E+00         0.00000E+00
 
   -0.97547E+05         0.16654E+07         0.00000E+00
    0.16654E+07         0.75430E+07         0.00000E+00
    0.00000E+00         0.00000E+00         0.00000E+00
 
   -0.91254E+05         0.17436E+07         0.00000E+00
    0.17436E+07         0.75454E+07         0.00000E+00
    0.00000E+00         0.00000E+00         0.00000E+00
 
   -0.85292E+05         0.18219E+07         0.00000E+00
    0.18219E+07         0.75478E+07         0.00000E+00
    0.00000E+00         0.00000E+00         0.00000E+00
 
   -0.79648E+05         0.19004E+07         0.00000E+00
    0.19004E+07         0.75502E+07         0.00000E+00
    0.00000E+00         0.00000E+00         0.00000E+00
 
   -0.74309E+05         0.19791E+07         0.00000E+00
    0.19791E+07         0.75526E+07         0.00000E+00
    0.00000E+00         0.00000E+00         0.00000E+00
 
   -0.69263E+05         0.20579E+07         0.00000E+00
    0.20579E+07         0.75551E+07         0.00000E+00
    0.00000E+00         0.00000E+00         0.00000E+00
 
   -0.64496E+05         0.21369E+07         0.00000E+00
    0.21369E+07         0.75575E+07         0.00000E+00
    0.00000E+00         0.00000E+00         0.00000E+00
 
   -0.59995E+05         0.22161E+07         0.00000E+00
    0.22161E+07         0.75598E+07         0.00000E+00
    0.00000E+00         0.00000E+00         0.00000E+00
 
   -0.55746E+05         0.22955E+07         0.00000E+00
    0.22955E+07         0.75621E+07         0.00000E+00
    0.00000E+00         0.00000E+00         0.00000E+00
 
   -0.51735E+05         0.23751E+07         0.00000E+00
    0.23751E+07         0.75644E+07         0.00000E+00
    0.00000E+00         0.00000E+00         0.00000E+00
 
   -0.47949E+05         0.24549E+07         0.00000E+00
    0.24549E+07         0.75666E+07         0.00000E+00
    0.00000E+00         0.00000E+00         0.00000E+00
 
   -0.44372E+05         0.25349E+07         0.00000E+00
    0.25349E+07         0.75687E+07         0.00000E+00
    0.00000E+00         0.00000E+00         0.00000E+00
 
   -0.40992E+05         0.26151E+07         0.00000E+00
    0.26151E+07         0.75708E+07         0.00000E+00
    0.00000E+00         0.00000E+00         0.00000E+00
 
   -0.37792E+05         0.26955E+07         0.00000E+00
    0.26955E+07         0.75727E+07         0.00000E+00
    0.00000E+00         0.00000E+00         0.00000E+00
 
   -0.34759E+05         0.27761E+07         0.00000E+00
    0.27761E+07         0.75745E+07         0.00000E+00
    0.00000E+00         0.00000E+00         0.00000E+00
 
   -0.31877E+05         0.28570E+07         0.00000E+00
    0.28570E+07         0.75762E+07         0.00000E+00
    0.00000E+00         0.00000E+00         0.00000E+00
 
   -0.29132E+05         0.29382E+07         0.00000E+00
    0.29382E+07         0.75778E+07         0.00000E+00
    0.00000E+00         0.00000E+00         0.00000E+00
 
   -0.26508E+05         0.30195E+07         0.00000E+00
    0.30195E+07         0.75793E+07         0.00000E+00
    0.00000E+00         0.00000E+00         0.00000E+00
 
   -0.23990E+05         0.31011E+07         0.00000E+00
    0.31011E+07         0.75805E+07         0.00000E+00
    0.00000E+00         0.00000E+00         0.00000E+00
 
   -0.21563E+05         0.31830E+07         0.00000E+00
    0.31830E+07         0.75817E+07         0.00000E+00
    0.00000E+00         0.00000E+00         0.00000E+00
 
   -0.19210E+05         0.32651E+07         0.00000E+00
    0.32651E+07         0.75826E+07         0.00000E+00
    0.00000E+00         0.00000E+00         0.00000E+00
 
   -0.16917E+05         0.33475E+07         0.00000E+00
    0.33475E+07         0.75834E+07         0.00000E+00
    0.00000E+00         0.00000E+00         0.00000E+00
 
   -0.14668E+05         0.34301E+07         0.00000E+00
    0.34301E+07         0.75839E+07         0.00000E+00
    0.00000E+00         0.00000E+00         0.00000E+00
 
   -0.12445E+05         0.35131E+07         0.00000E+00
    0.35131E+07         0.75842E+07         0.00000E+00
    0.00000E+00         0.00000E+00         0.00000E+00
 
   -0.10235E+05         0.35962E+07         0.00000E+00
    0.35962E+07         0.75844E+07         0.00000E+00
    0.00000E+00         0.00000E+00         0.00000E+00
 
   -0.80190E+04         0.36797E+07         0.00000E+00
    0.36797E+07         0.75842E+07         0.00000E+00
    0.00000E+00         0.00000E+00         0.00000E+00
 
   -0.57823E+04         0.37634E+07         0.00000E+00
    0.37634E+07         0.75839E+07         0.00000E+00
    0.00000E+00         0.00000E+00         0.00000E+00
 
   -0.35081E+04         0.38474E+07         0.00000E+00
    0.38474E+07         0.75832E+07         0.00000E+00
    0.00000E+00         0.00000E+00         0.00000E+00
 
   -0.11798E+04         0.39317E+07         0.00000E+00
    0.39317E+07         0.75823E+07         0.00000E+00
    0.00000E+00         0.00000E+00         0.00000E+00
 
   -0.35505E+06         0.39212E+05         0.00000E+00
    0.39212E+05         0.70919E+07         0.00000E+00
    0.00000E+00         0.00000E+00         0.00000E+00
 
   -0.33996E+06         0.11733E+06         0.00000E+00
    0.11733E+06         0.70920E+07         0.00000E+00
    0.00000E+00         0.00000E+00         0.00000E+00
 
   -0.32533E+06         0.19535E+06         0.00000E+00
    0.19535E+06         0.70923E+07         0.00000E+00
    0.00000E+00         0.00000E+00         0.00000E+00
 
   -0.31115E+06         0.27329E+06         0.00000E+00
    0.27329E+06         0.70928E+07         0.00000E+00
    0.00000E+00         0.00000E+00         0.00000E+00
 
   -0.29742E+06         0.35116E+06         0.00000E+00
    0.35116E+06         0.70933E+07         0.00000E+00
    0.00000E+00         0.00000E+00         0.00000E+00
 
   -0.28413E+06         0.42896E+06         0.00000E+00
    0.42896E+06         0.70940E+07         0.00000E+00
    0.00000E+00         0.00000E+00         0.00000E+00
 
   -0.27128E+06         0.50671E+06         0.00000E+00
    0.50671E+06         0.70948E+07         0.00000E+00
    0.00000E+00         0.00000E+00         0.00000E+00
 
   -0.25886E+06         0.58442E+06         0.00000E+00
    0.58442E+06         0.70958E+07         0.00000E+00
    0.00000E+00         0.00000E+00         0.00000E+00
 
   -0.24687E+06         0.66210E+06         0.00000E+00
    0.66210E+06         0.70968E+07         0.00000E+00
    0.00000E+00         0.00000E+00         0.00000E+00
 
   -0.23530E+06         0.73976E+06         0.00000E+00
    0.73976E+06         0.70980E+07         0.00000E+00
    0.00000E+00         0.00000E+00         0.00000E+00
 
   -0.22414E+06         0.81741E+06         0.00000E+00
    0.81741E+06         0.70992E+07         0.00000E+00
    0.00000E+00         0.00000E+00         0.00000E+00
 
   -0.21339E+06         0.89505E+06         0.00000E+00
    0.89505E+06         0.71006E+07         0.00000E+00
    0.00000E+00         0.00000E+00         0.00000E+00
 
   -0.20303E+06         0.97271E+06         0.00000E+00
    0.97271E+06         0.71020E+07         0.00000E+00
    0.00000E+00         0.00000E+00         0.00000E+00
 
   -0.19306E+06         0.10504E+07         0.00000E+00
    0.10504E+07         0.71035E+07         0.00000E+00
    0.00000E+00         0.00000E+00         0.00000E+00
 
   -0.18347E+06         0.11281E+07         0.00000E+00
    0.11281E+07         0.71051E+07         0.00000E+00
    0.00000E+00         0.00000E+00         0.00000E+00
 
   -0.17425E+06         0.12058E+07         0.00000E+00
    0.12058E+07         0.71068E+07         0.00000E+00
    0.00000E+00         0.00000E+00         0.00000E+00
 
   -0.16540E+06         0.12836E+07         0.00000E+00
    0.12836E+07         0.71085E+07         0.00000E+00
    0.00000E+00         0.00000E+00         0.00000E+00
 
   -0.15690E+06         0.13615E+07         0.00000E+00
    0.13615E+07         0.71103E+07         0.00000E+00
    0.00000E+00         0.00000E+00         0.00000E+00
 
   -0.14874E+06         0.14394E+07         0.00000E+00
    0.14394E+07         0.71121E+07         0.00000E+00
    0.00000E+00         0.00000E+00         0.00000E+00
 
   -0.14091E+06         0.15174E+07         0.00000E+00
    0.15174E+07         0.71139E+07         0.00000E+00
    0.00000E+00         0.00000E+00         0.00000E+00
 
   -0.13341E+06         0.15955E+07         0.00000E+00
    0.15955E+07         0.71158E+07         0.00000E+00
    0.00000E+00         0.00000E+00         0.00000E+00
 
   -0.12622E+06         0.16736E+07         0.00000E+00
    0.16736E+07         0.71177E+07         0.00000E+00
    0.00000E+00         0.00000E+00         0.00000E+00
 
   -0.11933E+06         0.17519E+07         0.00000E+00
    0.17519E+07         0.71196E+07         0.00000E+00
    0.00000E+00         0.00000E+00         0.00000E+00
 
   -0.11273E+06         0.18302E+07         0.00000E+00
    0.18302E+07         0.71215E+07         0.00000E+00
    0.00000E+00         0.00000E+00         0.00000E+00
 
   -0.10642E+06         0.19087E+07         0.00000E+00
    0.19087E+07         0.71234E+07         0.00000E+00
    0.00000E+00         0.00000E+00         0.00000E+00
 
   -0.10036E+06         0.19873E+07         0.00000E+00
    0.19873E+07         0.71253E+07         0.00000E+00
    0.00000E+00         0.00000E+00         0.00000E+00
 
   -0.94569E+05         0.20660E+07         0.00000E+00
    0.20660E+07         0.71271E+07         0.00000E+00
    0.00000E+00         0.00000E+00         0.00000E+00
 
   -0.89017E+05         0.21449E+07         0.00000E+00
    0.21449E+07         0.71290E+07         0.00000E+00
    0.00000E+00         0.00000E+00         0.00000E+00
 
   -0.83697E+05         0.22239E+07         0.00000E+00
    0.22239E+07         0.71307E+07         0.00000E+00
    0.00000E+00         0.00000E+00         0.00000E+00
 
   -0.78596E+05         0.23030E+07         0.00000E+00
    0.23030E+07         0.71325E+07         0.00000E+00
    0.00000E+00         0.00000E+00         0.00000E+00
 
   -0.73701E+05         0.23824E+07         0.00000E+00
    0.23824E+07         0.71341E+07         0.00000E+00
    0.00000E+00         0.00000E+00         0.00000E+00
 
   -0.68999E+05         0.24618E+07         0.00000E+00
    0.24618E+07         0.71357E+07         0.00000E+00
    0.00000E+00         0.00000E+00         0.00000E+00
 
   -0.64479E+05         0.25414E+07         0.00000E+00
    0.25414E+07         0.71372E+07         0.00000E+00
    0.00000E+00         0.00000E+00         0.00000E+00
 
   -0.60125E+05         0.26212E+07         0.00000E+00
    0.26212E+07         0.71386E+07         0.00000E+00
    0.00000E+00         0.00000E+00         0.00000E+00
 
   -0.55925E+05         0.27012E+07         0.00000E+00
    0.27012E+07         0.71399E+07         0.00000E+00
    0.00000E+00         0.00000E+00         0.00000E+00
 
   -0.51866E+05         0.27814E+07         0.00000E+00
    0.27814E+07         0.71411E+07         0.00000E+00
    0.00000E+00         0.00000E+00         0.00000E+00
 
   -0.47933E+05         0.28617E+07         0.00000E+00
    0.28617E+07         0.71422E+07         0.00000E+00
    0.00000E+00         0.00000E+00         0.00000E+00
 
   -0.44113E+05         0.29422E+07         0.00000E+00
    0.29422E+07         0.71431E+07         0.00000E+00
    0.00000E+00         0.00000E+00         0.00000E+00
 
   -0.40392E+05         0.30230E+07         0.00000E+00
    0.30230E+07         0.71439E+07         0.00000E+00
    0.00000E+00         0.00000E+00         0.00000E+00
 
   -0.36756E+05         0.31039E+07         0.00000E+00
    0.31039E+07         0.71445E+07         0.00000E+00
    0.00000E+00         0.00000E+00         0.00000E+00
 
   -0.33189E+05         0.31850E+07         0.00000E+00
    0.31850E+07         0.71450E+07         0.00000E+00
    0.00000E+00         0.00000E+00         0.00000E+00
 
   -0.29679E+05         0.32663E+07         0.00000E+00
    0.32663E+07         0.71453E+07         0.00000E+00
    0.00000E+00         0.00000E+00         0.00000E+00
 
   -0.26209E+05         0.33479E+07         0.00000E+00
    0.33479E+07         0.71454E+07         0.00000E+00
    0.00000E+00         0.00000E+00         0.00000E+00
 
   -0.22766E+05         0.34296E+07         0.00000E+00
    0.34296E+07         0.71453E+07         0.00000E+00
    0.00000E+00         0.00000E+00         0.00000E+00
 
   -0.19334E+05         0.35116E+07         0.00000E+00
    0.35116E+07         0.71449E+07         0.00000E+00
    0.00000E+00         0.00000E+00         0.00000E+00
 
   -0.15899E+05         0.35938E+07         0.00000E+00
    0.35938E+07         0.71444E+07         0.00000E+00
    0.00000E+00         0.00000E+00         0.00000E+00
 
   -0.12446E+05         0.36762E+07         0.00000E+00
    0.36762E+07         0.71436E+07         0.00000E+00
    0.00000E+00         0.00000E+00         0.00000E+00
 
   -0.89579E+04         0.37588E+07         0.00000E+00
    0.37588E+07         0.71426E+07         0.00000E+00
    0.00000E+00         0.00000E+00         0.00000E+00
 
   -0.54209E+04         0.38417E+07         0.00000E+00
    0.38417E+07         0.71413E+07         0.00000E+00
    0.00000E+00         0.00000E+00         0.00000E+00
 
   -0.18191E+04         0.39247E+07         0.00000E+00
    0.39247E+07         0.71398E+07         0.00000E+00
    0.00000E+00         0.00000E+00         0.00000E+00
 
   -0.37612E+06         0.39454E+05         0.00000E+00
    0.39454E+05         0.66788E+07         0.00000E+00
    0.00000E+00         0.00000E+00         0.00000E+00
 
   -0.36156E+06         0.11803E+06         0.00000E+00
    0.11803E+06         0.66789E+07         0.00000E+00
    0.00000E+00         0.00000E+00         0.00000E+00
 
   -0.34741E+06         0.19651E+06         0.00000E+00
    0.19651E+06         0.66791E+07         0.00000E+00
    0.00000E+00         0.00000E+00         0.00000E+00
 
   -0.33366E+06         0.27488E+06         0.00000E+00
    0.27488E+06         0.66795E+07         0.00000E+00
    0.00000E+00         0.00000E+00         0.00000E+00
 
   -0.32031E+06         0.35317E+06         0.00000E+00
    0.35317E+06         0.66800E+07         0.00000E+00
    0.00000E+00         0.00000E+00         0.00000E+00
 
   -0.30735E+06         0.43139E+06         0.00000E+00
    0.43139E+06         0.66805E+07         0.00000E+00
    0.00000E+00         0.00000E+00         0.00000E+00
 
   -0.29478E+06         0.50953E+06         0.00000E+00
    0.50953E+06         0.66812E+07         0.00000E+00
    0.00000E+00         0.00000E+00         0.00000E+00
 
   -0.28260E+06         0.58762E+06         0.00000E+00
    0.58762E+06         0.66820E+07         0.00000E+00
    0.00000E+00         0.00000E+00         0.00000E+00
 
   -0.27079E+06         0.66565E+06         0.00000E+00
    0.66565E+06         0.66829E+07         0.00000E+00
    0.00000E+00         0.00000E+00         0.00000E+00
 
   -0.25935E+06         0.74365E+06         0.00000E+00
    0.74365E+06         0.66838E+07         0.00000E+00
    0.00000E+00         0.00000E+00         0.00000E+00
 
   -0.24828E+06         0.82162E+06         0.00000E+00
    0.82162E+06         0.66848E+07         0.00000E+00
    0.00000E+00         0.00000E+00         0.00000E+00
 
   -0.23757E+06         0.89956E+06         0.00000E+00
    0.89956E+06         0.66859E+07         0.00000E+00
    0.00000E+00         0.00000E+00         0.00000E+00
 
   -0.22721E+06         0.97749E+06         0.00000E+00
    0.97749E+06         0.66871E+07         0.00000E+00
    0.00000E+00         0.00000E+00         0.00000E+00
 
   -0.21719E+06         0.10554E+07         0.00000E+00
    0.10554E+07         0.66884E+07         0.00000E+00
    0.00000E+00         0.00000E+00         0.00000E+00
 
   -0.20750E+06         0.11333E+07         0.00000E+00
    0.11333E+07         0.66897E+07         0.00000E+00
    0.00000E+00         0.00000E+00         0.00000E+00
 
   -0.19815E+06         0.12113E+07         0.00000E+00
    0.12113E+07         0.66910E+07         0.00000E+00
    0.00000E+00         0.00000E+00         0.00000E+00
 
   -0.18912E+06         0.12892E+07         0.00000E+00
    0.12892E+07         0.66924E+07         0.00000E+00
    0.00000E+00         0.00000E+00         0.00000E+00
 
   -0.18039E+06         0.13672E+07         0.00000E+00
    0.13672E+07         0.66938E+07         0.00000E+00
    0.00000E+00         0.00000E+00         0.00000E+00
 
   -0.17197E+06         0.14453E+07         0.00000E+00
    0.14453E+07         0.66952E+07         0.00000E+00
    0.00000E+00         0.00000E+00         0.00000E+00
 
   -0.16385E+06         0.15233E+07         0.00000E+00
    0.15233E+07         0.66967E+07         0.00000E+00
    0.00000E+00         0.00000E+00         0.00000E+00
 
   -0.15600E+06         0.16014E+07         0.00000E+00
    0.16014E+07         0.66982E+07         0.00000E+00
    0.00000E+00         0.00000E+00         0.00000E+00
 
   -0.14844E+06         0.16796E+07         0.00000E+00
    0.16796E+07         0.66997E+07         0.00000E+00
    0.00000E+00         0.00000E+00         0.00000E+00
 
   -0.14113E+06         0.17578E+07         0.00000E+00
    0.17578E+07         0.67011E+07         0.00000E+00
    0.00000E+00         0.00000E+00         0.00000E+00
 
   -0.13409E+06         0.18362E+07         0.00000E+00
    0.18362E+07         0.67026E+07         0.00000E+00
    0.00000E+00         0.00000E+00         0.00000E+00
 
   -0.12728E+06         0.19145E+07         0.00000E+00
    0.19145E+07         0.67041E+07         0.00000E+00
    0.00000E+00         0.00000E+00         0.00000E+00
 
   -0.12071E+06         0.19930E+07         0.00000E+00
    0.19930E+07         0.67055E+07         0.00000E+00
    0.00000E+00         0.00000E+00         0.00000E+00
 
   -0.11436E+06         0.20716E+07         0.00000E+00
    0.20716E+07         0.67069E+07         0.00000E+00
    0.00000E+00         0.00000E+00         0.00000E+00
 
   -0.10823E+06         0.21502E+07         0.00000E+00
    0.21502E+07         0.67082E+07         0.00000E+00
    0.00000E+00         0.00000E+00         0.00000E+00
 
   -0.10229E+06         0.22290E+07         0.00000E+00
    0.22290E+07         0.67095E+07         0.00000E+00
    0.00000E+00         0.00000E+00         0.00000E+00
 
   -0.96549E+05         0.23079E+07         0.00000E+00
    0.23079E+07         0.67107E+07         0.00000E+00
    0.00000E+00         0.00000E+00         0.00000E+00
 
   -0.90982E+05         0.23869E+07         0.00000E+00
    0.23869E+07         0.67119E+07         0.00000E+00
    0.00000E+00         0.00000E+00         0.00000E+00
 
   -0.85581E+05         0.24660E+07         0.00000E+00
    0.24660E+07         0.67130E+07         0.00000E+00
    0.00000E+00         0.00000E+00         0.00000E+00
 
   -0.80334E+05         0.25452E+07         0.00000E+00
    0.25452E+07         0.67139E+07         0.00000E+00
    0.00000E+00         0.00000E+00         0.00000E+00
 
   -0.75230E+05         0.26246E+07         0.00000E+00
    0.26246E+07         0.67148E+07         0.00000E+00
    0.00000E+00         0.00000E+00         0.00000E+00
 
   -0.70254E+05         0.27040E+07         0.00000E+00
    0.27040E+07         0.67156E+07         0.00000E+00
    0.00000E+00         0.00000E+00         0.00000E+00
 
   -0.65397E+05         0.27837E+07         0.00000E+00
    0.27837E+07         0.67163E+07         0.00000E+00
    0.00000E+00         0.00000E+00         0.00000E+00
 
   -0.60643E+05         0.28634E+07         0.00000E+00
    0.28634E+07         0.67168E+07         0.00000E+00
    0.00000E+00         0.00000E+00         0.00000E+00
 
   -0.55982E+05         0.29434E+07         0.00000E+00
    0.29434E+07         0.67172E+07         0.00000E+00
    0.00000E+00         0.00000E+00         0.00000E+00
 
   -0.51399E+05         0.30234E+07         0.00000E+00
    0.30234E+07         0.67174E+07         0.00000E+00
    0.00000E+00         0.00000E+00         0.00000E+00
 
   -0.46881E+05         0.31036E+07         0.00000E+00
    0.31036E+07         0.67175E+07         0.00000E+00
    0.00000E+00         0.00000E+00         0.00000E+00
 
   -0.42417E+05         0.31840E+07         0.00000E+00
    0.31840E+07         0.67174E+07         0.00000E+00
    0.00000E+00         0.00000E+00         0.00000E+00
 
   -0.37991E+05         0.32646E+07         0.00000E+00
    0.32646E+07         0.67172E+07         0.00000E+00
    0.00000E+00         0.00000E+00         0.00000E+00
 
   -0.33590E+05         0.33453E+07         0.00000E+00
    0.33453E+07         0.67167E+07         0.00000E+00
    0.00000E+00         0.00000E+00         0.00000E+00
 
   -0.29201E+05         0.34261E+07         0.00000E+00
    0.34261E+07         0.67161E+07         0.00000E+00
    0.00000E+00         0.00000E+00         0.00000E+00
 
   -0.24810E+05         0.35071E+07         0.00000E+00
    0.35071E+07         0.67152E+07         0.00000E+00
    0.00000E+00         0.00000E+00         0.00000E+00
 
   -0.20403E+05         0.35883E+07         0.00000E+00
    0.35883E+07         0.67141E+07         0.00000E+00
    0.00000E+00         0.00000E+00         0.00000E+00
 
   -0.15965E+05         0.36697E+07         0.00000E+00
    0.36697E+07         0.67128E+07         0.00000E+00
    0.00000E+00         0.00000E+00         0.00000E+00
 
   -0.11483E+05         0.37513E+07         0.00000E+00
    0.37513E+07         0.67113E+07         0.00000E+00
    0.00000E+00         0.00000E+00         0.00000E+00
 
   -0.69418E+04         0.38330E+07         0.00000E+00
    0.38330E+07         0.67095E+07         0.00000E+00
    0.00000E+00         0.00000E+00         0.00000E+00
 
   -0.23274E+04         0.39149E+07         0.00000E+00
    0.39149E+07         0.67074E+07         0.00000E+00
    0.00000E+00         0.00000E+00         0.00000E+00
 
   -0.38896E+06         0.39644E+05         0.00000E+00
    0.39644E+05         0.62718E+07         0.00000E+00
    0.00000E+00         0.00000E+00         0.00000E+00
 
   -0.37498E+06         0.11858E+06         0.00000E+00
    0.11858E+06         0.62719E+07         0.00000E+00
    0.00000E+00         0.00000E+00         0.00000E+00
 
   -0.36136E+06         0.19740E+06         0.00000E+00
    0.19740E+06         0.62721E+07         0.00000E+00
    0.00000E+00         0.00000E+00         0.00000E+00
 
   -0.34810E+06         0.27612E+06         0.00000E+00
    0.27612E+06         0.62724E+07         0.00000E+00
    0.00000E+00         0.00000E+00         0.00000E+00
 
   -0.33520E+06         0.35473E+06         0.00000E+00
    0.35473E+06         0.62728E+07         0.00000E+00
    0.00000E+00         0.00000E+00         0.00000E+00
 
   -0.32265E+06         0.43326E+06         0.00000E+00
    0.43326E+06         0.62733E+07         0.00000E+00
    0.00000E+00         0.00000E+00         0.00000E+00
 
   -0.31044E+06         0.51170E+06         0.00000E+00
    0.51170E+06         0.62738E+07         0.00000E+00
    0.00000E+00         0.00000E+00         0.00000E+00
 
   -0.29857E+06         0.59007E+06         0.00000E+00
    0.59007E+06         0.62745E+07         0.00000E+00
    0.00000E+00         0.00000E+00         0.00000E+00
 
   -0.28704E+06         0.66837E+06         0.00000E+00
    0.66837E+06         0.62752E+07         0.00000E+00
    0.00000E+00         0.00000E+00         0.00000E+00
 
   -0.27584E+06         0.74661E+06         0.00000E+00
    0.74661E+06         0.62760E+07         0.00000E+00
    0.00000E+00         0.00000E+00         0.00000E+00
 
   -0.26496E+06         0.82480E+06         0.00000E+00
    0.82480E+06         0.62768E+07         0.00000E+00
    0.00000E+00         0.00000E+00         0.00000E+00
 
   -0.25439E+06         0.90296E+06         0.00000E+00
    0.90296E+06         0.62777E+07         0.00000E+00
    0.00000E+00         0.00000E+00         0.00000E+00
 
   -0.24414E+06         0.98107E+06         0.00000E+00
    0.98107E+06         0.62787E+07         0.00000E+00
    0.00000E+00         0.00000E+00         0.00000E+00
 
   -0.23420E+06         0.10592E+07         0.00000E+00
    0.10592E+07         0.62797E+07         0.00000E+00
    0.00000E+00         0.00000E+00         0.00000E+00
 
   -0.22455E+06         0.11372E+07         0.00000E+00
    0.11372E+07         0.62807E+07         0.00000E+00
    0.00000E+00         0.00000E+00         0.00000E+00
 
   -0.21519E+06         0.12153E+07         0.00000E+00
    0.12153E+07         0.62818E+07         0.00000E+00
    0.00000E+00         0.00000E+00         0.00000E+00
 
   -0.20611E+06         0.12933E+07         0.00000E+00
    0.12933E+07         0.62829E+07         0.00000E+00
    0.00000E+00         0.00000E+00         0.00000E+00
 
   -0.19731E+06         0.13714E+07         0.00000E+00
    0.13714E+07         0.62840E+07         0.00000E+00
    0.00000E+00         0.00000E+00         0.00000E+00
 
   -0.18877E+06         0.14495E+07         0.00000E+00
    0.14495E+07         0.62852E+07         0.00000E+00
    0.00000E+00         0.00000E+00         0.00000E+00
 
   -0.18050E+06         0.15275E+07         0.00000E+00
    0.15275E+07         0.62863E+07         0.00000E+00
    0.00000E+00         0.00000E+00         0.00000E+00
 
   -0.17247E+06         0.16056E+07         0.00000E+00
    0.16056E+07         0.62875E+07         0.00000E+00
    0.00000E+00         0.00000E+00         0.00000E+00
 
   -0.16469E+06         0.16838E+07         0.00000E+00
    0.16838E+07         0.62886E+07         0.00000E+00
    0.00000E+00         0.00000E+00         0.00000E+00
 
   -0.15713E+06         0.17619E+07         0.00000E+00
    0.17619E+07         0.62897E+07         0.00000E+00
    0.00000E+00         0.00000E+00         0.00000E+00
 
   -0.14980E+06         0.18401E+07         0.00000E+00
    0.18401E+07         0.62908E+07         0.00000E+00
    0.00000E+00         0.00000E+00         0.00000E+00
 
   -0.14268E+06         0.19184E+07         0.00000E+00
    0.19184E+07         0.62919E+07         0.00000E+00
    0.00000E+00         0.00000E+00         0.00000E+00
 
   -0.13577E+06         0.19967E+07         0.00000E+00
    0.19967E+07         0.62930E+07         0.00000E+00
    0.00000E+00         0.00000E+00         0.00000E+00
 
   -0.12905E+06         0.20750E+07         0.00000E+00
    0.20750E+07         0.62940E+07         0.00000E+00
    0.00000E+00         0.00000E+00         0.00000E+00
 
   -0.12252E+06         0.21534E+07         0.00000E+00
    0.21534E+07         0.62949E+07         0.00000E+00
    0.00000E+00         0.00000E+00         0.00000E+00
 
   -0.11616E+06         0.22319E+07         0.00000E+00
    0.22319E+07         0.62958E+07         0.00000E+00
    0.00000E+00         0.00000E+00         0.00000E+00
 
   -0.10996E+06         0.23105E+07         0.00000E+00
    0.23105E+07         0.62966E+07         0.00000E+00
    0.00000E+00         0.00000E+00         0.00000E+00
 
   -0.10392E+06         0.23891E+07         0.00000E+00
    0.23891E+07         0.62973E+07         0.00000E+00
    0.00000E+00         0.00000E+00         0.00000E+00
 
   -0.98013E+05         0.24678E+07         0.00000E+00
    0.24678E+07         0.62980E+07         0.00000E+00
    0.00000E+00         0.00000E+00         0.00000E+00
 
   -0.92241E+05         0.25466E+07         0.00000E+00
    0.25466E+07         0.62986E+07         0.00000E+00
    0.00000E+00         0.00000E+00         0.00000E+00
 
   -0.86589E+05         0.26255E+07         0.00000E+00
    0.26255E+07         0.62990E+07         0.00000E+00
    0.00000E+00         0.00000E+00         0.00000E+00
 
   -0.81046E+05         0.27045E+07         0.00000E+00
    0.27045E+07         0.62994E+07         0.00000E+00
    0.00000E+00         0.00000E+00         0.00000E+00
 
   -0.75599E+05         0.27836E+07         0.00000E+00
    0.27836E+07         0.62996E+07         0.00000E+00
    0.00000E+00         0.00000E+00         0.00000E+00
 
   -0.70238E+05         0.28628E+07         0.00000E+00
    0.28628E+07         0.62997E+07         0.00000E+00
    0.00000E+00         0.00000E+00         0.00000E+00
 
   -0.64950E+05         0.29421E+07         0.00000E+00
    0.29421E+07         0.62996E+07         0.00000E+00
    0.00000E+00         0.00000E+00         0.00000E+00
 
   -0.59723E+05         0.30215E+07         0.00000E+00
    0.30215E+07         0.62994E+07         0.00000E+00
    0.00000E+00         0.00000E+00         0.00000E+00
 
   -0.54546E+05         0.31010E+07         0.00000E+00
    0.31010E+07         0.62991E+07         0.00000E+00
    0.00000E+00         0.00000E+00         0.00000E+00
 
   -0.49406E+05         0.31806E+07         0.00000E+00
    0.31806E+07         0.62986E+07         0.00000E+00
    0.00000E+00         0.00000E+00         0.00000E+00
 
   -0.44290E+05         0.32604E+07         0.00000E+00
    0.32604E+07         0.62979E+07         0.00000E+00
    0.00000E+00         0.00000E+00         0.00000E+00
 
   -0.39187E+05         0.33402E+07         0.00000E+00
    0.33402E+07         0.62970E+07         0.00000E+00
    0.00000E+00         0.00000E+00         0.00000E+00
 
   -0.34083E+05         0.34202E+07         0.00000E+00
    0.34202E+07         0.62959E+07         0.00000E+00
    0.00000E+00         0.00000E+00         0.00000E+00
 
   -0.28965E+05         0.35003E+07         0.00000E+00
    0.35003E+07         0.62946E+07         0.00000E+00
    0.00000E+00         0.00000E+00         0.00000E+00
 
   -0.23820E+05         0.35806E+07         0.00000E+00
    0.35806E+07         0.62931E+07         0.00000E+00
    0.00000E+00         0.00000E+00         0.00000E+00
 
   -0.18636E+05         0.36609E+07         0.00000E+00
    0.36609E+07         0.62914E+07         0.00000E+00
    0.00000E+00         0.00000E+00         0.00000E+00
 
   -0.13399E+05         0.37414E+07         0.00000E+00
    0.37414E+07         0.62895E+07         0.00000E+00
    0.00000E+00         0.00000E+00         0.00000E+00
 
   -0.80962E+04         0.38220E+07         0.00000E+00
    0.38220E+07         0.62872E+07         0.00000E+00
    0.00000E+00         0.00000E+00         0.00000E+00
 
   -0.27132E+04         0.39028E+07         0.00000E+00
    0.39028E+07         0.62848E+07         0.00000E+00
    0.00000E+00         0.00000E+00         0.00000E+00
 
   -0.39423E+06         0.39792E+05         0.00000E+00
    0.39792E+05         0.58708E+07         0.00000E+00
    0.00000E+00         0.00000E+00         0.00000E+00
 
   -0.38087E+06         0.11900E+06         0.00000E+00
    0.11900E+06         0.58709E+07         0.00000E+00
    0.00000E+00         0.00000E+00         0.00000E+00
 
   -0.36784E+06         0.19809E+06         0.00000E+00
    0.19809E+06         0.58710E+07         0.00000E+00
    0.00000E+00         0.00000E+00         0.00000E+00
 
   -0.35513E+06         0.27706E+06         0.00000E+00
    0.27706E+06         0.58713E+07         0.00000E+00
    0.00000E+00         0.00000E+00         0.00000E+00
 
   -0.34274E+06         0.35592E+06         0.00000E+00
    0.35592E+06         0.58716E+07         0.00000E+00
    0.00000E+00         0.00000E+00         0.00000E+00
 
   -0.33066E+06         0.43467E+06         0.00000E+00
    0.43467E+06         0.58720E+07         0.00000E+00
    0.00000E+00         0.00000E+00         0.00000E+00
 
   -0.31888E+06         0.51333E+06         0.00000E+00
    0.51333E+06         0.58725E+07         0.00000E+00
    0.00000E+00         0.00000E+00         0.00000E+00
 
   -0.30741E+06         0.59191E+06         0.00000E+00
    0.59191E+06         0.58730E+07         0.00000E+00
    0.00000E+00         0.00000E+00         0.00000E+00
 
   -0.29624E+06         0.67039E+06         0.00000E+00
    0.67039E+06         0.58736E+07         0.00000E+00
    0.00000E+00         0.00000E+00         0.00000E+00
 
   -0.28536E+06         0.74881E+06         0.00000E+00
    0.74881E+06         0.58742E+07         0.00000E+00
    0.00000E+00         0.00000E+00         0.00000E+00
 
   -0.27477E+06         0.82716E+06         0.00000E+00
    0.82716E+06         0.58749E+07         0.00000E+00
    0.00000E+00         0.00000E+00         0.00000E+00
 
   -0.26446E+06         0.90544E+06         0.00000E+00
    0.90544E+06         0.58757E+07         0.00000E+00
    0.00000E+00         0.00000E+00         0.00000E+00
 
   -0.25442E+06         0.98368E+06         0.00000E+00
    0.98368E+06         0.58765E+07         0.00000E+00
    0.00000E+00         0.00000E+00         0.00000E+00
 
   -0.24465E+06         0.10619E+07         0.00000E+00
    0.10619E+07         0.58773E+07         0.00000E+00
    0.00000E+00         0.00000E+00         0.00000E+00
 
   -0.23515E+06         0.11400E+07         0.00000E+00
    0.11400E+07         0.58781E+07         0.00000E+00
    0.00000E+00         0.00000E+00         0.00000E+00
 
   -0.22591E+06         0.12181E+07         0.00000E+00
    0.12181E+07         0.58790E+07         0.00000E+00
    0.00000E+00         0.00000E+00         0.00000E+00
 
   -0.21691E+06         0.12962E+07         0.00000E+00
    0.12962E+07         0.58798E+07         0.00000E+00
    0.00000E+00         0.00000E+00         0.00000E+00
 
   -0.20816E+06         0.13743E+07         0.00000E+00
    0.13743E+07         0.58807E+07         0.00000E+00
    0.00000E+00         0.00000E+00         0.00000E+00
 
   -0.19964E+06         0.14523E+07         0.00000E+00
    0.14523E+07         0.58816E+07         0.00000E+00
    0.00000E+00         0.00000E+00         0.00000E+00
 
   -0.19135E+06         0.15303E+07         0.00000E+00
    0.15303E+07         0.58825E+07         0.00000E+00
    0.00000E+00         0.00000E+00         0.00000E+00
 
   -0.18328E+06         0.16084E+07         0.00000E+00
    0.16084E+07         0.58834E+07         0.00000E+00
    0.00000E+00         0.00000E+00         0.00000E+00
 
   -0.17542E+06         0.16864E+07         0.00000E+00
    0.16864E+07         0.58842E+07         0.00000E+00
    0.00000E+00         0.00000E+00         0.00000E+00
 
   -0.16777E+06         0.17644E+07         0.00000E+00
    0.17644E+07         0.58851E+07         0.00000E+00
    0.00000E+00         0.00000E+00         0.00000E+00
 
   -0.16031E+06         0.18425E+07         0.00000E+00
    0.18425E+07         0.58859E+07         0.00000E+00
    0.00000E+00         0.00000E+00         0.00000E+00
 
   -0.15304E+06         0.19205E+07         0.00000E+00
    0.19205E+07         0.58867E+07         0.00000E+00
    0.00000E+00         0.00000E+00         0.00000E+00
 
   -0.14595E+06         0.19986E+07         0.00000E+00
    0.19986E+07         0.58874E+07         0.00000E+00
    0.00000E+00         0.00000E+00         0.00000E+00
 
   -0.13902E+06         0.20767E+07         0.00000E+00
    0.20767E+07         0.58881E+07         0.00000E+00
    0.00000E+00         0.00000E+00         0.00000E+00
 
   -0.13226E+06         0.21549E+07         0.00000E+00
    0.21549E+07         0.58887E+07         0.00000E+00
    0.00000E+00         0.00000E+00         0.00000E+00
 
   -0.12564E+06         0.22331E+07         0.00000E+00
    0.22331E+07         0.58893E+07         0.00000E+00
    0.00000E+00         0.00000E+00         0.00000E+00
 
   -0.11917E+06         0.23113E+07         0.00000E+00
    0.23113E+07         0.58898E+07         0.00000E+00
    0.00000E+00         0.00000E+00         0.00000E+00
 
   -0.11282E+06         0.23896E+07         0.00000E+00
    0.23896E+07         0.58902E+07         0.00000E+00
    0.00000E+00         0.00000E+00         0.00000E+00
 
   -0.10660E+06         0.24679E+07         0.00000E+00
    0.24679E+07         0.58905E+07         0.00000E+00
    0.00000E+00         0.00000E+00         0.00000E+00
 
   -0.10049E+06         0.25462E+07         0.00000E+00
    0.25462E+07         0.58907E+07         0.00000E+00
    0.00000E+00         0.00000E+00         0.00000E+00
 
   -0.94476E+05         0.26246E+07         0.00000E+00
    0.26246E+07         0.58908E+07         0.00000E+00
    0.00000E+00         0.00000E+00         0.00000E+00
 
   -0.88555E+05         0.27031E+07         0.00000E+00
    0.27031E+07         0.58908E+07         0.00000E+00
    0.00000E+00         0.00000E+00         0.00000E+00
 
   -0.82713E+05         0.27817E+07         0.00000E+00
    0.27817E+07         0.58907E+07         0.00000E+00
    0.00000E+00         0.00000E+00         0.00000E+00
 
   -0.76940E+05         0.28603E+07         0.00000E+00
    0.28603E+07         0.58905E+07         0.00000E+00
    0.00000E+00         0.00000E+00         0.00000E+00
 
   -0.71225E+05         0.29389E+07         0.00000E+00
    0.29389E+07         0.58901E+07         0.00000E+00
    0.00000E+00         0.00000E+00         0.00000E+00
 
   -0.65556E+05         0.30177E+07         0.00000E+00
    0.30177E+07         0.58895E+07         0.00000E+00
    0.00000E+00         0.00000E+00         0.00000E+00
 
   -0.59924E+05         0.30965E+07         0.00000E+00
    0.30965E+07         0.58889E+07         0.00000E+00
    0.00000E+00         0.00000E+00         0.00000E+00
 
   -0.54315E+05         0.31754E+07         0.00000E+00
    0.31754E+07         0.58880E+07         0.00000E+00
    0.00000E+00         0.00000E+00         0.00000E+00
 
   -0.48719E+05         0.32543E+07         0.00000E+00
    0.32543E+07         0.58870E+07         0.00000E+00
    0.00000E+00         0.00000E+00         0.00000E+00
 
   -0.43124E+05         0.33334E+07         0.00000E+00
    0.33334E+07         0.58858E+07         0.00000E+00
    0.00000E+00         0.00000E+00         0.00000E+00
 
   -0.37519E+05         0.34125E+07         0.00000E+00
    0.34125E+07         0.58844E+07         0.00000E+00
    0.00000E+00         0.00000E+00         0.00000E+00
 
   -0.31890E+05         0.34917E+07         0.00000E+00
    0.34917E+07         0.58828E+07         0.00000E+00
    0.00000E+00         0.00000E+00         0.00000E+00
 
   -0.26228E+05         0.35710E+07         0.00000E+00
    0.35710E+07         0.58810E+07         0.00000E+00
    0.00000E+00         0.00000E+00         0.00000E+00
 
   -0.20518E+05         0.36503E+07         0.00000E+00
    0.36503E+07         0.58789E+07         0.00000E+00
    0.00000E+00         0.00000E+00         0.00000E+00
 
   -0.14749E+05         0.37298E+07         0.00000E+00
    0.37298E+07         0.58767E+07         0.00000E+00
    0.00000E+00         0.00000E+00         0.00000E+00
 
   -0.89091E+04         0.38093E+07         0.00000E+00
    0.38093E+07         0.58742E+07         0.00000E+00
    0.00000E+00         0.00000E+00         0.00000E+00
 
   -0.29848E+04         0.38890E+07         0.00000E+00
    0.38890E+07         0.58714E+07         0.00000E+00
    0.00000E+00         0.00000E+00         0.00000E+00
 
   -0.39253E+06         0.39906E+05         0.00000E+00
    0.39906E+05         0.54755E+07         0.00000E+00
    0.00000E+00         0.00000E+00         0.00000E+00
 
   -0.37984E+06         0.11933E+06         0.00000E+00
    0.11933E+06         0.54756E+07         0.00000E+00
    0.00000E+00         0.00000E+00         0.00000E+00
 
   -0.36745E+06         0.19861E+06         0.00000E+00
    0.19861E+06         0.54757E+07         0.00000E+00
    0.00000E+00         0.00000E+00         0.00000E+00
 
   -0.35534E+06         0.27777E+06         0.00000E+00
    0.27777E+06         0.54759E+07         0.00000E+00
    0.00000E+00         0.00000E+00         0.00000E+00
 
   -0.34351E+06         0.35681E+06         0.00000E+00
    0.35681E+06         0.54762E+07         0.00000E+00
    0.00000E+00         0.00000E+00         0.00000E+00
 
   -0.33197E+06         0.43573E+06         0.00000E+00
    0.43573E+06         0.54766E+07         0.00000E+00
    0.00000E+00         0.00000E+00         0.00000E+00
 
   -0.32069E+06         0.51454E+06         0.00000E+00
    0.51454E+06         0.54769E+07         0.00000E+00
    0.00000E+00         0.00000E+00         0.00000E+00
 
   -0.30969E+06         0.59325E+06         0.00000E+00
    0.59325E+06         0.54774E+07         0.00000E+00
    0.00000E+00         0.00000E+00         0.00000E+00
 
   -0.29895E+06         0.67187E+06         0.00000E+00
    0.67187E+06         0.54779E+07         0.00000E+00
    0.00000E+00         0.00000E+00         0.00000E+00
 
   -0.28848E+06         0.75040E+06         0.00000E+00
    0.75040E+06         0.54784E+07         0.00000E+00
    0.00000E+00         0.00000E+00         0.00000E+00
 
   -0.27826E+06         0.82884E+06         0.00000E+00
    0.82884E+06         0.54790E+07         0.00000E+00
    0.00000E+00         0.00000E+00         0.00000E+00
 
   -0.26829E+06         0.90721E+06         0.00000E+00
    0.90721E+06         0.54796E+07         0.00000E+00
    0.00000E+00         0.00000E+00         0.00000E+00
 
   -0.25856E+06         0.98550E+06         0.00000E+00
    0.98550E+06         0.54802E+07         0.00000E+00
    0.00000E+00         0.00000E+00         0.00000E+00
 
   -0.24908E+06         0.10637E+07         0.00000E+00
    0.10637E+07         0.54809E+07         0.00000E+00
    0.00000E+00         0.00000E+00         0.00000E+00
 
   -0.23983E+06         0.11419E+07         0.00000E+00
    0.11419E+07         0.54815E+07         0.00000E+00
    0.00000E+00         0.00000E+00         0.00000E+00
 
   -0.23081E+06         0.12200E+07         0.00000E+00
    0.12200E+07         0.54822E+07         0.00000E+00
    0.00000E+00         0.00000E+00         0.00000E+00
 
   -0.22201E+06         0.12981E+07         0.00000E+00
    0.12981E+07         0.54829E+07         0.00000E+00
    0.00000E+00         0.00000E+00         0.00000E+00
 
   -0.21342E+06         0.13761E+07         0.00000E+00
    0.13761E+07         0.54836E+07         0.00000E+00
    0.00000E+00         0.00000E+00         0.00000E+00
 
   -0.20504E+06         0.14541E+07         0.00000E+00
    0.14541E+07         0.54843E+07         0.00000E+00
    0.00000E+00         0.00000E+00         0.00000E+00
 
   -0.19686E+06         0.15320E+07         0.00000E+00
    0.15320E+07         0.54850E+07         0.00000E+00
    0.00000E+00         0.00000E+00         0.00000E+00
 
   -0.18888E+06         0.16100E+07         0.00000E+00
    0.16100E+07         0.54856E+07         0.00000E+00
    0.00000E+00         0.00000E+00         0.00000E+00
 
   -0.18108E+06         0.16879E+07         0.00000E+00
    0.16879E+07         0.54863E+07         0.00000E+00
    0.00000E+00         0.00000E+00         0.00000E+00
 
   -0.17347E+06         0.17657E+07         0.00000E+00
    0.17657E+07         0.54869E+07         0.00000E+00
    0.00000E+00         0.00000E+00         0.00000E+00
 
   -0.16602E+06         0.18436E+07         0.00000E+00
    0.18436E+07         0.54875E+07         0.00000E+00
    0.00000E+00         0.00000E+00         0.00000E+00
 
   -0.15874E+06         0.19214E+07         0.00000E+00
    0.19214E+07         0.54880E+07         0.00000E+00
    0.00000E+00         0.00000E+00         0.00000E+00
 
   -0.15161E+06         0.19993E+07         0.00000E+00
    0.19993E+07         0.54885E+07         0.00000E+00
    0.00000E+00         0.00000E+00         0.00000E+00
 
   -0.14463E+06         0.20771E+07         0.00000E+00
    0.20771E+07         0.54889E+07         0.00000E+00
    0.00000E+00         0.00000E+00         0.00000E+00
 
   -0.13779E+06         0.21550E+07         0.00000E+00
    0.21550E+07         0.54893E+07         0.00000E+00
    0.00000E+00         0.00000E+00         0.00000E+00
 
   -0.13107E+06         0.22328E+07         0.00000E+00
    0.22328E+07         0.54896E+07         0.00000E+00
    0.00000E+00         0.00000E+00         0.00000E+00
 
   -0.12448E+06         0.23107E+07         0.00000E+00
    0.23107E+07         0.54899E+07         0.00000E+00
    0.00000E+00         0.00000E+00         0.00000E+00
 
   -0.11800E+06         0.23886E+07         0.00000E+00
    0.23886E+07         0.54900E+07         0.00000E+00
    0.00000E+00         0.00000E+00         0.00000E+00
 
   -0.11163E+06         0.24665E+07         0.00000E+00
    0.24665E+07         0.54901E+07         0.00000E+00
    0.00000E+00         0.00000E+00         0.00000E+00
 
   -0.10535E+06         0.25444E+07         0.00000E+00
    0.25444E+07         0.54900E+07         0.00000E+00
    0.00000E+00         0.00000E+00         0.00000E+00
 
   -0.99148E+05         0.26223E+07         0.00000E+00
    0.26223E+07         0.54899E+07         0.00000E+00
    0.00000E+00         0.00000E+00         0.00000E+00
 
   -0.93025E+05         0.27003E+07         0.00000E+00
    0.27003E+07         0.54896E+07         0.00000E+00
    0.00000E+00         0.00000E+00         0.00000E+00
 
   -0.86966E+05         0.27783E+07         0.00000E+00
    0.27783E+07         0.54892E+07         0.00000E+00
    0.00000E+00         0.00000E+00         0.00000E+00
 
   -0.80963E+05         0.28563E+07         0.00000E+00
    0.28563E+07         0.54887E+07         0.00000E+00
    0.00000E+00         0.00000E+00         0.00000E+00
 
   -0.75004E+05         0.29343E+07         0.00000E+00
    0.29343E+07         0.54881E+07         0.00000E+00
    0.00000E+00         0.00000E+00         0.00000E+00
 
   -0.69080E+05         0.30124E+07         0.00000E+00
    0.30124E+07         0.54873E+07         0.00000E+00
    0.00000E+00         0.00000E+00         0.00000E+00
 
   -0.63180E+05         0.30905E+07         0.00000E+00
    0.30905E+07         0.54864E+07         0.00000E+00
    0.00000E+00         0.00000E+00         0.00000E+00
 
   -0.57294E+05         0.31687E+07         0.00000E+00
    0.31687E+07         0.54853E+07         0.00000E+00
    0.00000E+00         0.00000E+00         0.00000E+00
 
   -0.51412E+05         0.32469E+07         0.00000E+00
    0.32469E+07         0.54840E+07         0.00000E+00
    0.00000E+00         0.00000E+00         0.00000E+00
 
   -0.45522E+05         0.33251E+07         0.00000E+00
    0.33251E+07         0.54826E+07         0.00000E+00
    0.00000E+00         0.00000E+00         0.00000E+00
 
   -0.39613E+05         0.34034E+07         0.00000E+00
    0.34034E+07         0.54810E+07         0.00000E+00
    0.00000E+00         0.00000E+00         0.00000E+00
 
   -0.33675E+05         0.34817E+07         0.00000E+00
    0.34817E+07         0.54791E+07         0.00000E+00
    0.00000E+00         0.00000E+00         0.00000E+00
 
   -0.27697E+05         0.35601E+07         0.00000E+00
    0.35601E+07         0.54771E+07         0.00000E+00
    0.00000E+00         0.00000E+00         0.00000E+00
 
   -0.21666E+05         0.36385E+07         0.00000E+00
    0.36385E+07         0.54749E+07         0.00000E+00
    0.00000E+00         0.00000E+00         0.00000E+00
 
   -0.15573E+05         0.37170E+07         0.00000E+00
    0.37170E+07         0.54724E+07         0.00000E+00
    0.00000E+00         0.00000E+00         0.00000E+00
 
   -0.94047E+04         0.37955E+07         0.00000E+00
    0.37955E+07         0.54697E+07         0.00000E+00
    0.00000E+00         0.00000E+00         0.00000E+00
 
   -0.31502E+04         0.38740E+07         0.00000E+00
    0.38740E+07         0.54668E+07         0.00000E+00
    0.00000E+00         0.00000E+00         0.00000E+00
 
   -0.38442E+06         0.39994E+05         0.00000E+00
    0.39994E+05         0.50858E+07         0.00000E+00
    0.00000E+00         0.00000E+00         0.00000E+00
 
   -0.37244E+06         0.11957E+06         0.00000E+00
    0.11957E+06         0.50858E+07         0.00000E+00
    0.00000E+00         0.00000E+00         0.00000E+00
 
   -0.36072E+06         0.19900E+06         0.00000E+00
    0.19900E+06         0.50859E+07         0.00000E+00
    0.00000E+00         0.00000E+00         0.00000E+00
 
   -0.34927E+06         0.27830E+06         0.00000E+00
    0.27830E+06         0.50861E+07         0.00000E+00
    0.00000E+00         0.00000E+00         0.00000E+00
 
   -0.33806E+06         0.35746E+06         0.00000E+00
    0.35746E+06         0.50864E+07         0.00000E+00
    0.00000E+00         0.00000E+00         0.00000E+00
 
   -0.32710E+06         0.43650E+06         0.00000E+00
    0.43650E+06         0.50866E+07         0.00000E+00
    0.00000E+00         0.00000E+00         0.00000E+00
 
   -0.31639E+06         0.51542E+06         0.00000E+00
    0.51542E+06         0.50870E+07         0.00000E+00
    0.00000E+00         0.00000E+00         0.00000E+00
 
   -0.30593E+06         0.59422E+06         0.00000E+00
    0.59422E+06         0.50873E+07         0.00000E+00
    0.00000E+00         0.00000E+00         0.00000E+00
 
   -0.29570E+06         0.67292E+06         0.00000E+00
    0.67292E+06         0.50877E+07         0.00000E+00
    0.00000E+00         0.00000E+00         0.00000E+00
 
   -0.28570E+06         0.75151E+06         0.00000E+00
    0.75151E+06         0.50882E+07         0.00000E+00
    0.00000E+00         0.00000E+00         0.00000E+00
 
   -0.27593E+06         0.83001E+06         0.00000E+00
    0.83001E+06         0.50887E+07         0.00000E+00
    0.00000E+00         0.00000E+00         0.00000E+00
 
   -0.26639E+06         0.90841E+06         0.00000E+00
    0.90841E+06         0.50891E+07         0.00000E+00
    0.00000E+00         0.00000E+00         0.00000E+00
 
   -0.25706E+06         0.98672E+06         0.00000E+00
    0.98672E+06         0.50897E+07         0.00000E+00
    0.00000E+00         0.00000E+00         0.00000E+00
 
   -0.24795E+06         0.10650E+07         0.00000E+00
    0.10650E+07         0.50902E+07         0.00000E+00
    0.00000E+00         0.00000E+00         0.00000E+00
 
   -0.23905E+06         0.11431E+07         0.00000E+00
    0.11431E+07         0.50907E+07         0.00000E+00
    0.00000E+00         0.00000E+00         0.00000E+00
 
   -0.23035E+06         0.12212E+07         0.00000E+00
    0.12212E+07         0.50913E+07         0.00000E+00
    0.00000E+00         0.00000E+00         0.00000E+00
 
   -0.22185E+06         0.12992E+07         0.00000E+00
    0.12992E+07         0.50918E+07         0.00000E+00
    0.00000E+00         0.00000E+00         0.00000E+00
 
   -0.21353E+06         0.13772E+07         0.00000E+00
    0.13772E+07         0.50924E+07         0.00000E+00
    0.00000E+00         0.00000E+00         0.00000E+00
 
   -0.20541E+06         0.14550E+07         0.00000E+00
    0.14550E+07         0.50929E+07         0.00000E+00
    0.00000E+00         0.00000E+00         0.00000E+00
 
   -0.19745E+06         0.15329E+07         0.00000E+00
    0.15329E+07         0.50934E+07         0.00000E+00
    0.00000E+00         0.00000E+00         0.00000E+00
 
   -0.18968E+06         0.16107E+07         0.00000E+00
    0.16107E+07         0.50939E+07         0.00000E+00
    0.00000E+00         0.00000E+00         0.00000E+00
 
   -0.18206E+06         0.16884E+07         0.00000E+00
    0.16884E+07         0.50944E+07         0.00000E+00
    0.00000E+00         0.00000E+00         0.00000E+00
 
   -0.17461E+06         0.17661E+07         0.00000E+00
    0.17661E+07         0.50948E+07         0.00000E+00
    0.00000E+00         0.00000E+00         0.00000E+00
 
   -0.16730E+06         0.18437E+07         0.00000E+00
    0.18437E+07         0.50952E+07         0.00000E+00
    0.00000E+00         0.00000E+00         0.00000E+00
 
   -0.16014E+06         0.19214E+07         0.00000E+00
    0.19214E+07         0.50956E+07         0.00000E+00
    0.00000E+00         0.00000E+00         0.00000E+00
 
   -0.15311E+06         0.19990E+07         0.00000E+00
    0.19990E+07         0.50959E+07         0.00000E+00
    0.00000E+00         0.00000E+00         0.00000E+00
 
   -0.14621E+06         0.20765E+07         0.00000E+00
    0.20765E+07         0.50962E+07         0.00000E+00
    0.00000E+00         0.00000E+00         0.00000E+00
 
   -0.13944E+06         0.21541E+07         0.00000E+00
    0.21541E+07         0.50963E+07         0.00000E+00
    0.00000E+00         0.00000E+00         0.00000E+00
 
   -0.13277E+06         0.22316E+07         0.00000E+00
    0.22316E+07         0.50965E+07         0.00000E+00
    0.00000E+00         0.00000E+00         0.00000E+00
 
   -0.12621E+06         0.23091E+07         0.00000E+00
    0.23091E+07         0.50965E+07         0.00000E+00
    0.00000E+00         0.00000E+00         0.00000E+00
 
   -0.11975E+06         0.23866E+07         0.00000E+00
    0.23866E+07         0.50965E+07         0.00000E+00
    0.00000E+00         0.00000E+00         0.00000E+00
 
   -0.11337E+06         0.24640E+07         0.00000E+00
    0.24640E+07         0.50963E+07         0.00000E+00
    0.00000E+00         0.00000E+00         0.00000E+00
 
   -0.10708E+06         0.25415E+07         0.00000E+00
    0.25415E+07         0.50961E+07         0.00000E+00
    0.00000E+00         0.00000E+00         0.00000E+00
 
   -0.10085E+06         0.26189E+07         0.00000E+00
    0.26189E+07         0.50958E+07         0.00000E+00
    0.00000E+00         0.00000E+00         0.00000E+00
 
   -0.94687E+05         0.26964E+07         0.00000E+00
    0.26964E+07         0.50954E+07         0.00000E+00
    0.00000E+00         0.00000E+00         0.00000E+00
 
   -0.88576E+05         0.27738E+07         0.00000E+00
    0.27738E+07         0.50948E+07         0.00000E+00
    0.00000E+00         0.00000E+00         0.00000E+00
 
   -0.82509E+05         0.28513E+07         0.00000E+00
    0.28513E+07         0.50941E+07         0.00000E+00
    0.00000E+00         0.00000E+00         0.00000E+00
 
   -0.76476E+05         0.29287E+07         0.00000E+00
    0.29287E+07         0.50933E+07         0.00000E+00
    0.00000E+00         0.00000E+00         0.00000E+00
 
   -0.70468E+05         0.30062E+07         0.00000E+00
    0.30062E+07         0.50923E+07         0.00000E+00
    0.00000E+00         0.00000E+00         0.00000E+00
 
   -0.64476E+05         0.30836E+07         0.00000E+00
    0.30836E+07         0.50912E+07         0.00000E+00
    0.00000E+00         0.00000E+00         0.00000E+00
 
   -0.58489E+05         0.31611E+07         0.00000E+00
    0.31611E+07         0.50900E+07         0.00000E+00
    0.00000E+00         0.00000E+00         0.00000E+00
 
   -0.52499E+05         0.32385E+07         0.00000E+00
    0.32385E+07         0.50886E+07         0.00000E+00
    0.00000E+00         0.00000E+00         0.00000E+00
 
   -0.46494E+05         0.33160E+07         0.00000E+00
    0.33160E+07         0.50870E+07         0.00000E+00
    0.00000E+00         0.00000E+00         0.00000E+00
 
   -0.40466E+05         0.33935E+07         0.00000E+00
    0.33935E+07         0.50852E+07         0.00000E+00
    0.00000E+00         0.00000E+00         0.00000E+00
 
   -0.34404E+05         0.34710E+07         0.00000E+00
    0.34710E+07         0.50833E+07         0.00000E+00
    0.00000E+00         0.00000E+00         0.00000E+00
 
   -0.28297E+05         0.35485E+07         0.00000E+00
    0.35485E+07         0.50811E+07         0.00000E+00
    0.00000E+00         0.00000E+00         0.00000E+00
 
   -0.22135E+05         0.36260E+07         0.00000E+00
    0.36260E+07         0.50788E+07         0.00000E+00
    0.00000E+00         0.00000E+00         0.00000E+00
 
   -0.15909E+05         0.37035E+07         0.00000E+00
    0.37035E+07         0.50762E+07         0.00000E+00
    0.00000E+00         0.00000E+00         0.00000E+00
 
   -0.96065E+04         0.37810E+07         0.00000E+00
    0.37810E+07         0.50735E+07         0.00000E+00
    0.00000E+00         0.00000E+00         0.00000E+00
 
   -0.32175E+04         0.38585E+07         0.00000E+00
    0.38585E+07         0.50705E+07         0.00000E+00
    0.00000E+00         0.00000E+00         0.00000E+00
 
   -0.37040E+06         0.40061E+05         0.00000E+00
    0.40061E+05         0.47012E+07         0.00000E+00
    0.00000E+00         0.00000E+00         0.00000E+00
 
   -0.35917E+06         0.11975E+06         0.00000E+00
    0.11975E+06         0.47013E+07         0.00000E+00
    0.00000E+00         0.00000E+00         0.00000E+00
 
   -0.34818E+06         0.19929E+06         0.00000E+00
    0.19929E+06         0.47014E+07         0.00000E+00
    0.00000E+00         0.00000E+00         0.00000E+00
 
   -0.33741E+06         0.27868E+06         0.00000E+00
    0.27868E+06         0.47015E+07         0.00000E+00
    0.00000E+00         0.00000E+00         0.00000E+00
 
   -0.32688E+06         0.35794E+06         0.00000E+00
    0.35794E+06         0.47017E+07         0.00000E+00
    0.00000E+00         0.00000E+00         0.00000E+00
 
   -0.31657E+06         0.43706E+06         0.00000E+00
    0.43706E+06         0.47020E+07         0.00000E+00
    0.00000E+00         0.00000E+00         0.00000E+00
 
   -0.30648E+06         0.51604E+06         0.00000E+00
    0.51604E+06         0.47022E+07         0.00000E+00
    0.00000E+00         0.00000E+00         0.00000E+00
 
   -0.29661E+06         0.59491E+06         0.00000E+00
    0.59491E+06         0.47026E+07         0.00000E+00
    0.00000E+00         0.00000E+00         0.00000E+00
 
   -0.28695E+06         0.67365E+06         0.00000E+00
    0.67365E+06         0.47029E+07         0.00000E+00
    0.00000E+00         0.00000E+00         0.00000E+00
 
   -0.27751E+06         0.75227E+06         0.00000E+00
    0.75227E+06         0.47033E+07         0.00000E+00
    0.00000E+00         0.00000E+00         0.00000E+00
 
   -0.26826E+06         0.83079E+06         0.00000E+00
    0.83079E+06         0.47037E+07         0.00000E+00
    0.00000E+00         0.00000E+00         0.00000E+00
 
   -0.25922E+06         0.90919E+06         0.00000E+00
    0.90919E+06         0.47041E+07         0.00000E+00
    0.00000E+00         0.00000E+00         0.00000E+00
 
   -0.25038E+06         0.98750E+06         0.00000E+00
    0.98750E+06         0.47045E+07         0.00000E+00
    0.00000E+00         0.00000E+00         0.00000E+00
 
   -0.24172E+06         0.10657E+07         0.00000E+00
    0.10657E+07         0.47050E+07         0.00000E+00
    0.00000E+00         0.00000E+00         0.00000E+00
 
   -0.23326E+06         0.11438E+07         0.00000E+00
    0.11438E+07         0.47054E+07         0.00000E+00
    0.00000E+00         0.00000E+00         0.00000E+00
 
   -0.22497E+06         0.12218E+07         0.00000E+00
    0.12218E+07         0.47058E+07         0.00000E+00
    0.00000E+00         0.00000E+00         0.00000E+00
 
   -0.21686E+06         0.12998E+07         0.00000E+00
    0.12998E+07         0.47063E+07         0.00000E+00
    0.00000E+00         0.00000E+00         0.00000E+00
 
   -0.20892E+06         0.13776E+07         0.00000E+00
    0.13776E+07         0.47067E+07         0.00000E+00
    0.00000E+00         0.00000E+00         0.00000E+00
 
   -0.20114E+06         0.14554E+07         0.00000E+00
    0.14554E+07         0.47071E+07         0.00000E+00
    0.00000E+00         0.00000E+00         0.00000E+00
 
   -0.19352E+06         0.15331E+07         0.00000E+00
    0.15331E+07         0.47075E+07         0.00000E+00
    0.00000E+00         0.00000E+00         0.00000E+00
 
   -0.18605E+06         0.16107E+07         0.00000E+00
    0.16107E+07         0.47079E+07         0.00000E+00
    0.00000E+00         0.00000E+00         0.00000E+00
 
   -0.17873E+06         0.16883E+07         0.00000E+00
    0.16883E+07         0.47083E+07         0.00000E+00
    0.00000E+00         0.00000E+00         0.00000E+00
 
   -0.17155E+06         0.17658E+07         0.00000E+00
    0.17658E+07         0.47086E+07         0.00000E+00
    0.00000E+00         0.00000E+00         0.00000E+00
 
   -0.16451E+06         0.18432E+07         0.00000E+00
    0.18432E+07         0.47089E+07         0.00000E+00
    0.00000E+00         0.00000E+00         0.00000E+00
 
   -0.15759E+06         0.19206E+07         0.00000E+00
    0.19206E+07         0.47091E+07         0.00000E+00
    0.00000E+00         0.00000E+00         0.00000E+00
 
   -0.15079E+06         0.19979E+07         0.00000E+00
    0.19979E+07         0.47093E+07         0.00000E+00
    0.00000E+00         0.00000E+00         0.00000E+00
 
   -0.14410E+06         0.20752E+07         0.00000E+00
    0.20752E+07         0.47094E+07         0.00000E+00
    0.00000E+00         0.00000E+00         0.00000E+00
 
   -0.13751E+06         0.21524E+07         0.00000E+00
    0.21524E+07         0.47094E+07         0.00000E+00
    0.00000E+00         0.00000E+00         0.00000E+00
 
   -0.13103E+06         0.22296E+07         0.00000E+00
    0.22296E+07         0.47094E+07         0.00000E+00
    0.00000E+00         0.00000E+00         0.00000E+00
 
   -0.12464E+06         0.23068E+07         0.00000E+00
    0.23068E+07         0.47094E+07         0.00000E+00
    0.00000E+00         0.00000E+00         0.00000E+00
 
   -0.11833E+06         0.23839E+07         0.00000E+00
    0.23839E+07         0.47092E+07         0.00000E+00
    0.00000E+00         0.00000E+00         0.00000E+00
 
   -0.11209E+06         0.24609E+07         0.00000E+00
    0.24609E+07         0.47089E+07         0.00000E+00
    0.00000E+00         0.00000E+00         0.00000E+00
 
   -0.10593E+06         0.25379E+07         0.00000E+00
    0.25379E+07         0.47086E+07         0.00000E+00
    0.00000E+00         0.00000E+00         0.00000E+00
 
   -0.99818E+05         0.26149E+07         0.00000E+00
    0.26149E+07         0.47081E+07         0.00000E+00
    0.00000E+00         0.00000E+00         0.00000E+00
 
   -0.93762E+05         0.26919E+07         0.00000E+00
    0.26919E+07         0.47076E+07         0.00000E+00
    0.00000E+00         0.00000E+00         0.00000E+00
 
   -0.87749E+05         0.27688E+07         0.00000E+00
    0.27688E+07         0.47069E+07         0.00000E+00
    0.00000E+00         0.00000E+00         0.00000E+00
 
   -0.81772E+05         0.28457E+07         0.00000E+00
    0.28457E+07         0.47061E+07         0.00000E+00
    0.00000E+00         0.00000E+00         0.00000E+00
 
   -0.75820E+05         0.29225E+07         0.00000E+00
    0.29225E+07         0.47052E+07         0.00000E+00
    0.00000E+00         0.00000E+00         0.00000E+00
 
   -0.69887E+05         0.29994E+07         0.00000E+00
    0.29994E+07         0.47042E+07         0.00000E+00
    0.00000E+00         0.00000E+00         0.00000E+00
 
   -0.63962E+05         0.30762E+07         0.00000E+00
    0.30762E+07         0.47030E+07         0.00000E+00
    0.00000E+00         0.00000E+00         0.00000E+00
 
   -0.58037E+05         0.31530E+07         0.00000E+00
    0.31530E+07         0.47017E+07         0.00000E+00
    0.00000E+00         0.00000E+00         0.00000E+00
 
   -0.52104E+05         0.32297E+07         0.00000E+00
    0.32297E+07         0.47002E+07         0.00000E+00
    0.00000E+00         0.00000E+00         0.00000E+00
 
   -0.46152E+05         0.33064E+07         0.00000E+00
    0.33064E+07         0.46985E+07         0.00000E+00
    0.00000E+00         0.00000E+00         0.00000E+00
 
   -0.40173E+05         0.33831E+07         0.00000E+00
    0.33831E+07         0.46967E+07         0.00000E+00
    0.00000E+00         0.00000E+00         0.00000E+00
 
   -0.34157E+05         0.34598E+07         0.00000E+00
    0.34598E+07         0.46947E+07         0.00000E+00
    0.00000E+00         0.00000E+00         0.00000E+00
 
   -0.28095E+05         0.35365E+07         0.00000E+00
    0.35365E+07         0.46925E+07         0.00000E+00
    0.00000E+00         0.00000E+00         0.00000E+00
 
   -0.21978E+05         0.36131E+07         0.00000E+00
    0.36131E+07         0.46902E+07         0.00000E+00
    0.00000E+00         0.00000E+00         0.00000E+00
 
   -0.15795E+05         0.36897E+07         0.00000E+00
    0.36897E+07         0.46876E+07         0.00000E+00
    0.00000E+00         0.00000E+00         0.00000E+00
 
   -0.95370E+04         0.37663E+07         0.00000E+00
    0.37663E+07         0.46848E+07         0.00000E+00
    0.00000E+00         0.00000E+00         0.00000E+00
 
   -0.31940E+04         0.38429E+07         0.00000E+00
    0.38429E+07         0.46818E+07         0.00000E+00
    0.00000E+00         0.00000E+00         0.00000E+00
 
   -0.35095E+06         0.40113E+05         0.00000E+00
    0.40113E+05         0.43216E+07         0.00000E+00
    0.00000E+00         0.00000E+00         0.00000E+00
 
   -0.34050E+06         0.11989E+06         0.00000E+00
    0.11989E+06         0.43216E+07         0.00000E+00
    0.00000E+00         0.00000E+00         0.00000E+00
 
   -0.33027E+06         0.19951E+06         0.00000E+00
    0.19951E+06         0.43217E+07         0.00000E+00
    0.00000E+00         0.00000E+00         0.00000E+00
 
   -0.32025E+06         0.27898E+06         0.00000E+00
    0.27898E+06         0.43219E+07         0.00000E+00
    0.00000E+00         0.00000E+00         0.00000E+00
 
   -0.31043E+06         0.35829E+06         0.00000E+00
    0.35829E+06         0.43220E+07         0.00000E+00
    0.00000E+00         0.00000E+00         0.00000E+00
 
   -0.30082E+06         0.43746E+06         0.00000E+00
    0.43746E+06         0.43222E+07         0.00000E+00
    0.00000E+00         0.00000E+00         0.00000E+00
 
   -0.29141E+06         0.51650E+06         0.00000E+00
    0.51650E+06         0.43225E+07         0.00000E+00
    0.00000E+00         0.00000E+00         0.00000E+00
 
   -0.28219E+06         0.59539E+06         0.00000E+00
    0.59539E+06         0.43228E+07         0.00000E+00
    0.00000E+00         0.00000E+00         0.00000E+00
 
   -0.27317E+06         0.67415E+06         0.00000E+00
    0.67415E+06         0.43231E+07         0.00000E+00
    0.00000E+00         0.00000E+00         0.00000E+00
 
   -0.26433E+06         0.75279E+06         0.00000E+00
    0.75279E+06         0.43234E+07         0.00000E+00
    0.00000E+00         0.00000E+00         0.00000E+00
 
   -0.25569E+06         0.83130E+06         0.00000E+00
    0.83130E+06         0.43237E+07         0.00000E+00
    0.00000E+00         0.00000E+00         0.00000E+00
 
   -0.24722E+06         0.90969E+06         0.00000E+00
    0.90969E+06         0.43241E+07         0.00000E+00
    0.00000E+00         0.00000E+00         0.00000E+00
 
   -0.23893E+06         0.98796E+06         0.00000E+00
    0.98796E+06         0.43244E+07         0.00000E+00
    0.00000E+00         0.00000E+00         0.00000E+00
 
   -0.23081E+06         0.10661E+07         0.00000E+00
    0.10661E+07         0.43248E+07         0.00000E+00
    0.00000E+00         0.00000E+00         0.00000E+00
 
   -0.22285E+06         0.11442E+07         0.00000E+00
    0.11442E+07         0.43252E+07         0.00000E+00
    0.00000E+00         0.00000E+00         0.00000E+00
 
   -0.21506E+06         0.12221E+07         0.00000E+00
    0.12221E+07         0.43256E+07         0.00000E+00
    0.00000E+00         0.00000E+00         0.00000E+00
 
   -0.20743E+06         0.13000E+07         0.00000E+00
    0.13000E+07         0.43259E+07         0.00000E+00
    0.00000E+00         0.00000E+00         0.00000E+00
 
   -0.19995E+06         0.13777E+07         0.00000E+00
    0.13777E+07         0.43263E+07         0.00000E+00
    0.00000E+00         0.00000E+00         0.00000E+00
 
   -0.19262E+06         0.14554E+07         0.00000E+00
    0.14554E+07         0.43266E+07         0.00000E+00
    0.00000E+00         0.00000E+00         0.00000E+00
 
   -0.18543E+06         0.15329E+07         0.00000E+00
    0.15329E+07         0.43270E+07         0.00000E+00
    0.00000E+00         0.00000E+00         0.00000E+00
 
   -0.17837E+06         0.16104E+07         0.00000E+00
    0.16104E+07         0.43273E+07         0.00000E+00
    0.00000E+00         0.00000E+00         0.00000E+00
 
   -0.17145E+06         0.16878E+07         0.00000E+00
    0.16878E+07         0.43275E+07         0.00000E+00
    0.00000E+00         0.00000E+00         0.00000E+00
 
   -0.16465E+06         0.17651E+07         0.00000E+00
    0.17651E+07         0.43278E+07         0.00000E+00
    0.00000E+00         0.00000E+00         0.00000E+00
 
   -0.15797E+06         0.18423E+07         0.00000E+00
    0.18423E+07         0.43280E+07         0.00000E+00
    0.00000E+00         0.00000E+00         0.00000E+00
 
   -0.15140E+06         0.19194E+07         0.00000E+00
    0.19194E+07         0.43281E+07         0.00000E+00
    0.00000E+00         0.00000E+00         0.00000E+00
 
   -0.14494E+06         0.19965E+07         0.00000E+00
    0.19965E+07         0.43282E+07         0.00000E+00
    0.00000E+00         0.00000E+00         0.00000E+00
 
   -0.13858E+06         0.20735E+07         0.00000E+00
    0.20735E+07         0.43282E+07         0.00000E+00
    0.00000E+00         0.00000E+00         0.00000E+00
 
   -0.13231E+06         0.21504E+07         0.00000E+00
    0.21504E+07         0.43282E+07         0.00000E+00
    0.00000E+00         0.00000E+00         0.00000E+00
 
   -0.12613E+06         0.22273E+07         0.00000E+00
    0.22273E+07         0.43281E+07         0.00000E+00
    0.00000E+00         0.00000E+00         0.00000E+00
 
   -0.12002E+06         0.23040E+07         0.00000E+00
    0.23040E+07         0.43280E+07         0.00000E+00
    0.00000E+00         0.00000E+00         0.00000E+00
 
   -0.11399E+06         0.23808E+07         0.00000E+00
    0.23808E+07         0.43278E+07         0.00000E+00
    0.00000E+00         0.00000E+00         0.00000E+00
 
   -0.10803E+06         0.24574E+07         0.00000E+00
    0.24574E+07         0.43274E+07         0.00000E+00
    0.00000E+00         0.00000E+00         0.00000E+00
 
   -0.10212E+06         0.25340E+07         0.00000E+00
    0.25340E+07         0.43270E+07         0.00000E+00
    0.00000E+00         0.00000E+00         0.00000E+00
 
   -0.96268E+05         0.26105E+07         0.00000E+00
    0.26105E+07         0.43265E+07         0.00000E+00
    0.00000E+00         0.00000E+00         0.00000E+00
 
   -0.90457E+05         0.26870E+07         0.00000E+00
    0.26870E+07         0.43259E+07         0.00000E+00
    0.00000E+00         0.00000E+00         0.00000E+00
 
   -0.84681E+05         0.27634E+07         0.00000E+00
    0.27634E+07         0.43252E+07         0.00000E+00
    0.00000E+00         0.00000E+00         0.00000E+00
 
   -0.78934E+05         0.28398E+07         0.00000E+00
    0.28398E+07         0.43244E+07         0.00000E+00
    0.00000E+00         0.00000E+00         0.00000E+00
 
   -0.73207E+05         0.29161E+07         0.00000E+00
    0.29161E+07         0.43235E+07         0.00000E+00
    0.00000E+00         0.00000E+00         0.00000E+00
 
   -0.67493E+05         0.29924E+07         0.00000E+00
    0.29924E+07         0.43224E+07         0.00000E+00
    0.00000E+00         0.00000E+00         0.00000E+00
 
   -0.61783E+05         0.30686E+07         0.00000E+00
    0.30686E+07         0.43212E+07         0.00000E+00
    0.00000E+00         0.00000E+00         0.00000E+00
 
   -0.56070E+05         0.31447E+07         0.00000E+00
    0.31447E+07         0.43199E+07         0.00000E+00
    0.00000E+00         0.00000E+00         0.00000E+00
 
   -0.50345E+05         0.32208E+07         0.00000E+00
    0.32208E+07         0.43184E+07         0.00000E+00
    0.00000E+00         0.00000E+00         0.00000E+00
 
   -0.44599E+05         0.32968E+07         0.00000E+00
    0.32968E+07         0.43167E+07         0.00000E+00
    0.00000E+00         0.00000E+00         0.00000E+00
 
   -0.38825E+05         0.33728E+07         0.00000E+00
    0.33728E+07         0.43149E+07         0.00000E+00
    0.00000E+00         0.00000E+00         0.00000E+00
 
   -0.33013E+05         0.34487E+07         0.00000E+00
    0.34487E+07         0.43130E+07         0.00000E+00
    0.00000E+00         0.00000E+00         0.00000E+00
 
   -0.27156E+05         0.35246E+07         0.00000E+00
    0.35246E+07         0.43108E+07         0.00000E+00
    0.00000E+00         0.00000E+00         0.00000E+00
 
   -0.21243E+05         0.36004E+07         0.00000E+00
    0.36004E+07         0.43085E+07         0.00000E+00
    0.00000E+00         0.00000E+00         0.00000E+00
 
   -0.15267E+05         0.36762E+07         0.00000E+00
    0.36762E+07         0.43060E+07         0.00000E+00
    0.00000E+00         0.00000E+00         0.00000E+00
 
   -0.92177E+04         0.37519E+07         0.00000E+00
    0.37519E+07         0.43033E+07         0.00000E+00
    0.00000E+00         0.00000E+00         0.00000E+00
 
   -0.30869E+04         0.38275E+07         0.00000E+00
    0.38275E+07         0.43004E+07         0.00000E+00
    0.00000E+00         0.00000E+00         0.00000E+00
 
   -0.32651E+06         0.40157E+05         0.00000E+00
    0.40157E+05         0.39465E+07         0.00000E+00
    0.00000E+00         0.00000E+00         0.00000E+00
 
   -0.31688E+06         0.12000E+06         0.00000E+00
    0.12000E+06         0.39466E+07         0.00000E+00
    0.00000E+00         0.00000E+00         0.00000E+00
 
   -0.30745E+06         0.19969E+06         0.00000E+00
    0.19969E+06         0.39467E+07         0.00000E+00
    0.00000E+00         0.00000E+00         0.00000E+00
 
   -0.29821E+06         0.27921E+06         0.00000E+00
    0.27921E+06         0.39468E+07         0.00000E+00
    0.00000E+00         0.00000E+00         0.00000E+00
 
   -0.28916E+06         0.35857E+06         0.00000E+00
    0.35857E+06         0.39469E+07         0.00000E+00
    0.00000E+00         0.00000E+00         0.00000E+00
 
   -0.28029E+06         0.43778E+06         0.00000E+00
    0.43778E+06         0.39471E+07         0.00000E+00
    0.00000E+00         0.00000E+00         0.00000E+00
 
   -0.27160E+06         0.51684E+06         0.00000E+00
    0.51684E+06         0.39473E+07         0.00000E+00
    0.00000E+00         0.00000E+00         0.00000E+00
 
   -0.26309E+06         0.59575E+06         0.00000E+00
    0.59575E+06         0.39476E+07         0.00000E+00
    0.00000E+00         0.00000E+00         0.00000E+00
 
   -0.25476E+06         0.67453E+06         0.00000E+00
    0.67453E+06         0.39479E+07         0.00000E+00
    0.00000E+00         0.00000E+00         0.00000E+00
 
   -0.24660E+06         0.75316E+06         0.00000E+00
    0.75316E+06         0.39482E+07         0.00000E+00
    0.00000E+00         0.00000E+00         0.00000E+00
 
   -0.23860E+06         0.83165E+06         0.00000E+00
    0.83165E+06         0.39485E+07         0.00000E+00
    0.00000E+00         0.00000E+00         0.00000E+00
 
   -0.23077E+06         0.91002E+06         0.00000E+00
    0.91002E+06         0.39488E+07         0.00000E+00
    0.00000E+00         0.00000E+00         0.00000E+00
 
   -0.22311E+06         0.98825E+06         0.00000E+00
    0.98825E+06         0.39491E+07         0.00000E+00
    0.00000E+00         0.00000E+00         0.00000E+00
 
   -0.21559E+06         0.10664E+07         0.00000E+00
    0.10664E+07         0.39494E+07         0.00000E+00
    0.00000E+00         0.00000E+00         0.00000E+00
 
   -0.20823E+06         0.11443E+07         0.00000E+00
    0.11443E+07         0.39498E+07         0.00000E+00
    0.00000E+00         0.00000E+00         0.00000E+00
 
   -0.20101E+06         0.12222E+07         0.00000E+00
    0.12222E+07         0.39501E+07         0.00000E+00
    0.00000E+00         0.00000E+00         0.00000E+00
 
   -0.19394E+06         0.13000E+07         0.00000E+00
    0.13000E+07         0.39504E+07         0.00000E+00
    0.00000E+00         0.00000E+00         0.00000E+00
 
   -0.18700E+06         0.13776E+07         0.00000E+00
    0.13776E+07         0.39507E+07         0.00000E+00
    0.00000E+00         0.00000E+00         0.00000E+00
 
   -0.18020E+06         0.14551E+07         0.00000E+00
    0.14551E+07         0.39510E+07         0.00000E+00
    0.00000E+00         0.00000E+00         0.00000E+00
 
   -0.17353E+06         0.15325E+07         0.00000E+00
    0.15325E+07         0.39513E+07         0.00000E+00
    0.00000E+00         0.00000E+00         0.00000E+00
 
   -0.16698E+06         0.16098E+07         0.00000E+00
    0.16098E+07         0.39516E+07         0.00000E+00
    0.00000E+00         0.00000E+00         0.00000E+00
 
   -0.16054E+06         0.16871E+07         0.00000E+00
    0.16871E+07         0.39518E+07         0.00000E+00
    0.00000E+00         0.00000E+00         0.00000E+00
 
   -0.15422E+06         0.17642E+07         0.00000E+00
    0.17642E+07         0.39520E+07         0.00000E+00
    0.00000E+00         0.00000E+00         0.00000E+00
 
   -0.14800E+06         0.18412E+07         0.00000E+00
    0.18412E+07         0.39521E+07         0.00000E+00
    0.00000E+00         0.00000E+00         0.00000E+00
 
   -0.14189E+06         0.19181E+07         0.00000E+00
    0.19181E+07         0.39523E+07         0.00000E+00
    0.00000E+00         0.00000E+00         0.00000E+00
 
   -0.13587E+06         0.19949E+07         0.00000E+00
    0.19949E+07         0.39523E+07         0.00000E+00
    0.00000E+00         0.00000E+00         0.00000E+00
 
   -0.12994E+06         0.20716E+07         0.00000E+00
    0.20716E+07         0.39523E+07         0.00000E+00
    0.00000E+00         0.00000E+00         0.00000E+00
 
   -0.12409E+06         0.21482E+07         0.00000E+00
    0.21482E+07         0.39523E+07         0.00000E+00
    0.00000E+00         0.00000E+00         0.00000E+00
 
   -0.11832E+06         0.22248E+07         0.00000E+00
    0.22248E+07         0.39522E+07         0.00000E+00
    0.00000E+00         0.00000E+00         0.00000E+00
 
   -0.11262E+06         0.23012E+07         0.00000E+00
    0.23012E+07         0.39520E+07         0.00000E+00
    0.00000E+00         0.00000E+00         0.00000E+00
 
   -0.10699E+06         0.23776E+07         0.00000E+00
    0.23776E+07         0.39518E+07         0.00000E+00
    0.00000E+00         0.00000E+00         0.00000E+00
 
   -0.10141E+06         0.24539E+07         0.00000E+00
    0.24539E+07         0.39514E+07         0.00000E+00
    0.00000E+00         0.00000E+00         0.00000E+00
 
   -0.95889E+05         0.25300E+07         0.00000E+00
    0.25300E+07         0.39510E+07         0.00000E+00
    0.00000E+00         0.00000E+00         0.00000E+00
 
   -0.90409E+05         0.26062E+07         0.00000E+00
    0.26062E+07         0.39505E+07         0.00000E+00
    0.00000E+00         0.00000E+00         0.00000E+00
 
   -0.84967E+05         0.26822E+07         0.00000E+00
    0.26822E+07         0.39499E+07         0.00000E+00
    0.00000E+00         0.00000E+00         0.00000E+00
 
   -0.79556E+05         0.27581E+07         0.00000E+00
    0.27581E+07         0.39493E+07         0.00000E+00
    0.00000E+00         0.00000E+00         0.00000E+00
 
   -0.74168E+05         0.28340E+07         0.00000E+00
    0.28340E+07         0.39485E+07         0.00000E+00
    0.00000E+00         0.00000E+00         0.00000E+00
 
   -0.68798E+05         0.29098E+07         0.00000E+00
    0.29098E+07         0.39475E+07         0.00000E+00
    0.00000E+00         0.00000E+00         0.00000E+00
 
   -0.63436E+05         0.29855E+07         0.00000E+00
    0.29855E+07         0.39465E+07         0.00000E+00
    0.00000E+00         0.00000E+00         0.00000E+00
 
   -0.58077E+05         0.30611E+07         0.00000E+00
    0.30611E+07         0.39454E+07         0.00000E+00
    0.00000E+00         0.00000E+00         0.00000E+00
 
   -0.52712E+05         0.31366E+07         0.00000E+00
    0.31366E+07         0.39441E+07         0.00000E+00
    0.00000E+00         0.00000E+00         0.00000E+00
 
   -0.47334E+05         0.32121E+07         0.00000E+00
    0.32121E+07         0.39427E+07         0.00000E+00
    0.00000E+00         0.00000E+00         0.00000E+00
 
   -0.41936E+05         0.32875E+07         0.00000E+00
    0.32875E+07         0.39411E+07         0.00000E+00
    0.00000E+00         0.00000E+00         0.00000E+00
 
   -0.36509E+05         0.33628E+07         0.00000E+00
    0.33628E+07         0.39394E+07         0.00000E+00
    0.00000E+00         0.00000E+00         0.00000E+00
 
   -0.31045E+05         0.34380E+07         0.00000E+00
    0.34380E+07         0.39375E+07         0.00000E+00
    0.00000E+00         0.00000E+00         0.00000E+00
 
   -0.25538E+05         0.35131E+07         0.00000E+00
    0.35131E+07         0.39355E+07         0.00000E+00
    0.00000E+00         0.00000E+00         0.00000E+00
 
   -0.19978E+05         0.35882E+07         0.00000E+00
    0.35882E+07         0.39333E+07         0.00000E+00
    0.00000E+00         0.00000E+00         0.00000E+00
 
   -0.14358E+05         0.36632E+07         0.00000E+00
    0.36632E+07         0.39310E+07         0.00000E+00
    0.00000E+00         0.00000E+00         0.00000E+00
 
   -0.86690E+04         0.37381E+07         0.00000E+00
    0.37381E+07         0.39284E+07         0.00000E+00
    0.00000E+00         0.00000E+00         0.00000E+00
 
   -0.29032E+04         0.38129E+07         0.00000E+00
    0.38129E+07         0.39257E+07         0.00000E+00
    0.00000E+00         0.00000E+00         0.00000E+00
 
   -0.29750E+06         0.40196E+05         0.00000E+00
    0.40196E+05         0.35757E+07         0.00000E+00
    0.00000E+00         0.00000E+00         0.00000E+00
 
   -0.28872E+06         0.12010E+06         0.00000E+00
    0.12010E+06         0.35757E+07         0.00000E+00
    0.00000E+00         0.00000E+00         0.00000E+00
 
   -0.28013E+06         0.19984E+06         0.00000E+00
    0.19984E+06         0.35758E+07         0.00000E+00
    0.00000E+00         0.00000E+00         0.00000E+00
 
   -0.27170E+06         0.27941E+06         0.00000E+00
    0.27941E+06         0.35759E+07         0.00000E+00
    0.00000E+00         0.00000E+00         0.00000E+00
 
   -0.26345E+06         0.35881E+06         0.00000E+00
    0.35881E+06         0.35761E+07         0.00000E+00
    0.00000E+00         0.00000E+00         0.00000E+00
 
   -0.25537E+06         0.43805E+06         0.00000E+00
    0.43805E+06         0.35763E+07         0.00000E+00
    0.00000E+00         0.00000E+00         0.00000E+00
 
   -0.24746E+06         0.51714E+06         0.00000E+00
    0.51714E+06         0.35765E+07         0.00000E+00
    0.00000E+00         0.00000E+00         0.00000E+00
 
   -0.23971E+06         0.59607E+06         0.00000E+00
    0.59607E+06         0.35767E+07         0.00000E+00
    0.00000E+00         0.00000E+00         0.00000E+00
 
   -0.23212E+06         0.67484E+06         0.00000E+00
    0.67484E+06         0.35770E+07         0.00000E+00
    0.00000E+00         0.00000E+00         0.00000E+00
 
   -0.22468E+06         0.75347E+06         0.00000E+00
    0.75347E+06         0.35772E+07         0.00000E+00
    0.00000E+00         0.00000E+00         0.00000E+00
 
   -0.21740E+06         0.83195E+06         0.00000E+00
    0.83195E+06         0.35775E+07         0.00000E+00
    0.00000E+00         0.00000E+00         0.00000E+00
 
   -0.21027E+06         0.91028E+06         0.00000E+00
    0.91028E+06         0.35778E+07         0.00000E+00
    0.00000E+00         0.00000E+00         0.00000E+00
 
   -0.20329E+06         0.98848E+06         0.00000E+00
    0.98848E+06         0.35781E+07         0.00000E+00
    0.00000E+00         0.00000E+00         0.00000E+00
 
   -0.19644E+06         0.10665E+07         0.00000E+00
    0.10665E+07         0.35785E+07         0.00000E+00
    0.00000E+00         0.00000E+00         0.00000E+00
 
   -0.18974E+06         0.11445E+07         0.00000E+00
    0.11445E+07         0.35788E+07         0.00000E+00
    0.00000E+00         0.00000E+00         0.00000E+00
 
   -0.18317E+06         0.12222E+07         0.00000E+00
    0.12222E+07         0.35791E+07         0.00000E+00
    0.00000E+00         0.00000E+00         0.00000E+00
 
   -0.17673E+06         0.12999E+07         0.00000E+00
    0.12999E+07         0.35794E+07         0.00000E+00
    0.00000E+00         0.00000E+00         0.00000E+00
 
   -0.17041E+06         0.13774E+07         0.00000E+00
    0.13774E+07         0.35797E+07         0.00000E+00
    0.00000E+00         0.00000E+00         0.00000E+00
 
   -0.16422E+06         0.14548E+07         0.00000E+00
    0.14548E+07         0.35800E+07         0.00000E+00
    0.00000E+00         0.00000E+00         0.00000E+00
 
   -0.15814E+06         0.15321E+07         0.00000E+00
    0.15321E+07         0.35802E+07         0.00000E+00
    0.00000E+00         0.00000E+00         0.00000E+00
 
   -0.15217E+06         0.16093E+07         0.00000E+00
    0.16093E+07         0.35805E+07         0.00000E+00
    0.00000E+00         0.00000E+00         0.00000E+00
 
   -0.14631E+06         0.16863E+07         0.00000E+00
    0.16863E+07         0.35807E+07         0.00000E+00
    0.00000E+00         0.00000E+00         0.00000E+00
 
   -0.14056E+06         0.17632E+07         0.00000E+00
    0.17632E+07         0.35809E+07         0.00000E+00
    0.00000E+00         0.00000E+00         0.00000E+00
 
   -0.13490E+06         0.18400E+07         0.00000E+00
    0.18400E+07         0.35810E+07         0.00000E+00
    0.00000E+00         0.00000E+00         0.00000E+00
 
   -0.12933E+06         0.19167E+07         0.00000E+00
    0.19167E+07         0.35812E+07         0.00000E+00
    0.00000E+00         0.00000E+00         0.00000E+00
 
   -0.12385E+06         0.19933E+07         0.00000E+00
    0.19933E+07         0.35812E+07         0.00000E+00
    0.00000E+00         0.00000E+00         0.00000E+00
 
   -0.11845E+06         0.20698E+07         0.00000E+00
    0.20698E+07         0.35812E+07         0.00000E+00
    0.00000E+00         0.00000E+00         0.00000E+00
 
   -0.11312E+06         0.21461E+07         0.00000E+00
    0.21461E+07         0.35812E+07         0.00000E+00
    0.00000E+00         0.00000E+00         0.00000E+00
 
   -0.10787E+06         0.22224E+07         0.00000E+00
    0.22224E+07         0.35811E+07         0.00000E+00
    0.00000E+00         0.00000E+00         0.00000E+00
 
   -0.10268E+06         0.22985E+07         0.00000E+00
    0.22985E+07         0.35810E+07         0.00000E+00
    0.00000E+00         0.00000E+00         0.00000E+00
 
   -0.97543E+05         0.23745E+07         0.00000E+00
    0.23745E+07         0.35808E+07         0.00000E+00
    0.00000E+00         0.00000E+00         0.00000E+00
 
   -0.92464E+05         0.24505E+07         0.00000E+00
    0.24505E+07         0.35805E+07         0.00000E+00
    0.00000E+00         0.00000E+00         0.00000E+00
 
   -0.87431E+05         0.25263E+07         0.00000E+00
    0.25263E+07         0.35801E+07         0.00000E+00
    0.00000E+00         0.00000E+00         0.00000E+00
 
   -0.82438E+05         0.26020E+07         0.00000E+00
    0.26020E+07         0.35797E+07         0.00000E+00
    0.00000E+00         0.00000E+00         0.00000E+00
 
   -0.77479E+05         0.26776E+07         0.00000E+00
    0.26776E+07         0.35792E+07         0.00000E+00
    0.00000E+00         0.00000E+00         0.00000E+00
 
   -0.72549E+05         0.27531E+07         0.00000E+00
    0.27531E+07         0.35785E+07         0.00000E+00
    0.00000E+00         0.00000E+00         0.00000E+00
 
   -0.67639E+05         0.28285E+07         0.00000E+00
    0.28285E+07         0.35778E+07         0.00000E+00
    0.00000E+00         0.00000E+00         0.00000E+00
 
   -0.62744E+05         0.29038E+07         0.00000E+00
    0.29038E+07         0.35770E+07         0.00000E+00
    0.00000E+00         0.00000E+00         0.00000E+00
 
   -0.57857E+05         0.29790E+07         0.00000E+00
    0.29790E+07         0.35761E+07         0.00000E+00
    0.00000E+00         0.00000E+00         0.00000E+00
 
   -0.52972E+05         0.30541E+07         0.00000E+00
    0.30541E+07         0.35750E+07         0.00000E+00
    0.00000E+00         0.00000E+00         0.00000E+00
 
   -0.48081E+05         0.31291E+07         0.00000E+00
    0.31291E+07         0.35739E+07         0.00000E+00
    0.00000E+00         0.00000E+00         0.00000E+00
 
   -0.43178E+05         0.32040E+07         0.00000E+00
    0.32040E+07         0.35726E+07         0.00000E+00
    0.00000E+00         0.00000E+00         0.00000E+00
 
   -0.38255E+05         0.32788E+07         0.00000E+00
    0.32788E+07         0.35712E+07         0.00000E+00
    0.00000E+00         0.00000E+00         0.00000E+00
 
   -0.33306E+05         0.33535E+07         0.00000E+00
    0.33535E+07         0.35696E+07         0.00000E+00
    0.00000E+00         0.00000E+00         0.00000E+00
 
   -0.28324E+05         0.34281E+07         0.00000E+00
    0.34281E+07         0.35679E+07         0.00000E+00
    0.00000E+00         0.00000E+00         0.00000E+00
 
   -0.23300E+05         0.35025E+07         0.00000E+00
    0.35025E+07         0.35661E+07         0.00000E+00
    0.00000E+00         0.00000E+00         0.00000E+00
 
   -0.18228E+05         0.35769E+07         0.00000E+00
    0.35769E+07         0.35641E+07         0.00000E+00
    0.00000E+00         0.00000E+00         0.00000E+00
 
   -0.13101E+05         0.36511E+07         0.00000E+00
    0.36511E+07         0.35619E+07         0.00000E+00
    0.00000E+00         0.00000E+00         0.00000E+00
 
   -0.79104E+04         0.37253E+07         0.00000E+00
    0.37253E+07         0.35596E+07         0.00000E+00
    0.00000E+00         0.00000E+00         0.00000E+00
 
   -0.26492E+04         0.37993E+07         0.00000E+00
    0.37993E+07         0.35571E+07         0.00000E+00
    0.00000E+00         0.00000E+00         0.00000E+00
 
   -0.26430E+06         0.40235E+05         0.00000E+00
    0.40235E+05         0.32087E+07         0.00000E+00
    0.00000E+00         0.00000E+00         0.00000E+00
 
   -0.25641E+06         0.12020E+06         0.00000E+00
    0.12020E+06         0.32088E+07         0.00000E+00
    0.00000E+00         0.00000E+00         0.00000E+00
 
   -0.24868E+06         0.20000E+06         0.00000E+00
    0.20000E+06         0.32089E+07         0.00000E+00
    0.00000E+00         0.00000E+00         0.00000E+00
 
   -0.24112E+06         0.27961E+06         0.00000E+00
    0.27961E+06         0.32090E+07         0.00000E+00
    0.00000E+00         0.00000E+00         0.00000E+00
 
   -0.23371E+06         0.35906E+06         0.00000E+00
    0.35906E+06         0.32091E+07         0.00000E+00
    0.00000E+00         0.00000E+00         0.00000E+00
 
   -0.22646E+06         0.43834E+06         0.00000E+00
    0.43834E+06         0.32093E+07         0.00000E+00
    0.00000E+00         0.00000E+00         0.00000E+00
 
   -0.21936E+06         0.51744E+06         0.00000E+00
    0.51744E+06         0.32095E+07         0.00000E+00
    0.00000E+00         0.00000E+00         0.00000E+00
 
   -0.21241E+06         0.59639E+06         0.00000E+00
    0.59639E+06         0.32097E+07         0.00000E+00
    0.00000E+00         0.00000E+00         0.00000E+00
 
   -0.20561E+06         0.67517E+06         0.00000E+00
    0.67517E+06         0.32100E+07         0.00000E+00
    0.00000E+00         0.00000E+00         0.00000E+00
 
   -0.19895E+06         0.75380E+06         0.00000E+00
    0.75380E+06         0.32103E+07         0.00000E+00
    0.00000E+00         0.00000E+00         0.00000E+00
 
   -0.19244E+06         0.83227E+06         0.00000E+00
    0.83227E+06         0.32105E+07         0.00000E+00
    0.00000E+00         0.00000E+00         0.00000E+00
 
   -0.18606E+06         0.91058E+06         0.00000E+00
    0.91058E+06         0.32108E+07         0.00000E+00
    0.00000E+00         0.00000E+00         0.00000E+00
 
   -0.17982E+06         0.98875E+06         0.00000E+00
    0.98875E+06         0.32111E+07         0.00000E+00
    0.00000E+00         0.00000E+00         0.00000E+00
 
   -0.17370E+06         0.10668E+07         0.00000E+00
    0.10668E+07         0.32115E+07         0.00000E+00
    0.00000E+00         0.00000E+00         0.00000E+00
 
   -0.16772E+06         0.11446E+07         0.00000E+00
    0.11446E+07         0.32118E+07         0.00000E+00
    0.00000E+00         0.00000E+00         0.00000E+00
 
   -0.16186E+06         0.12224E+07         0.00000E+00
    0.12224E+07         0.32121E+07         0.00000E+00
    0.00000E+00         0.00000E+00         0.00000E+00
 
   -0.15612E+06         0.12999E+07         0.00000E+00
    0.12999E+07         0.32124E+07         0.00000E+00
    0.00000E+00         0.00000E+00         0.00000E+00
 
   -0.15049E+06         0.13774E+07         0.00000E+00
    0.13774E+07         0.32127E+07         0.00000E+00
    0.00000E+00         0.00000E+00         0.00000E+00
 
   -0.14498E+06         0.14547E+07         0.00000E+00
    0.14547E+07         0.32130E+07         0.00000E+00
    0.00000E+00         0.00000E+00         0.00000E+00
 
   -0.13957E+06         0.15318E+07         0.00000E+00
    0.15318E+07         0.32133E+07         0.00000E+00
    0.00000E+00         0.00000E+00         0.00000E+00
 
   -0.13426E+06         0.16089E+07         0.00000E+00
    0.16089E+07         0.32136E+07         0.00000E+00
    0.00000E+00         0.00000E+00         0.00000E+00
 
   -0.12906E+06         0.16857E+07         0.00000E+00
    0.16857E+07         0.32138E+07         0.00000E+00
    0.00000E+00         0.00000E+00         0.00000E+00
 
   -0.12395E+06         0.17625E+07         0.00000E+00
    0.17625E+07         0.32140E+07         0.00000E+00
    0.00000E+00         0.00000E+00         0.00000E+00
 
   -0.11892E+06         0.18391E+07         0.00000E+00
    0.18391E+07         0.32142E+07         0.00000E+00
    0.00000E+00         0.00000E+00         0.00000E+00
 
   -0.11399E+06         0.19156E+07         0.00000E+00
    0.19156E+07         0.32144E+07         0.00000E+00
    0.00000E+00         0.00000E+00         0.00000E+00
 
   -0.10913E+06         0.19920E+07         0.00000E+00
    0.19920E+07         0.32145E+07         0.00000E+00
    0.00000E+00         0.00000E+00         0.00000E+00
 
   -0.10435E+06         0.20682E+07         0.00000E+00
    0.20682E+07         0.32146E+07         0.00000E+00
    0.00000E+00         0.00000E+00         0.00000E+00
 
   -0.99636E+05         0.21443E+07         0.00000E+00
    0.21443E+07         0.32146E+07         0.00000E+00
    0.00000E+00         0.00000E+00         0.00000E+00
 
   -0.94989E+05         0.22203E+07         0.00000E+00
    0.22203E+07         0.32146E+07         0.00000E+00
    0.00000E+00         0.00000E+00         0.00000E+00
 
   -0.90401E+05         0.22962E+07         0.00000E+00
    0.22962E+07         0.32145E+07         0.00000E+00
    0.00000E+00         0.00000E+00         0.00000E+00
 
   -0.85868E+05         0.23719E+07         0.00000E+00
    0.23719E+07         0.32143E+07         0.00000E+00
    0.00000E+00         0.00000E+00         0.00000E+00
 
   -0.81384E+05         0.24475E+07         0.00000E+00
    0.24475E+07         0.32141E+07         0.00000E+00
    0.00000E+00         0.00000E+00         0.00000E+00
 
   -0.76943E+05         0.25230E+07         0.00000E+00
    0.25230E+07         0.32139E+07         0.00000E+00
    0.00000E+00         0.00000E+00         0.00000E+00
 
   -0.72540E+05         0.25984E+07         0.00000E+00
    0.25984E+07         0.32135E+07         0.00000E+00
    0.00000E+00         0.00000E+00         0.00000E+00
 
   -0.68169E+05         0.26736E+07         0.00000E+00
    0.26736E+07         0.32131E+07         0.00000E+00
    0.00000E+00         0.00000E+00         0.00000E+00
 
   -0.63824E+05         0.27487E+07         0.00000E+00
    0.27487E+07         0.32126E+07         0.00000E+00
    0.00000E+00         0.00000E+00         0.00000E+00
 
   -0.59500E+05         0.28237E+07         0.00000E+00
    0.28237E+07         0.32120E+07         0.00000E+00
    0.00000E+00         0.00000E+00         0.00000E+00
 
   -0.55191E+05         0.28986E+07         0.00000E+00
    0.28986E+07         0.32113E+07         0.00000E+00
    0.00000E+00         0.00000E+00         0.00000E+00
 
   -0.50890E+05         0.29733E+07         0.00000E+00
    0.29733E+07         0.32106E+07         0.00000E+00
    0.00000E+00         0.00000E+00         0.00000E+00
 
   -0.46591E+05         0.30480E+07         0.00000E+00
    0.30480E+07         0.32097E+07         0.00000E+00
    0.00000E+00         0.00000E+00         0.00000E+00
 
   -0.42289E+05         0.31225E+07         0.00000E+00
    0.31225E+07         0.32087E+07         0.00000E+00
    0.00000E+00         0.00000E+00         0.00000E+00
 
   -0.37976E+05         0.31968E+07         0.00000E+00
    0.31968E+07         0.32076E+07         0.00000E+00
    0.00000E+00         0.00000E+00         0.00000E+00
 
   -0.33647E+05         0.32711E+07         0.00000E+00
    0.32711E+07         0.32064E+07         0.00000E+00
    0.00000E+00         0.00000E+00         0.00000E+00
 
   -0.29295E+05         0.33452E+07         0.00000E+00
    0.33452E+07         0.32050E+07         0.00000E+00
    0.00000E+00         0.00000E+00         0.00000E+00
 
   -0.24914E+05         0.34192E+07         0.00000E+00
    0.34192E+07         0.32036E+07         0.00000E+00
    0.00000E+00         0.00000E+00         0.00000E+00
 
   -0.20496E+05         0.34930E+07         0.00000E+00
    0.34930E+07         0.32020E+07         0.00000E+00
    0.00000E+00         0.00000E+00         0.00000E+00
 
   -0.16036E+05         0.35667E+07         0.00000E+00
    0.35667E+07         0.32002E+07         0.00000E+00
    0.00000E+00         0.00000E+00         0.00000E+00
 
   -0.11526E+05         0.36403E+07         0.00000E+00
    0.36403E+07         0.31984E+07         0.00000E+00
    0.00000E+00         0.00000E+00         0.00000E+00
 
   -0.69603E+04         0.37138E+07         0.00000E+00
    0.37138E+07         0.31963E+07         0.00000E+00
    0.00000E+00         0.00000E+00         0.00000E+00
 
   -0.23312E+04         0.37871E+07         0.00000E+00
    0.37871E+07         0.31941E+07         0.00000E+00
    0.00000E+00         0.00000E+00         0.00000E+00
 
   -0.22729E+06         0.40277E+05         0.00000E+00
    0.40277E+05         0.28453E+07         0.00000E+00
    0.00000E+00         0.00000E+00         0.00000E+00
 
   -0.22031E+06         0.12032E+06         0.00000E+00
    0.12032E+06         0.28453E+07         0.00000E+00
    0.00000E+00         0.00000E+00         0.00000E+00
 
   -0.21349E+06         0.20017E+06         0.00000E+00
    0.20017E+06         0.28454E+07         0.00000E+00
    0.00000E+00         0.00000E+00         0.00000E+00
 
   -0.20681E+06         0.27985E+06         0.00000E+00
    0.27985E+06         0.28455E+07         0.00000E+00
    0.00000E+00         0.00000E+00         0.00000E+00
 
   -0.20028E+06         0.35934E+06         0.00000E+00
    0.35934E+06         0.28456E+07         0.00000E+00
    0.00000E+00         0.00000E+00         0.00000E+00
 
   -0.19389E+06         0.43866E+06         0.00000E+00
    0.43866E+06         0.28458E+07         0.00000E+00
    0.00000E+00         0.00000E+00         0.00000E+00
 
   -0.18765E+06         0.51781E+06         0.00000E+00
    0.51781E+06         0.28460E+07         0.00000E+00
    0.00000E+00         0.00000E+00         0.00000E+00
 
   -0.18155E+06         0.59678E+06         0.00000E+00
    0.59678E+06         0.28463E+07         0.00000E+00
    0.00000E+00         0.00000E+00         0.00000E+00
 
   -0.17558E+06         0.67559E+06         0.00000E+00
    0.67559E+06         0.28465E+07         0.00000E+00
    0.00000E+00         0.00000E+00         0.00000E+00
 
   -0.16975E+06         0.75422E+06         0.00000E+00
    0.75422E+06         0.28468E+07         0.00000E+00
    0.00000E+00         0.00000E+00         0.00000E+00
 
   -0.16405E+06         0.83269E+06         0.00000E+00
    0.83269E+06         0.28471E+07         0.00000E+00
    0.00000E+00         0.00000E+00         0.00000E+00
 
   -0.15848E+06         0.91100E+06         0.00000E+00
    0.91100E+06         0.28474E+07         0.00000E+00
    0.00000E+00         0.00000E+00         0.00000E+00
 
   -0.15303E+06         0.98915E+06         0.00000E+00
    0.98915E+06         0.28477E+07         0.00000E+00
    0.00000E+00         0.00000E+00         0.00000E+00
 
   -0.14770E+06         0.10671E+07         0.00000E+00
    0.10671E+07         0.28481E+07         0.00000E+00
    0.00000E+00         0.00000E+00         0.00000E+00
 
   -0.14249E+06         0.11450E+07         0.00000E+00
    0.11450E+07         0.28484E+07         0.00000E+00
    0.00000E+00         0.00000E+00         0.00000E+00
 
   -0.13740E+06         0.12226E+07         0.00000E+00
    0.12226E+07         0.28488E+07         0.00000E+00
    0.00000E+00         0.00000E+00         0.00000E+00
 
   -0.13242E+06         0.13002E+07         0.00000E+00
    0.13002E+07         0.28491E+07         0.00000E+00
    0.00000E+00         0.00000E+00         0.00000E+00
 
   -0.12755E+06         0.13775E+07         0.00000E+00
    0.13775E+07         0.28494E+07         0.00000E+00
    0.00000E+00         0.00000E+00         0.00000E+00
 
   -0.12278E+06         0.14547E+07         0.00000E+00
    0.14547E+07         0.28498E+07         0.00000E+00
    0.00000E+00         0.00000E+00         0.00000E+00
 
   -0.11811E+06         0.15318E+07         0.00000E+00
    0.15318E+07         0.28501E+07         0.00000E+00
    0.00000E+00         0.00000E+00         0.00000E+00
 
   -0.11353E+06         0.16087E+07         0.00000E+00
    0.16087E+07         0.28504E+07         0.00000E+00
    0.00000E+00         0.00000E+00         0.00000E+00
 
   -0.10905E+06         0.16855E+07         0.00000E+00
    0.16855E+07         0.28507E+07         0.00000E+00
    0.00000E+00         0.00000E+00         0.00000E+00
 
   -0.10466E+06         0.17621E+07         0.00000E+00
    0.17621E+07         0.28510E+07         0.00000E+00
    0.00000E+00         0.00000E+00         0.00000E+00
 
   -0.10035E+06         0.18386E+07         0.00000E+00
    0.18386E+07         0.28512E+07         0.00000E+00
    0.00000E+00         0.00000E+00         0.00000E+00
 
   -0.96121E+05         0.19149E+07         0.00000E+00
    0.19149E+07         0.28515E+07         0.00000E+00
    0.00000E+00         0.00000E+00         0.00000E+00
 
   -0.91967E+05         0.19911E+07         0.00000E+00
    0.19911E+07         0.28517E+07         0.00000E+00
    0.00000E+00         0.00000E+00         0.00000E+00
 
   -0.87884E+05         0.20671E+07         0.00000E+00
    0.20671E+07         0.28518E+07         0.00000E+00
    0.00000E+00         0.00000E+00         0.00000E+00
 
   -0.83867E+05         0.21430E+07         0.00000E+00
    0.21430E+07         0.28519E+07         0.00000E+00
    0.00000E+00         0.00000E+00         0.00000E+00
 
   -0.79912E+05         0.22188E+07         0.00000E+00
    0.22188E+07         0.28520E+07         0.00000E+00
    0.00000E+00         0.00000E+00         0.00000E+00
 
   -0.76014E+05         0.22944E+07         0.00000E+00
    0.22944E+07         0.28520E+07         0.00000E+00
    0.00000E+00         0.00000E+00         0.00000E+00
 
   -0.72167E+05         0.23699E+07         0.00000E+00
    0.23699E+07         0.28520E+07         0.00000E+00
    0.00000E+00         0.00000E+00         0.00000E+00
 
   -0.68368E+05         0.24452E+07         0.00000E+00
    0.24452E+07         0.28519E+07         0.00000E+00
    0.00000E+00         0.00000E+00         0.00000E+00
 
   -0.64611E+05         0.25204E+07         0.00000E+00
    0.25204E+07         0.28518E+07         0.00000E+00
    0.00000E+00         0.00000E+00         0.00000E+00
 
   -0.60890E+05         0.25955E+07         0.00000E+00
    0.25955E+07         0.28516E+07         0.00000E+00
    0.00000E+00         0.00000E+00         0.00000E+00
 
   -0.57202E+05         0.26704E+07         0.00000E+00
    0.26704E+07         0.28513E+07         0.00000E+00
    0.00000E+00         0.00000E+00         0.00000E+00
 
   -0.53540E+05         0.27452E+07         0.00000E+00
    0.27452E+07         0.28510E+07         0.00000E+00
    0.00000E+00         0.00000E+00         0.00000E+00
 
   -0.49900E+05         0.28198E+07         0.00000E+00
    0.28198E+07         0.28506E+07         0.00000E+00
    0.00000E+00         0.00000E+00         0.00000E+00
 
   -0.46275E+05         0.28943E+07         0.00000E+00
    0.28943E+07         0.28501E+07         0.00000E+00
    0.00000E+00         0.00000E+00         0.00000E+00
 
   -0.42661E+05         0.29686E+07         0.00000E+00
    0.29686E+07         0.28495E+07         0.00000E+00
    0.00000E+00         0.00000E+00         0.00000E+00
 
   -0.39052E+05         0.30428E+07         0.00000E+00
    0.30428E+07         0.28489E+07         0.00000E+00
    0.00000E+00         0.00000E+00         0.00000E+00
 
   -0.35442E+05         0.31169E+07         0.00000E+00
    0.31169E+07         0.28481E+07         0.00000E+00
    0.00000E+00         0.00000E+00         0.00000E+00
 
   -0.31825E+05         0.31908E+07         0.00000E+00
    0.31908E+07         0.28472E+07         0.00000E+00
    0.00000E+00         0.00000E+00         0.00000E+00
 
   -0.28196E+05         0.32645E+07         0.00000E+00
    0.32645E+07         0.28463E+07         0.00000E+00
    0.00000E+00         0.00000E+00         0.00000E+00
 
   -0.24550E+05         0.33381E+07         0.00000E+00
    0.33381E+07         0.28452E+07         0.00000E+00
    0.00000E+00         0.00000E+00         0.00000E+00
 
   -0.20879E+05         0.34116E+07         0.00000E+00
    0.34116E+07         0.28440E+07         0.00000E+00
    0.00000E+00         0.00000E+00         0.00000E+00
 
   -0.17178E+05         0.34849E+07         0.00000E+00
    0.34849E+07         0.28427E+07         0.00000E+00
    0.00000E+00         0.00000E+00         0.00000E+00
 
   -0.13442E+05         0.35581E+07         0.00000E+00
    0.35581E+07         0.28413E+07         0.00000E+00
    0.00000E+00         0.00000E+00         0.00000E+00
 
   -0.96631E+04         0.36311E+07         0.00000E+00
    0.36311E+07         0.28397E+07         0.00000E+00
    0.00000E+00         0.00000E+00         0.00000E+00
 
   -0.58363E+04         0.37039E+07         0.00000E+00
    0.37039E+07         0.28380E+07         0.00000E+00
    0.00000E+00         0.00000E+00         0.00000E+00
 
   -0.19550E+04         0.37766E+07         0.00000E+00
    0.37766E+07         0.28362E+07         0.00000E+00
    0.00000E+00         0.00000E+00         0.00000E+00
 
   -0.18682E+06         0.40326E+05         0.00000E+00
    0.40326E+05         0.24848E+07         0.00000E+00
    0.00000E+00         0.00000E+00         0.00000E+00
 
   -0.18078E+06         0.12045E+06         0.00000E+00
    0.12045E+06         0.24849E+07         0.00000E+00
    0.00000E+00         0.00000E+00         0.00000E+00
 
   -0.17489E+06         0.20038E+06         0.00000E+00
    0.20038E+06         0.24850E+07         0.00000E+00
    0.00000E+00         0.00000E+00         0.00000E+00
 
   -0.16913E+06         0.28013E+06         0.00000E+00
    0.28013E+06         0.24851E+07         0.00000E+00
    0.00000E+00         0.00000E+00         0.00000E+00
 
   -0.16351E+06         0.35969E+06         0.00000E+00
    0.35969E+06         0.24852E+07         0.00000E+00
    0.00000E+00         0.00000E+00         0.00000E+00
 
   -0.15803E+06         0.43907E+06         0.00000E+00
    0.43907E+06         0.24854E+07         0.00000E+00
    0.00000E+00         0.00000E+00         0.00000E+00
 
   -0.15268E+06         0.51827E+06         0.00000E+00
    0.51827E+06         0.24857E+07         0.00000E+00
    0.00000E+00         0.00000E+00         0.00000E+00
 
   -0.14746E+06         0.59729E+06         0.00000E+00
    0.59729E+06         0.24859E+07         0.00000E+00
    0.00000E+00         0.00000E+00         0.00000E+00
 
   -0.14237E+06         0.67614E+06         0.00000E+00
    0.67614E+06         0.24862E+07         0.00000E+00
    0.00000E+00         0.00000E+00         0.00000E+00
 
   -0.13740E+06         0.75480E+06         0.00000E+00
    0.75480E+06         0.24865E+07         0.00000E+00
    0.00000E+00         0.00000E+00         0.00000E+00
 
   -0.13256E+06         0.83330E+06         0.00000E+00
    0.83330E+06         0.24868E+07         0.00000E+00
    0.00000E+00         0.00000E+00         0.00000E+00
 
   -0.12784E+06         0.91162E+06         0.00000E+00
    0.91162E+06         0.24871E+07         0.00000E+00
    0.00000E+00         0.00000E+00         0.00000E+00
 
   -0.12323E+06         0.98977E+06         0.00000E+00
    0.98977E+06         0.24875E+07         0.00000E+00
    0.00000E+00         0.00000E+00         0.00000E+00
 
   -0.11874E+06         0.10678E+07         0.00000E+00
    0.10678E+07         0.24879E+07         0.00000E+00
    0.00000E+00         0.00000E+00         0.00000E+00
 
   -0.11436E+06         0.11456E+07         0.00000E+00
    0.11456E+07         0.24882E+07         0.00000E+00
    0.00000E+00         0.00000E+00         0.00000E+00
 
   -0.11009E+06         0.12232E+07         0.00000E+00
    0.12232E+07         0.24886E+07         0.00000E+00
    0.00000E+00         0.00000E+00         0.00000E+00
 
   -0.10593E+06         0.13007E+07         0.00000E+00
    0.13007E+07         0.24890E+07         0.00000E+00
    0.00000E+00         0.00000E+00         0.00000E+00
 
   -0.10186E+06         0.13780E+07         0.00000E+00
    0.13780E+07         0.24894E+07         0.00000E+00
    0.00000E+00         0.00000E+00         0.00000E+00
 
   -0.97897E+05         0.14552E+07         0.00000E+00
    0.14552E+07         0.24898E+07         0.00000E+00
    0.00000E+00         0.00000E+00         0.00000E+00
 
   -0.94026E+05         0.15322E+07         0.00000E+00
    0.15322E+07         0.24902E+07         0.00000E+00
    0.00000E+00         0.00000E+00         0.00000E+00
 
   -0.90247E+05         0.16090E+07         0.00000E+00
    0.16090E+07         0.24906E+07         0.00000E+00
    0.00000E+00         0.00000E+00         0.00000E+00
 
   -0.86555E+05         0.16857E+07         0.00000E+00
    0.16857E+07         0.24910E+07         0.00000E+00
    0.00000E+00         0.00000E+00         0.00000E+00
 
   -0.82948E+05         0.17622E+07         0.00000E+00
    0.17622E+07         0.24913E+07         0.00000E+00
    0.00000E+00         0.00000E+00         0.00000E+00
 
   -0.79420E+05         0.18386E+07         0.00000E+00
    0.18386E+07         0.24917E+07         0.00000E+00
    0.00000E+00         0.00000E+00         0.00000E+00
 
   -0.75969E+05         0.19148E+07         0.00000E+00
    0.19148E+07         0.24920E+07         0.00000E+00
    0.00000E+00         0.00000E+00         0.00000E+00
 
   -0.72590E+05         0.19908E+07         0.00000E+00
    0.19908E+07         0.24923E+07         0.00000E+00
    0.00000E+00         0.00000E+00         0.00000E+00
 
   -0.69279E+05         0.20667E+07         0.00000E+00
    0.20667E+07         0.24926E+07         0.00000E+00
    0.00000E+00         0.00000E+00         0.00000E+00
 
   -0.66032E+05         0.21424E+07         0.00000E+00
    0.21424E+07         0.24928E+07         0.00000E+00
    0.00000E+00         0.00000E+00         0.00000E+00
 
   -0.62846E+05         0.22180E+07         0.00000E+00
    0.22180E+07         0.24930E+07         0.00000E+00
    0.00000E+00         0.00000E+00         0.00000E+00
 
   -0.59714E+05         0.22934E+07         0.00000E+00
    0.22934E+07         0.24932E+07         0.00000E+00
    0.00000E+00         0.00000E+00         0.00000E+00
 
   -0.56634E+05         0.23687E+07         0.00000E+00
    0.23687E+07         0.24933E+07         0.00000E+00
    0.00000E+00         0.00000E+00         0.00000E+00
 
   -0.53601E+05         0.24438E+07         0.00000E+00
    0.24438E+07         0.24934E+07         0.00000E+00
    0.00000E+00         0.00000E+00         0.00000E+00
 
   -0.50610E+05         0.25187E+07         0.00000E+00
    0.25187E+07         0.24934E+07         0.00000E+00
    0.00000E+00         0.00000E+00         0.00000E+00
 
   -0.47657E+05         0.25935E+07         0.00000E+00
    0.25935E+07         0.24934E+07         0.00000E+00
    0.00000E+00         0.00000E+00         0.00000E+00
 
   -0.44737E+05         0.26682E+07         0.00000E+00
    0.26682E+07         0.24934E+07         0.00000E+00
    0.00000E+00         0.00000E+00         0.00000E+00
 
   -0.41845E+05         0.27426E+07         0.00000E+00
    0.27426E+07         0.24932E+07         0.00000E+00
    0.00000E+00         0.00000E+00         0.00000E+00
 
   -0.38976E+05         0.28170E+07         0.00000E+00
    0.28170E+07         0.24930E+07         0.00000E+00
    0.00000E+00         0.00000E+00         0.00000E+00
 
   -0.36127E+05         0.28911E+07         0.00000E+00
    0.28911E+07         0.24928E+07         0.00000E+00
    0.00000E+00         0.00000E+00         0.00000E+00
 
   -0.33291E+05         0.29651E+07         0.00000E+00
    0.29651E+07         0.24924E+07         0.00000E+00
    0.00000E+00         0.00000E+00         0.00000E+00
 
   -0.30464E+05         0.30389E+07         0.00000E+00
    0.30389E+07         0.24920E+07         0.00000E+00
    0.00000E+00         0.00000E+00         0.00000E+00
 
   -0.27640E+05         0.31126E+07         0.00000E+00
    0.31126E+07         0.24915E+07         0.00000E+00
    0.00000E+00         0.00000E+00         0.00000E+00
 
   -0.24815E+05         0.31861E+07         0.00000E+00
    0.31861E+07         0.24909E+07         0.00000E+00
    0.00000E+00         0.00000E+00         0.00000E+00
 
   -0.21983E+05         0.32595E+07         0.00000E+00
    0.32595E+07         0.24903E+07         0.00000E+00
    0.00000E+00         0.00000E+00         0.00000E+00
 
   -0.19140E+05         0.33327E+07         0.00000E+00
    0.33327E+07         0.24895E+07         0.00000E+00
    0.00000E+00         0.00000E+00         0.00000E+00
 
   -0.16279E+05         0.34057E+07         0.00000E+00
    0.34057E+07         0.24887E+07         0.00000E+00
    0.00000E+00         0.00000E+00         0.00000E+00
 
   -0.13395E+05         0.34785E+07         0.00000E+00
    0.34785E+07         0.24877E+07         0.00000E+00
    0.00000E+00         0.00000E+00         0.00000E+00
 
   -0.10484E+05         0.35512E+07         0.00000E+00
    0.35512E+07         0.24866E+07         0.00000E+00
    0.00000E+00         0.00000E+00         0.00000E+00
 
   -0.75389E+04         0.36237E+07         0.00000E+00
    0.36237E+07         0.24855E+07         0.00000E+00
    0.00000E+00         0.00000E+00         0.00000E+00
 
   -0.45549E+04         0.36960E+07         0.00000E+00
    0.36960E+07         0.24842E+07         0.00000E+00
    0.00000E+00         0.00000E+00         0.00000E+00
 
   -0.15262E+04         0.37681E+07         0.00000E+00
    0.37681E+07         0.24828E+07         0.00000E+00
    0.00000E+00         0.00000E+00         0.00000E+00
 
   -0.14323E+06         0.40384E+05         0.00000E+00
    0.40384E+05         0.21271E+07         0.00000E+00
    0.00000E+00         0.00000E+00         0.00000E+00
 
   -0.13815E+06         0.12061E+06         0.00000E+00
    0.12061E+06         0.21271E+07         0.00000E+00
    0.00000E+00         0.00000E+00         0.00000E+00
 
   -0.13321E+06         0.20065E+06         0.00000E+00
    0.20065E+06         0.21272E+07         0.00000E+00
    0.00000E+00         0.00000E+00         0.00000E+00
 
   -0.12840E+06         0.28049E+06         0.00000E+00
    0.28049E+06         0.21273E+07         0.00000E+00
    0.00000E+00         0.00000E+00         0.00000E+00
 
   -0.12373E+06         0.36014E+06         0.00000E+00
    0.36014E+06         0.21275E+07         0.00000E+00
    0.00000E+00         0.00000E+00         0.00000E+00
 
   -0.11918E+06         0.43960E+06         0.00000E+00
    0.43960E+06         0.21277E+07         0.00000E+00
    0.00000E+00         0.00000E+00         0.00000E+00
 
   -0.11475E+06         0.51888E+06         0.00000E+00
    0.51888E+06         0.21279E+07         0.00000E+00
    0.00000E+00         0.00000E+00         0.00000E+00
 
   -0.11045E+06         0.59797E+06         0.00000E+00
    0.59797E+06         0.21282E+07         0.00000E+00
    0.00000E+00         0.00000E+00         0.00000E+00
 
   -0.10627E+06         0.67687E+06         0.00000E+00
    0.67687E+06         0.21285E+07         0.00000E+00
    0.00000E+00         0.00000E+00         0.00000E+00
 
   -0.10221E+06         0.75560E+06         0.00000E+00
    0.75560E+06         0.21288E+07         0.00000E+00
    0.00000E+00         0.00000E+00         0.00000E+00
 
   -0.98270E+05         0.83414E+06         0.00000E+00
    0.83414E+06         0.21292E+07         0.00000E+00
    0.00000E+00         0.00000E+00         0.00000E+00
 
   -0.94441E+05         0.91250E+06         0.00000E+00
    0.91250E+06         0.21296E+07         0.00000E+00
    0.00000E+00         0.00000E+00         0.00000E+00
 
   -0.90723E+05         0.99069E+06         0.00000E+00
    0.99069E+06         0.21300E+07         0.00000E+00
    0.00000E+00         0.00000E+00         0.00000E+00
 
   -0.87115E+05         0.10687E+07         0.00000E+00
    0.10687E+07         0.21304E+07         0.00000E+00
    0.00000E+00         0.00000E+00         0.00000E+00
 
   -0.83612E+05         0.11465E+07         0.00000E+00
    0.11465E+07         0.21308E+07         0.00000E+00
    0.00000E+00         0.00000E+00         0.00000E+00
 
   -0.80213E+05         0.12242E+07         0.00000E+00
    0.12242E+07         0.21313E+07         0.00000E+00
    0.00000E+00         0.00000E+00         0.00000E+00
 
   -0.76914E+05         0.13017E+07         0.00000E+00
    0.13017E+07         0.21318E+07         0.00000E+00
    0.00000E+00         0.00000E+00         0.00000E+00
 
   -0.73713E+05         0.13790E+07         0.00000E+00
    0.13790E+07         0.21322E+07         0.00000E+00
    0.00000E+00         0.00000E+00         0.00000E+00
 
   -0.70605E+05         0.14561E+07         0.00000E+00
    0.14561E+07         0.21327E+07         0.00000E+00
    0.00000E+00         0.00000E+00         0.00000E+00
 
   -0.67589E+05         0.15331E+07         0.00000E+00
    0.15331E+07         0.21332E+07         0.00000E+00
    0.00000E+00         0.00000E+00         0.00000E+00
 
   -0.64660E+05         0.16099E+07         0.00000E+00
    0.16099E+07         0.21337E+07         0.00000E+00
    0.00000E+00         0.00000E+00         0.00000E+00
 
   -0.61817E+05         0.16865E+07         0.00000E+00
    0.16865E+07         0.21341E+07         0.00000E+00
    0.00000E+00         0.00000E+00         0.00000E+00
 
   -0.59054E+05         0.17629E+07         0.00000E+00
    0.17629E+07         0.21346E+07         0.00000E+00
    0.00000E+00         0.00000E+00         0.00000E+00
 
   -0.56369E+05         0.18392E+07         0.00000E+00
    0.18392E+07         0.21351E+07         0.00000E+00
    0.00000E+00         0.00000E+00         0.00000E+00
 
   -0.53759E+05         0.19153E+07         0.00000E+00
    0.19153E+07         0.21355E+07         0.00000E+00
    0.00000E+00         0.00000E+00         0.00000E+00
 
   -0.51219E+05         0.19913E+07         0.00000E+00
    0.19913E+07         0.21359E+07         0.00000E+00
    0.00000E+00         0.00000E+00         0.00000E+00
 
   -0.48747E+05         0.20670E+07         0.00000E+00
    0.20670E+07         0.21364E+07         0.00000E+00
    0.00000E+00         0.00000E+00         0.00000E+00
 
   -0.46338E+05         0.21426E+07         0.00000E+00
    0.21426E+07         0.21368E+07         0.00000E+00
    0.00000E+00         0.00000E+00         0.00000E+00
 
   -0.43988E+05         0.22181E+07         0.00000E+00
    0.22181E+07         0.21371E+07         0.00000E+00
    0.00000E+00         0.00000E+00         0.00000E+00
 
   -0.41695E+05         0.22933E+07         0.00000E+00
    0.22933E+07         0.21375E+07         0.00000E+00
    0.00000E+00         0.00000E+00         0.00000E+00
 
   -0.39453E+05         0.23684E+07         0.00000E+00
    0.23684E+07         0.21378E+07         0.00000E+00
    0.00000E+00         0.00000E+00         0.00000E+00
 
   -0.37259E+05         0.24434E+07         0.00000E+00
    0.24434E+07         0.21381E+07         0.00000E+00
    0.00000E+00         0.00000E+00         0.00000E+00
 
   -0.35109E+05         0.25181E+07         0.00000E+00
    0.25181E+07         0.21383E+07         0.00000E+00
    0.00000E+00         0.00000E+00         0.00000E+00
 
   -0.32998E+05         0.25927E+07         0.00000E+00
    0.25927E+07         0.21385E+07         0.00000E+00
    0.00000E+00         0.00000E+00         0.00000E+00
 
   -0.30924E+05         0.26671E+07         0.00000E+00
    0.26671E+07         0.21387E+07         0.00000E+00
    0.00000E+00         0.00000E+00         0.00000E+00
 
   -0.28880E+05         0.27414E+07         0.00000E+00
    0.27414E+07         0.21388E+07         0.00000E+00
    0.00000E+00         0.00000E+00         0.00000E+00
 
   -0.26864E+05         0.28154E+07         0.00000E+00
    0.28154E+07         0.21388E+07         0.00000E+00
    0.00000E+00         0.00000E+00         0.00000E+00
 
   -0.24870E+05         0.28893E+07         0.00000E+00
    0.28893E+07         0.21388E+07         0.00000E+00
    0.00000E+00         0.00000E+00         0.00000E+00
 
   -0.22894E+05         0.29630E+07         0.00000E+00
    0.29630E+07         0.21388E+07         0.00000E+00
    0.00000E+00         0.00000E+00         0.00000E+00
 
   -0.20933E+05         0.30366E+07         0.00000E+00
    0.30366E+07         0.21387E+07         0.00000E+00
    0.00000E+00         0.00000E+00         0.00000E+00
 
   -0.18980E+05         0.31099E+07         0.00000E+00
    0.31099E+07         0.21385E+07         0.00000E+00
    0.00000E+00         0.00000E+00         0.00000E+00
 
   -0.17032E+05         0.31831E+07         0.00000E+00
    0.31831E+07         0.21382E+07         0.00000E+00
    0.00000E+00         0.00000E+00         0.00000E+00
 
   -0.15085E+05         0.32561E+07         0.00000E+00
    0.32561E+07         0.21379E+07         0.00000E+00
    0.00000E+00         0.00000E+00         0.00000E+00
 
   -0.13132E+05         0.33289E+07         0.00000E+00
    0.33289E+07         0.21375E+07         0.00000E+00
    0.00000E+00         0.00000E+00         0.00000E+00
 
   -0.11170E+05         0.34016E+07         0.00000E+00
    0.34016E+07         0.21370E+07         0.00000E+00
    0.00000E+00         0.00000E+00         0.00000E+00
 
   -0.91943E+04         0.34740E+07         0.00000E+00
    0.34740E+07         0.21364E+07         0.00000E+00
    0.00000E+00         0.00000E+00         0.00000E+00
 
   -0.71992E+04         0.35463E+07         0.00000E+00
    0.35463E+07         0.21358E+07         0.00000E+00
    0.00000E+00         0.00000E+00         0.00000E+00
 
   -0.51801E+04         0.36183E+07         0.00000E+00
    0.36183E+07         0.21350E+07         0.00000E+00
    0.00000E+00         0.00000E+00         0.00000E+00
 
   -0.31320E+04         0.36902E+07         0.00000E+00
    0.36902E+07         0.21342E+07         0.00000E+00
    0.00000E+00         0.00000E+00         0.00000E+00
 
   -0.10501E+04         0.37619E+07         0.00000E+00
    0.37619E+07         0.21332E+07         0.00000E+00
    0.00000E+00         0.00000E+00         0.00000E+00
 
   -0.96825E+05         0.40456E+05         0.00000E+00
    0.40456E+05         0.17715E+07         0.00000E+00
    0.00000E+00         0.00000E+00         0.00000E+00
 
   -0.92738E+05         0.12081E+06         0.00000E+00
    0.12081E+06         0.17716E+07         0.00000E+00
    0.00000E+00         0.00000E+00         0.00000E+00
 
   -0.88779E+05         0.20097E+06         0.00000E+00
    0.20097E+06         0.17717E+07         0.00000E+00
    0.00000E+00         0.00000E+00         0.00000E+00
 
   -0.84946E+05         0.28094E+06         0.00000E+00
    0.28094E+06         0.17718E+07         0.00000E+00
    0.00000E+00         0.00000E+00         0.00000E+00
 
   -0.81237E+05         0.36071E+06         0.00000E+00
    0.36071E+06         0.17720E+07         0.00000E+00
    0.00000E+00         0.00000E+00         0.00000E+00
 
   -0.77650E+05         0.44028E+06         0.00000E+00
    0.44028E+06         0.17722E+07         0.00000E+00
    0.00000E+00         0.00000E+00         0.00000E+00
 
   -0.74183E+05         0.51966E+06         0.00000E+00
    0.51966E+06         0.17725E+07         0.00000E+00
    0.00000E+00         0.00000E+00         0.00000E+00
 
   -0.70835E+05         0.59885E+06         0.00000E+00
    0.59885E+06         0.17728E+07         0.00000E+00
    0.00000E+00         0.00000E+00         0.00000E+00
 
   -0.67602E+05         0.67785E+06         0.00000E+00
    0.67785E+06         0.17731E+07         0.00000E+00
    0.00000E+00         0.00000E+00         0.00000E+00
 
   -0.64484E+05         0.75666E+06         0.00000E+00
    0.75666E+06         0.17735E+07         0.00000E+00
    0.00000E+00         0.00000E+00         0.00000E+00
 
   -0.61477E+05         0.83528E+06         0.00000E+00
    0.83528E+06         0.17739E+07         0.00000E+00
    0.00000E+00         0.00000E+00         0.00000E+00
 
   -0.58579E+05         0.91371E+06         0.00000E+00
    0.91371E+06         0.17743E+07         0.00000E+00
    0.00000E+00         0.00000E+00         0.00000E+00
 
   -0.55789E+05         0.99196E+06         0.00000E+00
    0.99196E+06         0.17748E+07         0.00000E+00
    0.00000E+00         0.00000E+00         0.00000E+00
 
   -0.53103E+05         0.10700E+07         0.00000E+00
    0.10700E+07         0.17752E+07         0.00000E+00
    0.00000E+00         0.00000E+00         0.00000E+00
 
   -0.50520E+05         0.11479E+07         0.00000E+00
    0.11479E+07         0.17757E+07         0.00000E+00
    0.00000E+00         0.00000E+00         0.00000E+00
 
   -0.48036E+05         0.12256E+07         0.00000E+00
    0.12256E+07         0.17763E+07         0.00000E+00
    0.00000E+00         0.00000E+00         0.00000E+00
 
   -0.45649E+05         0.13031E+07         0.00000E+00
    0.13031E+07         0.17768E+07         0.00000E+00
    0.00000E+00         0.00000E+00         0.00000E+00
 
   -0.43356E+05         0.13804E+07         0.00000E+00
    0.13804E+07         0.17774E+07         0.00000E+00
    0.00000E+00         0.00000E+00         0.00000E+00
 
   -0.41155E+05         0.14576E+07         0.00000E+00
    0.14576E+07         0.17779E+07         0.00000E+00
    0.00000E+00         0.00000E+00         0.00000E+00
 
   -0.39043E+05         0.15346E+07         0.00000E+00
    0.15346E+07         0.17785E+07         0.00000E+00
    0.00000E+00         0.00000E+00         0.00000E+00
 
   -0.37016E+05         0.16113E+07         0.00000E+00
    0.16113E+07         0.17791E+07         0.00000E+00
    0.00000E+00         0.00000E+00         0.00000E+00
 
   -0.35073E+05         0.16880E+07         0.00000E+00
    0.16880E+07         0.17797E+07         0.00000E+00
    0.00000E+00         0.00000E+00         0.00000E+00
 
   -0.33209E+05         0.17644E+07         0.00000E+00
    0.17644E+07         0.17803E+07         0.00000E+00
    0.00000E+00         0.00000E+00         0.00000E+00
 
   -0.31423E+05         0.18406E+07         0.00000E+00
    0.18406E+07         0.17809E+07         0.00000E+00
    0.00000E+00         0.00000E+00         0.00000E+00
 
   -0.29710E+05         0.19167E+07         0.00000E+00
    0.19167E+07         0.17815E+07         0.00000E+00
    0.00000E+00         0.00000E+00         0.00000E+00
 
   -0.28067E+05         0.19926E+07         0.00000E+00
    0.19926E+07         0.17821E+07         0.00000E+00
    0.00000E+00         0.00000E+00         0.00000E+00
 
   -0.26492E+05         0.20683E+07         0.00000E+00
    0.20683E+07         0.17827E+07         0.00000E+00
    0.00000E+00         0.00000E+00         0.00000E+00
 
   -0.24981E+05         0.21438E+07         0.00000E+00
    0.21438E+07         0.17833E+07         0.00000E+00
    0.00000E+00         0.00000E+00         0.00000E+00
 
   -0.23531E+05         0.22192E+07         0.00000E+00
    0.22192E+07         0.17838E+07         0.00000E+00
    0.00000E+00         0.00000E+00         0.00000E+00
 
   -0.22138E+05         0.22943E+07         0.00000E+00
    0.22943E+07         0.17844E+07         0.00000E+00
    0.00000E+00         0.00000E+00         0.00000E+00
 
   -0.20798E+05         0.23693E+07         0.00000E+00
    0.23693E+07         0.17849E+07         0.00000E+00
    0.00000E+00         0.00000E+00         0.00000E+00
 
   -0.19509E+05         0.24441E+07         0.00000E+00
    0.24441E+07         0.17854E+07         0.00000E+00
    0.00000E+00         0.00000E+00         0.00000E+00
 
   -0.18266E+05         0.25187E+07         0.00000E+00
    0.25187E+07         0.17859E+07         0.00000E+00
    0.00000E+00         0.00000E+00         0.00000E+00
 
   -0.17067E+05         0.25932E+07         0.00000E+00
    0.25932E+07         0.17863E+07         0.00000E+00
    0.00000E+00         0.00000E+00         0.00000E+00
 
   -0.15906E+05         0.26674E+07         0.00000E+00
    0.26674E+07         0.17867E+07         0.00000E+00
    0.00000E+00         0.00000E+00         0.00000E+00
 
   -0.14781E+05         0.27415E+07         0.00000E+00
    0.27415E+07         0.17871E+07         0.00000E+00
    0.00000E+00         0.00000E+00         0.00000E+00
 
   -0.13688E+05         0.28154E+07         0.00000E+00
    0.28154E+07         0.17875E+07         0.00000E+00
    0.00000E+00         0.00000E+00         0.00000E+00
 
   -0.12622E+05         0.28891E+07         0.00000E+00
    0.28891E+07         0.17878E+07         0.00000E+00
    0.00000E+00         0.00000E+00         0.00000E+00
 
   -0.11581E+05         0.29626E+07         0.00000E+00
    0.29626E+07         0.17880E+07         0.00000E+00
    0.00000E+00         0.00000E+00         0.00000E+00
 
   -0.10559E+05         0.30359E+07         0.00000E+00
    0.30359E+07         0.17882E+07         0.00000E+00
    0.00000E+00         0.00000E+00         0.00000E+00
 
   -0.95537E+04         0.31090E+07         0.00000E+00
    0.31090E+07         0.17884E+07         0.00000E+00
    0.00000E+00         0.00000E+00         0.00000E+00
 
   -0.85598E+04         0.31819E+07         0.00000E+00
    0.31819E+07         0.17885E+07         0.00000E+00
    0.00000E+00         0.00000E+00         0.00000E+00
 
   -0.75737E+04         0.32546E+07         0.00000E+00
    0.32546E+07         0.17886E+07         0.00000E+00
    0.00000E+00         0.00000E+00         0.00000E+00
 
   -0.65911E+04         0.33272E+07         0.00000E+00
    0.33272E+07         0.17886E+07         0.00000E+00
    0.00000E+00         0.00000E+00         0.00000E+00
 
   -0.56079E+04         0.33995E+07         0.00000E+00
    0.33995E+07         0.17885E+07         0.00000E+00
    0.00000E+00         0.00000E+00         0.00000E+00
 
   -0.46198E+04         0.34716E+07         0.00000E+00
    0.34716E+07         0.17883E+07         0.00000E+00
    0.00000E+00         0.00000E+00         0.00000E+00
 
   -0.36225E+04         0.35435E+07         0.00000E+00
    0.35435E+07         0.17881E+07         0.00000E+00
    0.00000E+00         0.00000E+00         0.00000E+00
 
   -0.26116E+04         0.36153E+07         0.00000E+00
    0.36153E+07         0.17878E+07         0.00000E+00
    0.00000E+00         0.00000E+00         0.00000E+00
 
   -0.15828E+04         0.36868E+07         0.00000E+00
    0.36868E+07         0.17875E+07         0.00000E+00
    0.00000E+00         0.00000E+00         0.00000E+00
 
   -0.53171E+03         0.37581E+07         0.00000E+00
    0.37581E+07         0.17870E+07         0.00000E+00
    0.00000E+00         0.00000E+00         0.00000E+00
 
   -0.47926E+05         0.40542E+05         0.00000E+00
    0.40542E+05         0.14177E+07         0.00000E+00
    0.00000E+00         0.00000E+00         0.00000E+00
 
   -0.44849E+05         0.12106E+06         0.00000E+00
    0.12106E+06         0.14178E+07         0.00000E+00
    0.00000E+00         0.00000E+00         0.00000E+00
 
   -0.41894E+05         0.20138E+06         0.00000E+00
    0.20138E+06         0.14179E+07         0.00000E+00
    0.00000E+00         0.00000E+00         0.00000E+00
 
   -0.39060E+05         0.28150E+06         0.00000E+00
    0.28150E+06         0.14180E+07         0.00000E+00
    0.00000E+00         0.00000E+00         0.00000E+00
 
   -0.36346E+05         0.36141E+06         0.00000E+00
    0.36141E+06         0.14182E+07         0.00000E+00
    0.00000E+00         0.00000E+00         0.00000E+00
 
   -0.33748E+05         0.44113E+06         0.00000E+00
    0.44113E+06         0.14185E+07         0.00000E+00
    0.00000E+00         0.00000E+00         0.00000E+00
 
   -0.31267E+05         0.52065E+06         0.00000E+00
    0.52065E+06         0.14188E+07         0.00000E+00
    0.00000E+00         0.00000E+00         0.00000E+00
 
   -0.28899E+05         0.59997E+06         0.00000E+00
    0.59997E+06         0.14191E+07         0.00000E+00
    0.00000E+00         0.00000E+00         0.00000E+00
 
   -0.26643E+05         0.67909E+06         0.00000E+00
    0.67909E+06         0.14195E+07         0.00000E+00
    0.00000E+00         0.00000E+00         0.00000E+00
 
   -0.24497E+05         0.75802E+06         0.00000E+00
    0.75802E+06         0.14199E+07         0.00000E+00
    0.00000E+00         0.00000E+00         0.00000E+00
 
   -0.22460E+05         0.83676E+06         0.00000E+00
    0.83676E+06         0.14203E+07         0.00000E+00
    0.00000E+00         0.00000E+00         0.00000E+00
 
   -0.20528E+05         0.91530E+06         0.00000E+00
    0.91530E+06         0.14208E+07         0.00000E+00
    0.00000E+00         0.00000E+00         0.00000E+00
 
   -0.18700E+05         0.99365E+06         0.00000E+00
    0.99365E+06         0.14214E+07         0.00000E+00
    0.00000E+00         0.00000E+00         0.00000E+00
 
   -0.16974E+05         0.10718E+07         0.00000E+00
    0.10718E+07         0.14219E+07         0.00000E+00
    0.00000E+00         0.00000E+00         0.00000E+00
 
   -0.15348E+05         0.11498E+07         0.00000E+00
    0.11498E+07         0.14225E+07         0.00000E+00
    0.00000E+00         0.00000E+00         0.00000E+00
 
   -0.13819E+05         0.12276E+07         0.00000E+00
    0.12276E+07         0.14231E+07         0.00000E+00
    0.00000E+00         0.00000E+00         0.00000E+00
 
   -0.12384E+05         0.13051E+07         0.00000E+00
    0.13051E+07         0.14238E+07         0.00000E+00
    0.00000E+00         0.00000E+00         0.00000E+00
 
   -0.11043E+05         0.13825E+07         0.00000E+00
    0.13825E+07         0.14244E+07         0.00000E+00
    0.00000E+00         0.00000E+00         0.00000E+00
 
   -0.97909E+04         0.14597E+07         0.00000E+00
    0.14597E+07         0.14251E+07         0.00000E+00
    0.00000E+00         0.00000E+00         0.00000E+00
 
   -0.86269E+04         0.15368E+07         0.00000E+00
    0.15368E+07         0.14258E+07         0.00000E+00
    0.00000E+00         0.00000E+00         0.00000E+00
 
   -0.75479E+04         0.16136E+07         0.00000E+00
    0.16136E+07         0.14265E+07         0.00000E+00
    0.00000E+00         0.00000E+00         0.00000E+00
 
   -0.65514E+04         0.16902E+07         0.00000E+00
    0.16902E+07         0.14273E+07         0.00000E+00
    0.00000E+00         0.00000E+00         0.00000E+00
 
   -0.56347E+04         0.17667E+07         0.00000E+00
    0.17667E+07         0.14280E+07         0.00000E+00
    0.00000E+00         0.00000E+00         0.00000E+00
 
   -0.47951E+04         0.18429E+07         0.00000E+00
    0.18429E+07         0.14288E+07         0.00000E+00
    0.00000E+00         0.00000E+00         0.00000E+00
 
   -0.40298E+04         0.19190E+07         0.00000E+00
    0.19190E+07         0.14295E+07         0.00000E+00
    0.00000E+00         0.00000E+00         0.00000E+00
 
   -0.33361E+04         0.19949E+07         0.00000E+00
    0.19949E+07         0.14303E+07         0.00000E+00
    0.00000E+00         0.00000E+00         0.00000E+00
 
   -0.27110E+04         0.20706E+07         0.00000E+00
    0.20706E+07         0.14311E+07         0.00000E+00
    0.00000E+00         0.00000E+00         0.00000E+00
 
   -0.21517E+04         0.21461E+07         0.00000E+00
    0.21461E+07         0.14319E+07         0.00000E+00
    0.00000E+00         0.00000E+00         0.00000E+00
 
   -0.16552E+04         0.22214E+07         0.00000E+00
    0.22214E+07         0.14326E+07         0.00000E+00
    0.00000E+00         0.00000E+00         0.00000E+00
 
   -0.12184E+04         0.22965E+07         0.00000E+00
    0.22965E+07         0.14334E+07         0.00000E+00
    0.00000E+00         0.00000E+00         0.00000E+00
 
   -0.83837E+03         0.23715E+07         0.00000E+00
    0.23715E+07         0.14342E+07         0.00000E+00
    0.00000E+00         0.00000E+00         0.00000E+00
 
   -0.51191E+03         0.24462E+07         0.00000E+00
    0.24462E+07         0.14349E+07         0.00000E+00
    0.00000E+00         0.00000E+00         0.00000E+00
 
   -0.23589E+03         0.25207E+07         0.00000E+00
    0.25207E+07         0.14357E+07         0.00000E+00
    0.00000E+00         0.00000E+00         0.00000E+00
 
   -0.70879E+01         0.25951E+07         0.00000E+00
    0.25951E+07         0.14364E+07         0.00000E+00
    0.00000E+00         0.00000E+00         0.00000E+00
 
    0.17775E+03         0.26692E+07         0.00000E+00
    0.26692E+07         0.14371E+07         0.00000E+00
    0.00000E+00         0.00000E+00         0.00000E+00
 
    0.32192E+03         0.27432E+07         0.00000E+00
    0.27432E+07         0.14378E+07         0.00000E+00
    0.00000E+00         0.00000E+00         0.00000E+00
 
    0.42877E+03         0.28170E+07         0.00000E+00
    0.28170E+07         0.14384E+07         0.00000E+00
    0.00000E+00         0.00000E+00         0.00000E+00
 
    0.50170E+03         0.28905E+07         0.00000E+00
    0.28905E+07         0.14391E+07         0.00000E+00
    0.00000E+00         0.00000E+00         0.00000E+00
 
    0.54414E+03         0.29639E+07         0.00000E+00
    0.29639E+07         0.14397E+07         0.00000E+00
    0.00000E+00         0.00000E+00         0.00000E+00
 
    0.55957E+03         0.30370E+07         0.00000E+00
    0.30370E+07         0.14402E+07         0.00000E+00
    0.00000E+00         0.00000E+00         0.00000E+00
 
    0.55153E+03         0.31100E+07         0.00000E+00
    0.31100E+07         0.14408E+07         0.00000E+00
    0.00000E+00         0.00000E+00         0.00000E+00
 
    0.52356E+03         0.31827E+07         0.00000E+00
    0.31827E+07         0.14413E+07         0.00000E+00
    0.00000E+00         0.00000E+00         0.00000E+00
 
    0.47929E+03         0.32552E+07         0.00000E+00
    0.32552E+07         0.14417E+07         0.00000E+00
    0.00000E+00         0.00000E+00         0.00000E+00
 
    0.42236E+03         0.33276E+07         0.00000E+00
    0.33276E+07         0.14422E+07         0.00000E+00
    0.00000E+00         0.00000E+00         0.00000E+00
 
    0.35645E+03         0.33997E+07         0.00000E+00
    0.33997E+07         0.14425E+07         0.00000E+00
    0.00000E+00         0.00000E+00         0.00000E+00
 
    0.28530E+03         0.34716E+07         0.00000E+00
    0.34716E+07         0.14428E+07         0.00000E+00
    0.00000E+00         0.00000E+00         0.00000E+00
 
    0.21267E+03         0.35432E+07         0.00000E+00
    0.35432E+07         0.14431E+07         0.00000E+00
    0.00000E+00         0.00000E+00         0.00000E+00
 
    0.14235E+03         0.36147E+07         0.00000E+00
    0.36147E+07         0.14433E+07         0.00000E+00
    0.00000E+00         0.00000E+00         0.00000E+00
 
    0.78194E+02         0.36859E+07         0.00000E+00
    0.36859E+07         0.14435E+07         0.00000E+00
    0.00000E+00         0.00000E+00         0.00000E+00
 
    0.24069E+02         0.37569E+07         0.00000E+00
    0.37569E+07         0.14436E+07         0.00000E+00
    0.00000E+00         0.00000E+00         0.00000E+00
 
    0.31715E+04         0.40645E+05         0.00000E+00
    0.40645E+05         0.10652E+07         0.00000E+00
    0.00000E+00         0.00000E+00         0.00000E+00
 
    0.52196E+04         0.12136E+06         0.00000E+00
    0.12136E+06         0.10652E+07         0.00000E+00
    0.00000E+00         0.00000E+00         0.00000E+00
 
    0.71495E+04         0.20187E+06         0.00000E+00
    0.20187E+06         0.10654E+07         0.00000E+00
    0.00000E+00         0.00000E+00         0.00000E+00
 
    0.89624E+04         0.28218E+06         0.00000E+00
    0.28218E+06         0.10655E+07         0.00000E+00
    0.00000E+00         0.00000E+00         0.00000E+00
 
    0.10660E+05         0.36228E+06         0.00000E+00
    0.36228E+06         0.10658E+07         0.00000E+00
    0.00000E+00         0.00000E+00         0.00000E+00
 
    0.12244E+05         0.44217E+06         0.00000E+00
    0.44217E+06         0.10660E+07         0.00000E+00
    0.00000E+00         0.00000E+00         0.00000E+00
 
    0.13715E+05         0.52187E+06         0.00000E+00
    0.52187E+06         0.10664E+07         0.00000E+00
    0.00000E+00         0.00000E+00         0.00000E+00
 
    0.15076E+05         0.60136E+06         0.00000E+00
    0.60136E+06         0.10667E+07         0.00000E+00
    0.00000E+00         0.00000E+00         0.00000E+00
 
    0.16328E+05         0.68065E+06         0.00000E+00
    0.68065E+06         0.10672E+07         0.00000E+00
    0.00000E+00         0.00000E+00         0.00000E+00
 
    0.17472E+05         0.75974E+06         0.00000E+00
    0.75974E+06         0.10676E+07         0.00000E+00
    0.00000E+00         0.00000E+00         0.00000E+00
 
    0.18511E+05         0.83863E+06         0.00000E+00
    0.83863E+06         0.10682E+07         0.00000E+00
    0.00000E+00         0.00000E+00         0.00000E+00
 
    0.19446E+05         0.91732E+06         0.00000E+00
    0.91732E+06         0.10687E+07         0.00000E+00
    0.00000E+00         0.00000E+00         0.00000E+00
 
    0.20280E+05         0.99582E+06         0.00000E+00
    0.99582E+06         0.10693E+07         0.00000E+00
    0.00000E+00         0.00000E+00         0.00000E+00
 
    0.21013E+05         0.10741E+07         0.00000E+00
    0.10741E+07         0.10700E+07         0.00000E+00
    0.00000E+00         0.00000E+00         0.00000E+00
 
    0.21649E+05         0.11522E+07         0.00000E+00
    0.11522E+07         0.10706E+07         0.00000E+00
    0.00000E+00         0.00000E+00         0.00000E+00
 
    0.22189E+05         0.12301E+07         0.00000E+00
    0.12301E+07         0.10713E+07         0.00000E+00
    0.00000E+00         0.00000E+00         0.00000E+00
 
    0.22634E+05         0.13078E+07         0.00000E+00
    0.13078E+07         0.10721E+07         0.00000E+00
    0.00000E+00         0.00000E+00         0.00000E+00
 
    0.22988E+05         0.13853E+07         0.00000E+00
    0.13853E+07         0.10729E+07         0.00000E+00
    0.00000E+00         0.00000E+00         0.00000E+00
 
    0.23252E+05         0.14626E+07         0.00000E+00
    0.14626E+07         0.10737E+07         0.00000E+00
    0.00000E+00         0.00000E+00         0.00000E+00
 
    0.23429E+05         0.15398E+07         0.00000E+00
    0.15398E+07         0.10745E+07         0.00000E+00
    0.00000E+00         0.00000E+00         0.00000E+00
 
    0.23520E+05         0.16167E+07         0.00000E+00
    0.16167E+07         0.10754E+07         0.00000E+00
    0.00000E+00         0.00000E+00         0.00000E+00
 
    0.23528E+05         0.16934E+07         0.00000E+00
    0.16934E+07         0.10763E+07         0.00000E+00
    0.00000E+00         0.00000E+00         0.00000E+00
 
    0.23456E+05         0.17699E+07         0.00000E+00
    0.17699E+07         0.10772E+07         0.00000E+00
    0.00000E+00         0.00000E+00         0.00000E+00
 
    0.23305E+05         0.18462E+07         0.00000E+00
    0.18462E+07         0.10781E+07         0.00000E+00
    0.00000E+00         0.00000E+00         0.00000E+00
 
    0.23079E+05         0.19224E+07         0.00000E+00
    0.19224E+07         0.10791E+07         0.00000E+00
    0.00000E+00         0.00000E+00         0.00000E+00
 
    0.22779E+05         0.19983E+07         0.00000E+00
    0.19983E+07         0.10801E+07         0.00000E+00
    0.00000E+00         0.00000E+00         0.00000E+00
 
    0.22407E+05         0.20740E+07         0.00000E+00
    0.20740E+07         0.10810E+07         0.00000E+00
    0.00000E+00         0.00000E+00         0.00000E+00
 
    0.21968E+05         0.21496E+07         0.00000E+00
    0.21496E+07         0.10820E+07         0.00000E+00
    0.00000E+00         0.00000E+00         0.00000E+00
 
    0.21462E+05         0.22249E+07         0.00000E+00
    0.22249E+07         0.10830E+07         0.00000E+00
    0.00000E+00         0.00000E+00         0.00000E+00
 
    0.20894E+05         0.23001E+07         0.00000E+00
    0.23001E+07         0.10841E+07         0.00000E+00
    0.00000E+00         0.00000E+00         0.00000E+00
 
    0.20264E+05         0.23750E+07         0.00000E+00
    0.23750E+07         0.10851E+07         0.00000E+00
    0.00000E+00         0.00000E+00         0.00000E+00
 
    0.19577E+05         0.24497E+07         0.00000E+00
    0.24497E+07         0.10861E+07         0.00000E+00
    0.00000E+00         0.00000E+00         0.00000E+00
 
    0.18835E+05         0.25243E+07         0.00000E+00
    0.25243E+07         0.10871E+07         0.00000E+00
    0.00000E+00         0.00000E+00         0.00000E+00
 
    0.18040E+05         0.25986E+07         0.00000E+00
    0.25986E+07         0.10881E+07         0.00000E+00
    0.00000E+00         0.00000E+00         0.00000E+00
 
    0.17195E+05         0.26727E+07         0.00000E+00
    0.26727E+07         0.10892E+07         0.00000E+00
    0.00000E+00         0.00000E+00         0.00000E+00
 
    0.16304E+05         0.27466E+07         0.00000E+00
    0.27466E+07         0.10902E+07         0.00000E+00
    0.00000E+00         0.00000E+00         0.00000E+00
 
    0.15369E+05         0.28203E+07         0.00000E+00
    0.28203E+07         0.10912E+07         0.00000E+00
    0.00000E+00         0.00000E+00         0.00000E+00
 
    0.14394E+05         0.28938E+07         0.00000E+00
    0.28938E+07         0.10922E+07         0.00000E+00
    0.00000E+00         0.00000E+00         0.00000E+00
 
    0.13380E+05         0.29671E+07         0.00000E+00
    0.29671E+07         0.10931E+07         0.00000E+00
    0.00000E+00         0.00000E+00         0.00000E+00
 
    0.12331E+05         0.30402E+07         0.00000E+00
    0.30402E+07         0.10941E+07         0.00000E+00
    0.00000E+00         0.00000E+00         0.00000E+00
 
    0.11251E+05         0.31130E+07         0.00000E+00
    0.31130E+07         0.10950E+07         0.00000E+00
    0.00000E+00         0.00000E+00         0.00000E+00
 
    0.10142E+05         0.31856E+07         0.00000E+00
    0.31856E+07         0.10960E+07         0.00000E+00
    0.00000E+00         0.00000E+00         0.00000E+00
 
    0.90066E+04         0.32581E+07         0.00000E+00
    0.32581E+07         0.10969E+07         0.00000E+00
    0.00000E+00         0.00000E+00         0.00000E+00
 
    0.78492E+04         0.33303E+07         0.00000E+00
    0.33303E+07         0.10977E+07         0.00000E+00
    0.00000E+00         0.00000E+00         0.00000E+00
 
    0.66725E+04         0.34022E+07         0.00000E+00
    0.34022E+07         0.10986E+07         0.00000E+00
    0.00000E+00         0.00000E+00         0.00000E+00
 
    0.54797E+04         0.34740E+07         0.00000E+00
    0.34740E+07         0.10994E+07         0.00000E+00
    0.00000E+00         0.00000E+00         0.00000E+00
 
    0.42739E+04         0.35455E+07         0.00000E+00
    0.35455E+07         0.11002E+07         0.00000E+00
    0.00000E+00         0.00000E+00         0.00000E+00
 
    0.30587E+04         0.36167E+07         0.00000E+00
    0.36167E+07         0.11009E+07         0.00000E+00
    0.00000E+00         0.00000E+00         0.00000E+00
 
    0.18371E+04         0.36878E+07         0.00000E+00
    0.36878E+07         0.11016E+07         0.00000E+00
    0.00000E+00         0.00000E+00         0.00000E+00
 
    0.61257E+03         0.37586E+07         0.00000E+00
    0.37586E+07         0.11023E+07         0.00000E+00
    0.00000E+00         0.00000E+00         0.00000E+00
 
    0.56179E+05         0.40767E+05         0.00000E+00
    0.40767E+05         0.71350E+06         0.00000E+00
    0.00000E+00         0.00000E+00         0.00000E+00
 
    0.57180E+05         0.12172E+06         0.00000E+00
    0.12172E+06         0.71356E+06         0.00000E+00
    0.00000E+00         0.00000E+00         0.00000E+00
 
    0.58067E+05         0.20246E+06         0.00000E+00
    0.20246E+06         0.71369E+06         0.00000E+00
    0.00000E+00         0.00000E+00         0.00000E+00
 
    0.58839E+05         0.28299E+06         0.00000E+00
    0.28299E+06         0.71388E+06         0.00000E+00
    0.00000E+00         0.00000E+00         0.00000E+00
 
    0.59499E+05         0.36332E+06         0.00000E+00
    0.36332E+06         0.71413E+06         0.00000E+00
    0.00000E+00         0.00000E+00         0.00000E+00
 
    0.60048E+05         0.44343E+06         0.00000E+00
    0.44343E+06         0.71444E+06         0.00000E+00
    0.00000E+00         0.00000E+00         0.00000E+00
 
    0.60487E+05         0.52334E+06         0.00000E+00
    0.52334E+06         0.71480E+06         0.00000E+00
    0.00000E+00         0.00000E+00         0.00000E+00
 
    0.60818E+05         0.60305E+06         0.00000E+00
    0.60305E+06         0.71523E+06         0.00000E+00
    0.00000E+00         0.00000E+00         0.00000E+00
 
    0.61041E+05         0.68255E+06         0.00000E+00
    0.68255E+06         0.71570E+06         0.00000E+00
    0.00000E+00         0.00000E+00         0.00000E+00
 
    0.61159E+05         0.76184E+06         0.00000E+00
    0.76184E+06         0.71624E+06         0.00000E+00
    0.00000E+00         0.00000E+00         0.00000E+00
 
    0.61174E+05         0.84093E+06         0.00000E+00
    0.84093E+06         0.71682E+06         0.00000E+00
    0.00000E+00         0.00000E+00         0.00000E+00
 
    0.61086E+05         0.91981E+06         0.00000E+00
    0.91981E+06         0.71746E+06         0.00000E+00
    0.00000E+00         0.00000E+00         0.00000E+00
 
    0.60897E+05         0.99850E+06         0.00000E+00
    0.99850E+06         0.71814E+06         0.00000E+00
    0.00000E+00         0.00000E+00         0.00000E+00
 
    0.60609E+05         0.10770E+07         0.00000E+00
    0.10770E+07         0.71887E+06         0.00000E+00
    0.00000E+00         0.00000E+00         0.00000E+00
 
    0.60224E+05         0.11553E+07         0.00000E+00
    0.11553E+07         0.71965E+06         0.00000E+00
    0.00000E+00         0.00000E+00         0.00000E+00
 
    0.59744E+05         0.12333E+07         0.00000E+00
    0.12333E+07         0.72048E+06         0.00000E+00
    0.00000E+00         0.00000E+00         0.00000E+00
 
    0.59169E+05         0.13112E+07         0.00000E+00
    0.13112E+07         0.72134E+06         0.00000E+00
    0.00000E+00         0.00000E+00         0.00000E+00
 
    0.58503E+05         0.13889E+07         0.00000E+00
    0.13889E+07         0.72225E+06         0.00000E+00
    0.00000E+00         0.00000E+00         0.00000E+00
 
    0.57746E+05         0.14663E+07         0.00000E+00
    0.14663E+07         0.72320E+06         0.00000E+00
    0.00000E+00         0.00000E+00         0.00000E+00
 
    0.56902E+05         0.15436E+07         0.00000E+00
    0.15436E+07         0.72419E+06         0.00000E+00
    0.00000E+00         0.00000E+00         0.00000E+00
 
    0.55970E+05         0.16207E+07         0.00000E+00
    0.16207E+07         0.72521E+06         0.00000E+00
    0.00000E+00         0.00000E+00         0.00000E+00
 
    0.54955E+05         0.16975E+07         0.00000E+00
    0.16975E+07         0.72627E+06         0.00000E+00
    0.00000E+00         0.00000E+00         0.00000E+00
 
    0.53856E+05         0.17742E+07         0.00000E+00
    0.17742E+07         0.72737E+06         0.00000E+00
    0.00000E+00         0.00000E+00         0.00000E+00
 
    0.52678E+05         0.18506E+07         0.00000E+00
    0.18506E+07         0.72849E+06         0.00000E+00
    0.00000E+00         0.00000E+00         0.00000E+00
 
    0.51421E+05         0.19269E+07         0.00000E+00
    0.19269E+07         0.72965E+06         0.00000E+00
    0.00000E+00         0.00000E+00         0.00000E+00
 
    0.50088E+05         0.20029E+07         0.00000E+00
    0.20029E+07         0.73083E+06         0.00000E+00
    0.00000E+00         0.00000E+00         0.00000E+00
 
    0.48680E+05         0.20787E+07         0.00000E+00
    0.20787E+07         0.73204E+06         0.00000E+00
    0.00000E+00         0.00000E+00         0.00000E+00
 
    0.47201E+05         0.21544E+07         0.00000E+00
    0.21544E+07         0.73327E+06         0.00000E+00
    0.00000E+00         0.00000E+00         0.00000E+00
 
    0.45652E+05         0.22298E+07         0.00000E+00
    0.22298E+07         0.73453E+06         0.00000E+00
    0.00000E+00         0.00000E+00         0.00000E+00
 
    0.44035E+05         0.23050E+07         0.00000E+00
    0.23050E+07         0.73580E+06         0.00000E+00
    0.00000E+00         0.00000E+00         0.00000E+00
 
    0.42353E+05         0.23800E+07         0.00000E+00
    0.23800E+07         0.73710E+06         0.00000E+00
    0.00000E+00         0.00000E+00         0.00000E+00
 
    0.40608E+05         0.24548E+07         0.00000E+00
    0.24548E+07         0.73841E+06         0.00000E+00
    0.00000E+00         0.00000E+00         0.00000E+00
 
    0.38802E+05         0.25294E+07         0.00000E+00
    0.25294E+07         0.73974E+06         0.00000E+00
    0.00000E+00         0.00000E+00         0.00000E+00
 
    0.36938E+05         0.26038E+07         0.00000E+00
    0.26038E+07         0.74108E+06         0.00000E+00
    0.00000E+00         0.00000E+00         0.00000E+00
 
    0.35018E+05         0.26779E+07         0.00000E+00
    0.26779E+07         0.74243E+06         0.00000E+00
    0.00000E+00         0.00000E+00         0.00000E+00
 
    0.33045E+05         0.27519E+07         0.00000E+00
    0.27519E+07         0.74379E+06         0.00000E+00
    0.00000E+00         0.00000E+00         0.00000E+00
 
    0.31020E+05         0.28256E+07         0.00000E+00
    0.28256E+07         0.74515E+06         0.00000E+00
    0.00000E+00         0.00000E+00         0.00000E+00
 
    0.28947E+05         0.28991E+07         0.00000E+00
    0.28991E+07         0.74652E+06         0.00000E+00
    0.00000E+00         0.00000E+00         0.00000E+00
 
    0.26828E+05         0.29724E+07         0.00000E+00
    0.29724E+07         0.74790E+06         0.00000E+00
    0.00000E+00         0.00000E+00         0.00000E+00
 
    0.24666E+05         0.30454E+07         0.00000E+00
    0.30454E+07         0.74927E+06         0.00000E+00
    0.00000E+00         0.00000E+00         0.00000E+00
 
    0.22462E+05         0.31183E+07         0.00000E+00
    0.31183E+07         0.75064E+06         0.00000E+00
    0.00000E+00         0.00000E+00         0.00000E+00
 
    0.20220E+05         0.31909E+07         0.00000E+00
    0.31909E+07         0.75201E+06         0.00000E+00
    0.00000E+00         0.00000E+00         0.00000E+00
 
    0.17943E+05         0.32632E+07         0.00000E+00
    0.32632E+07         0.75337E+06         0.00000E+00
    0.00000E+00         0.00000E+00         0.00000E+00
 
    0.15633E+05         0.33354E+07         0.00000E+00
    0.33354E+07         0.75473E+06         0.00000E+00
    0.00000E+00         0.00000E+00         0.00000E+00
 
    0.13292E+05         0.34073E+07         0.00000E+00
    0.34073E+07         0.75607E+06         0.00000E+00
    0.00000E+00         0.00000E+00         0.00000E+00
 
    0.10923E+05         0.34790E+07         0.00000E+00
    0.34790E+07         0.75740E+06         0.00000E+00
    0.00000E+00         0.00000E+00         0.00000E+00
 
    0.85302E+04         0.35504E+07         0.00000E+00
    0.35504E+07         0.75872E+06         0.00000E+00
    0.00000E+00         0.00000E+00         0.00000E+00
 
    0.61149E+04         0.36216E+07         0.00000E+00
    0.36216E+07         0.76002E+06         0.00000E+00
    0.00000E+00         0.00000E+00         0.00000E+00
 
    0.36803E+04         0.36926E+07         0.00000E+00
    0.36926E+07         0.76130E+06         0.00000E+00
    0.00000E+00         0.00000E+00         0.00000E+00
 
    0.12293E+04         0.37633E+07         0.00000E+00
    0.37633E+07         0.76256E+06         0.00000E+00
    0.00000E+00         0.00000E+00         0.00000E+00
 
    0.11081E+06         0.40909E+05         0.00000E+00
    0.40909E+05         0.36215E+06         0.00000E+00
    0.00000E+00         0.00000E+00         0.00000E+00
 
    0.11075E+06         0.12214E+06         0.00000E+00
    0.12214E+06         0.36222E+06         0.00000E+00
    0.00000E+00         0.00000E+00         0.00000E+00
 
    0.11058E+06         0.20315E+06         0.00000E+00
    0.20315E+06         0.36236E+06         0.00000E+00
    0.00000E+00         0.00000E+00         0.00000E+00
 
    0.11029E+06         0.28395E+06         0.00000E+00
    0.28395E+06         0.36257E+06         0.00000E+00
    0.00000E+00         0.00000E+00         0.00000E+00
 
    0.10990E+06         0.36455E+06         0.00000E+00
    0.36455E+06         0.36285E+06         0.00000E+00
    0.00000E+00         0.00000E+00         0.00000E+00
 
    0.10939E+06         0.44493E+06         0.00000E+00
    0.44493E+06         0.36319E+06         0.00000E+00
    0.00000E+00         0.00000E+00         0.00000E+00
 
    0.10878E+06         0.52510E+06         0.00000E+00
    0.52510E+06         0.36360E+06         0.00000E+00
    0.00000E+00         0.00000E+00         0.00000E+00
 
    0.10806E+06         0.60506E+06         0.00000E+00
    0.60506E+06         0.36407E+06         0.00000E+00
    0.00000E+00         0.00000E+00         0.00000E+00
 
    0.10723E+06         0.68481E+06         0.00000E+00
    0.68481E+06         0.36461E+06         0.00000E+00
    0.00000E+00         0.00000E+00         0.00000E+00
 
    0.10631E+06         0.76435E+06         0.00000E+00
    0.76435E+06         0.36520E+06         0.00000E+00
    0.00000E+00         0.00000E+00         0.00000E+00
 
    0.10527E+06         0.84368E+06         0.00000E+00
    0.84368E+06         0.36586E+06         0.00000E+00
    0.00000E+00         0.00000E+00         0.00000E+00
 
    0.10414E+06         0.92281E+06         0.00000E+00
    0.92281E+06         0.36658E+06         0.00000E+00
    0.00000E+00         0.00000E+00         0.00000E+00
 
    0.10290E+06         0.10017E+07         0.00000E+00
    0.10017E+07         0.36735E+06         0.00000E+00
    0.00000E+00         0.00000E+00         0.00000E+00
 
    0.10157E+06         0.10804E+07         0.00000E+00
    0.10804E+07         0.36818E+06         0.00000E+00
    0.00000E+00         0.00000E+00         0.00000E+00
 
    0.10014E+06         0.11589E+07         0.00000E+00
    0.11589E+07         0.36907E+06         0.00000E+00
    0.00000E+00         0.00000E+00         0.00000E+00
 
    0.98611E+05         0.12372E+07         0.00000E+00
    0.12372E+07         0.37001E+06         0.00000E+00
    0.00000E+00         0.00000E+00         0.00000E+00
 
    0.96990E+05         0.13153E+07         0.00000E+00
    0.13153E+07         0.37101E+06         0.00000E+00
    0.00000E+00         0.00000E+00         0.00000E+00
 
    0.95275E+05         0.13932E+07         0.00000E+00
    0.13932E+07         0.37205E+06         0.00000E+00
    0.00000E+00         0.00000E+00         0.00000E+00
 
    0.93470E+05         0.14709E+07         0.00000E+00
    0.14709E+07         0.37315E+06         0.00000E+00
    0.00000E+00         0.00000E+00         0.00000E+00
 
    0.91574E+05         0.15483E+07         0.00000E+00
    0.15483E+07         0.37430E+06         0.00000E+00
    0.00000E+00         0.00000E+00         0.00000E+00
 
    0.89590E+05         0.16256E+07         0.00000E+00
    0.16256E+07         0.37549E+06         0.00000E+00
    0.00000E+00         0.00000E+00         0.00000E+00
 
    0.87520E+05         0.17026E+07         0.00000E+00
    0.17026E+07         0.37673E+06         0.00000E+00
    0.00000E+00         0.00000E+00         0.00000E+00
 
    0.85365E+05         0.17795E+07         0.00000E+00
    0.17795E+07         0.37801E+06         0.00000E+00
    0.00000E+00         0.00000E+00         0.00000E+00
 
    0.83126E+05         0.18561E+07         0.00000E+00
    0.18561E+07         0.37934E+06         0.00000E+00
    0.00000E+00         0.00000E+00         0.00000E+00
 
    0.80806E+05         0.19325E+07         0.00000E+00
    0.19325E+07         0.38071E+06         0.00000E+00
    0.00000E+00         0.00000E+00         0.00000E+00
 
    0.78407E+05         0.20087E+07         0.00000E+00
    0.20087E+07         0.38211E+06         0.00000E+00
    0.00000E+00         0.00000E+00         0.00000E+00
 
    0.75929E+05         0.20847E+07         0.00000E+00
    0.20847E+07         0.38356E+06         0.00000E+00
    0.00000E+00         0.00000E+00         0.00000E+00
 
    0.73375E+05         0.21605E+07         0.00000E+00
    0.21605E+07         0.38505E+06         0.00000E+00
    0.00000E+00         0.00000E+00         0.00000E+00
 
    0.70747E+05         0.22361E+07         0.00000E+00
    0.22361E+07         0.38657E+06         0.00000E+00
    0.00000E+00         0.00000E+00         0.00000E+00
 
    0.68046E+05         0.23115E+07         0.00000E+00
    0.23115E+07         0.38812E+06         0.00000E+00
    0.00000E+00         0.00000E+00         0.00000E+00
 
    0.65275E+05         0.23866E+07         0.00000E+00
    0.23866E+07         0.38971E+06         0.00000E+00
    0.00000E+00         0.00000E+00         0.00000E+00
 
    0.62435E+05         0.24615E+07         0.00000E+00
    0.24615E+07         0.39133E+06         0.00000E+00
    0.00000E+00         0.00000E+00         0.00000E+00
 
    0.59528E+05         0.25362E+07         0.00000E+00
    0.25362E+07         0.39297E+06         0.00000E+00
    0.00000E+00         0.00000E+00         0.00000E+00
 
    0.56556E+05         0.26107E+07         0.00000E+00
    0.26107E+07         0.39465E+06         0.00000E+00
    0.00000E+00         0.00000E+00         0.00000E+00
 
    0.53522E+05         0.26850E+07         0.00000E+00
    0.26850E+07         0.39635E+06         0.00000E+00
    0.00000E+00         0.00000E+00         0.00000E+00
 
    0.50426E+05         0.27590E+07         0.00000E+00
    0.27590E+07         0.39807E+06         0.00000E+00
    0.00000E+00         0.00000E+00         0.00000E+00
 
    0.47272E+05         0.28328E+07         0.00000E+00
    0.28328E+07         0.39982E+06         0.00000E+00
    0.00000E+00         0.00000E+00         0.00000E+00
 
    0.44060E+05         0.29064E+07         0.00000E+00
    0.29064E+07         0.40159E+06         0.00000E+00
    0.00000E+00         0.00000E+00         0.00000E+00
 
    0.40794E+05         0.29798E+07         0.00000E+00
    0.29798E+07         0.40338E+06         0.00000E+00
    0.00000E+00         0.00000E+00         0.00000E+00
 
    0.37475E+05         0.30529E+07         0.00000E+00
    0.30529E+07         0.40518E+06         0.00000E+00
    0.00000E+00         0.00000E+00         0.00000E+00
 
    0.34106E+05         0.31258E+07         0.00000E+00
    0.31258E+07         0.40700E+06         0.00000E+00
    0.00000E+00         0.00000E+00         0.00000E+00
 
    0.30689E+05         0.31985E+07         0.00000E+00
    0.31985E+07         0.40884E+06         0.00000E+00
    0.00000E+00         0.00000E+00         0.00000E+00
 
    0.27225E+05         0.32709E+07         0.00000E+00
    0.32709E+07         0.41068E+06         0.00000E+00
    0.00000E+00         0.00000E+00         0.00000E+00
 
    0.23717E+05         0.33431E+07         0.00000E+00
    0.33431E+07         0.41254E+06         0.00000E+00
    0.00000E+00         0.00000E+00         0.00000E+00
 
    0.20167E+05         0.34151E+07         0.00000E+00
    0.34151E+07         0.41441E+06         0.00000E+00
    0.00000E+00         0.00000E+00         0.00000E+00
 
    0.16578E+05         0.34868E+07         0.00000E+00
    0.34868E+07         0.41628E+06         0.00000E+00
    0.00000E+00         0.00000E+00         0.00000E+00
 
    0.12951E+05         0.35582E+07         0.00000E+00
    0.35582E+07         0.41816E+06         0.00000E+00
    0.00000E+00         0.00000E+00         0.00000E+00
 
    0.92893E+04         0.36294E+07         0.00000E+00
    0.36294E+07         0.42004E+06         0.00000E+00
    0.00000E+00         0.00000E+00         0.00000E+00
 
    0.55948E+04         0.37004E+07         0.00000E+00
    0.37004E+07         0.42192E+06         0.00000E+00
    0.00000E+00         0.00000E+00         0.00000E+00
 
    0.18698E+04         0.37710E+07         0.00000E+00
    0.37710E+07         0.42380E+06         0.00000E+00
    0.00000E+00         0.00000E+00         0.00000E+00
 
    0.16680E+06         0.41072E+05         0.00000E+00
    0.41072E+05         0.10654E+05         0.00000E+00
    0.00000E+00         0.00000E+00         0.00000E+00
 
    0.16566E+06         0.12262E+06         0.00000E+00
    0.12262E+06         0.10732E+05         0.00000E+00
    0.00000E+00         0.00000E+00         0.00000E+00
 
    0.16441E+06         0.20395E+06         0.00000E+00
    0.20395E+06         0.10887E+05         0.00000E+00
    0.00000E+00         0.00000E+00         0.00000E+00
 
    0.16306E+06         0.28507E+06         0.00000E+00
    0.28507E+06         0.11117E+05         0.00000E+00
    0.00000E+00         0.00000E+00         0.00000E+00
 
    0.16159E+06         0.36598E+06         0.00000E+00
    0.36598E+06         0.11423E+05         0.00000E+00
    0.00000E+00         0.00000E+00         0.00000E+00
 
    0.16001E+06         0.44666E+06         0.00000E+00
    0.44666E+06         0.11802E+05         0.00000E+00
    0.00000E+00         0.00000E+00         0.00000E+00
 
    0.15833E+06         0.52714E+06         0.00000E+00
    0.52714E+06         0.12254E+05         0.00000E+00
    0.00000E+00         0.00000E+00         0.00000E+00
 
    0.15654E+06         0.60740E+06         0.00000E+00
    0.60740E+06         0.12779E+05         0.00000E+00
    0.00000E+00         0.00000E+00         0.00000E+00
 
    0.15465E+06         0.68746E+06         0.00000E+00
    0.68746E+06         0.13375E+05         0.00000E+00
    0.00000E+00         0.00000E+00         0.00000E+00
 
    0.15266E+06         0.76729E+06         0.00000E+00
    0.76729E+06         0.14040E+05         0.00000E+00
    0.00000E+00         0.00000E+00         0.00000E+00
 
    0.15056E+06         0.84692E+06         0.00000E+00
    0.84692E+06         0.14776E+05         0.00000E+00
    0.00000E+00         0.00000E+00         0.00000E+00
 
    0.14836E+06         0.92634E+06         0.00000E+00
    0.92634E+06         0.15579E+05         0.00000E+00
    0.00000E+00         0.00000E+00         0.00000E+00
 
    0.14605E+06         0.10055E+07         0.00000E+00
    0.10055E+07         0.16449E+05         0.00000E+00
    0.00000E+00         0.00000E+00         0.00000E+00
 
    0.14365E+06         0.10845E+07         0.00000E+00
    0.10845E+07         0.17386E+05         0.00000E+00
    0.00000E+00         0.00000E+00         0.00000E+00
 
    0.14115E+06         0.11633E+07         0.00000E+00
    0.11633E+07         0.18387E+05         0.00000E+00
    0.00000E+00         0.00000E+00         0.00000E+00
 
    0.13856E+06         0.12419E+07         0.00000E+00
    0.12419E+07         0.19453E+05         0.00000E+00
    0.00000E+00         0.00000E+00         0.00000E+00
 
    0.13587E+06         0.13202E+07         0.00000E+00
    0.13202E+07         0.20581E+05         0.00000E+00
    0.00000E+00         0.00000E+00         0.00000E+00
 
    0.13308E+06         0.13984E+07         0.00000E+00
    0.13984E+07         0.21772E+05         0.00000E+00
    0.00000E+00         0.00000E+00         0.00000E+00
 
    0.13020E+06         0.14763E+07         0.00000E+00
    0.14763E+07         0.23023E+05         0.00000E+00
    0.00000E+00         0.00000E+00         0.00000E+00
 
    0.12723E+06         0.15540E+07         0.00000E+00
    0.15540E+07         0.24334E+05         0.00000E+00
    0.00000E+00         0.00000E+00         0.00000E+00
 
    0.12417E+06         0.16316E+07         0.00000E+00
    0.16316E+07         0.25704E+05         0.00000E+00
    0.00000E+00         0.00000E+00         0.00000E+00
 
    0.12102E+06         0.17089E+07         0.00000E+00
    0.17089E+07         0.27131E+05         0.00000E+00
    0.00000E+00         0.00000E+00         0.00000E+00
 
    0.11778E+06         0.17859E+07         0.00000E+00
    0.17859E+07         0.28614E+05         0.00000E+00
    0.00000E+00         0.00000E+00         0.00000E+00
 
    0.11446E+06         0.18628E+07         0.00000E+00
    0.18628E+07         0.30152E+05         0.00000E+00
    0.00000E+00         0.00000E+00         0.00000E+00
 
    0.11105E+06         0.19395E+07         0.00000E+00
    0.19395E+07         0.31745E+05         0.00000E+00
    0.00000E+00         0.00000E+00         0.00000E+00
 
    0.10756E+06         0.20159E+07         0.00000E+00
    0.20159E+07         0.33390E+05         0.00000E+00
    0.00000E+00         0.00000E+00         0.00000E+00
 
    0.10398E+06         0.20921E+07         0.00000E+00
    0.20921E+07         0.35087E+05         0.00000E+00
    0.00000E+00         0.00000E+00         0.00000E+00
 
    0.10032E+06         0.21681E+07         0.00000E+00
    0.21681E+07         0.36834E+05         0.00000E+00
    0.00000E+00         0.00000E+00         0.00000E+00
 
    0.96587E+05         0.22439E+07         0.00000E+00
    0.22439E+07         0.38630E+05         0.00000E+00
    0.00000E+00         0.00000E+00         0.00000E+00
 
    0.92772E+05         0.23195E+07         0.00000E+00
    0.23195E+07         0.40474E+05         0.00000E+00
    0.00000E+00         0.00000E+00         0.00000E+00
 
    0.88881E+05         0.23948E+07         0.00000E+00
    0.23948E+07         0.42365E+05         0.00000E+00
    0.00000E+00         0.00000E+00         0.00000E+00
 
    0.84916E+05         0.24700E+07         0.00000E+00
    0.24700E+07         0.44301E+05         0.00000E+00
    0.00000E+00         0.00000E+00         0.00000E+00
 
    0.80876E+05         0.25449E+07         0.00000E+00
    0.25449E+07         0.46281E+05         0.00000E+00
    0.00000E+00         0.00000E+00         0.00000E+00
 
    0.76765E+05         0.26195E+07         0.00000E+00
    0.26195E+07         0.48305E+05         0.00000E+00
    0.00000E+00         0.00000E+00         0.00000E+00
 
    0.72583E+05         0.26940E+07         0.00000E+00
    0.26940E+07         0.50369E+05         0.00000E+00
    0.00000E+00         0.00000E+00         0.00000E+00
 
    0.68333E+05         0.27682E+07         0.00000E+00
    0.27682E+07         0.52474E+05         0.00000E+00
    0.00000E+00         0.00000E+00         0.00000E+00
 
    0.64015E+05         0.28422E+07         0.00000E+00
    0.28422E+07         0.54618E+05         0.00000E+00
    0.00000E+00         0.00000E+00         0.00000E+00
 
    0.59632E+05         0.29159E+07         0.00000E+00
    0.29159E+07         0.56799E+05         0.00000E+00
    0.00000E+00         0.00000E+00         0.00000E+00
 
    0.55185E+05         0.29895E+07         0.00000E+00
    0.29895E+07         0.59017E+05         0.00000E+00
    0.00000E+00         0.00000E+00         0.00000E+00
 
    0.50675E+05         0.30628E+07         0.00000E+00
    0.30628E+07         0.61269E+05         0.00000E+00
    0.00000E+00         0.00000E+00         0.00000E+00
 
    0.46105E+05         0.31358E+07         0.00000E+00
    0.31358E+07         0.63555E+05         0.00000E+00
    0.00000E+00         0.00000E+00         0.00000E+00
 
    0.41476E+05         0.32086E+07         0.00000E+00
    0.32086E+07         0.65873E+05         0.00000E+00
    0.00000E+00         0.00000E+00         0.00000E+00
 
    0.36790E+05         0.32812E+07         0.00000E+00
    0.32812E+07         0.68221E+05         0.00000E+00
    0.00000E+00         0.00000E+00         0.00000E+00
 
    0.32048E+05         0.33535E+07         0.00000E+00
    0.33535E+07         0.70599E+05         0.00000E+00
    0.00000E+00         0.00000E+00         0.00000E+00
 
    0.27252E+05         0.34255E+07         0.00000E+00
    0.34255E+07         0.73004E+05         0.00000E+00
    0.00000E+00         0.00000E+00         0.00000E+00
 
    0.22405E+05         0.34974E+07         0.00000E+00
    0.34974E+07         0.75436E+05         0.00000E+00
    0.00000E+00         0.00000E+00         0.00000E+00
 
    0.17507E+05         0.35689E+07         0.00000E+00
    0.35689E+07         0.77893E+05         0.00000E+00
    0.00000E+00         0.00000E+00         0.00000E+00
 
    0.12561E+05         0.36402E+07         0.00000E+00
    0.36402E+07         0.80373E+05         0.00000E+00
    0.00000E+00         0.00000E+00         0.00000E+00
 
    0.75677E+04         0.37113E+07         0.00000E+00
    0.37113E+07         0.82875E+05         0.00000E+00
    0.00000E+00         0.00000E+00         0.00000E+00
 
    0.25299E+04         0.37820E+07         0.00000E+00
    0.37820E+07         0.85398E+05         0.00000E+00
    0.00000E+00         0.00000E+00         0.00000E+00
 
    0.22386E+06         0.41259E+05         0.00000E+00
    0.41259E+05        -0.34148E+06         0.00000E+00
    0.00000E+00         0.00000E+00         0.00000E+00
 
    0.22164E+06         0.12317E+06         0.00000E+00
    0.12317E+06        -0.34140E+06         0.00000E+00
    0.00000E+00         0.00000E+00         0.00000E+00
 
    0.21930E+06         0.20487E+06         0.00000E+00
    0.20487E+06        -0.34123E+06         0.00000E+00
    0.00000E+00         0.00000E+00         0.00000E+00
 
    0.21686E+06         0.28635E+06         0.00000E+00
    0.28635E+06        -0.34098E+06         0.00000E+00
    0.00000E+00         0.00000E+00         0.00000E+00
 
    0.21431E+06         0.36761E+06         0.00000E+00
    0.36761E+06        -0.34064E+06         0.00000E+00
    0.00000E+00         0.00000E+00         0.00000E+00
 
    0.21165E+06         0.44866E+06         0.00000E+00
    0.44866E+06        -0.34022E+06         0.00000E+00
    0.00000E+00         0.00000E+00         0.00000E+00
 
    0.20888E+06         0.52949E+06         0.00000E+00
    0.52949E+06        -0.33973E+06         0.00000E+00
    0.00000E+00         0.00000E+00         0.00000E+00
 
    0.20601E+06         0.61011E+06         0.00000E+00
    0.61011E+06        -0.33915E+06         0.00000E+00
    0.00000E+00         0.00000E+00         0.00000E+00
 
    0.20304E+06         0.69051E+06         0.00000E+00
    0.69051E+06        -0.33849E+06         0.00000E+00
    0.00000E+00         0.00000E+00         0.00000E+00
 
    0.19996E+06         0.77069E+06         0.00000E+00
    0.77069E+06        -0.33775E+06         0.00000E+00
    0.00000E+00         0.00000E+00         0.00000E+00
 
    0.19678E+06         0.85066E+06         0.00000E+00
    0.85066E+06        -0.33694E+06         0.00000E+00
    0.00000E+00         0.00000E+00         0.00000E+00
 
    0.19350E+06         0.93042E+06         0.00000E+00
    0.93042E+06        -0.33604E+06         0.00000E+00
    0.00000E+00         0.00000E+00         0.00000E+00
 
    0.19011E+06         0.10100E+07         0.00000E+00
    0.10100E+07        -0.33507E+06         0.00000E+00
    0.00000E+00         0.00000E+00         0.00000E+00
 
    0.18663E+06         0.10893E+07         0.00000E+00
    0.10893E+07        -0.33403E+06         0.00000E+00
    0.00000E+00         0.00000E+00         0.00000E+00
 
    0.18304E+06         0.11684E+07         0.00000E+00
    0.11684E+07        -0.33291E+06         0.00000E+00
    0.00000E+00         0.00000E+00         0.00000E+00
 
    0.17936E+06         0.12473E+07         0.00000E+00
    0.12473E+07        -0.33171E+06         0.00000E+00
    0.00000E+00         0.00000E+00         0.00000E+00
 
    0.17558E+06         0.13260E+07         0.00000E+00
    0.13260E+07        -0.33045E+06         0.00000E+00
    0.00000E+00         0.00000E+00         0.00000E+00
 
    0.17171E+06         0.14045E+07         0.00000E+00
    0.14045E+07        -0.32911E+06         0.00000E+00
    0.00000E+00         0.00000E+00         0.00000E+00
 
    0.16774E+06         0.14827E+07         0.00000E+00
    0.14827E+07        -0.32769E+06         0.00000E+00
    0.00000E+00         0.00000E+00         0.00000E+00
 
    0.16367E+06         0.15607E+07         0.00000E+00
    0.15607E+07        -0.32621E+06         0.00000E+00
    0.00000E+00         0.00000E+00         0.00000E+00
 
    0.15951E+06         0.16386E+07         0.00000E+00
    0.16386E+07        -0.32466E+06         0.00000E+00
    0.00000E+00         0.00000E+00         0.00000E+00
 
    0.15526E+06         0.17162E+07         0.00000E+00
    0.17162E+07        -0.32304E+06         0.00000E+00
    0.00000E+00         0.00000E+00         0.00000E+00
 
    0.15092E+06         0.17936E+07         0.00000E+00
    0.17936E+07        -0.32135E+06         0.00000E+00
    0.00000E+00         0.00000E+00         0.00000E+00
 
    0.14649E+06         0.18707E+07         0.00000E+00
    0.18707E+07        -0.31959E+06         0.00000E+00
    0.00000E+00         0.00000E+00         0.00000E+00
 
    0.14197E+06         0.19477E+07         0.00000E+00
    0.19477E+07        -0.31777E+06         0.00000E+00
    0.00000E+00         0.00000E+00         0.00000E+00
 
    0.13736E+06         0.20244E+07         0.00000E+00
    0.20244E+07        -0.31588E+06         0.00000E+00
    0.00000E+00         0.00000E+00         0.00000E+00
 
    0.13266E+06         0.21009E+07         0.00000E+00
    0.21009E+07        -0.31392E+06         0.00000E+00
    0.00000E+00         0.00000E+00         0.00000E+00
 
    0.12788E+06         0.21772E+07         0.00000E+00
    0.21772E+07        -0.31190E+06         0.00000E+00
    0.00000E+00         0.00000E+00         0.00000E+00
 
    0.12301E+06         0.22533E+07         0.00000E+00
    0.22533E+07        -0.30982E+06         0.00000E+00
    0.00000E+00         0.00000E+00         0.00000E+00
 
    0.11806E+06         0.23292E+07         0.00000E+00
    0.23292E+07        -0.30768E+06         0.00000E+00
    0.00000E+00         0.00000E+00         0.00000E+00
 
    0.11303E+06         0.24048E+07         0.00000E+00
    0.24048E+07        -0.30548E+06         0.00000E+00
    0.00000E+00         0.00000E+00         0.00000E+00
 
    0.10791E+06         0.24802E+07         0.00000E+00
    0.24802E+07        -0.30321E+06         0.00000E+00
    0.00000E+00         0.00000E+00         0.00000E+00
 
    0.10271E+06         0.25553E+07         0.00000E+00
    0.25553E+07        -0.30089E+06         0.00000E+00
    0.00000E+00         0.00000E+00         0.00000E+00
 
    0.97437E+05         0.26303E+07         0.00000E+00
    0.26303E+07        -0.29851E+06         0.00000E+00
    0.00000E+00         0.00000E+00         0.00000E+00
 
    0.92083E+05         0.27050E+07         0.00000E+00
    0.27050E+07        -0.29607E+06         0.00000E+00
    0.00000E+00         0.00000E+00         0.00000E+00
 
    0.86652E+05         0.27795E+07         0.00000E+00
    0.27795E+07        -0.29357E+06         0.00000E+00
    0.00000E+00         0.00000E+00         0.00000E+00
 
    0.81145E+05         0.28537E+07         0.00000E+00
    0.28537E+07        -0.29102E+06         0.00000E+00
    0.00000E+00         0.00000E+00         0.00000E+00
 
    0.75563E+05         0.29277E+07         0.00000E+00
    0.29277E+07        -0.28841E+06         0.00000E+00
    0.00000E+00         0.00000E+00         0.00000E+00
 
    0.69908E+05         0.30015E+07         0.00000E+00
    0.30015E+07        -0.28575E+06         0.00000E+00
    0.00000E+00         0.00000E+00         0.00000E+00
 
    0.64180E+05         0.30750E+07         0.00000E+00
    0.30750E+07        -0.28304E+06         0.00000E+00
    0.00000E+00         0.00000E+00         0.00000E+00
 
    0.58382E+05         0.31483E+07         0.00000E+00
    0.31483E+07        -0.28028E+06         0.00000E+00
    0.00000E+00         0.00000E+00         0.00000E+00
 
    0.52514E+05         0.32213E+07         0.00000E+00
    0.32213E+07        -0.27747E+06         0.00000E+00
    0.00000E+00         0.00000E+00         0.00000E+00
 
    0.46577E+05         0.32941E+07         0.00000E+00
    0.32941E+07        -0.27460E+06         0.00000E+00
    0.00000E+00         0.00000E+00         0.00000E+00
 
    0.40573E+05         0.33666E+07         0.00000E+00
    0.33666E+07        -0.27169E+06         0.00000E+00
    0.00000E+00         0.00000E+00         0.00000E+00
 
    0.34502E+05         0.34389E+07         0.00000E+00
    0.34389E+07        -0.26873E+06         0.00000E+00
    0.00000E+00         0.00000E+00         0.00000E+00
 
    0.28367E+05         0.35109E+07         0.00000E+00
    0.35109E+07        -0.26573E+06         0.00000E+00
    0.00000E+00         0.00000E+00         0.00000E+00
 
    0.22169E+05         0.35827E+07         0.00000E+00
    0.35827E+07        -0.26268E+06         0.00000E+00
    0.00000E+00         0.00000E+00         0.00000E+00
 
    0.15908E+05         0.36542E+07         0.00000E+00
    0.36542E+07        -0.25958E+06         0.00000E+00
    0.00000E+00         0.00000E+00         0.00000E+00
 
    0.95864E+04         0.37254E+07         0.00000E+00
    0.37254E+07        -0.25645E+06         0.00000E+00
    0.00000E+00         0.00000E+00         0.00000E+00
 
    0.32053E+04         0.37964E+07         0.00000E+00
    0.37964E+07        -0.25327E+06         0.00000E+00
    0.00000E+00         0.00000E+00         0.00000E+00
 
    0.28173E+06         0.41468E+05         0.00000E+00
    0.41468E+05        -0.69477E+06         0.00000E+00
    0.00000E+00         0.00000E+00         0.00000E+00
 
    0.27841E+06         0.12380E+06         0.00000E+00
    0.12380E+06        -0.69468E+06         0.00000E+00
    0.00000E+00         0.00000E+00         0.00000E+00
 
    0.27498E+06         0.20591E+06         0.00000E+00
    0.20591E+06        -0.69449E+06         0.00000E+00
    0.00000E+00         0.00000E+00         0.00000E+00
 
    0.27144E+06         0.28779E+06         0.00000E+00
    0.28779E+06        -0.69422E+06         0.00000E+00
    0.00000E+00         0.00000E+00         0.00000E+00
 
    0.26779E+06         0.36947E+06         0.00000E+00
    0.36947E+06        -0.69385E+06         0.00000E+00
    0.00000E+00         0.00000E+00         0.00000E+00
 
    0.26404E+06         0.45092E+06         0.00000E+00
    0.45092E+06        -0.69340E+06         0.00000E+00
    0.00000E+00         0.00000E+00         0.00000E+00
 
    0.26018E+06         0.53215E+06         0.00000E+00
    0.53215E+06        -0.69285E+06         0.00000E+00
    0.00000E+00         0.00000E+00         0.00000E+00
 
    0.25621E+06         0.61317E+06         0.00000E+00
    0.61317E+06        -0.69222E+06         0.00000E+00
    0.00000E+00         0.00000E+00         0.00000E+00
 
    0.25214E+06         0.69397E+06         0.00000E+00
    0.69397E+06        -0.69149E+06         0.00000E+00
    0.00000E+00         0.00000E+00         0.00000E+00
 
    0.24797E+06         0.77455E+06         0.00000E+00
    0.77455E+06        -0.69068E+06         0.00000E+00
    0.00000E+00         0.00000E+00         0.00000E+00
 
    0.24370E+06         0.85492E+06         0.00000E+00
    0.85492E+06        -0.68978E+06         0.00000E+00
    0.00000E+00         0.00000E+00         0.00000E+00
 
    0.23932E+06         0.93507E+06         0.00000E+00
    0.93507E+06        -0.68880E+06         0.00000E+00
    0.00000E+00         0.00000E+00         0.00000E+00
 
    0.23484E+06         0.10150E+07         0.00000E+00
    0.10150E+07        -0.68773E+06         0.00000E+00
    0.00000E+00         0.00000E+00         0.00000E+00
 
    0.23026E+06         0.10947E+07         0.00000E+00
    0.10947E+07        -0.68657E+06         0.00000E+00
    0.00000E+00         0.00000E+00         0.00000E+00
 
    0.22557E+06         0.11742E+07         0.00000E+00
    0.11742E+07        -0.68533E+06         0.00000E+00
    0.00000E+00         0.00000E+00         0.00000E+00
 
    0.22079E+06         0.12535E+07         0.00000E+00
    0.12535E+07        -0.68400E+06         0.00000E+00
    0.00000E+00         0.00000E+00         0.00000E+00
 
    0.21591E+06         0.13326E+07         0.00000E+00
    0.13326E+07        -0.68259E+06         0.00000E+00
    0.00000E+00         0.00000E+00         0.00000E+00
 
    0.21093E+06         0.14114E+07         0.00000E+00
    0.14114E+07        -0.68110E+06         0.00000E+00
    0.00000E+00         0.00000E+00         0.00000E+00
 
    0.20585E+06         0.14901E+07         0.00000E+00
    0.14901E+07        -0.67952E+06         0.00000E+00
    0.00000E+00         0.00000E+00         0.00000E+00
 
    0.20068E+06         0.15685E+07         0.00000E+00
    0.15685E+07        -0.67787E+06         0.00000E+00
    0.00000E+00         0.00000E+00         0.00000E+00
 
    0.19541E+06         0.16467E+07         0.00000E+00
    0.16467E+07        -0.67613E+06         0.00000E+00
    0.00000E+00         0.00000E+00         0.00000E+00
 
    0.19004E+06         0.17246E+07         0.00000E+00
    0.17246E+07        -0.67431E+06         0.00000E+00
    0.00000E+00         0.00000E+00         0.00000E+00
 
    0.18458E+06         0.18024E+07         0.00000E+00
    0.18024E+07        -0.67240E+06         0.00000E+00
    0.00000E+00         0.00000E+00         0.00000E+00
 
    0.17903E+06         0.18799E+07         0.00000E+00
    0.18799E+07        -0.67042E+06         0.00000E+00
    0.00000E+00         0.00000E+00         0.00000E+00
 
    0.17338E+06         0.19573E+07         0.00000E+00
    0.19573E+07        -0.66836E+06         0.00000E+00
    0.00000E+00         0.00000E+00         0.00000E+00
 
    0.16764E+06         0.20343E+07         0.00000E+00
    0.20343E+07        -0.66622E+06         0.00000E+00
    0.00000E+00         0.00000E+00         0.00000E+00
 
    0.16180E+06         0.21112E+07         0.00000E+00
    0.21112E+07        -0.66401E+06         0.00000E+00
    0.00000E+00         0.00000E+00         0.00000E+00
 
    0.15588E+06         0.21879E+07         0.00000E+00
    0.21879E+07        -0.66171E+06         0.00000E+00
    0.00000E+00         0.00000E+00         0.00000E+00
 
    0.14986E+06         0.22643E+07         0.00000E+00
    0.22643E+07        -0.65934E+06         0.00000E+00
    0.00000E+00         0.00000E+00         0.00000E+00
 
    0.14376E+06         0.23405E+07         0.00000E+00
    0.23405E+07        -0.65689E+06         0.00000E+00
    0.00000E+00         0.00000E+00         0.00000E+00
 
    0.13756E+06         0.24165E+07         0.00000E+00
    0.24165E+07        -0.65437E+06         0.00000E+00
    0.00000E+00         0.00000E+00         0.00000E+00
 
    0.13128E+06         0.24922E+07         0.00000E+00
    0.24922E+07        -0.65177E+06         0.00000E+00
    0.00000E+00         0.00000E+00         0.00000E+00
 
    0.12490E+06         0.25677E+07         0.00000E+00
    0.25677E+07        -0.64909E+06         0.00000E+00
    0.00000E+00         0.00000E+00         0.00000E+00
 
    0.11845E+06         0.26430E+07         0.00000E+00
    0.26430E+07        -0.64634E+06         0.00000E+00
    0.00000E+00         0.00000E+00         0.00000E+00
 
    0.11190E+06         0.27180E+07         0.00000E+00
    0.27180E+07        -0.64352E+06         0.00000E+00
    0.00000E+00         0.00000E+00         0.00000E+00
 
    0.10527E+06         0.27928E+07         0.00000E+00
    0.27928E+07        -0.64063E+06         0.00000E+00
    0.00000E+00         0.00000E+00         0.00000E+00
 
    0.98556E+05         0.28674E+07         0.00000E+00
    0.28674E+07        -0.63766E+06         0.00000E+00
    0.00000E+00         0.00000E+00         0.00000E+00
 
    0.91756E+05         0.29417E+07         0.00000E+00
    0.29417E+07        -0.63462E+06         0.00000E+00
    0.00000E+00         0.00000E+00         0.00000E+00
 
    0.84874E+05         0.30158E+07         0.00000E+00
    0.30158E+07        -0.63151E+06         0.00000E+00
    0.00000E+00         0.00000E+00         0.00000E+00
 
    0.77908E+05         0.30896E+07         0.00000E+00
    0.30896E+07        -0.62833E+06         0.00000E+00
    0.00000E+00         0.00000E+00         0.00000E+00
 
    0.70861E+05         0.31632E+07         0.00000E+00
    0.31632E+07        -0.62509E+06         0.00000E+00
    0.00000E+00         0.00000E+00         0.00000E+00
 
    0.63734E+05         0.32366E+07         0.00000E+00
    0.32366E+07        -0.62177E+06         0.00000E+00
    0.00000E+00         0.00000E+00         0.00000E+00
 
    0.56526E+05         0.33097E+07         0.00000E+00
    0.33097E+07        -0.61838E+06         0.00000E+00
    0.00000E+00         0.00000E+00         0.00000E+00
 
    0.49238E+05         0.33825E+07         0.00000E+00
    0.33825E+07        -0.61493E+06         0.00000E+00
    0.00000E+00         0.00000E+00         0.00000E+00
 
    0.41872E+05         0.34551E+07         0.00000E+00
    0.34551E+07        -0.61140E+06         0.00000E+00
    0.00000E+00         0.00000E+00         0.00000E+00
 
    0.34428E+05         0.35274E+07         0.00000E+00
    0.35274E+07        -0.60782E+06         0.00000E+00
    0.00000E+00         0.00000E+00         0.00000E+00
 
    0.26908E+05         0.35995E+07         0.00000E+00
    0.35995E+07        -0.60416E+06         0.00000E+00
    0.00000E+00         0.00000E+00         0.00000E+00
 
    0.19311E+05         0.36713E+07         0.00000E+00
    0.36713E+07        -0.60044E+06         0.00000E+00
    0.00000E+00         0.00000E+00         0.00000E+00
 
    0.11639E+05         0.37428E+07         0.00000E+00
    0.37428E+07        -0.59666E+06         0.00000E+00
    0.00000E+00         0.00000E+00         0.00000E+00
 
    0.38919E+04         0.38140E+07         0.00000E+00
    0.38140E+07        -0.59281E+06         0.00000E+00
    0.00000E+00         0.00000E+00         0.00000E+00
 
    0.34014E+06         0.41701E+05         0.00000E+00
    0.41701E+05        -0.10497E+07         0.00000E+00
    0.00000E+00         0.00000E+00         0.00000E+00
 
    0.33571E+06         0.12449E+06         0.00000E+00
    0.12449E+06        -0.10496E+07         0.00000E+00
    0.00000E+00         0.00000E+00         0.00000E+00
 
    0.33117E+06         0.20706E+06         0.00000E+00
    0.20706E+06        -0.10494E+07         0.00000E+00
    0.00000E+00         0.00000E+00         0.00000E+00
 
    0.32653E+06         0.28941E+06         0.00000E+00
    0.28941E+06        -0.10491E+07         0.00000E+00
    0.00000E+00         0.00000E+00         0.00000E+00
 
    0.32178E+06         0.37154E+06         0.00000E+00
    0.37154E+06        -0.10487E+07         0.00000E+00
    0.00000E+00         0.00000E+00         0.00000E+00
 
    0.31692E+06         0.45345E+06         0.00000E+00
    0.45345E+06        -0.10482E+07         0.00000E+00
    0.00000E+00         0.00000E+00         0.00000E+00
 
    0.31196E+06         0.53513E+06         0.00000E+00
    0.53513E+06        -0.10476E+07         0.00000E+00
    0.00000E+00         0.00000E+00         0.00000E+00
 
    0.30689E+06         0.61660E+06         0.00000E+00
    0.61660E+06        -0.10469E+07         0.00000E+00
    0.00000E+00         0.00000E+00         0.00000E+00
 
    0.30172E+06         0.69786E+06         0.00000E+00
    0.69786E+06        -0.10461E+07         0.00000E+00
    0.00000E+00         0.00000E+00         0.00000E+00
 
    0.29644E+06         0.77889E+06         0.00000E+00
    0.77889E+06        -0.10453E+07         0.00000E+00
    0.00000E+00         0.00000E+00         0.00000E+00
 
    0.29106E+06         0.85970E+06         0.00000E+00
    0.85970E+06        -0.10443E+07         0.00000E+00
    0.00000E+00         0.00000E+00         0.00000E+00
 
    0.28558E+06         0.94030E+06         0.00000E+00
    0.94030E+06        -0.10432E+07         0.00000E+00
    0.00000E+00         0.00000E+00         0.00000E+00
 
    0.27999E+06         0.10207E+07         0.00000E+00
    0.10207E+07        -0.10420E+07         0.00000E+00
    0.00000E+00         0.00000E+00         0.00000E+00
 
    0.27431E+06         0.11008E+07         0.00000E+00
    0.11008E+07        -0.10408E+07         0.00000E+00
    0.00000E+00         0.00000E+00         0.00000E+00
 
    0.26852E+06         0.11808E+07         0.00000E+00
    0.11808E+07        -0.10394E+07         0.00000E+00
    0.00000E+00         0.00000E+00         0.00000E+00
 
    0.26262E+06         0.12605E+07         0.00000E+00
    0.12605E+07        -0.10379E+07         0.00000E+00
    0.00000E+00         0.00000E+00         0.00000E+00
 
    0.25663E+06         0.13400E+07         0.00000E+00
    0.13400E+07        -0.10364E+07         0.00000E+00
    0.00000E+00         0.00000E+00         0.00000E+00
 
    0.25054E+06         0.14193E+07         0.00000E+00
    0.14193E+07        -0.10347E+07         0.00000E+00
    0.00000E+00         0.00000E+00         0.00000E+00
 
    0.24435E+06         0.14984E+07         0.00000E+00
    0.14984E+07        -0.10330E+07         0.00000E+00
    0.00000E+00         0.00000E+00         0.00000E+00
 
    0.23805E+06         0.15772E+07         0.00000E+00
    0.15772E+07        -0.10312E+07         0.00000E+00
    0.00000E+00         0.00000E+00         0.00000E+00
 
    0.23166E+06         0.16559E+07         0.00000E+00
    0.16559E+07        -0.10292E+07         0.00000E+00
    0.00000E+00         0.00000E+00         0.00000E+00
 
    0.22517E+06         0.17343E+07         0.00000E+00
    0.17343E+07        -0.10272E+07         0.00000E+00
    0.00000E+00         0.00000E+00         0.00000E+00
 
    0.21858E+06         0.18125E+07         0.00000E+00
    0.18125E+07        -0.10251E+07         0.00000E+00
    0.00000E+00         0.00000E+00         0.00000E+00
 
    0.21189E+06         0.18904E+07         0.00000E+00
    0.18904E+07        -0.10229E+07         0.00000E+00
    0.00000E+00         0.00000E+00         0.00000E+00
 
    0.20510E+06         0.19682E+07         0.00000E+00
    0.19682E+07        -0.10206E+07         0.00000E+00
    0.00000E+00         0.00000E+00         0.00000E+00
 
    0.19822E+06         0.20457E+07         0.00000E+00
    0.20457E+07        -0.10182E+07         0.00000E+00
    0.00000E+00         0.00000E+00         0.00000E+00
 
    0.19124E+06         0.21230E+07         0.00000E+00
    0.21230E+07        -0.10157E+07         0.00000E+00
    0.00000E+00         0.00000E+00         0.00000E+00
 
    0.18416E+06         0.22001E+07         0.00000E+00
    0.22001E+07        -0.10131E+07         0.00000E+00
    0.00000E+00         0.00000E+00         0.00000E+00
 
    0.17698E+06         0.22769E+07         0.00000E+00
    0.22769E+07        -0.10105E+07         0.00000E+00
    0.00000E+00         0.00000E+00         0.00000E+00
 
    0.16971E+06         0.23535E+07         0.00000E+00
    0.23535E+07        -0.10077E+07         0.00000E+00
    0.00000E+00         0.00000E+00         0.00000E+00
 
    0.16234E+06         0.24299E+07         0.00000E+00
    0.24299E+07        -0.10049E+07         0.00000E+00
    0.00000E+00         0.00000E+00         0.00000E+00
 
    0.15488E+06         0.25061E+07         0.00000E+00
    0.25061E+07        -0.10019E+07         0.00000E+00
    0.00000E+00         0.00000E+00         0.00000E+00
 
    0.14732E+06         0.25820E+07         0.00000E+00
    0.25820E+07        -0.99889E+06         0.00000E+00
    0.00000E+00         0.00000E+00         0.00000E+00
 
    0.13967E+06         0.26577E+07         0.00000E+00
    0.26577E+07        -0.99578E+06         0.00000E+00
    0.00000E+00         0.00000E+00         0.00000E+00
 
    0.13192E+06         0.27331E+07         0.00000E+00
    0.27331E+07        -0.99257E+06         0.00000E+00
    0.00000E+00         0.00000E+00         0.00000E+00
 
    0.12408E+06         0.28083E+07         0.00000E+00
    0.28083E+07        -0.98927E+06         0.00000E+00
    0.00000E+00         0.00000E+00         0.00000E+00
 
    0.11614E+06         0.28833E+07         0.00000E+00
    0.28833E+07        -0.98588E+06         0.00000E+00
    0.00000E+00         0.00000E+00         0.00000E+00
 
    0.10811E+06         0.29581E+07         0.00000E+00
    0.29581E+07        -0.98241E+06         0.00000E+00
    0.00000E+00         0.00000E+00         0.00000E+00
 
    0.99991E+05         0.30326E+07         0.00000E+00
    0.30326E+07        -0.97884E+06         0.00000E+00
    0.00000E+00         0.00000E+00         0.00000E+00
 
    0.91776E+05         0.31068E+07         0.00000E+00
    0.31068E+07        -0.97519E+06         0.00000E+00
    0.00000E+00         0.00000E+00         0.00000E+00
 
    0.83468E+05         0.31808E+07         0.00000E+00
    0.31808E+07        -0.97145E+06         0.00000E+00
    0.00000E+00         0.00000E+00         0.00000E+00
 
    0.75068E+05         0.32545E+07         0.00000E+00
    0.32545E+07        -0.96762E+06         0.00000E+00
    0.00000E+00         0.00000E+00         0.00000E+00
 
    0.66576E+05         0.33280E+07         0.00000E+00
    0.33280E+07        -0.96371E+06         0.00000E+00
    0.00000E+00         0.00000E+00         0.00000E+00
 
    0.57992E+05         0.34013E+07         0.00000E+00
    0.34013E+07        -0.95970E+06         0.00000E+00
    0.00000E+00         0.00000E+00         0.00000E+00
 
    0.49317E+05         0.34742E+07         0.00000E+00
    0.34742E+07        -0.95561E+06         0.00000E+00
    0.00000E+00         0.00000E+00         0.00000E+00
 
    0.40551E+05         0.35470E+07         0.00000E+00
    0.35470E+07        -0.95143E+06         0.00000E+00
    0.00000E+00         0.00000E+00         0.00000E+00
 
    0.31695E+05         0.36194E+07         0.00000E+00
    0.36194E+07        -0.94717E+06         0.00000E+00
    0.00000E+00         0.00000E+00         0.00000E+00
 
    0.22748E+05         0.36916E+07         0.00000E+00
    0.36916E+07        -0.94282E+06         0.00000E+00
    0.00000E+00         0.00000E+00         0.00000E+00
 
    0.13712E+05         0.37635E+07         0.00000E+00
    0.37635E+07        -0.93838E+06         0.00000E+00
    0.00000E+00         0.00000E+00         0.00000E+00
 
    0.45854E+04         0.38351E+07         0.00000E+00
    0.38351E+07        -0.93386E+06         0.00000E+00
    0.00000E+00         0.00000E+00         0.00000E+00
 
    0.39882E+06         0.41957E+05         0.00000E+00
    0.41957E+05        -0.14068E+07         0.00000E+00
    0.00000E+00         0.00000E+00         0.00000E+00
 
    0.39327E+06         0.12526E+06         0.00000E+00
    0.12526E+06        -0.14067E+07         0.00000E+00
    0.00000E+00         0.00000E+00         0.00000E+00
 
    0.38762E+06         0.20834E+06         0.00000E+00
    0.20834E+06        -0.14065E+07         0.00000E+00
    0.00000E+00         0.00000E+00         0.00000E+00
 
    0.38187E+06         0.29119E+06         0.00000E+00
    0.29119E+06        -0.14062E+07         0.00000E+00
    0.00000E+00         0.00000E+00         0.00000E+00
 
    0.37600E+06         0.37383E+06         0.00000E+00
    0.37383E+06        -0.14057E+07         0.00000E+00
    0.00000E+00         0.00000E+00         0.00000E+00
 
    0.37004E+06         0.45624E+06         0.00000E+00
    0.45624E+06        -0.14052E+07         0.00000E+00
    0.00000E+00         0.00000E+00         0.00000E+00
 
    0.36397E+06         0.53844E+06         0.00000E+00
    0.53844E+06        -0.14046E+07         0.00000E+00
    0.00000E+00         0.00000E+00         0.00000E+00
 
    0.35779E+06         0.62041E+06         0.00000E+00
    0.62041E+06        -0.14038E+07         0.00000E+00
    0.00000E+00         0.00000E+00         0.00000E+00
 
    0.35151E+06         0.70217E+06         0.00000E+00
    0.70217E+06        -0.14030E+07         0.00000E+00
    0.00000E+00         0.00000E+00         0.00000E+00
 
    0.34512E+06         0.78370E+06         0.00000E+00
    0.78370E+06        -0.14020E+07         0.00000E+00
    0.00000E+00         0.00000E+00         0.00000E+00
 
    0.33863E+06         0.86502E+06         0.00000E+00
    0.86502E+06        -0.14009E+07         0.00000E+00
    0.00000E+00         0.00000E+00         0.00000E+00
 
    0.33204E+06         0.94612E+06         0.00000E+00
    0.94612E+06        -0.13998E+07         0.00000E+00
    0.00000E+00         0.00000E+00         0.00000E+00
 
    0.32534E+06         0.10270E+07         0.00000E+00
    0.10270E+07        -0.13985E+07         0.00000E+00
    0.00000E+00         0.00000E+00         0.00000E+00
 
    0.31854E+06         0.11077E+07         0.00000E+00
    0.11077E+07        -0.13971E+07         0.00000E+00
    0.00000E+00         0.00000E+00         0.00000E+00
 
    0.31164E+06         0.11881E+07         0.00000E+00
    0.11881E+07        -0.13956E+07         0.00000E+00
    0.00000E+00         0.00000E+00         0.00000E+00
 
    0.30463E+06         0.12683E+07         0.00000E+00
    0.12683E+07        -0.13940E+07         0.00000E+00
    0.00000E+00         0.00000E+00         0.00000E+00
 
    0.29752E+06         0.13483E+07         0.00000E+00
    0.13483E+07        -0.13923E+07         0.00000E+00
    0.00000E+00         0.00000E+00         0.00000E+00
 
    0.29031E+06         0.14281E+07         0.00000E+00
    0.14281E+07        -0.13905E+07         0.00000E+00
    0.00000E+00         0.00000E+00         0.00000E+00
 
    0.28300E+06         0.15077E+07         0.00000E+00
    0.15077E+07        -0.13886E+07         0.00000E+00
    0.00000E+00         0.00000E+00         0.00000E+00
 
    0.27558E+06         0.15870E+07         0.00000E+00
    0.15870E+07        -0.13866E+07         0.00000E+00
    0.00000E+00         0.00000E+00         0.00000E+00
 
    0.26806E+06         0.16662E+07         0.00000E+00
    0.16662E+07        -0.13845E+07         0.00000E+00
    0.00000E+00         0.00000E+00         0.00000E+00
 
    0.26044E+06         0.17451E+07         0.00000E+00
    0.17451E+07        -0.13823E+07         0.00000E+00
    0.00000E+00         0.00000E+00         0.00000E+00
 
    0.25271E+06         0.18237E+07         0.00000E+00
    0.18237E+07        -0.13799E+07         0.00000E+00
    0.00000E+00         0.00000E+00         0.00000E+00
 
    0.24489E+06         0.19022E+07         0.00000E+00
    0.19022E+07        -0.13775E+07         0.00000E+00
    0.00000E+00         0.00000E+00         0.00000E+00
 
    0.23696E+06         0.19804E+07         0.00000E+00
    0.19804E+07        -0.13750E+07         0.00000E+00
    0.00000E+00         0.00000E+00         0.00000E+00
 
    0.22892E+06         0.20585E+07         0.00000E+00
    0.20585E+07        -0.13723E+07         0.00000E+00
    0.00000E+00         0.00000E+00         0.00000E+00
 
    0.22079E+06         0.21363E+07         0.00000E+00
    0.21363E+07        -0.13696E+07         0.00000E+00
    0.00000E+00         0.00000E+00         0.00000E+00
 
    0.21255E+06         0.22138E+07         0.00000E+00
    0.22138E+07        -0.13667E+07         0.00000E+00
    0.00000E+00         0.00000E+00         0.00000E+00
 
    0.20421E+06         0.22912E+07         0.00000E+00
    0.22912E+07        -0.13638E+07         0.00000E+00
    0.00000E+00         0.00000E+00         0.00000E+00
 
    0.19577E+06         0.23683E+07         0.00000E+00
    0.23683E+07        -0.13607E+07         0.00000E+00
    0.00000E+00         0.00000E+00         0.00000E+00
 
    0.18723E+06         0.24451E+07         0.00000E+00
    0.24451E+07        -0.13575E+07         0.00000E+00
    0.00000E+00         0.00000E+00         0.00000E+00
 
    0.17858E+06         0.25218E+07         0.00000E+00
    0.25218E+07        -0.13542E+07         0.00000E+00
    0.00000E+00         0.00000E+00         0.00000E+00
 
    0.16983E+06         0.25982E+07         0.00000E+00
    0.25982E+07        -0.13509E+07         0.00000E+00
    0.00000E+00         0.00000E+00         0.00000E+00
 
    0.16098E+06         0.26744E+07         0.00000E+00
    0.26744E+07        -0.13474E+07         0.00000E+00
    0.00000E+00         0.00000E+00         0.00000E+00
 
    0.15202E+06         0.27503E+07         0.00000E+00
    0.27503E+07        -0.13438E+07         0.00000E+00
    0.00000E+00         0.00000E+00         0.00000E+00
 
    0.14296E+06         0.28260E+07         0.00000E+00
    0.28260E+07        -0.13401E+07         0.00000E+00
    0.00000E+00         0.00000E+00         0.00000E+00
 
    0.13380E+06         0.29015E+07         0.00000E+00
    0.29015E+07        -0.13363E+07         0.00000E+00
    0.00000E+00         0.00000E+00         0.00000E+00
 
    0.12454E+06         0.29767E+07         0.00000E+00
    0.29767E+07        -0.13324E+07         0.00000E+00
    0.00000E+00         0.00000E+00         0.00000E+00
 
    0.11517E+06         0.30517E+07         0.00000E+00
    0.30517E+07        -0.13283E+07         0.00000E+00
    0.00000E+00         0.00000E+00         0.00000E+00
 
    0.10570E+06         0.31265E+07         0.00000E+00
    0.31265E+07        -0.13242E+07         0.00000E+00
    0.00000E+00         0.00000E+00         0.00000E+00
 
    0.96126E+05         0.32009E+07         0.00000E+00
    0.32009E+07        -0.13200E+07         0.00000E+00
    0.00000E+00         0.00000E+00         0.00000E+00
 
    0.86448E+05         0.32752E+07         0.00000E+00
    0.32752E+07        -0.13156E+07         0.00000E+00
    0.00000E+00         0.00000E+00         0.00000E+00
 
    0.76667E+05         0.33492E+07         0.00000E+00
    0.33492E+07        -0.13112E+07         0.00000E+00
    0.00000E+00         0.00000E+00         0.00000E+00
 
    0.66781E+05         0.34229E+07         0.00000E+00
    0.34229E+07        -0.13066E+07         0.00000E+00
    0.00000E+00         0.00000E+00         0.00000E+00
 
    0.56792E+05         0.34963E+07         0.00000E+00
    0.34963E+07        -0.13020E+07         0.00000E+00
    0.00000E+00         0.00000E+00         0.00000E+00
 
    0.46699E+05         0.35696E+07         0.00000E+00
    0.35696E+07        -0.12972E+07         0.00000E+00
    0.00000E+00         0.00000E+00         0.00000E+00
 
    0.36502E+05         0.36425E+07         0.00000E+00
    0.36425E+07        -0.12923E+07         0.00000E+00
    0.00000E+00         0.00000E+00         0.00000E+00
 
    0.26200E+05         0.37152E+07         0.00000E+00
    0.37152E+07        -0.12873E+07         0.00000E+00
    0.00000E+00         0.00000E+00         0.00000E+00
 
    0.15793E+05         0.37876E+07         0.00000E+00
    0.37876E+07        -0.12822E+07         0.00000E+00
    0.00000E+00         0.00000E+00         0.00000E+00
 
    0.52818E+04         0.38597E+07         0.00000E+00
    0.38597E+07        -0.12770E+07         0.00000E+00
    0.00000E+00         0.00000E+00         0.00000E+00
 
    0.45748E+06         0.42238E+05         0.00000E+00
    0.42238E+05        -0.17666E+07         0.00000E+00
    0.00000E+00         0.00000E+00         0.00000E+00
 
    0.45082E+06         0.12610E+06         0.00000E+00
    0.12610E+06        -0.17665E+07         0.00000E+00
    0.00000E+00         0.00000E+00         0.00000E+00
 
    0.44405E+06         0.20973E+06         0.00000E+00
    0.20973E+06        -0.17663E+07         0.00000E+00
    0.00000E+00         0.00000E+00         0.00000E+00
 
    0.43718E+06         0.29315E+06         0.00000E+00
    0.29315E+06        -0.17659E+07         0.00000E+00
    0.00000E+00         0.00000E+00         0.00000E+00
 
    0.43021E+06         0.37634E+06         0.00000E+00
    0.37634E+06        -0.17655E+07         0.00000E+00
    0.00000E+00         0.00000E+00         0.00000E+00
 
    0.42313E+06         0.45931E+06         0.00000E+00
    0.45931E+06        -0.17649E+07         0.00000E+00
    0.00000E+00         0.00000E+00         0.00000E+00
 
    0.41594E+06         0.54206E+06         0.00000E+00
    0.54206E+06        -0.17642E+07         0.00000E+00
    0.00000E+00         0.00000E+00         0.00000E+00
 
    0.40865E+06         0.62459E+06         0.00000E+00
    0.62459E+06        -0.17634E+07         0.00000E+00
    0.00000E+00         0.00000E+00         0.00000E+00
 
    0.40126E+06         0.70690E+06         0.00000E+00
    0.70690E+06        -0.17625E+07         0.00000E+00
    0.00000E+00         0.00000E+00         0.00000E+00
 
    0.39376E+06         0.78899E+06         0.00000E+00
    0.78899E+06        -0.17615E+07         0.00000E+00
    0.00000E+00         0.00000E+00         0.00000E+00
 
    0.38616E+06         0.87086E+06         0.00000E+00
    0.87086E+06        -0.17603E+07         0.00000E+00
    0.00000E+00         0.00000E+00         0.00000E+00
 
    0.37846E+06         0.95251E+06         0.00000E+00
    0.95251E+06        -0.17590E+07         0.00000E+00
    0.00000E+00         0.00000E+00         0.00000E+00
 
    0.37065E+06         0.10339E+07         0.00000E+00
    0.10339E+07        -0.17577E+07         0.00000E+00
    0.00000E+00         0.00000E+00         0.00000E+00
 
    0.36273E+06         0.11152E+07         0.00000E+00
    0.11152E+07        -0.17562E+07         0.00000E+00
    0.00000E+00         0.00000E+00         0.00000E+00
 
    0.35471E+06         0.11962E+07         0.00000E+00
    0.11962E+07        -0.17546E+07         0.00000E+00
    0.00000E+00         0.00000E+00         0.00000E+00
 
    0.34659E+06         0.12769E+07         0.00000E+00
    0.12769E+07        -0.17528E+07         0.00000E+00
    0.00000E+00         0.00000E+00         0.00000E+00
 
    0.33837E+06         0.13575E+07         0.00000E+00
    0.13575E+07        -0.17510E+07         0.00000E+00
    0.00000E+00         0.00000E+00         0.00000E+00
 
    0.33003E+06         0.14378E+07         0.00000E+00
    0.14378E+07        -0.17490E+07         0.00000E+00
    0.00000E+00         0.00000E+00         0.00000E+00
 
    0.32160E+06         0.15180E+07         0.00000E+00
    0.15180E+07        -0.17470E+07         0.00000E+00
    0.00000E+00         0.00000E+00         0.00000E+00
 
    0.31305E+06         0.15979E+07         0.00000E+00
    0.15979E+07        -0.17448E+07         0.00000E+00
    0.00000E+00         0.00000E+00         0.00000E+00
 
    0.30441E+06         0.16776E+07         0.00000E+00
    0.16776E+07        -0.17425E+07         0.00000E+00
    0.00000E+00         0.00000E+00         0.00000E+00
 
    0.29565E+06         0.17570E+07         0.00000E+00
    0.17570E+07        -0.17400E+07         0.00000E+00
    0.00000E+00         0.00000E+00         0.00000E+00
 
    0.28679E+06         0.18363E+07         0.00000E+00
    0.18363E+07        -0.17375E+07         0.00000E+00
    0.00000E+00         0.00000E+00         0.00000E+00
 
    0.27783E+06         0.19153E+07         0.00000E+00
    0.19153E+07        -0.17348E+07         0.00000E+00
    0.00000E+00         0.00000E+00         0.00000E+00
 
    0.26876E+06         0.19941E+07         0.00000E+00
    0.19941E+07        -0.17321E+07         0.00000E+00
    0.00000E+00         0.00000E+00         0.00000E+00
 
    0.25958E+06         0.20727E+07         0.00000E+00
    0.20727E+07        -0.17292E+07         0.00000E+00
    0.00000E+00         0.00000E+00         0.00000E+00
 
    0.25029E+06         0.21510E+07         0.00000E+00
    0.21510E+07        -0.17262E+07         0.00000E+00
    0.00000E+00         0.00000E+00         0.00000E+00
 
    0.24090E+06         0.22291E+07         0.00000E+00
    0.22291E+07        -0.17230E+07         0.00000E+00
    0.00000E+00         0.00000E+00         0.00000E+00
 
    0.23139E+06         0.23070E+07         0.00000E+00
    0.23070E+07        -0.17198E+07         0.00000E+00
    0.00000E+00         0.00000E+00         0.00000E+00
 
    0.22178E+06         0.23847E+07         0.00000E+00
    0.23847E+07        -0.17164E+07         0.00000E+00
    0.00000E+00         0.00000E+00         0.00000E+00
 
    0.21206E+06         0.24622E+07         0.00000E+00
    0.24622E+07        -0.17129E+07         0.00000E+00
    0.00000E+00         0.00000E+00         0.00000E+00
 
    0.20223E+06         0.25394E+07         0.00000E+00
    0.25394E+07        -0.17093E+07         0.00000E+00
    0.00000E+00         0.00000E+00         0.00000E+00
 
    0.19229E+06         0.26164E+07         0.00000E+00
    0.26164E+07        -0.17056E+07         0.00000E+00
    0.00000E+00         0.00000E+00         0.00000E+00
 
    0.18224E+06         0.26931E+07         0.00000E+00
    0.26931E+07        -0.17017E+07         0.00000E+00
    0.00000E+00         0.00000E+00         0.00000E+00
 
    0.17208E+06         0.27696E+07         0.00000E+00
    0.27696E+07        -0.16977E+07         0.00000E+00
    0.00000E+00         0.00000E+00         0.00000E+00
 
    0.16181E+06         0.28459E+07         0.00000E+00
    0.28459E+07        -0.16936E+07         0.00000E+00
    0.00000E+00         0.00000E+00         0.00000E+00
 
    0.15143E+06         0.29219E+07         0.00000E+00
    0.29219E+07        -0.16894E+07         0.00000E+00
    0.00000E+00         0.00000E+00         0.00000E+00
 
    0.14093E+06         0.29977E+07         0.00000E+00
    0.29977E+07        -0.16850E+07         0.00000E+00
    0.00000E+00         0.00000E+00         0.00000E+00
 
    0.13032E+06         0.30733E+07         0.00000E+00
    0.30733E+07        -0.16806E+07         0.00000E+00
    0.00000E+00         0.00000E+00         0.00000E+00
 
    0.11960E+06         0.31486E+07         0.00000E+00
    0.31486E+07        -0.16760E+07         0.00000E+00
    0.00000E+00         0.00000E+00         0.00000E+00
 
    0.10876E+06         0.32237E+07         0.00000E+00
    0.32237E+07        -0.16712E+07         0.00000E+00
    0.00000E+00         0.00000E+00         0.00000E+00
 
    0.97806E+05         0.32985E+07         0.00000E+00
    0.32985E+07        -0.16664E+07         0.00000E+00
    0.00000E+00         0.00000E+00         0.00000E+00
 
    0.86738E+05         0.33731E+07         0.00000E+00
    0.33731E+07        -0.16614E+07         0.00000E+00
    0.00000E+00         0.00000E+00         0.00000E+00
 
    0.75554E+05         0.34474E+07         0.00000E+00
    0.34474E+07        -0.16563E+07         0.00000E+00
    0.00000E+00         0.00000E+00         0.00000E+00
 
    0.64253E+05         0.35214E+07         0.00000E+00
    0.35214E+07        -0.16511E+07         0.00000E+00
    0.00000E+00         0.00000E+00         0.00000E+00
 
    0.52835E+05         0.35952E+07         0.00000E+00
    0.35952E+07        -0.16457E+07         0.00000E+00
    0.00000E+00         0.00000E+00         0.00000E+00
 
    0.41299E+05         0.36687E+07         0.00000E+00
    0.36687E+07        -0.16402E+07         0.00000E+00
    0.00000E+00         0.00000E+00         0.00000E+00
 
    0.29644E+05         0.37420E+07         0.00000E+00
    0.37420E+07        -0.16346E+07         0.00000E+00
    0.00000E+00         0.00000E+00         0.00000E+00
 
    0.17871E+05         0.38150E+07         0.00000E+00
    0.38150E+07        -0.16289E+07         0.00000E+00
    0.00000E+00         0.00000E+00         0.00000E+00
 
    0.59769E+04         0.38877E+07         0.00000E+00
    0.38877E+07        -0.16230E+07         0.00000E+00
    0.00000E+00         0.00000E+00         0.00000E+00
 
    0.51586E+06         0.42541E+05         0.00000E+00
    0.42541E+05        -0.21296E+07         0.00000E+00
    0.00000E+00         0.00000E+00         0.00000E+00
 
    0.50808E+06         0.12701E+06         0.00000E+00
    0.12701E+06        -0.21295E+07         0.00000E+00
    0.00000E+00         0.00000E+00         0.00000E+00
 
    0.50019E+06         0.21125E+06         0.00000E+00
    0.21125E+06        -0.21292E+07         0.00000E+00
    0.00000E+00         0.00000E+00         0.00000E+00
 
    0.49220E+06         0.29527E+06         0.00000E+00
    0.29527E+06        -0.21289E+07         0.00000E+00
    0.00000E+00         0.00000E+00         0.00000E+00
 
    0.48411E+06         0.37906E+06         0.00000E+00
    0.37906E+06        -0.21284E+07         0.00000E+00
    0.00000E+00         0.00000E+00         0.00000E+00
 
    0.47592E+06         0.46264E+06         0.00000E+00
    0.46264E+06        -0.21278E+07         0.00000E+00
    0.00000E+00         0.00000E+00         0.00000E+00
 
    0.46762E+06         0.54599E+06         0.00000E+00
    0.54599E+06        -0.21270E+07         0.00000E+00
    0.00000E+00         0.00000E+00         0.00000E+00
 
    0.45922E+06         0.62913E+06         0.00000E+00
    0.62913E+06        -0.21262E+07         0.00000E+00
    0.00000E+00         0.00000E+00         0.00000E+00
 
    0.45071E+06         0.71205E+06         0.00000E+00
    0.71205E+06        -0.21252E+07         0.00000E+00
    0.00000E+00         0.00000E+00         0.00000E+00
 
    0.44211E+06         0.79474E+06         0.00000E+00
    0.79474E+06        -0.21241E+07         0.00000E+00
    0.00000E+00         0.00000E+00         0.00000E+00
 
    0.43339E+06         0.87722E+06         0.00000E+00
    0.87722E+06        -0.21229E+07         0.00000E+00
    0.00000E+00         0.00000E+00         0.00000E+00
 
    0.42458E+06         0.95948E+06         0.00000E+00
    0.95948E+06        -0.21215E+07         0.00000E+00
    0.00000E+00         0.00000E+00         0.00000E+00
 
    0.41566E+06         0.10415E+07         0.00000E+00
    0.10415E+07        -0.21200E+07         0.00000E+00
    0.00000E+00         0.00000E+00         0.00000E+00
 
    0.40663E+06         0.11234E+07         0.00000E+00
    0.11234E+07        -0.21184E+07         0.00000E+00
    0.00000E+00         0.00000E+00         0.00000E+00
 
    0.39750E+06         0.12050E+07         0.00000E+00
    0.12050E+07        -0.21167E+07         0.00000E+00
    0.00000E+00         0.00000E+00         0.00000E+00
 
    0.38827E+06         0.12864E+07         0.00000E+00
    0.12864E+07        -0.21149E+07         0.00000E+00
    0.00000E+00         0.00000E+00         0.00000E+00
 
    0.37893E+06         0.13675E+07         0.00000E+00
    0.13675E+07        -0.21129E+07         0.00000E+00
    0.00000E+00         0.00000E+00         0.00000E+00
 
    0.36948E+06         0.14485E+07         0.00000E+00
    0.14485E+07        -0.21108E+07         0.00000E+00
    0.00000E+00         0.00000E+00         0.00000E+00
 
    0.35993E+06         0.15292E+07         0.00000E+00
    0.15292E+07        -0.21085E+07         0.00000E+00
    0.00000E+00         0.00000E+00         0.00000E+00
 
    0.35026E+06         0.16097E+07         0.00000E+00
    0.16097E+07        -0.21062E+07         0.00000E+00
    0.00000E+00         0.00000E+00         0.00000E+00
 
    0.34049E+06         0.16900E+07         0.00000E+00
    0.16900E+07        -0.21037E+07         0.00000E+00
    0.00000E+00         0.00000E+00         0.00000E+00
 
    0.33061E+06         0.17701E+07         0.00000E+00
    0.17701E+07        -0.21011E+07         0.00000E+00
    0.00000E+00         0.00000E+00         0.00000E+00
 
    0.32063E+06         0.18500E+07         0.00000E+00
    0.18500E+07        -0.20983E+07         0.00000E+00
    0.00000E+00         0.00000E+00         0.00000E+00
 
    0.31053E+06         0.19296E+07         0.00000E+00
    0.19296E+07        -0.20954E+07         0.00000E+00
    0.00000E+00         0.00000E+00         0.00000E+00
 
    0.30032E+06         0.20091E+07         0.00000E+00
    0.20091E+07        -0.20924E+07         0.00000E+00
    0.00000E+00         0.00000E+00         0.00000E+00
 
    0.29000E+06         0.20883E+07         0.00000E+00
    0.20883E+07        -0.20893E+07         0.00000E+00
    0.00000E+00         0.00000E+00         0.00000E+00
 
    0.27957E+06         0.21673E+07         0.00000E+00
    0.21673E+07        -0.20860E+07         0.00000E+00
    0.00000E+00         0.00000E+00         0.00000E+00
 
    0.26902E+06         0.22460E+07         0.00000E+00
    0.22460E+07        -0.20826E+07         0.00000E+00
    0.00000E+00         0.00000E+00         0.00000E+00
 
    0.25837E+06         0.23245E+07         0.00000E+00
    0.23245E+07        -0.20791E+07         0.00000E+00
    0.00000E+00         0.00000E+00         0.00000E+00
 
    0.24759E+06         0.24029E+07         0.00000E+00
    0.24029E+07        -0.20754E+07         0.00000E+00
    0.00000E+00         0.00000E+00         0.00000E+00
 
    0.23671E+06         0.24809E+07         0.00000E+00
    0.24809E+07        -0.20716E+07         0.00000E+00
    0.00000E+00         0.00000E+00         0.00000E+00
 
    0.22570E+06         0.25588E+07         0.00000E+00
    0.25588E+07        -0.20676E+07         0.00000E+00
    0.00000E+00         0.00000E+00         0.00000E+00
 
    0.21458E+06         0.26364E+07         0.00000E+00
    0.26364E+07        -0.20636E+07         0.00000E+00
    0.00000E+00         0.00000E+00         0.00000E+00
 
    0.20334E+06         0.27138E+07         0.00000E+00
    0.27138E+07        -0.20593E+07         0.00000E+00
    0.00000E+00         0.00000E+00         0.00000E+00
 
    0.19198E+06         0.27910E+07         0.00000E+00
    0.27910E+07        -0.20550E+07         0.00000E+00
    0.00000E+00         0.00000E+00         0.00000E+00
 
    0.18051E+06         0.28679E+07         0.00000E+00
    0.28679E+07        -0.20505E+07         0.00000E+00
    0.00000E+00         0.00000E+00         0.00000E+00
 
    0.16891E+06         0.29446E+07         0.00000E+00
    0.29446E+07        -0.20458E+07         0.00000E+00
    0.00000E+00         0.00000E+00         0.00000E+00
 
    0.15719E+06         0.30211E+07         0.00000E+00
    0.30211E+07        -0.20411E+07         0.00000E+00
    0.00000E+00         0.00000E+00         0.00000E+00
 
    0.14535E+06         0.30973E+07         0.00000E+00
    0.30973E+07        -0.20361E+07         0.00000E+00
    0.00000E+00         0.00000E+00         0.00000E+00
 
    0.13338E+06         0.31733E+07         0.00000E+00
    0.31733E+07        -0.20311E+07         0.00000E+00
    0.00000E+00         0.00000E+00         0.00000E+00
 
    0.12129E+06         0.32490E+07         0.00000E+00
    0.32490E+07        -0.20259E+07         0.00000E+00
    0.00000E+00         0.00000E+00         0.00000E+00
 
    0.10907E+06         0.33245E+07         0.00000E+00
    0.33245E+07        -0.20205E+07         0.00000E+00
    0.00000E+00         0.00000E+00         0.00000E+00
 
    0.96727E+05         0.33997E+07         0.00000E+00
    0.33997E+07        -0.20150E+07         0.00000E+00
    0.00000E+00         0.00000E+00         0.00000E+00
 
    0.84255E+05         0.34747E+07         0.00000E+00
    0.34747E+07        -0.20094E+07         0.00000E+00
    0.00000E+00         0.00000E+00         0.00000E+00
 
    0.71653E+05         0.35494E+07         0.00000E+00
    0.35494E+07        -0.20036E+07         0.00000E+00
    0.00000E+00         0.00000E+00         0.00000E+00
 
    0.58921E+05         0.36239E+07         0.00000E+00
    0.36239E+07        -0.19976E+07         0.00000E+00
    0.00000E+00         0.00000E+00         0.00000E+00
 
    0.46057E+05         0.36981E+07         0.00000E+00
    0.36981E+07        -0.19915E+07         0.00000E+00
    0.00000E+00         0.00000E+00         0.00000E+00
 
    0.33061E+05         0.37720E+07         0.00000E+00
    0.37720E+07        -0.19853E+07         0.00000E+00
    0.00000E+00         0.00000E+00         0.00000E+00
 
    0.19931E+05         0.38457E+07         0.00000E+00
    0.38457E+07        -0.19789E+07         0.00000E+00
    0.00000E+00         0.00000E+00         0.00000E+00
 
    0.66664E+04         0.39191E+07         0.00000E+00
    0.39191E+07        -0.19724E+07         0.00000E+00
    0.00000E+00         0.00000E+00         0.00000E+00
 
    0.57367E+06         0.42867E+05         0.00000E+00
    0.42867E+05        -0.24963E+07         0.00000E+00
    0.00000E+00         0.00000E+00         0.00000E+00
 
    0.56476E+06         0.12798E+06         0.00000E+00
    0.12798E+06        -0.24962E+07         0.00000E+00
    0.00000E+00         0.00000E+00         0.00000E+00
 
    0.55576E+06         0.21288E+06         0.00000E+00
    0.21288E+06        -0.24959E+07         0.00000E+00
    0.00000E+00         0.00000E+00         0.00000E+00
 
    0.54665E+06         0.29755E+06         0.00000E+00
    0.29755E+06        -0.24955E+07         0.00000E+00
    0.00000E+00         0.00000E+00         0.00000E+00
 
    0.53744E+06         0.38200E+06         0.00000E+00
    0.38200E+06        -0.24950E+07         0.00000E+00
    0.00000E+00         0.00000E+00         0.00000E+00
 
    0.52814E+06         0.46623E+06         0.00000E+00
    0.46623E+06        -0.24944E+07         0.00000E+00
    0.00000E+00         0.00000E+00         0.00000E+00
 
    0.51873E+06         0.55024E+06         0.00000E+00
    0.55024E+06        -0.24936E+07         0.00000E+00
    0.00000E+00         0.00000E+00         0.00000E+00
 
    0.50922E+06         0.63403E+06         0.00000E+00
    0.63403E+06        -0.24927E+07         0.00000E+00
    0.00000E+00         0.00000E+00         0.00000E+00
 
    0.49961E+06         0.71760E+06         0.00000E+00
    0.71760E+06        -0.24917E+07         0.00000E+00
    0.00000E+00         0.00000E+00         0.00000E+00
 
    0.48989E+06         0.80095E+06         0.00000E+00
    0.80095E+06        -0.24905E+07         0.00000E+00
    0.00000E+00         0.00000E+00         0.00000E+00
 
    0.48008E+06         0.88409E+06         0.00000E+00
    0.88409E+06        -0.24892E+07         0.00000E+00
    0.00000E+00         0.00000E+00         0.00000E+00
 
    0.47015E+06         0.96701E+06         0.00000E+00
    0.96701E+06        -0.24877E+07         0.00000E+00
    0.00000E+00         0.00000E+00         0.00000E+00
 
    0.46013E+06         0.10497E+07         0.00000E+00
    0.10497E+07        -0.24862E+07         0.00000E+00
    0.00000E+00         0.00000E+00         0.00000E+00
 
    0.45000E+06         0.11322E+07         0.00000E+00
    0.11322E+07        -0.24845E+07         0.00000E+00
    0.00000E+00         0.00000E+00         0.00000E+00
 
    0.43977E+06         0.12145E+07         0.00000E+00
    0.12145E+07        -0.24826E+07         0.00000E+00
    0.00000E+00         0.00000E+00         0.00000E+00
 
    0.42943E+06         0.12965E+07         0.00000E+00
    0.12965E+07        -0.24806E+07         0.00000E+00
    0.00000E+00         0.00000E+00         0.00000E+00
 
    0.41898E+06         0.13784E+07         0.00000E+00
    0.13784E+07        -0.24785E+07         0.00000E+00
    0.00000E+00         0.00000E+00         0.00000E+00
 
    0.40842E+06         0.14600E+07         0.00000E+00
    0.14600E+07        -0.24763E+07         0.00000E+00
    0.00000E+00         0.00000E+00         0.00000E+00
 
    0.39776E+06         0.15414E+07         0.00000E+00
    0.15414E+07        -0.24739E+07         0.00000E+00
    0.00000E+00         0.00000E+00         0.00000E+00
 
    0.38699E+06         0.16226E+07         0.00000E+00
    0.16226E+07        -0.24714E+07         0.00000E+00
    0.00000E+00         0.00000E+00         0.00000E+00
 
    0.37611E+06         0.17036E+07         0.00000E+00
    0.17036E+07        -0.24687E+07         0.00000E+00
    0.00000E+00         0.00000E+00         0.00000E+00
 
    0.36511E+06         0.17844E+07         0.00000E+00
    0.17844E+07        -0.24659E+07         0.00000E+00
    0.00000E+00         0.00000E+00         0.00000E+00
 
    0.35401E+06         0.18649E+07         0.00000E+00
    0.18649E+07        -0.24629E+07         0.00000E+00
    0.00000E+00         0.00000E+00         0.00000E+00
 
    0.34279E+06         0.19453E+07         0.00000E+00
    0.19453E+07        -0.24599E+07         0.00000E+00
    0.00000E+00         0.00000E+00         0.00000E+00
 
    0.33146E+06         0.20254E+07         0.00000E+00
    0.20254E+07        -0.24566E+07         0.00000E+00
    0.00000E+00         0.00000E+00         0.00000E+00
 
    0.32001E+06         0.21053E+07         0.00000E+00
    0.21053E+07        -0.24532E+07         0.00000E+00
    0.00000E+00         0.00000E+00         0.00000E+00
 
    0.30844E+06         0.21849E+07         0.00000E+00
    0.21849E+07        -0.24497E+07         0.00000E+00
    0.00000E+00         0.00000E+00         0.00000E+00
 
    0.29676E+06         0.22644E+07         0.00000E+00
    0.22644E+07        -0.24460E+07         0.00000E+00
    0.00000E+00         0.00000E+00         0.00000E+00
 
    0.28496E+06         0.23436E+07         0.00000E+00
    0.23436E+07        -0.24422E+07         0.00000E+00
    0.00000E+00         0.00000E+00         0.00000E+00
 
    0.27304E+06         0.24227E+07         0.00000E+00
    0.24227E+07        -0.24383E+07         0.00000E+00
    0.00000E+00         0.00000E+00         0.00000E+00
 
    0.26100E+06         0.25015E+07         0.00000E+00
    0.25015E+07        -0.24341E+07         0.00000E+00
    0.00000E+00         0.00000E+00         0.00000E+00
 
    0.24884E+06         0.25800E+07         0.00000E+00
    0.25800E+07        -0.24299E+07         0.00000E+00
    0.00000E+00         0.00000E+00         0.00000E+00
 
    0.23655E+06         0.26584E+07         0.00000E+00
    0.26584E+07        -0.24254E+07         0.00000E+00
    0.00000E+00         0.00000E+00         0.00000E+00
 
    0.22414E+06         0.27365E+07         0.00000E+00
    0.27365E+07        -0.24209E+07         0.00000E+00
    0.00000E+00         0.00000E+00         0.00000E+00
 
    0.21160E+06         0.28144E+07         0.00000E+00
    0.28144E+07        -0.24161E+07         0.00000E+00
    0.00000E+00         0.00000E+00         0.00000E+00
 
    0.19894E+06         0.28920E+07         0.00000E+00
    0.28920E+07        -0.24113E+07         0.00000E+00
    0.00000E+00         0.00000E+00         0.00000E+00
 
    0.18614E+06         0.29695E+07         0.00000E+00
    0.29695E+07        -0.24062E+07         0.00000E+00
    0.00000E+00         0.00000E+00         0.00000E+00
 
    0.17321E+06         0.30467E+07         0.00000E+00
    0.30467E+07        -0.24010E+07         0.00000E+00
    0.00000E+00         0.00000E+00         0.00000E+00
 
    0.16016E+06         0.31236E+07         0.00000E+00
    0.31236E+07        -0.23956E+07         0.00000E+00
    0.00000E+00         0.00000E+00         0.00000E+00
 
    0.14696E+06         0.32003E+07         0.00000E+00
    0.32003E+07        -0.23901E+07         0.00000E+00
    0.00000E+00         0.00000E+00         0.00000E+00
 
    0.13364E+06         0.32768E+07         0.00000E+00
    0.32768E+07        -0.23844E+07         0.00000E+00
    0.00000E+00         0.00000E+00         0.00000E+00
 
    0.12017E+06         0.33531E+07         0.00000E+00
    0.33531E+07        -0.23786E+07         0.00000E+00
    0.00000E+00         0.00000E+00         0.00000E+00
 
    0.10657E+06         0.34291E+07         0.00000E+00
    0.34291E+07        -0.23726E+07         0.00000E+00
    0.00000E+00         0.00000E+00         0.00000E+00
 
    0.92829E+05         0.35048E+07         0.00000E+00
    0.35048E+07        -0.23664E+07         0.00000E+00
    0.00000E+00         0.00000E+00         0.00000E+00
 
    0.78945E+05         0.35803E+07         0.00000E+00
    0.35803E+07        -0.23600E+07         0.00000E+00
    0.00000E+00         0.00000E+00         0.00000E+00
 
    0.64919E+05         0.36555E+07         0.00000E+00
    0.36555E+07        -0.23535E+07         0.00000E+00
    0.00000E+00         0.00000E+00         0.00000E+00
 
    0.50747E+05         0.37305E+07         0.00000E+00
    0.37305E+07        -0.23468E+07         0.00000E+00
    0.00000E+00         0.00000E+00         0.00000E+00
 
    0.36429E+05         0.38053E+07         0.00000E+00
    0.38053E+07        -0.23400E+07         0.00000E+00
    0.00000E+00         0.00000E+00         0.00000E+00
 
    0.21962E+05         0.38797E+07         0.00000E+00
    0.38797E+07        -0.23330E+07         0.00000E+00
    0.00000E+00         0.00000E+00         0.00000E+00
 
    0.73459E+04         0.39539E+07         0.00000E+00
    0.39539E+07        -0.23257E+07         0.00000E+00
    0.00000E+00         0.00000E+00         0.00000E+00
 
    0.63061E+06         0.43215E+05         0.00000E+00
    0.43215E+05        -0.28673E+07         0.00000E+00
    0.00000E+00         0.00000E+00         0.00000E+00
 
    0.62058E+06         0.12903E+06         0.00000E+00
    0.12903E+06        -0.28671E+07         0.00000E+00
    0.00000E+00         0.00000E+00         0.00000E+00
 
    0.61046E+06         0.21462E+06         0.00000E+00
    0.21462E+06        -0.28669E+07         0.00000E+00
    0.00000E+00         0.00000E+00         0.00000E+00
 
    0.60024E+06         0.29999E+06         0.00000E+00
    0.29999E+06        -0.28664E+07         0.00000E+00
    0.00000E+00         0.00000E+00         0.00000E+00
 
    0.58992E+06         0.38513E+06         0.00000E+00
    0.38513E+06        -0.28659E+07         0.00000E+00
    0.00000E+00         0.00000E+00         0.00000E+00
 
    0.57951E+06         0.47006E+06         0.00000E+00
    0.47006E+06        -0.28652E+07         0.00000E+00
    0.00000E+00         0.00000E+00         0.00000E+00
 
    0.56900E+06         0.55477E+06         0.00000E+00
    0.55477E+06        -0.28644E+07         0.00000E+00
    0.00000E+00         0.00000E+00         0.00000E+00
 
    0.55838E+06         0.63927E+06         0.00000E+00
    0.63927E+06        -0.28635E+07         0.00000E+00
    0.00000E+00         0.00000E+00         0.00000E+00
 
    0.54767E+06         0.72354E+06         0.00000E+00
    0.72354E+06        -0.28624E+07         0.00000E+00
    0.00000E+00         0.00000E+00         0.00000E+00
 
    0.53686E+06         0.80760E+06         0.00000E+00
    0.80760E+06        -0.28611E+07         0.00000E+00
    0.00000E+00         0.00000E+00         0.00000E+00
 
    0.52594E+06         0.89145E+06         0.00000E+00
    0.89145E+06        -0.28597E+07         0.00000E+00
    0.00000E+00         0.00000E+00         0.00000E+00
 
    0.51493E+06         0.97508E+06         0.00000E+00
    0.97508E+06        -0.28582E+07         0.00000E+00
    0.00000E+00         0.00000E+00         0.00000E+00
 
    0.50381E+06         0.10585E+07         0.00000E+00
    0.10585E+07        -0.28566E+07         0.00000E+00
    0.00000E+00         0.00000E+00         0.00000E+00
 
    0.49258E+06         0.11417E+07         0.00000E+00
    0.11417E+07        -0.28548E+07         0.00000E+00
    0.00000E+00         0.00000E+00         0.00000E+00
 
    0.48125E+06         0.12247E+07         0.00000E+00
    0.12247E+07        -0.28528E+07         0.00000E+00
    0.00000E+00         0.00000E+00         0.00000E+00
 
    0.46982E+06         0.13075E+07         0.00000E+00
    0.13075E+07        -0.28507E+07         0.00000E+00
    0.00000E+00         0.00000E+00         0.00000E+00
 
    0.45828E+06         0.13900E+07         0.00000E+00
    0.13900E+07        -0.28485E+07         0.00000E+00
    0.00000E+00         0.00000E+00         0.00000E+00
 
    0.44663E+06         0.14724E+07         0.00000E+00
    0.14724E+07        -0.28461E+07         0.00000E+00
    0.00000E+00         0.00000E+00         0.00000E+00
 
    0.43487E+06         0.15545E+07         0.00000E+00
    0.15545E+07        -0.28436E+07         0.00000E+00
    0.00000E+00         0.00000E+00         0.00000E+00
 
    0.42301E+06         0.16365E+07         0.00000E+00
    0.16365E+07        -0.28409E+07         0.00000E+00
    0.00000E+00         0.00000E+00         0.00000E+00
 
    0.41103E+06         0.17182E+07         0.00000E+00
    0.17182E+07        -0.28380E+07         0.00000E+00
    0.00000E+00         0.00000E+00         0.00000E+00
 
    0.39893E+06         0.17997E+07         0.00000E+00
    0.17997E+07        -0.28351E+07         0.00000E+00
    0.00000E+00         0.00000E+00         0.00000E+00
 
    0.38673E+06         0.18810E+07         0.00000E+00
    0.18810E+07        -0.28319E+07         0.00000E+00
    0.00000E+00         0.00000E+00         0.00000E+00
 
    0.37441E+06         0.19621E+07         0.00000E+00
    0.19621E+07        -0.28286E+07         0.00000E+00
    0.00000E+00         0.00000E+00         0.00000E+00
 
    0.36197E+06         0.20429E+07         0.00000E+00
    0.20429E+07        -0.28252E+07         0.00000E+00
    0.00000E+00         0.00000E+00         0.00000E+00
 
    0.34941E+06         0.21236E+07         0.00000E+00
    0.21236E+07        -0.28216E+07         0.00000E+00
    0.00000E+00         0.00000E+00         0.00000E+00
 
    0.33673E+06         0.22040E+07         0.00000E+00
    0.22040E+07        -0.28178E+07         0.00000E+00
    0.00000E+00         0.00000E+00         0.00000E+00
 
    0.32394E+06         0.22843E+07         0.00000E+00
    0.22843E+07        -0.28139E+07         0.00000E+00
    0.00000E+00         0.00000E+00         0.00000E+00
 
    0.31101E+06         0.23643E+07         0.00000E+00
    0.23643E+07        -0.28098E+07         0.00000E+00
    0.00000E+00         0.00000E+00         0.00000E+00
 
    0.29797E+06         0.24441E+07         0.00000E+00
    0.24441E+07        -0.28055E+07         0.00000E+00
    0.00000E+00         0.00000E+00         0.00000E+00
 
    0.28480E+06         0.25237E+07         0.00000E+00
    0.25237E+07        -0.28011E+07         0.00000E+00
    0.00000E+00         0.00000E+00         0.00000E+00
 
    0.27150E+06         0.26030E+07         0.00000E+00
    0.26030E+07        -0.27965E+07         0.00000E+00
    0.00000E+00         0.00000E+00         0.00000E+00
 
    0.25806E+06         0.26821E+07         0.00000E+00
    0.26821E+07        -0.27918E+07         0.00000E+00
    0.00000E+00         0.00000E+00         0.00000E+00
 
    0.24450E+06         0.27611E+07         0.00000E+00
    0.27611E+07        -0.27869E+07         0.00000E+00
    0.00000E+00         0.00000E+00         0.00000E+00
 
    0.23081E+06         0.28398E+07         0.00000E+00
    0.28398E+07        -0.27818E+07         0.00000E+00
    0.00000E+00         0.00000E+00         0.00000E+00
 
    0.21698E+06         0.29182E+07         0.00000E+00
    0.29182E+07        -0.27765E+07         0.00000E+00
    0.00000E+00         0.00000E+00         0.00000E+00
 
    0.20301E+06         0.29965E+07         0.00000E+00
    0.29965E+07        -0.27711E+07         0.00000E+00
    0.00000E+00         0.00000E+00         0.00000E+00
 
    0.18890E+06         0.30745E+07         0.00000E+00
    0.30745E+07        -0.27655E+07         0.00000E+00
    0.00000E+00         0.00000E+00         0.00000E+00
 
    0.17465E+06         0.31523E+07         0.00000E+00
    0.31523E+07        -0.27597E+07         0.00000E+00
    0.00000E+00         0.00000E+00         0.00000E+00
 
    0.16026E+06         0.32298E+07         0.00000E+00
    0.32298E+07        -0.27537E+07         0.00000E+00
    0.00000E+00         0.00000E+00         0.00000E+00
 
    0.14572E+06         0.33071E+07         0.00000E+00
    0.33071E+07        -0.27476E+07         0.00000E+00
    0.00000E+00         0.00000E+00         0.00000E+00
 
    0.13104E+06         0.33842E+07         0.00000E+00
    0.33842E+07        -0.27412E+07         0.00000E+00
    0.00000E+00         0.00000E+00         0.00000E+00
 
    0.11621E+06         0.34611E+07         0.00000E+00
    0.34611E+07        -0.27347E+07         0.00000E+00
    0.00000E+00         0.00000E+00         0.00000E+00
 
    0.10122E+06         0.35377E+07         0.00000E+00
    0.35377E+07        -0.27280E+07         0.00000E+00
    0.00000E+00         0.00000E+00         0.00000E+00
 
    0.86082E+05         0.36140E+07         0.00000E+00
    0.36140E+07        -0.27211E+07         0.00000E+00
    0.00000E+00         0.00000E+00         0.00000E+00
 
    0.70788E+05         0.36901E+07         0.00000E+00
    0.36901E+07        -0.27141E+07         0.00000E+00
    0.00000E+00         0.00000E+00         0.00000E+00
 
    0.55336E+05         0.37660E+07         0.00000E+00
    0.37660E+07        -0.27068E+07         0.00000E+00
    0.00000E+00         0.00000E+00         0.00000E+00
 
    0.39724E+05         0.38416E+07         0.00000E+00
    0.38416E+07        -0.26993E+07         0.00000E+00
    0.00000E+00         0.00000E+00         0.00000E+00
 
    0.23950E+05         0.39170E+07         0.00000E+00
    0.39170E+07        -0.26917E+07         0.00000E+00
    0.00000E+00         0.00000E+00         0.00000E+00
 
    0.80109E+04         0.39921E+07         0.00000E+00
    0.39921E+07        -0.26838E+07         0.00000E+00
    0.00000E+00         0.00000E+00         0.00000E+00
 
    0.68638E+06         0.43582E+05         0.00000E+00
    0.43582E+05        -0.32430E+07         0.00000E+00
    0.00000E+00         0.00000E+00         0.00000E+00
 
    0.67524E+06         0.13013E+06         0.00000E+00
    0.13013E+06        -0.32428E+07         0.00000E+00
    0.00000E+00         0.00000E+00         0.00000E+00
 
    0.66400E+06         0.21646E+06         0.00000E+00
    0.21646E+06        -0.32425E+07         0.00000E+00
    0.00000E+00         0.00000E+00         0.00000E+00
 
    0.65267E+06         0.30257E+06         0.00000E+00
    0.30257E+06        -0.32421E+07         0.00000E+00
    0.00000E+00         0.00000E+00         0.00000E+00
 
    0.64125E+06         0.38846E+06         0.00000E+00
    0.38846E+06        -0.32415E+07         0.00000E+00
    0.00000E+00         0.00000E+00         0.00000E+00
 
    0.62974E+06         0.47413E+06         0.00000E+00
    0.47413E+06        -0.32408E+07         0.00000E+00
    0.00000E+00         0.00000E+00         0.00000E+00
 
    0.61813E+06         0.55959E+06         0.00000E+00
    0.55959E+06        -0.32400E+07         0.00000E+00
    0.00000E+00         0.00000E+00         0.00000E+00
 
    0.60642E+06         0.64483E+06         0.00000E+00
    0.64483E+06        -0.32390E+07         0.00000E+00
    0.00000E+00         0.00000E+00         0.00000E+00
 
    0.59462E+06         0.72985E+06         0.00000E+00
    0.72985E+06        -0.32378E+07         0.00000E+00
    0.00000E+00         0.00000E+00         0.00000E+00
 
    0.58272E+06         0.81467E+06         0.00000E+00
    0.81467E+06        -0.32365E+07         0.00000E+00
    0.00000E+00         0.00000E+00         0.00000E+00
 
    0.57072E+06         0.89927E+06         0.00000E+00
    0.89927E+06        -0.32351E+07         0.00000E+00
    0.00000E+00         0.00000E+00         0.00000E+00
 
    0.55862E+06         0.98366E+06         0.00000E+00
    0.98366E+06        -0.32335E+07         0.00000E+00
    0.00000E+00         0.00000E+00         0.00000E+00
 
    0.54642E+06         0.10678E+07         0.00000E+00
    0.10678E+07        -0.32318E+07         0.00000E+00
    0.00000E+00         0.00000E+00         0.00000E+00
 
    0.53412E+06         0.11518E+07         0.00000E+00
    0.11518E+07        -0.32299E+07         0.00000E+00
    0.00000E+00         0.00000E+00         0.00000E+00
 
    0.52171E+06         0.12356E+07         0.00000E+00
    0.12356E+07        -0.32278E+07         0.00000E+00
    0.00000E+00         0.00000E+00         0.00000E+00
 
    0.50920E+06         0.13191E+07         0.00000E+00
    0.13191E+07        -0.32256E+07         0.00000E+00
    0.00000E+00         0.00000E+00         0.00000E+00
 
    0.49659E+06         0.14025E+07         0.00000E+00
    0.14025E+07        -0.32233E+07         0.00000E+00
    0.00000E+00         0.00000E+00         0.00000E+00
 
    0.48386E+06         0.14856E+07         0.00000E+00
    0.14856E+07        -0.32207E+07         0.00000E+00
    0.00000E+00         0.00000E+00         0.00000E+00
 
    0.47103E+06         0.15685E+07         0.00000E+00
    0.15685E+07        -0.32181E+07         0.00000E+00
    0.00000E+00         0.00000E+00         0.00000E+00
 
    0.45809E+06         0.16512E+07         0.00000E+00
    0.16512E+07        -0.32152E+07         0.00000E+00
    0.00000E+00         0.00000E+00         0.00000E+00
 
    0.44503E+06         0.17338E+07         0.00000E+00
    0.17338E+07        -0.32123E+07         0.00000E+00
    0.00000E+00         0.00000E+00         0.00000E+00
 
    0.43186E+06         0.18161E+07         0.00000E+00
    0.18161E+07        -0.32091E+07         0.00000E+00
    0.00000E+00         0.00000E+00         0.00000E+00
 
    0.41858E+06         0.18982E+07         0.00000E+00
    0.18982E+07        -0.32058E+07         0.00000E+00
    0.00000E+00         0.00000E+00         0.00000E+00
 
    0.40518E+06         0.19801E+07         0.00000E+00
    0.19801E+07        -0.32023E+07         0.00000E+00
    0.00000E+00         0.00000E+00         0.00000E+00
 
    0.39166E+06         0.20617E+07         0.00000E+00
    0.20617E+07        -0.31986E+07         0.00000E+00
    0.00000E+00         0.00000E+00         0.00000E+00
 
    0.37802E+06         0.21432E+07         0.00000E+00
    0.21432E+07        -0.31948E+07         0.00000E+00
    0.00000E+00         0.00000E+00         0.00000E+00
 
    0.36425E+06         0.22245E+07         0.00000E+00
    0.22245E+07        -0.31908E+07         0.00000E+00
    0.00000E+00         0.00000E+00         0.00000E+00
 
    0.35036E+06         0.23056E+07         0.00000E+00
    0.23056E+07        -0.31866E+07         0.00000E+00
    0.00000E+00         0.00000E+00         0.00000E+00
 
    0.33635E+06         0.23864E+07         0.00000E+00
    0.23864E+07        -0.31823E+07         0.00000E+00
    0.00000E+00         0.00000E+00         0.00000E+00
 
    0.32220E+06         0.24670E+07         0.00000E+00
    0.24670E+07        -0.31778E+07         0.00000E+00
    0.00000E+00         0.00000E+00         0.00000E+00
 
    0.30793E+06         0.25475E+07         0.00000E+00
    0.25475E+07        -0.31731E+07         0.00000E+00
    0.00000E+00         0.00000E+00         0.00000E+00
 
    0.29352E+06         0.26277E+07         0.00000E+00
    0.26277E+07        -0.31682E+07         0.00000E+00
    0.00000E+00         0.00000E+00         0.00000E+00
 
    0.27897E+06         0.27077E+07         0.00000E+00
    0.27077E+07        -0.31631E+07         0.00000E+00
    0.00000E+00         0.00000E+00         0.00000E+00
 
    0.26429E+06         0.27875E+07         0.00000E+00
    0.27875E+07        -0.31579E+07         0.00000E+00
    0.00000E+00         0.00000E+00         0.00000E+00
 
    0.24947E+06         0.28671E+07         0.00000E+00
    0.28671E+07        -0.31525E+07         0.00000E+00
    0.00000E+00         0.00000E+00         0.00000E+00
 
    0.23450E+06         0.29464E+07         0.00000E+00
    0.29464E+07        -0.31469E+07         0.00000E+00
    0.00000E+00         0.00000E+00         0.00000E+00
 
    0.21939E+06         0.30255E+07         0.00000E+00
    0.30255E+07        -0.31410E+07         0.00000E+00
    0.00000E+00         0.00000E+00         0.00000E+00
 
    0.20414E+06         0.31045E+07         0.00000E+00
    0.31045E+07        -0.31350E+07         0.00000E+00
    0.00000E+00         0.00000E+00         0.00000E+00
 
    0.18873E+06         0.31831E+07         0.00000E+00
    0.31831E+07        -0.31288E+07         0.00000E+00
    0.00000E+00         0.00000E+00         0.00000E+00
 
    0.17317E+06         0.32616E+07         0.00000E+00
    0.32616E+07        -0.31225E+07         0.00000E+00
    0.00000E+00         0.00000E+00         0.00000E+00
 
    0.15746E+06         0.33399E+07         0.00000E+00
    0.33399E+07        -0.31159E+07         0.00000E+00
    0.00000E+00         0.00000E+00         0.00000E+00
 
    0.14159E+06         0.34179E+07         0.00000E+00
    0.34179E+07        -0.31091E+07         0.00000E+00
    0.00000E+00         0.00000E+00         0.00000E+00
 
    0.12556E+06         0.34957E+07         0.00000E+00
    0.34957E+07        -0.31021E+07         0.00000E+00
    0.00000E+00         0.00000E+00         0.00000E+00
 
    0.10937E+06         0.35732E+07         0.00000E+00
    0.35732E+07        -0.30949E+07         0.00000E+00
    0.00000E+00         0.00000E+00         0.00000E+00
 
    0.93014E+05         0.36505E+07         0.00000E+00
    0.36505E+07        -0.30875E+07         0.00000E+00
    0.00000E+00         0.00000E+00         0.00000E+00
 
    0.76490E+05         0.37276E+07         0.00000E+00
    0.37276E+07        -0.30799E+07         0.00000E+00
    0.00000E+00         0.00000E+00         0.00000E+00
 
    0.59794E+05         0.38044E+07         0.00000E+00
    0.38044E+07        -0.30720E+07         0.00000E+00
    0.00000E+00         0.00000E+00         0.00000E+00
 
    0.42926E+05         0.38810E+07         0.00000E+00
    0.38810E+07        -0.30640E+07         0.00000E+00
    0.00000E+00         0.00000E+00         0.00000E+00
 
    0.25881E+05         0.39574E+07         0.00000E+00
    0.39574E+07        -0.30557E+07         0.00000E+00
    0.00000E+00         0.00000E+00         0.00000E+00
 
    0.86570E+04         0.40334E+07         0.00000E+00
    0.40334E+07        -0.30472E+07         0.00000E+00
    0.00000E+00         0.00000E+00         0.00000E+00
 
    0.74066E+06         0.43969E+05         0.00000E+00
    0.43969E+05        -0.36239E+07         0.00000E+00
    0.00000E+00         0.00000E+00         0.00000E+00
 
    0.72841E+06         0.13129E+06         0.00000E+00
    0.13129E+06        -0.36238E+07         0.00000E+00
    0.00000E+00         0.00000E+00         0.00000E+00
 
    0.71607E+06         0.21840E+06         0.00000E+00
    0.21840E+06        -0.36235E+07         0.00000E+00
    0.00000E+00         0.00000E+00         0.00000E+00
 
    0.70365E+06         0.30529E+06         0.00000E+00
    0.30529E+06        -0.36230E+07         0.00000E+00
    0.00000E+00         0.00000E+00         0.00000E+00
 
    0.69113E+06         0.39196E+06         0.00000E+00
    0.39196E+06        -0.36225E+07         0.00000E+00
    0.00000E+00         0.00000E+00         0.00000E+00
 
    0.67853E+06         0.47842E+06         0.00000E+00
    0.47842E+06        -0.36217E+07         0.00000E+00
    0.00000E+00         0.00000E+00         0.00000E+00
 
    0.66583E+06         0.56466E+06         0.00000E+00
    0.56466E+06        -0.36208E+07         0.00000E+00
    0.00000E+00         0.00000E+00         0.00000E+00
 
    0.65305E+06         0.65069E+06         0.00000E+00
    0.65069E+06        -0.36198E+07         0.00000E+00
    0.00000E+00         0.00000E+00         0.00000E+00
 
    0.64017E+06         0.73651E+06         0.00000E+00
    0.73651E+06        -0.36186E+07         0.00000E+00
    0.00000E+00         0.00000E+00         0.00000E+00
 
    0.62720E+06         0.82212E+06         0.00000E+00
    0.82212E+06        -0.36173E+07         0.00000E+00
    0.00000E+00         0.00000E+00         0.00000E+00
 
    0.61413E+06         0.90752E+06         0.00000E+00
    0.90752E+06        -0.36158E+07         0.00000E+00
    0.00000E+00         0.00000E+00         0.00000E+00
 
    0.60096E+06         0.99271E+06         0.00000E+00
    0.99271E+06        -0.36141E+07         0.00000E+00
    0.00000E+00         0.00000E+00         0.00000E+00
 
    0.58770E+06         0.10777E+07         0.00000E+00
    0.10777E+07        -0.36123E+07         0.00000E+00
    0.00000E+00         0.00000E+00         0.00000E+00
 
    0.57434E+06         0.11625E+07         0.00000E+00
    0.11625E+07        -0.36103E+07         0.00000E+00
    0.00000E+00         0.00000E+00         0.00000E+00
 
    0.56088E+06         0.12471E+07         0.00000E+00
    0.12471E+07        -0.36082E+07         0.00000E+00
    0.00000E+00         0.00000E+00         0.00000E+00
 
    0.54731E+06         0.13314E+07         0.00000E+00
    0.13314E+07        -0.36059E+07         0.00000E+00
    0.00000E+00         0.00000E+00         0.00000E+00
 
    0.53364E+06         0.14156E+07         0.00000E+00
    0.14156E+07        -0.36034E+07         0.00000E+00
    0.00000E+00         0.00000E+00         0.00000E+00
 
    0.51987E+06         0.14996E+07         0.00000E+00
    0.14996E+07        -0.36008E+07         0.00000E+00
    0.00000E+00         0.00000E+00         0.00000E+00
 
    0.50599E+06         0.15833E+07         0.00000E+00
    0.15833E+07        -0.35980E+07         0.00000E+00
    0.00000E+00         0.00000E+00         0.00000E+00
 
    0.49199E+06         0.16669E+07         0.00000E+00
    0.16669E+07        -0.35950E+07         0.00000E+00
    0.00000E+00         0.00000E+00         0.00000E+00
 
    0.47789E+06         0.17503E+07         0.00000E+00
    0.17503E+07        -0.35919E+07         0.00000E+00
    0.00000E+00         0.00000E+00         0.00000E+00
 
    0.46367E+06         0.18334E+07         0.00000E+00
    0.18334E+07        -0.35886E+07         0.00000E+00
    0.00000E+00         0.00000E+00         0.00000E+00
 
    0.44934E+06         0.19164E+07         0.00000E+00
    0.19164E+07        -0.35851E+07         0.00000E+00
    0.00000E+00         0.00000E+00         0.00000E+00
 
    0.43488E+06         0.19991E+07         0.00000E+00
    0.19991E+07        -0.35814E+07         0.00000E+00
    0.00000E+00         0.00000E+00         0.00000E+00
 
    0.42031E+06         0.20817E+07         0.00000E+00
    0.20817E+07        -0.35776E+07         0.00000E+00
    0.00000E+00         0.00000E+00         0.00000E+00
 
    0.40562E+06         0.21641E+07         0.00000E+00
    0.21641E+07        -0.35735E+07         0.00000E+00
    0.00000E+00         0.00000E+00         0.00000E+00
 
    0.39080E+06         0.22462E+07         0.00000E+00
    0.22462E+07        -0.35693E+07         0.00000E+00
    0.00000E+00         0.00000E+00         0.00000E+00
 
    0.37585E+06         0.23282E+07         0.00000E+00
    0.23282E+07        -0.35649E+07         0.00000E+00
    0.00000E+00         0.00000E+00         0.00000E+00
 
    0.36078E+06         0.24099E+07         0.00000E+00
    0.24099E+07        -0.35604E+07         0.00000E+00
    0.00000E+00         0.00000E+00         0.00000E+00
 
    0.34557E+06         0.24915E+07         0.00000E+00
    0.24915E+07        -0.35556E+07         0.00000E+00
    0.00000E+00         0.00000E+00         0.00000E+00
 
    0.33022E+06         0.25728E+07         0.00000E+00
    0.25728E+07        -0.35506E+07         0.00000E+00
    0.00000E+00         0.00000E+00         0.00000E+00
 
    0.31474E+06         0.26540E+07         0.00000E+00
    0.26540E+07        -0.35455E+07         0.00000E+00
    0.00000E+00         0.00000E+00         0.00000E+00
 
    0.29912E+06         0.27349E+07         0.00000E+00
    0.27349E+07        -0.35401E+07         0.00000E+00
    0.00000E+00         0.00000E+00         0.00000E+00
 
    0.28336E+06         0.28156E+07         0.00000E+00
    0.28156E+07        -0.35346E+07         0.00000E+00
    0.00000E+00         0.00000E+00         0.00000E+00
 
    0.26745E+06         0.28962E+07         0.00000E+00
    0.28962E+07        -0.35288E+07         0.00000E+00
    0.00000E+00         0.00000E+00         0.00000E+00
 
    0.25139E+06         0.29765E+07         0.00000E+00
    0.29765E+07        -0.35229E+07         0.00000E+00
    0.00000E+00         0.00000E+00         0.00000E+00
 
    0.23518E+06         0.30566E+07         0.00000E+00
    0.30566E+07        -0.35167E+07         0.00000E+00
    0.00000E+00         0.00000E+00         0.00000E+00
 
    0.21882E+06         0.31365E+07         0.00000E+00
    0.31365E+07        -0.35103E+07         0.00000E+00
    0.00000E+00         0.00000E+00         0.00000E+00
 
    0.20229E+06         0.32162E+07         0.00000E+00
    0.32162E+07        -0.35037E+07         0.00000E+00
    0.00000E+00         0.00000E+00         0.00000E+00
 
    0.18561E+06         0.32956E+07         0.00000E+00
    0.32956E+07        -0.34969E+07         0.00000E+00
    0.00000E+00         0.00000E+00         0.00000E+00
 
    0.16877E+06         0.33749E+07         0.00000E+00
    0.33749E+07        -0.34899E+07         0.00000E+00
    0.00000E+00         0.00000E+00         0.00000E+00
 
    0.15176E+06         0.34539E+07         0.00000E+00
    0.34539E+07        -0.34827E+07         0.00000E+00
    0.00000E+00         0.00000E+00         0.00000E+00
 
    0.13457E+06         0.35327E+07         0.00000E+00
    0.35327E+07        -0.34752E+07         0.00000E+00
    0.00000E+00         0.00000E+00         0.00000E+00
 
    0.11722E+06         0.36113E+07         0.00000E+00
    0.36113E+07        -0.34676E+07         0.00000E+00
    0.00000E+00         0.00000E+00         0.00000E+00
 
    0.99690E+05         0.36897E+07         0.00000E+00
    0.36897E+07        -0.34597E+07         0.00000E+00
    0.00000E+00         0.00000E+00         0.00000E+00
 
    0.81980E+05         0.37678E+07         0.00000E+00
    0.37678E+07        -0.34515E+07         0.00000E+00
    0.00000E+00         0.00000E+00         0.00000E+00
 
    0.64087E+05         0.38457E+07         0.00000E+00
    0.38457E+07        -0.34431E+07         0.00000E+00
    0.00000E+00         0.00000E+00         0.00000E+00
 
    0.46008E+05         0.39234E+07         0.00000E+00
    0.39234E+07        -0.34345E+07         0.00000E+00
    0.00000E+00         0.00000E+00         0.00000E+00
 
    0.27740E+05         0.40008E+07         0.00000E+00
    0.40008E+07        -0.34257E+07         0.00000E+00
    0.00000E+00         0.00000E+00         0.00000E+00
 
    0.92792E+04         0.40780E+07         0.00000E+00
    0.40780E+07        -0.34166E+07         0.00000E+00
    0.00000E+00         0.00000E+00         0.00000E+00
 
    0.79314E+06         0.44372E+05         0.00000E+00
    0.44372E+05        -0.40107E+07         0.00000E+00
    0.00000E+00         0.00000E+00         0.00000E+00
 
    0.77979E+06         0.13251E+06         0.00000E+00
    0.13251E+06        -0.40105E+07         0.00000E+00
    0.00000E+00         0.00000E+00         0.00000E+00
 
    0.76636E+06         0.22043E+06         0.00000E+00
    0.22043E+06        -0.40102E+07         0.00000E+00
    0.00000E+00         0.00000E+00         0.00000E+00
 
    0.75284E+06         0.30813E+06         0.00000E+00
    0.30813E+06        -0.40098E+07         0.00000E+00
    0.00000E+00         0.00000E+00         0.00000E+00
 
    0.73924E+06         0.39562E+06         0.00000E+00
    0.39562E+06        -0.40091E+07         0.00000E+00
    0.00000E+00         0.00000E+00         0.00000E+00
 
    0.72556E+06         0.48290E+06         0.00000E+00
    0.48290E+06        -0.40084E+07         0.00000E+00
    0.00000E+00         0.00000E+00         0.00000E+00
 
    0.71180E+06         0.56997E+06         0.00000E+00
    0.56997E+06        -0.40075E+07         0.00000E+00
    0.00000E+00         0.00000E+00         0.00000E+00
 
    0.69795E+06         0.65682E+06         0.00000E+00
    0.65682E+06        -0.40064E+07         0.00000E+00
    0.00000E+00         0.00000E+00         0.00000E+00
 
    0.68401E+06         0.74347E+06         0.00000E+00
    0.74347E+06        -0.40052E+07         0.00000E+00
    0.00000E+00         0.00000E+00         0.00000E+00
 
    0.66999E+06         0.82992E+06         0.00000E+00
    0.82992E+06        -0.40038E+07         0.00000E+00
    0.00000E+00         0.00000E+00         0.00000E+00
 
    0.65587E+06         0.91616E+06         0.00000E+00
    0.91616E+06        -0.40022E+07         0.00000E+00
    0.00000E+00         0.00000E+00         0.00000E+00
 
    0.64166E+06         0.10022E+07         0.00000E+00
    0.10022E+07        -0.40005E+07         0.00000E+00
    0.00000E+00         0.00000E+00         0.00000E+00
 
    0.62736E+06         0.10880E+07         0.00000E+00
    0.10880E+07        -0.39986E+07         0.00000E+00
    0.00000E+00         0.00000E+00         0.00000E+00
 
    0.61297E+06         0.11737E+07         0.00000E+00
    0.11737E+07        -0.39966E+07         0.00000E+00
    0.00000E+00         0.00000E+00         0.00000E+00
 
    0.59847E+06         0.12591E+07         0.00000E+00
    0.12591E+07        -0.39944E+07         0.00000E+00
    0.00000E+00         0.00000E+00         0.00000E+00
 
    0.58388E+06         0.13444E+07         0.00000E+00
    0.13444E+07        -0.39920E+07         0.00000E+00
    0.00000E+00         0.00000E+00         0.00000E+00
 
    0.56919E+06         0.14294E+07         0.00000E+00
    0.14294E+07        -0.39894E+07         0.00000E+00
    0.00000E+00         0.00000E+00         0.00000E+00
 
    0.55439E+06         0.15142E+07         0.00000E+00
    0.15142E+07        -0.39867E+07         0.00000E+00
    0.00000E+00         0.00000E+00         0.00000E+00
 
    0.53948E+06         0.15989E+07         0.00000E+00
    0.15989E+07        -0.39838E+07         0.00000E+00
    0.00000E+00         0.00000E+00         0.00000E+00
 
    0.52447E+06         0.16834E+07         0.00000E+00
    0.16834E+07        -0.39807E+07         0.00000E+00
    0.00000E+00         0.00000E+00         0.00000E+00
 
    0.50935E+06         0.17676E+07         0.00000E+00
    0.17676E+07        -0.39774E+07         0.00000E+00
    0.00000E+00         0.00000E+00         0.00000E+00
 
    0.49412E+06         0.18517E+07         0.00000E+00
    0.18517E+07        -0.39740E+07         0.00000E+00
    0.00000E+00         0.00000E+00         0.00000E+00
 
    0.47877E+06         0.19356E+07         0.00000E+00
    0.19356E+07        -0.39703E+07         0.00000E+00
    0.00000E+00         0.00000E+00         0.00000E+00
 
    0.46331E+06         0.20192E+07         0.00000E+00
    0.20192E+07        -0.39665E+07         0.00000E+00
    0.00000E+00         0.00000E+00         0.00000E+00
 
    0.44772E+06         0.21027E+07         0.00000E+00
    0.21027E+07        -0.39625E+07         0.00000E+00
    0.00000E+00         0.00000E+00         0.00000E+00
 
    0.43201E+06         0.21860E+07         0.00000E+00
    0.21860E+07        -0.39583E+07         0.00000E+00
    0.00000E+00         0.00000E+00         0.00000E+00
 
    0.41617E+06         0.22691E+07         0.00000E+00
    0.22691E+07        -0.39539E+07         0.00000E+00
    0.00000E+00         0.00000E+00         0.00000E+00
 
    0.40021E+06         0.23521E+07         0.00000E+00
    0.23521E+07        -0.39493E+07         0.00000E+00
    0.00000E+00         0.00000E+00         0.00000E+00
 
    0.38411E+06         0.24348E+07         0.00000E+00
    0.24348E+07        -0.39445E+07         0.00000E+00
    0.00000E+00         0.00000E+00         0.00000E+00
 
    0.36788E+06         0.25173E+07         0.00000E+00
    0.25173E+07        -0.39395E+07         0.00000E+00
    0.00000E+00         0.00000E+00         0.00000E+00
 
    0.35152E+06         0.25996E+07         0.00000E+00
    0.25996E+07        -0.39343E+07         0.00000E+00
    0.00000E+00         0.00000E+00         0.00000E+00
 
    0.33501E+06         0.26818E+07         0.00000E+00
    0.26818E+07        -0.39289E+07         0.00000E+00
    0.00000E+00         0.00000E+00         0.00000E+00
 
    0.31835E+06         0.27637E+07         0.00000E+00
    0.27637E+07        -0.39233E+07         0.00000E+00
    0.00000E+00         0.00000E+00         0.00000E+00
 
    0.30155E+06         0.28455E+07         0.00000E+00
    0.28455E+07        -0.39174E+07         0.00000E+00
    0.00000E+00         0.00000E+00         0.00000E+00
 
    0.28460E+06         0.29270E+07         0.00000E+00
    0.29270E+07        -0.39114E+07         0.00000E+00
    0.00000E+00         0.00000E+00         0.00000E+00
 
    0.26750E+06         0.30084E+07         0.00000E+00
    0.30084E+07        -0.39051E+07         0.00000E+00
    0.00000E+00         0.00000E+00         0.00000E+00
 
    0.25024E+06         0.30895E+07         0.00000E+00
    0.30895E+07        -0.38986E+07         0.00000E+00
    0.00000E+00         0.00000E+00         0.00000E+00
 
    0.23282E+06         0.31705E+07         0.00000E+00
    0.31705E+07        -0.38919E+07         0.00000E+00
    0.00000E+00         0.00000E+00         0.00000E+00
 
    0.21523E+06         0.32512E+07         0.00000E+00
    0.32512E+07        -0.38849E+07         0.00000E+00
    0.00000E+00         0.00000E+00         0.00000E+00
 
    0.19747E+06         0.33317E+07         0.00000E+00
    0.33317E+07        -0.38778E+07         0.00000E+00
    0.00000E+00         0.00000E+00         0.00000E+00
 
    0.17955E+06         0.34121E+07         0.00000E+00
    0.34121E+07        -0.38704E+07         0.00000E+00
    0.00000E+00         0.00000E+00         0.00000E+00
 
    0.16145E+06         0.34922E+07         0.00000E+00
    0.34922E+07        -0.38627E+07         0.00000E+00
    0.00000E+00         0.00000E+00         0.00000E+00
 
    0.14317E+06         0.35721E+07         0.00000E+00
    0.35721E+07        -0.38548E+07         0.00000E+00
    0.00000E+00         0.00000E+00         0.00000E+00
 
    0.12470E+06         0.36518E+07         0.00000E+00
    0.36518E+07        -0.38467E+07         0.00000E+00
    0.00000E+00         0.00000E+00         0.00000E+00
 
    0.10605E+06         0.37313E+07         0.00000E+00
    0.37313E+07        -0.38383E+07         0.00000E+00
    0.00000E+00         0.00000E+00         0.00000E+00
 
    0.87215E+05         0.38106E+07         0.00000E+00
    0.38106E+07        -0.38297E+07         0.00000E+00
    0.00000E+00         0.00000E+00         0.00000E+00
 
    0.68181E+05         0.38897E+07         0.00000E+00
    0.38897E+07        -0.38208E+07         0.00000E+00
    0.00000E+00         0.00000E+00         0.00000E+00
 
    0.48948E+05         0.39685E+07         0.00000E+00
    0.39685E+07        -0.38117E+07         0.00000E+00
    0.00000E+00         0.00000E+00         0.00000E+00
 
    0.29513E+05         0.40471E+07         0.00000E+00
    0.40471E+07        -0.38023E+07         0.00000E+00
    0.00000E+00         0.00000E+00         0.00000E+00
 
    0.98725E+04         0.41255E+07         0.00000E+00
    0.41255E+07        -0.37926E+07         0.00000E+00
    0.00000E+00         0.00000E+00         0.00000E+00
 
    0.84347E+06         0.44790E+05         0.00000E+00
    0.44790E+05        -0.44037E+07         0.00000E+00
    0.00000E+00         0.00000E+00         0.00000E+00
 
    0.82902E+06         0.13377E+06         0.00000E+00
    0.13377E+06        -0.44035E+07         0.00000E+00
    0.00000E+00         0.00000E+00         0.00000E+00
 
    0.81451E+06         0.22253E+06         0.00000E+00
    0.22253E+06        -0.44032E+07         0.00000E+00
    0.00000E+00         0.00000E+00         0.00000E+00
 
    0.79992E+06         0.31108E+06         0.00000E+00
    0.31108E+06        -0.44028E+07         0.00000E+00
    0.00000E+00         0.00000E+00         0.00000E+00
 
    0.78526E+06         0.39942E+06         0.00000E+00
    0.39942E+06        -0.44021E+07         0.00000E+00
    0.00000E+00         0.00000E+00         0.00000E+00
 
    0.77052E+06         0.48755E+06         0.00000E+00
    0.48755E+06        -0.44014E+07         0.00000E+00
    0.00000E+00         0.00000E+00         0.00000E+00
 
    0.75570E+06         0.57548E+06         0.00000E+00
    0.57548E+06        -0.44004E+07         0.00000E+00
    0.00000E+00         0.00000E+00         0.00000E+00
 
    0.74081E+06         0.66320E+06         0.00000E+00
    0.66320E+06        -0.43993E+07         0.00000E+00
    0.00000E+00         0.00000E+00         0.00000E+00
 
    0.72584E+06         0.75072E+06         0.00000E+00
    0.75072E+06        -0.43981E+07         0.00000E+00
    0.00000E+00         0.00000E+00         0.00000E+00
 
    0.71078E+06         0.83804E+06         0.00000E+00
    0.83804E+06        -0.43966E+07         0.00000E+00
    0.00000E+00         0.00000E+00         0.00000E+00
 
    0.69564E+06         0.92516E+06         0.00000E+00
    0.92516E+06        -0.43950E+07         0.00000E+00
    0.00000E+00         0.00000E+00         0.00000E+00
 
    0.68042E+06         0.10121E+07         0.00000E+00
    0.10121E+07        -0.43933E+07         0.00000E+00
    0.00000E+00         0.00000E+00         0.00000E+00
 
    0.66511E+06         0.10988E+07         0.00000E+00
    0.10988E+07        -0.43913E+07         0.00000E+00
    0.00000E+00         0.00000E+00         0.00000E+00
 
    0.64970E+06         0.11853E+07         0.00000E+00
    0.11853E+07        -0.43892E+07         0.00000E+00
    0.00000E+00         0.00000E+00         0.00000E+00
 
    0.63421E+06         0.12717E+07         0.00000E+00
    0.12717E+07        -0.43870E+07         0.00000E+00
    0.00000E+00         0.00000E+00         0.00000E+00
 
    0.61862E+06         0.13578E+07         0.00000E+00
    0.13578E+07        -0.43845E+07         0.00000E+00
    0.00000E+00         0.00000E+00         0.00000E+00
 
    0.60293E+06         0.14438E+07         0.00000E+00
    0.14438E+07        -0.43819E+07         0.00000E+00
    0.00000E+00         0.00000E+00         0.00000E+00
 
    0.58715E+06         0.15296E+07         0.00000E+00
    0.15296E+07        -0.43790E+07         0.00000E+00
    0.00000E+00         0.00000E+00         0.00000E+00
 
    0.57126E+06         0.16151E+07         0.00000E+00
    0.16151E+07        -0.43760E+07         0.00000E+00
    0.00000E+00         0.00000E+00         0.00000E+00
 
    0.55527E+06         0.17005E+07         0.00000E+00
    0.17005E+07        -0.43728E+07         0.00000E+00
    0.00000E+00         0.00000E+00         0.00000E+00
 
    0.53917E+06         0.17858E+07         0.00000E+00
    0.17858E+07        -0.43695E+07         0.00000E+00
    0.00000E+00         0.00000E+00         0.00000E+00
 
    0.52296E+06         0.18708E+07         0.00000E+00
    0.18708E+07        -0.43659E+07         0.00000E+00
    0.00000E+00         0.00000E+00         0.00000E+00
 
    0.50664E+06         0.19556E+07         0.00000E+00
    0.19556E+07        -0.43621E+07         0.00000E+00
    0.00000E+00         0.00000E+00         0.00000E+00
 
    0.49021E+06         0.20403E+07         0.00000E+00
    0.20403E+07        -0.43582E+07         0.00000E+00
    0.00000E+00         0.00000E+00         0.00000E+00
 
    0.47365E+06         0.21248E+07         0.00000E+00
    0.21248E+07        -0.43540E+07         0.00000E+00
    0.00000E+00         0.00000E+00         0.00000E+00
 
    0.45697E+06         0.22090E+07         0.00000E+00
    0.22090E+07        -0.43496E+07         0.00000E+00
    0.00000E+00         0.00000E+00         0.00000E+00
 
    0.44016E+06         0.22932E+07         0.00000E+00
    0.22932E+07        -0.43451E+07         0.00000E+00
    0.00000E+00         0.00000E+00         0.00000E+00
 
    0.42323E+06         0.23771E+07         0.00000E+00
    0.23771E+07        -0.43403E+07         0.00000E+00
    0.00000E+00         0.00000E+00         0.00000E+00
 
    0.40616E+06         0.24608E+07         0.00000E+00
    0.24608E+07        -0.43353E+07         0.00000E+00
    0.00000E+00         0.00000E+00         0.00000E+00
 
    0.38896E+06         0.25444E+07         0.00000E+00
    0.25444E+07        -0.43301E+07         0.00000E+00
    0.00000E+00         0.00000E+00         0.00000E+00
 
    0.37162E+06         0.26278E+07         0.00000E+00
    0.26278E+07        -0.43247E+07         0.00000E+00
    0.00000E+00         0.00000E+00         0.00000E+00
 
    0.35414E+06         0.27110E+07         0.00000E+00
    0.27110E+07        -0.43190E+07         0.00000E+00
    0.00000E+00         0.00000E+00         0.00000E+00
 
    0.33651E+06         0.27940E+07         0.00000E+00
    0.27940E+07        -0.43131E+07         0.00000E+00
    0.00000E+00         0.00000E+00         0.00000E+00
 
    0.31872E+06         0.28768E+07         0.00000E+00
    0.28768E+07        -0.43071E+07         0.00000E+00
    0.00000E+00         0.00000E+00         0.00000E+00
 
    0.30079E+06         0.29594E+07         0.00000E+00
    0.29594E+07        -0.43007E+07         0.00000E+00
    0.00000E+00         0.00000E+00         0.00000E+00
 
    0.28269E+06         0.30419E+07         0.00000E+00
    0.30419E+07        -0.42942E+07         0.00000E+00
    0.00000E+00         0.00000E+00         0.00000E+00
 
    0.26444E+06         0.31242E+07         0.00000E+00
    0.31242E+07        -0.42874E+07         0.00000E+00
    0.00000E+00         0.00000E+00         0.00000E+00
 
    0.24602E+06         0.32062E+07         0.00000E+00
    0.32062E+07        -0.42803E+07         0.00000E+00
    0.00000E+00         0.00000E+00         0.00000E+00
 
    0.22742E+06         0.32881E+07         0.00000E+00
    0.32881E+07        -0.42731E+07         0.00000E+00
    0.00000E+00         0.00000E+00         0.00000E+00
 
    0.20866E+06         0.33698E+07         0.00000E+00
    0.33698E+07        -0.42655E+07         0.00000E+00
    0.00000E+00         0.00000E+00         0.00000E+00
 
    0.18971E+06         0.34513E+07         0.00000E+00
    0.34513E+07        -0.42578E+07         0.00000E+00
    0.00000E+00         0.00000E+00         0.00000E+00
 
    0.17058E+06         0.35326E+07         0.00000E+00
    0.35326E+07        -0.42497E+07         0.00000E+00
    0.00000E+00         0.00000E+00         0.00000E+00
 
    0.15126E+06         0.36138E+07         0.00000E+00
    0.36138E+07        -0.42414E+07         0.00000E+00
    0.00000E+00         0.00000E+00         0.00000E+00
 
    0.13176E+06         0.36947E+07         0.00000E+00
    0.36947E+07        -0.42329E+07         0.00000E+00
    0.00000E+00         0.00000E+00         0.00000E+00
 
    0.11205E+06         0.37754E+07         0.00000E+00
    0.37754E+07        -0.42241E+07         0.00000E+00
    0.00000E+00         0.00000E+00         0.00000E+00
 
    0.92148E+05         0.38559E+07         0.00000E+00
    0.38559E+07        -0.42150E+07         0.00000E+00
    0.00000E+00         0.00000E+00         0.00000E+00
 
    0.72038E+05         0.39362E+07         0.00000E+00
    0.39362E+07        -0.42056E+07         0.00000E+00
    0.00000E+00         0.00000E+00         0.00000E+00
 
    0.51719E+05         0.40163E+07         0.00000E+00
    0.40163E+07        -0.41960E+07         0.00000E+00
    0.00000E+00         0.00000E+00         0.00000E+00
 
    0.31185E+05         0.40962E+07         0.00000E+00
    0.40962E+07        -0.41861E+07         0.00000E+00
    0.00000E+00         0.00000E+00         0.00000E+00
 
    0.10432E+05         0.41759E+07         0.00000E+00
    0.41759E+07        -0.41759E+07         0.00000E+00
    0.00000E+00         0.00000E+00         0.00000E+00
 
    0.89129E+06         0.45219E+05         0.00000E+00
    0.45219E+05        -0.48035E+07         0.00000E+00
    0.00000E+00         0.00000E+00         0.00000E+00
 
    0.87576E+06         0.13507E+06         0.00000E+00
    0.13507E+06        -0.48033E+07         0.00000E+00
    0.00000E+00         0.00000E+00         0.00000E+00
 
    0.86018E+06         0.22470E+06         0.00000E+00
    0.22470E+06        -0.48030E+07         0.00000E+00
    0.00000E+00         0.00000E+00         0.00000E+00
 
    0.84454E+06         0.31412E+06         0.00000E+00
    0.31412E+06        -0.48025E+07         0.00000E+00
    0.00000E+00         0.00000E+00         0.00000E+00
 
    0.82883E+06         0.40334E+06         0.00000E+00
    0.40334E+06        -0.48019E+07         0.00000E+00
    0.00000E+00         0.00000E+00         0.00000E+00
 
    0.81305E+06         0.49236E+06         0.00000E+00
    0.49236E+06        -0.48011E+07         0.00000E+00
    0.00000E+00         0.00000E+00         0.00000E+00
 
    0.79721E+06         0.58117E+06         0.00000E+00
    0.58117E+06        -0.48002E+07         0.00000E+00
    0.00000E+00         0.00000E+00         0.00000E+00
 
    0.78129E+06         0.66978E+06         0.00000E+00
    0.66978E+06        -0.47990E+07         0.00000E+00
    0.00000E+00         0.00000E+00         0.00000E+00
 
    0.76531E+06         0.75820E+06         0.00000E+00
    0.75820E+06        -0.47978E+07         0.00000E+00
    0.00000E+00         0.00000E+00         0.00000E+00
 
    0.74925E+06         0.84642E+06         0.00000E+00
    0.84642E+06        -0.47963E+07         0.00000E+00
    0.00000E+00         0.00000E+00         0.00000E+00
 
    0.73312E+06         0.93445E+06         0.00000E+00
    0.93445E+06        -0.47947E+07         0.00000E+00
    0.00000E+00         0.00000E+00         0.00000E+00
 
    0.71691E+06         0.10223E+07         0.00000E+00
    0.10223E+07        -0.47929E+07         0.00000E+00
    0.00000E+00         0.00000E+00         0.00000E+00
 
    0.70062E+06         0.11099E+07         0.00000E+00
    0.11099E+07        -0.47909E+07         0.00000E+00
    0.00000E+00         0.00000E+00         0.00000E+00
 
    0.68424E+06         0.11974E+07         0.00000E+00
    0.11974E+07        -0.47888E+07         0.00000E+00
    0.00000E+00         0.00000E+00         0.00000E+00
 
    0.66779E+06         0.12847E+07         0.00000E+00
    0.12847E+07        -0.47864E+07         0.00000E+00
    0.00000E+00         0.00000E+00         0.00000E+00
 
    0.65124E+06         0.13718E+07         0.00000E+00
    0.13718E+07        -0.47839E+07         0.00000E+00
    0.00000E+00         0.00000E+00         0.00000E+00
 
    0.63460E+06         0.14587E+07         0.00000E+00
    0.14587E+07        -0.47812E+07         0.00000E+00
    0.00000E+00         0.00000E+00         0.00000E+00
 
    0.61787E+06         0.15454E+07         0.00000E+00
    0.15454E+07        -0.47783E+07         0.00000E+00
    0.00000E+00         0.00000E+00         0.00000E+00
 
    0.60104E+06         0.16320E+07         0.00000E+00
    0.16320E+07        -0.47752E+07         0.00000E+00
    0.00000E+00         0.00000E+00         0.00000E+00
 
    0.58411E+06         0.17184E+07         0.00000E+00
    0.17184E+07        -0.47720E+07         0.00000E+00
    0.00000E+00         0.00000E+00         0.00000E+00
 
    0.56708E+06         0.18046E+07         0.00000E+00
    0.18046E+07        -0.47685E+07         0.00000E+00
    0.00000E+00         0.00000E+00         0.00000E+00
 
    0.54995E+06         0.18906E+07         0.00000E+00
    0.18906E+07        -0.47648E+07         0.00000E+00
    0.00000E+00         0.00000E+00         0.00000E+00
 
    0.53270E+06         0.19764E+07         0.00000E+00
    0.19764E+07        -0.47609E+07         0.00000E+00
    0.00000E+00         0.00000E+00         0.00000E+00
 
    0.51534E+06         0.20621E+07         0.00000E+00
    0.20621E+07        -0.47569E+07         0.00000E+00
    0.00000E+00         0.00000E+00         0.00000E+00
 
    0.49786E+06         0.21476E+07         0.00000E+00
    0.21476E+07        -0.47526E+07         0.00000E+00
    0.00000E+00         0.00000E+00         0.00000E+00
 
    0.48027E+06         0.22330E+07         0.00000E+00
    0.22330E+07        -0.47481E+07         0.00000E+00
    0.00000E+00         0.00000E+00         0.00000E+00
 
    0.46255E+06         0.23181E+07         0.00000E+00
    0.23181E+07        -0.47434E+07         0.00000E+00
    0.00000E+00         0.00000E+00         0.00000E+00
 
    0.44470E+06         0.24031E+07         0.00000E+00
    0.24031E+07        -0.47384E+07         0.00000E+00
    0.00000E+00         0.00000E+00         0.00000E+00
 
    0.42672E+06         0.24880E+07         0.00000E+00
    0.24880E+07        -0.47333E+07         0.00000E+00
    0.00000E+00         0.00000E+00         0.00000E+00
 
    0.40860E+06         0.25726E+07         0.00000E+00
    0.25726E+07        -0.47279E+07         0.00000E+00
    0.00000E+00         0.00000E+00         0.00000E+00
 
    0.39035E+06         0.26571E+07         0.00000E+00
    0.26571E+07        -0.47223E+07         0.00000E+00
    0.00000E+00         0.00000E+00         0.00000E+00
 
    0.37195E+06         0.27414E+07         0.00000E+00
    0.27414E+07        -0.47164E+07         0.00000E+00
    0.00000E+00         0.00000E+00         0.00000E+00
 
    0.35340E+06         0.28255E+07         0.00000E+00
    0.28255E+07        -0.47103E+07         0.00000E+00
    0.00000E+00         0.00000E+00         0.00000E+00
 
    0.33470E+06         0.29095E+07         0.00000E+00
    0.29095E+07        -0.47040E+07         0.00000E+00
    0.00000E+00         0.00000E+00         0.00000E+00
 
    0.31585E+06         0.29933E+07         0.00000E+00
    0.29933E+07        -0.46975E+07         0.00000E+00
    0.00000E+00         0.00000E+00         0.00000E+00
 
    0.29683E+06         0.30769E+07         0.00000E+00
    0.30769E+07        -0.46906E+07         0.00000E+00
    0.00000E+00         0.00000E+00         0.00000E+00
 
    0.27764E+06         0.31604E+07         0.00000E+00
    0.31604E+07        -0.46836E+07         0.00000E+00
    0.00000E+00         0.00000E+00         0.00000E+00
 
    0.25829E+06         0.32437E+07         0.00000E+00
    0.32437E+07        -0.46763E+07         0.00000E+00
    0.00000E+00         0.00000E+00         0.00000E+00
 
    0.23876E+06         0.33268E+07         0.00000E+00
    0.33268E+07        -0.46687E+07         0.00000E+00
    0.00000E+00         0.00000E+00         0.00000E+00
 
    0.21905E+06         0.34097E+07         0.00000E+00
    0.34097E+07        -0.46608E+07         0.00000E+00
    0.00000E+00         0.00000E+00         0.00000E+00
 
    0.19915E+06         0.34925E+07         0.00000E+00
    0.34925E+07        -0.46527E+07         0.00000E+00
    0.00000E+00         0.00000E+00         0.00000E+00
 
    0.17907E+06         0.35750E+07         0.00000E+00
    0.35750E+07        -0.46444E+07         0.00000E+00
    0.00000E+00         0.00000E+00         0.00000E+00
 
    0.15879E+06         0.36574E+07         0.00000E+00
    0.36574E+07        -0.46357E+07         0.00000E+00
    0.00000E+00         0.00000E+00         0.00000E+00
 
    0.13831E+06         0.37396E+07         0.00000E+00
    0.37396E+07        -0.46268E+07         0.00000E+00
    0.00000E+00         0.00000E+00         0.00000E+00
 
    0.11763E+06         0.38216E+07         0.00000E+00
    0.38216E+07        -0.46176E+07         0.00000E+00
    0.00000E+00         0.00000E+00         0.00000E+00
 
    0.96732E+05         0.39035E+07         0.00000E+00
    0.39035E+07        -0.46080E+07         0.00000E+00
    0.00000E+00         0.00000E+00         0.00000E+00
 
    0.75623E+05         0.39851E+07         0.00000E+00
    0.39851E+07        -0.45983E+07         0.00000E+00
    0.00000E+00         0.00000E+00         0.00000E+00
 
    0.54293E+05         0.40666E+07         0.00000E+00
    0.40666E+07        -0.45882E+07         0.00000E+00
    0.00000E+00         0.00000E+00         0.00000E+00
 
    0.32738E+05         0.41479E+07         0.00000E+00
    0.41479E+07        -0.45778E+07         0.00000E+00
    0.00000E+00         0.00000E+00         0.00000E+00
 
    0.10952E+05         0.42289E+07         0.00000E+00
    0.42289E+07        -0.45671E+07         0.00000E+00
    0.00000E+00         0.00000E+00         0.00000E+00
 
    0.93622E+06         0.45659E+05         0.00000E+00
    0.45659E+05        -0.52105E+07         0.00000E+00
    0.00000E+00         0.00000E+00         0.00000E+00
 
    0.91963E+06         0.13639E+06         0.00000E+00
    0.13639E+06        -0.52104E+07         0.00000E+00
    0.00000E+00         0.00000E+00         0.00000E+00
 
    0.90300E+06         0.22692E+06         0.00000E+00
    0.22692E+06        -0.52101E+07         0.00000E+00
    0.00000E+00         0.00000E+00         0.00000E+00
 
    0.88632E+06         0.31724E+06         0.00000E+00
    0.31724E+06        -0.52096E+07         0.00000E+00
    0.00000E+00         0.00000E+00         0.00000E+00
 
    0.86959E+06         0.40735E+06         0.00000E+00
    0.40735E+06        -0.52090E+07         0.00000E+00
    0.00000E+00         0.00000E+00         0.00000E+00
 
    0.85280E+06         0.49727E+06         0.00000E+00
    0.49727E+06        -0.52082E+07         0.00000E+00
    0.00000E+00         0.00000E+00         0.00000E+00
 
    0.83595E+06         0.58700E+06         0.00000E+00
    0.58700E+06        -0.52072E+07         0.00000E+00
    0.00000E+00         0.00000E+00         0.00000E+00
 
    0.81905E+06         0.67652E+06         0.00000E+00
    0.67652E+06        -0.52061E+07         0.00000E+00
    0.00000E+00         0.00000E+00         0.00000E+00
 
    0.80209E+06         0.76586E+06         0.00000E+00
    0.76586E+06        -0.52048E+07         0.00000E+00
    0.00000E+00         0.00000E+00         0.00000E+00
 
    0.78506E+06         0.85501E+06         0.00000E+00
    0.85501E+06        -0.52033E+07         0.00000E+00
    0.00000E+00         0.00000E+00         0.00000E+00
 
    0.76797E+06         0.94398E+06         0.00000E+00
    0.94398E+06        -0.52017E+07         0.00000E+00
    0.00000E+00         0.00000E+00         0.00000E+00
 
    0.75080E+06         0.10328E+07         0.00000E+00
    0.10328E+07        -0.51998E+07         0.00000E+00
    0.00000E+00         0.00000E+00         0.00000E+00
 
    0.73357E+06         0.11214E+07         0.00000E+00
    0.11214E+07        -0.51978E+07         0.00000E+00
    0.00000E+00         0.00000E+00         0.00000E+00
 
    0.71627E+06         0.12098E+07         0.00000E+00
    0.12098E+07        -0.51957E+07         0.00000E+00
    0.00000E+00         0.00000E+00         0.00000E+00
 
    0.69889E+06         0.12980E+07         0.00000E+00
    0.12980E+07        -0.51933E+07         0.00000E+00
    0.00000E+00         0.00000E+00         0.00000E+00
 
    0.68142E+06         0.13861E+07         0.00000E+00
    0.13861E+07        -0.51907E+07         0.00000E+00
    0.00000E+00         0.00000E+00         0.00000E+00
 
    0.66388E+06         0.14740E+07         0.00000E+00
    0.14740E+07        -0.51880E+07         0.00000E+00
    0.00000E+00         0.00000E+00         0.00000E+00
 
    0.64625E+06         0.15617E+07         0.00000E+00
    0.15617E+07        -0.51850E+07         0.00000E+00
    0.00000E+00         0.00000E+00         0.00000E+00
 
    0.62853E+06         0.16493E+07         0.00000E+00
    0.16493E+07        -0.51819E+07         0.00000E+00
    0.00000E+00         0.00000E+00         0.00000E+00
 
    0.61071E+06         0.17367E+07         0.00000E+00
    0.17367E+07        -0.51786E+07         0.00000E+00
    0.00000E+00         0.00000E+00         0.00000E+00
 
    0.59280E+06         0.18239E+07         0.00000E+00
    0.18239E+07        -0.51750E+07         0.00000E+00
    0.00000E+00         0.00000E+00         0.00000E+00
 
    0.57479E+06         0.19110E+07         0.00000E+00
    0.19110E+07        -0.51713E+07         0.00000E+00
    0.00000E+00         0.00000E+00         0.00000E+00
 
    0.55667E+06         0.19979E+07         0.00000E+00
    0.19979E+07        -0.51673E+07         0.00000E+00
    0.00000E+00         0.00000E+00         0.00000E+00
 
    0.53845E+06         0.20847E+07         0.00000E+00
    0.20847E+07        -0.51632E+07         0.00000E+00
    0.00000E+00         0.00000E+00         0.00000E+00
 
    0.52011E+06         0.21713E+07         0.00000E+00
    0.21713E+07        -0.51588E+07         0.00000E+00
    0.00000E+00         0.00000E+00         0.00000E+00
 
    0.50166E+06         0.22577E+07         0.00000E+00
    0.22577E+07        -0.51542E+07         0.00000E+00
    0.00000E+00         0.00000E+00         0.00000E+00
 
    0.48309E+06         0.23439E+07         0.00000E+00
    0.23439E+07        -0.51493E+07         0.00000E+00
    0.00000E+00         0.00000E+00         0.00000E+00
 
    0.46439E+06         0.24301E+07         0.00000E+00
    0.24301E+07        -0.51443E+07         0.00000E+00
    0.00000E+00         0.00000E+00         0.00000E+00
 
    0.44556E+06         0.25160E+07         0.00000E+00
    0.25160E+07        -0.51390E+07         0.00000E+00
    0.00000E+00         0.00000E+00         0.00000E+00
 
    0.42660E+06         0.26018E+07         0.00000E+00
    0.26018E+07        -0.51334E+07         0.00000E+00
    0.00000E+00         0.00000E+00         0.00000E+00
 
    0.40750E+06         0.26875E+07         0.00000E+00
    0.26875E+07        -0.51277E+07         0.00000E+00
    0.00000E+00         0.00000E+00         0.00000E+00
 
    0.38825E+06         0.27729E+07         0.00000E+00
    0.27729E+07        -0.51217E+07         0.00000E+00
    0.00000E+00         0.00000E+00         0.00000E+00
 
    0.36886E+06         0.28583E+07         0.00000E+00
    0.28583E+07        -0.51154E+07         0.00000E+00
    0.00000E+00         0.00000E+00         0.00000E+00
 
    0.34931E+06         0.29434E+07         0.00000E+00
    0.29434E+07        -0.51089E+07         0.00000E+00
    0.00000E+00         0.00000E+00         0.00000E+00
 
    0.32961E+06         0.30285E+07         0.00000E+00
    0.30285E+07        -0.51021E+07         0.00000E+00
    0.00000E+00         0.00000E+00         0.00000E+00
 
    0.30974E+06         0.31133E+07         0.00000E+00
    0.31133E+07        -0.50951E+07         0.00000E+00
    0.00000E+00         0.00000E+00         0.00000E+00
 
    0.28971E+06         0.31980E+07         0.00000E+00
    0.31980E+07        -0.50878E+07         0.00000E+00
    0.00000E+00         0.00000E+00         0.00000E+00
 
    0.26950E+06         0.32826E+07         0.00000E+00
    0.32826E+07        -0.50802E+07         0.00000E+00
    0.00000E+00         0.00000E+00         0.00000E+00
 
    0.24911E+06         0.33670E+07         0.00000E+00
    0.33670E+07        -0.50724E+07         0.00000E+00
    0.00000E+00         0.00000E+00         0.00000E+00
 
    0.22853E+06         0.34512E+07         0.00000E+00
    0.34512E+07        -0.50643E+07         0.00000E+00
    0.00000E+00         0.00000E+00         0.00000E+00
 
    0.20777E+06         0.35353E+07         0.00000E+00
    0.35353E+07        -0.50559E+07         0.00000E+00
    0.00000E+00         0.00000E+00         0.00000E+00
 
    0.18681E+06         0.36192E+07         0.00000E+00
    0.36192E+07        -0.50472E+07         0.00000E+00
    0.00000E+00         0.00000E+00         0.00000E+00
 
    0.16566E+06         0.37029E+07         0.00000E+00
    0.37029E+07        -0.50382E+07         0.00000E+00
    0.00000E+00         0.00000E+00         0.00000E+00
 
    0.14429E+06         0.37865E+07         0.00000E+00
    0.37865E+07        -0.50289E+07         0.00000E+00
    0.00000E+00         0.00000E+00         0.00000E+00
 
    0.12271E+06         0.38699E+07         0.00000E+00
    0.38699E+07        -0.50194E+07         0.00000E+00
    0.00000E+00         0.00000E+00         0.00000E+00
 
    0.10091E+06         0.39532E+07         0.00000E+00
    0.39532E+07        -0.50095E+07         0.00000E+00
    0.00000E+00         0.00000E+00         0.00000E+00
 
    0.78894E+05         0.40362E+07         0.00000E+00
    0.40362E+07        -0.49993E+07         0.00000E+00
    0.00000E+00         0.00000E+00         0.00000E+00
 
    0.56643E+05         0.41191E+07         0.00000E+00
    0.41191E+07        -0.49888E+07         0.00000E+00
    0.00000E+00         0.00000E+00         0.00000E+00
 
    0.34156E+05         0.42019E+07         0.00000E+00
    0.42019E+07        -0.49780E+07         0.00000E+00
    0.00000E+00         0.00000E+00         0.00000E+00
 
    0.11426E+05         0.42844E+07         0.00000E+00
    0.42844E+07        -0.49668E+07         0.00000E+00
    0.00000E+00         0.00000E+00         0.00000E+00
 
    0.97786E+06         0.46104E+05         0.00000E+00
    0.46104E+05        -0.56253E+07         0.00000E+00
    0.00000E+00         0.00000E+00         0.00000E+00
 
    0.96024E+06         0.13774E+06         0.00000E+00
    0.13774E+06        -0.56252E+07         0.00000E+00
    0.00000E+00         0.00000E+00         0.00000E+00
 
    0.94258E+06         0.22917E+06         0.00000E+00
    0.22917E+06        -0.56249E+07         0.00000E+00
    0.00000E+00         0.00000E+00         0.00000E+00
 
    0.92489E+06         0.32040E+06         0.00000E+00
    0.32040E+06        -0.56244E+07         0.00000E+00
    0.00000E+00         0.00000E+00         0.00000E+00
 
    0.90716E+06         0.41143E+06         0.00000E+00
    0.41143E+06        -0.56238E+07         0.00000E+00
    0.00000E+00         0.00000E+00         0.00000E+00
 
    0.88938E+06         0.50227E+06         0.00000E+00
    0.50227E+06        -0.56230E+07         0.00000E+00
    0.00000E+00         0.00000E+00         0.00000E+00
 
    0.87157E+06         0.59292E+06         0.00000E+00
    0.59292E+06        -0.56220E+07         0.00000E+00
    0.00000E+00         0.00000E+00         0.00000E+00
 
    0.85370E+06         0.68338E+06         0.00000E+00
    0.68338E+06        -0.56209E+07         0.00000E+00
    0.00000E+00         0.00000E+00         0.00000E+00
 
    0.83580E+06         0.77366E+06         0.00000E+00
    0.77366E+06        -0.56196E+07         0.00000E+00
    0.00000E+00         0.00000E+00         0.00000E+00
 
    0.81784E+06         0.86377E+06         0.00000E+00
    0.86377E+06        -0.56181E+07         0.00000E+00
    0.00000E+00         0.00000E+00         0.00000E+00
 
    0.79982E+06         0.95369E+06         0.00000E+00
    0.95369E+06        -0.56165E+07         0.00000E+00
    0.00000E+00         0.00000E+00         0.00000E+00
 
    0.78175E+06         0.10434E+07         0.00000E+00
    0.10434E+07        -0.56146E+07         0.00000E+00
    0.00000E+00         0.00000E+00         0.00000E+00
 
    0.76362E+06         0.11330E+07         0.00000E+00
    0.11330E+07        -0.56126E+07         0.00000E+00
    0.00000E+00         0.00000E+00         0.00000E+00
 
    0.74543E+06         0.12224E+07         0.00000E+00
    0.12224E+07        -0.56104E+07         0.00000E+00
    0.00000E+00         0.00000E+00         0.00000E+00
 
    0.72717E+06         0.13117E+07         0.00000E+00
    0.13117E+07        -0.56080E+07         0.00000E+00
    0.00000E+00         0.00000E+00         0.00000E+00
 
    0.70885E+06         0.14007E+07         0.00000E+00
    0.14007E+07        -0.56055E+07         0.00000E+00
    0.00000E+00         0.00000E+00         0.00000E+00
 
    0.69045E+06         0.14897E+07         0.00000E+00
    0.14897E+07        -0.56027E+07         0.00000E+00
    0.00000E+00         0.00000E+00         0.00000E+00
 
    0.67197E+06         0.15784E+07         0.00000E+00
    0.15784E+07        -0.55997E+07         0.00000E+00
    0.00000E+00         0.00000E+00         0.00000E+00
 
    0.65341E+06         0.16670E+07         0.00000E+00
    0.16670E+07        -0.55966E+07         0.00000E+00
    0.00000E+00         0.00000E+00         0.00000E+00
 
    0.63477E+06         0.17555E+07         0.00000E+00
    0.17555E+07        -0.55932E+07         0.00000E+00
    0.00000E+00         0.00000E+00         0.00000E+00
 
    0.61604E+06         0.18438E+07         0.00000E+00
    0.18438E+07        -0.55896E+07         0.00000E+00
    0.00000E+00         0.00000E+00         0.00000E+00
 
    0.59721E+06         0.19319E+07         0.00000E+00
    0.19319E+07        -0.55858E+07         0.00000E+00
    0.00000E+00         0.00000E+00         0.00000E+00
 
    0.57829E+06         0.20199E+07         0.00000E+00
    0.20199E+07        -0.55818E+07         0.00000E+00
    0.00000E+00         0.00000E+00         0.00000E+00
 
    0.55927E+06         0.21078E+07         0.00000E+00
    0.21078E+07        -0.55776E+07         0.00000E+00
    0.00000E+00         0.00000E+00         0.00000E+00
 
    0.54014E+06         0.21955E+07         0.00000E+00
    0.21955E+07        -0.55731E+07         0.00000E+00
    0.00000E+00         0.00000E+00         0.00000E+00
 
    0.52089E+06         0.22830E+07         0.00000E+00
    0.22830E+07        -0.55684E+07         0.00000E+00
    0.00000E+00         0.00000E+00         0.00000E+00
 
    0.50154E+06         0.23704E+07         0.00000E+00
    0.23704E+07        -0.55635E+07         0.00000E+00
    0.00000E+00         0.00000E+00         0.00000E+00
 
    0.48206E+06         0.24577E+07         0.00000E+00
    0.24577E+07        -0.55584E+07         0.00000E+00
    0.00000E+00         0.00000E+00         0.00000E+00
 
    0.46246E+06         0.25448E+07         0.00000E+00
    0.25448E+07        -0.55530E+07         0.00000E+00
    0.00000E+00         0.00000E+00         0.00000E+00
 
    0.44272E+06         0.26318E+07         0.00000E+00
    0.26318E+07        -0.55473E+07         0.00000E+00
    0.00000E+00         0.00000E+00         0.00000E+00
 
    0.42285E+06         0.27187E+07         0.00000E+00
    0.27187E+07        -0.55414E+07         0.00000E+00
    0.00000E+00         0.00000E+00         0.00000E+00
 
    0.40284E+06         0.28054E+07         0.00000E+00
    0.28054E+07        -0.55353E+07         0.00000E+00
    0.00000E+00         0.00000E+00         0.00000E+00
 
    0.38268E+06         0.28920E+07         0.00000E+00
    0.28920E+07        -0.55289E+07         0.00000E+00
    0.00000E+00         0.00000E+00         0.00000E+00
 
    0.36237E+06         0.29784E+07         0.00000E+00
    0.29784E+07        -0.55222E+07         0.00000E+00
    0.00000E+00         0.00000E+00         0.00000E+00
 
    0.34191E+06         0.30647E+07         0.00000E+00
    0.30647E+07        -0.55153E+07         0.00000E+00
    0.00000E+00         0.00000E+00         0.00000E+00
 
    0.32127E+06         0.31509E+07         0.00000E+00
    0.31509E+07        -0.55081E+07         0.00000E+00
    0.00000E+00         0.00000E+00         0.00000E+00
 
    0.30047E+06         0.32369E+07         0.00000E+00
    0.32369E+07        -0.55006E+07         0.00000E+00
    0.00000E+00         0.00000E+00         0.00000E+00
 
    0.27950E+06         0.33228E+07         0.00000E+00
    0.33228E+07        -0.54928E+07         0.00000E+00
    0.00000E+00         0.00000E+00         0.00000E+00
 
    0.25834E+06         0.34085E+07         0.00000E+00
    0.34085E+07        -0.54848E+07         0.00000E+00
    0.00000E+00         0.00000E+00         0.00000E+00
 
    0.23700E+06         0.34941E+07         0.00000E+00
    0.34941E+07        -0.54764E+07         0.00000E+00
    0.00000E+00         0.00000E+00         0.00000E+00
 
    0.21546E+06         0.35796E+07         0.00000E+00
    0.35796E+07        -0.54678E+07         0.00000E+00
    0.00000E+00         0.00000E+00         0.00000E+00
 
    0.19372E+06         0.36649E+07         0.00000E+00
    0.36649E+07        -0.54588E+07         0.00000E+00
    0.00000E+00         0.00000E+00         0.00000E+00
 
    0.17178E+06         0.37501E+07         0.00000E+00
    0.37501E+07        -0.54496E+07         0.00000E+00
    0.00000E+00         0.00000E+00         0.00000E+00
 
    0.14962E+06         0.38351E+07         0.00000E+00
    0.38351E+07        -0.54400E+07         0.00000E+00
    0.00000E+00         0.00000E+00         0.00000E+00
 
    0.12724E+06         0.39200E+07         0.00000E+00
    0.39200E+07        -0.54301E+07         0.00000E+00
    0.00000E+00         0.00000E+00         0.00000E+00
 
    0.10464E+06         0.40047E+07         0.00000E+00
    0.40047E+07        -0.54199E+07         0.00000E+00
    0.00000E+00         0.00000E+00         0.00000E+00
 
    0.81809E+05         0.40893E+07         0.00000E+00
    0.40893E+07        -0.54094E+07         0.00000E+00
    0.00000E+00         0.00000E+00         0.00000E+00
 
    0.58737E+05         0.41737E+07         0.00000E+00
    0.41737E+07        -0.53985E+07         0.00000E+00
    0.00000E+00         0.00000E+00         0.00000E+00
 
    0.35419E+05         0.42580E+07         0.00000E+00
    0.42580E+07        -0.53873E+07         0.00000E+00
    0.00000E+00         0.00000E+00         0.00000E+00
 
    0.11849E+05         0.43421E+07         0.00000E+00
    0.43421E+07        -0.53757E+07         0.00000E+00
    0.00000E+00         0.00000E+00         0.00000E+00
 
    0.10158E+07         0.46551E+05         0.00000E+00
    0.46551E+05        -0.60484E+07         0.00000E+00
    0.00000E+00         0.00000E+00         0.00000E+00
 
    0.99717E+06         0.13909E+06         0.00000E+00
    0.13909E+06        -0.60482E+07         0.00000E+00
    0.00000E+00         0.00000E+00         0.00000E+00
 
    0.97851E+06         0.23143E+06         0.00000E+00
    0.23143E+06        -0.60479E+07         0.00000E+00
    0.00000E+00         0.00000E+00         0.00000E+00
 
    0.95983E+06         0.32358E+06         0.00000E+00
    0.32358E+06        -0.60474E+07         0.00000E+00
    0.00000E+00         0.00000E+00         0.00000E+00
 
    0.94113E+06         0.41554E+06         0.00000E+00
    0.41554E+06        -0.60468E+07         0.00000E+00
    0.00000E+00         0.00000E+00         0.00000E+00
 
    0.92240E+06         0.50731E+06         0.00000E+00
    0.50731E+06        -0.60460E+07         0.00000E+00
    0.00000E+00         0.00000E+00         0.00000E+00
 
    0.90365E+06         0.59890E+06         0.00000E+00
    0.59890E+06        -0.60451E+07         0.00000E+00
    0.00000E+00         0.00000E+00         0.00000E+00
 
    0.88487E+06         0.69031E+06         0.00000E+00
    0.69031E+06        -0.60439E+07         0.00000E+00
    0.00000E+00         0.00000E+00         0.00000E+00
 
    0.86605E+06         0.78154E+06         0.00000E+00
    0.78154E+06        -0.60427E+07         0.00000E+00
    0.00000E+00         0.00000E+00         0.00000E+00
 
    0.84720E+06         0.87260E+06         0.00000E+00
    0.87260E+06        -0.60412E+07         0.00000E+00
    0.00000E+00         0.00000E+00         0.00000E+00
 
    0.82831E+06         0.96350E+06         0.00000E+00
    0.96350E+06        -0.60396E+07         0.00000E+00
    0.00000E+00         0.00000E+00         0.00000E+00
 
    0.80938E+06         0.10542E+07         0.00000E+00
    0.10542E+07        -0.60377E+07         0.00000E+00
    0.00000E+00         0.00000E+00         0.00000E+00
 
    0.79040E+06         0.11448E+07         0.00000E+00
    0.11448E+07        -0.60357E+07         0.00000E+00
    0.00000E+00         0.00000E+00         0.00000E+00
 
    0.77138E+06         0.12352E+07         0.00000E+00
    0.12352E+07        -0.60335E+07         0.00000E+00
    0.00000E+00         0.00000E+00         0.00000E+00
 
    0.75230E+06         0.13255E+07         0.00000E+00
    0.13255E+07        -0.60312E+07         0.00000E+00
    0.00000E+00         0.00000E+00         0.00000E+00
 
    0.73316E+06         0.14156E+07         0.00000E+00
    0.14156E+07        -0.60286E+07         0.00000E+00
    0.00000E+00         0.00000E+00         0.00000E+00
 
    0.71396E+06         0.15055E+07         0.00000E+00
    0.15055E+07        -0.60258E+07         0.00000E+00
    0.00000E+00         0.00000E+00         0.00000E+00
 
    0.69470E+06         0.15953E+07         0.00000E+00
    0.15953E+07        -0.60229E+07         0.00000E+00
    0.00000E+00         0.00000E+00         0.00000E+00
 
    0.67537E+06         0.16850E+07         0.00000E+00
    0.16850E+07        -0.60197E+07         0.00000E+00
    0.00000E+00         0.00000E+00         0.00000E+00
 
    0.65596E+06         0.17745E+07         0.00000E+00
    0.17745E+07        -0.60163E+07         0.00000E+00
    0.00000E+00         0.00000E+00         0.00000E+00
 
    0.63647E+06         0.18639E+07         0.00000E+00
    0.18639E+07        -0.60127E+07         0.00000E+00
    0.00000E+00         0.00000E+00         0.00000E+00
 
    0.61690E+06         0.19532E+07         0.00000E+00
    0.19532E+07        -0.60089E+07         0.00000E+00
    0.00000E+00         0.00000E+00         0.00000E+00
 
    0.59725E+06         0.20423E+07         0.00000E+00
    0.20423E+07        -0.60049E+07         0.00000E+00
    0.00000E+00         0.00000E+00         0.00000E+00
 
    0.57750E+06         0.21313E+07         0.00000E+00
    0.21313E+07        -0.60006E+07         0.00000E+00
    0.00000E+00         0.00000E+00         0.00000E+00
 
    0.55765E+06         0.22201E+07         0.00000E+00
    0.22201E+07        -0.59961E+07         0.00000E+00
    0.00000E+00         0.00000E+00         0.00000E+00
 
    0.53770E+06         0.23088E+07         0.00000E+00
    0.23088E+07        -0.59914E+07         0.00000E+00
    0.00000E+00         0.00000E+00         0.00000E+00
 
    0.51764E+06         0.23974E+07         0.00000E+00
    0.23974E+07        -0.59864E+07         0.00000E+00
    0.00000E+00         0.00000E+00         0.00000E+00
 
    0.49746E+06         0.24859E+07         0.00000E+00
    0.24859E+07        -0.59812E+07         0.00000E+00
    0.00000E+00         0.00000E+00         0.00000E+00
 
    0.47717E+06         0.25743E+07         0.00000E+00
    0.25743E+07        -0.59757E+07         0.00000E+00
    0.00000E+00         0.00000E+00         0.00000E+00
 
    0.45675E+06         0.26625E+07         0.00000E+00
    0.26625E+07        -0.59700E+07         0.00000E+00
    0.00000E+00         0.00000E+00         0.00000E+00
 
    0.43619E+06         0.27506E+07         0.00000E+00
    0.27506E+07        -0.59641E+07         0.00000E+00
    0.00000E+00         0.00000E+00         0.00000E+00
 
    0.41551E+06         0.28386E+07         0.00000E+00
    0.28386E+07        -0.59578E+07         0.00000E+00
    0.00000E+00         0.00000E+00         0.00000E+00
 
    0.39467E+06         0.29264E+07         0.00000E+00
    0.29264E+07        -0.59513E+07         0.00000E+00
    0.00000E+00         0.00000E+00         0.00000E+00
 
    0.37369E+06         0.30142E+07         0.00000E+00
    0.30142E+07        -0.59446E+07         0.00000E+00
    0.00000E+00         0.00000E+00         0.00000E+00
 
    0.35255E+06         0.31018E+07         0.00000E+00
    0.31018E+07        -0.59375E+07         0.00000E+00
    0.00000E+00         0.00000E+00         0.00000E+00
 
    0.33125E+06         0.31893E+07         0.00000E+00
    0.31893E+07        -0.59302E+07         0.00000E+00
    0.00000E+00         0.00000E+00         0.00000E+00
 
    0.30979E+06         0.32767E+07         0.00000E+00
    0.32767E+07        -0.59225E+07         0.00000E+00
    0.00000E+00         0.00000E+00         0.00000E+00
 
    0.28814E+06         0.33640E+07         0.00000E+00
    0.33640E+07        -0.59146E+07         0.00000E+00
    0.00000E+00         0.00000E+00         0.00000E+00
 
    0.26632E+06         0.34511E+07         0.00000E+00
    0.34511E+07        -0.59064E+07         0.00000E+00
    0.00000E+00         0.00000E+00         0.00000E+00
 
    0.24430E+06         0.35382E+07         0.00000E+00
    0.35382E+07        -0.58979E+07         0.00000E+00
    0.00000E+00         0.00000E+00         0.00000E+00
 
    0.22209E+06         0.36251E+07         0.00000E+00
    0.36251E+07        -0.58890E+07         0.00000E+00
    0.00000E+00         0.00000E+00         0.00000E+00
 
    0.19968E+06         0.37119E+07         0.00000E+00
    0.37119E+07        -0.58799E+07         0.00000E+00
    0.00000E+00         0.00000E+00         0.00000E+00
 
    0.17706E+06         0.37986E+07         0.00000E+00
    0.37986E+07        -0.58704E+07         0.00000E+00
    0.00000E+00         0.00000E+00         0.00000E+00
 
    0.15422E+06         0.38851E+07         0.00000E+00
    0.38851E+07        -0.58606E+07         0.00000E+00
    0.00000E+00         0.00000E+00         0.00000E+00
 
    0.13115E+06         0.39715E+07         0.00000E+00
    0.39715E+07        -0.58504E+07         0.00000E+00
    0.00000E+00         0.00000E+00         0.00000E+00
 
    0.10786E+06         0.40578E+07         0.00000E+00
    0.40578E+07        -0.58400E+07         0.00000E+00
    0.00000E+00         0.00000E+00         0.00000E+00
 
    0.84324E+05         0.41440E+07         0.00000E+00
    0.41440E+07        -0.58291E+07         0.00000E+00
    0.00000E+00         0.00000E+00         0.00000E+00
 
    0.60544E+05         0.42301E+07         0.00000E+00
    0.42301E+07        -0.58180E+07         0.00000E+00
    0.00000E+00         0.00000E+00         0.00000E+00
 
    0.36510E+05         0.43160E+07         0.00000E+00
    0.43160E+07        -0.58064E+07         0.00000E+00
    0.00000E+00         0.00000E+00         0.00000E+00
 
    0.12214E+05         0.44018E+07         0.00000E+00
    0.44018E+07        -0.57945E+07         0.00000E+00
    0.00000E+00         0.00000E+00         0.00000E+00
 
    0.10496E+07         0.46997E+05         0.00000E+00
    0.46997E+05        -0.64800E+07         0.00000E+00
    0.00000E+00         0.00000E+00         0.00000E+00
 
    0.10300E+07         0.14044E+06         0.00000E+00
    0.14044E+06        -0.64799E+07         0.00000E+00
    0.00000E+00         0.00000E+00         0.00000E+00
 
    0.10103E+07         0.23370E+06         0.00000E+00
    0.23370E+06        -0.64796E+07         0.00000E+00
    0.00000E+00         0.00000E+00         0.00000E+00
 
    0.99071E+06         0.32676E+06         0.00000E+00
    0.32676E+06        -0.64791E+07         0.00000E+00
    0.00000E+00         0.00000E+00         0.00000E+00
 
    0.97108E+06         0.41964E+06         0.00000E+00
    0.41964E+06        -0.64785E+07         0.00000E+00
    0.00000E+00         0.00000E+00         0.00000E+00
 
    0.95144E+06         0.51235E+06         0.00000E+00
    0.51235E+06        -0.64778E+07         0.00000E+00
    0.00000E+00         0.00000E+00         0.00000E+00
 
    0.93179E+06         0.60487E+06         0.00000E+00
    0.60487E+06        -0.64768E+07         0.00000E+00
    0.00000E+00         0.00000E+00         0.00000E+00
 
    0.91213E+06         0.69723E+06         0.00000E+00
    0.69723E+06        -0.64757E+07         0.00000E+00
    0.00000E+00         0.00000E+00         0.00000E+00
 
    0.89245E+06         0.78942E+06         0.00000E+00
    0.78942E+06        -0.64745E+07         0.00000E+00
    0.00000E+00         0.00000E+00         0.00000E+00
 
    0.87276E+06         0.88146E+06         0.00000E+00
    0.88146E+06        -0.64730E+07         0.00000E+00
    0.00000E+00         0.00000E+00         0.00000E+00
 
    0.85304E+06         0.97333E+06         0.00000E+00
    0.97333E+06        -0.64714E+07         0.00000E+00
    0.00000E+00         0.00000E+00         0.00000E+00
 
    0.83330E+06         0.10650E+07         0.00000E+00
    0.10650E+07        -0.64696E+07         0.00000E+00
    0.00000E+00         0.00000E+00         0.00000E+00
 
    0.81353E+06         0.11566E+07         0.00000E+00
    0.11566E+07        -0.64676E+07         0.00000E+00
    0.00000E+00         0.00000E+00         0.00000E+00
 
    0.79372E+06         0.12480E+07         0.00000E+00
    0.12480E+07        -0.64655E+07         0.00000E+00
    0.00000E+00         0.00000E+00         0.00000E+00
 
    0.77388E+06         0.13393E+07         0.00000E+00
    0.13393E+07        -0.64631E+07         0.00000E+00
    0.00000E+00         0.00000E+00         0.00000E+00
 
    0.75400E+06         0.14305E+07         0.00000E+00
    0.14305E+07        -0.64606E+07         0.00000E+00
    0.00000E+00         0.00000E+00         0.00000E+00
 
    0.73407E+06         0.15215E+07         0.00000E+00
    0.15215E+07        -0.64578E+07         0.00000E+00
    0.00000E+00         0.00000E+00         0.00000E+00
 
    0.71409E+06         0.16123E+07         0.00000E+00
    0.16123E+07        -0.64549E+07         0.00000E+00
    0.00000E+00         0.00000E+00         0.00000E+00
 
    0.69405E+06         0.17031E+07         0.00000E+00
    0.17031E+07        -0.64517E+07         0.00000E+00
    0.00000E+00         0.00000E+00         0.00000E+00
 
    0.67395E+06         0.17937E+07         0.00000E+00
    0.17937E+07        -0.64484E+07         0.00000E+00
    0.00000E+00         0.00000E+00         0.00000E+00
 
    0.65378E+06         0.18842E+07         0.00000E+00
    0.18842E+07        -0.64448E+07         0.00000E+00
    0.00000E+00         0.00000E+00         0.00000E+00
 
    0.63355E+06         0.19746E+07         0.00000E+00
    0.19746E+07        -0.64410E+07         0.00000E+00
    0.00000E+00         0.00000E+00         0.00000E+00
 
    0.61324E+06         0.20648E+07         0.00000E+00
    0.20648E+07        -0.64370E+07         0.00000E+00
    0.00000E+00         0.00000E+00         0.00000E+00
 
    0.59284E+06         0.21550E+07         0.00000E+00
    0.21550E+07        -0.64327E+07         0.00000E+00
    0.00000E+00         0.00000E+00         0.00000E+00
 
    0.57236E+06         0.22450E+07         0.00000E+00
    0.22450E+07        -0.64282E+07         0.00000E+00
    0.00000E+00         0.00000E+00         0.00000E+00
 
    0.55178E+06         0.23349E+07         0.00000E+00
    0.23349E+07        -0.64235E+07         0.00000E+00
    0.00000E+00         0.00000E+00         0.00000E+00
 
    0.53111E+06         0.24247E+07         0.00000E+00
    0.24247E+07        -0.64185E+07         0.00000E+00
    0.00000E+00         0.00000E+00         0.00000E+00
 
    0.51033E+06         0.25144E+07         0.00000E+00
    0.25144E+07        -0.64133E+07         0.00000E+00
    0.00000E+00         0.00000E+00         0.00000E+00
 
    0.48943E+06         0.26041E+07         0.00000E+00
    0.26041E+07        -0.64078E+07         0.00000E+00
    0.00000E+00         0.00000E+00         0.00000E+00
 
    0.46842E+06         0.26935E+07         0.00000E+00
    0.26935E+07        -0.64021E+07         0.00000E+00
    0.00000E+00         0.00000E+00         0.00000E+00
 
    0.44728E+06         0.27829E+07         0.00000E+00
    0.27829E+07        -0.63961E+07         0.00000E+00
    0.00000E+00         0.00000E+00         0.00000E+00
 
    0.42602E+06         0.28722E+07         0.00000E+00
    0.28722E+07        -0.63898E+07         0.00000E+00
    0.00000E+00         0.00000E+00         0.00000E+00
 
    0.40461E+06         0.29614E+07         0.00000E+00
    0.29614E+07        -0.63833E+07         0.00000E+00
    0.00000E+00         0.00000E+00         0.00000E+00
 
    0.38306E+06         0.30505E+07         0.00000E+00
    0.30505E+07        -0.63764E+07         0.00000E+00
    0.00000E+00         0.00000E+00         0.00000E+00
 
    0.36136E+06         0.31395E+07         0.00000E+00
    0.31395E+07        -0.63693E+07         0.00000E+00
    0.00000E+00         0.00000E+00         0.00000E+00
 
    0.33950E+06         0.32285E+07         0.00000E+00
    0.32285E+07        -0.63619E+07         0.00000E+00
    0.00000E+00         0.00000E+00         0.00000E+00
 
    0.31747E+06         0.33173E+07         0.00000E+00
    0.33173E+07        -0.63542E+07         0.00000E+00
    0.00000E+00         0.00000E+00         0.00000E+00
 
    0.29527E+06         0.34060E+07         0.00000E+00
    0.34060E+07        -0.63462E+07         0.00000E+00
    0.00000E+00         0.00000E+00         0.00000E+00
 
    0.27289E+06         0.34946E+07         0.00000E+00
    0.34946E+07        -0.63378E+07         0.00000E+00
    0.00000E+00         0.00000E+00         0.00000E+00
 
    0.25032E+06         0.35831E+07         0.00000E+00
    0.35831E+07        -0.63292E+07         0.00000E+00
    0.00000E+00         0.00000E+00         0.00000E+00
 
    0.22755E+06         0.36716E+07         0.00000E+00
    0.36716E+07        -0.63202E+07         0.00000E+00
    0.00000E+00         0.00000E+00         0.00000E+00
 
    0.20458E+06         0.37599E+07         0.00000E+00
    0.37599E+07        -0.63109E+07         0.00000E+00
    0.00000E+00         0.00000E+00         0.00000E+00
 
    0.18140E+06         0.38481E+07         0.00000E+00
    0.38481E+07        -0.63013E+07         0.00000E+00
    0.00000E+00         0.00000E+00         0.00000E+00
 
    0.15800E+06         0.39363E+07         0.00000E+00
    0.39363E+07        -0.62913E+07         0.00000E+00
    0.00000E+00         0.00000E+00         0.00000E+00
 
    0.13437E+06         0.40243E+07         0.00000E+00
    0.40243E+07        -0.62809E+07         0.00000E+00
    0.00000E+00         0.00000E+00         0.00000E+00
 
    0.11050E+06         0.41123E+07         0.00000E+00
    0.41123E+07        -0.62702E+07         0.00000E+00
    0.00000E+00         0.00000E+00         0.00000E+00
 
    0.86392E+05         0.42001E+07         0.00000E+00
    0.42001E+07        -0.62592E+07         0.00000E+00
    0.00000E+00         0.00000E+00         0.00000E+00
 
    0.62030E+05         0.42879E+07         0.00000E+00
    0.42879E+07        -0.62477E+07         0.00000E+00
    0.00000E+00         0.00000E+00         0.00000E+00
 
    0.37407E+05         0.43755E+07         0.00000E+00
    0.43755E+07        -0.62359E+07         0.00000E+00
    0.00000E+00         0.00000E+00         0.00000E+00
 
    0.12515E+05         0.44631E+07         0.00000E+00
    0.44631E+07        -0.62237E+07         0.00000E+00
    0.00000E+00         0.00000E+00         0.00000E+00
 
    0.10788E+07         0.47437E+05         0.00000E+00
    0.47437E+05        -0.69208E+07         0.00000E+00
    0.00000E+00         0.00000E+00         0.00000E+00
 
    0.10582E+07         0.14178E+06         0.00000E+00
    0.14178E+06        -0.69207E+07         0.00000E+00
    0.00000E+00         0.00000E+00         0.00000E+00
 
    0.10376E+07         0.23593E+06         0.00000E+00
    0.23593E+06        -0.69204E+07         0.00000E+00
    0.00000E+00         0.00000E+00         0.00000E+00
 
    0.10171E+07         0.32991E+06         0.00000E+00
    0.32991E+06        -0.69200E+07         0.00000E+00
    0.00000E+00         0.00000E+00         0.00000E+00
 
    0.99655E+06         0.42370E+06         0.00000E+00
    0.42370E+06        -0.69194E+07         0.00000E+00
    0.00000E+00         0.00000E+00         0.00000E+00
 
    0.97603E+06         0.51733E+06         0.00000E+00
    0.51733E+06        -0.69186E+07         0.00000E+00
    0.00000E+00         0.00000E+00         0.00000E+00
 
    0.95553E+06         0.61079E+06         0.00000E+00
    0.61079E+06        -0.69177E+07         0.00000E+00
    0.00000E+00         0.00000E+00         0.00000E+00
 
    0.93504E+06         0.70410E+06         0.00000E+00
    0.70410E+06        -0.69167E+07         0.00000E+00
    0.00000E+00         0.00000E+00         0.00000E+00
 
    0.91455E+06         0.79724E+06         0.00000E+00
    0.79724E+06        -0.69154E+07         0.00000E+00
    0.00000E+00         0.00000E+00         0.00000E+00
 
    0.89407E+06         0.89024E+06         0.00000E+00
    0.89024E+06        -0.69140E+07         0.00000E+00
    0.00000E+00         0.00000E+00         0.00000E+00
 
    0.87358E+06         0.98309E+06         0.00000E+00
    0.98309E+06        -0.69125E+07         0.00000E+00
    0.00000E+00         0.00000E+00         0.00000E+00
 
    0.85309E+06         0.10758E+07         0.00000E+00
    0.10758E+07        -0.69107E+07         0.00000E+00
    0.00000E+00         0.00000E+00         0.00000E+00
 
    0.83259E+06         0.11684E+07         0.00000E+00
    0.11684E+07        -0.69088E+07         0.00000E+00
    0.00000E+00         0.00000E+00         0.00000E+00
 
    0.81207E+06         0.12608E+07         0.00000E+00
    0.12608E+07        -0.69067E+07         0.00000E+00
    0.00000E+00         0.00000E+00         0.00000E+00
 
    0.79153E+06         0.13531E+07         0.00000E+00
    0.13531E+07        -0.69044E+07         0.00000E+00
    0.00000E+00         0.00000E+00         0.00000E+00
 
    0.77097E+06         0.14453E+07         0.00000E+00
    0.14453E+07        -0.69019E+07         0.00000E+00
    0.00000E+00         0.00000E+00         0.00000E+00
 
    0.75038E+06         0.15374E+07         0.00000E+00
    0.15374E+07        -0.68992E+07         0.00000E+00
    0.00000E+00         0.00000E+00         0.00000E+00
 
    0.72975E+06         0.16293E+07         0.00000E+00
    0.16293E+07        -0.68963E+07         0.00000E+00
    0.00000E+00         0.00000E+00         0.00000E+00
 
    0.70909E+06         0.17211E+07         0.00000E+00
    0.17211E+07        -0.68932E+07         0.00000E+00
    0.00000E+00         0.00000E+00         0.00000E+00
 
    0.68838E+06         0.18129E+07         0.00000E+00
    0.18129E+07        -0.68899E+07         0.00000E+00
    0.00000E+00         0.00000E+00         0.00000E+00
 
    0.66762E+06         0.19045E+07         0.00000E+00
    0.19045E+07        -0.68864E+07         0.00000E+00
    0.00000E+00         0.00000E+00         0.00000E+00
 
    0.64680E+06         0.19960E+07         0.00000E+00
    0.19960E+07        -0.68826E+07         0.00000E+00
    0.00000E+00         0.00000E+00         0.00000E+00
 
    0.62592E+06         0.20874E+07         0.00000E+00
    0.20874E+07        -0.68787E+07         0.00000E+00
    0.00000E+00         0.00000E+00         0.00000E+00
 
    0.60498E+06         0.21787E+07         0.00000E+00
    0.21787E+07        -0.68745E+07         0.00000E+00
    0.00000E+00         0.00000E+00         0.00000E+00
 
    0.58395E+06         0.22700E+07         0.00000E+00
    0.22700E+07        -0.68700E+07         0.00000E+00
    0.00000E+00         0.00000E+00         0.00000E+00
 
    0.56285E+06         0.23611E+07         0.00000E+00
    0.23611E+07        -0.68653E+07         0.00000E+00
    0.00000E+00         0.00000E+00         0.00000E+00
 
    0.54166E+06         0.24521E+07         0.00000E+00
    0.24521E+07        -0.68604E+07         0.00000E+00
    0.00000E+00         0.00000E+00         0.00000E+00
 
    0.52037E+06         0.25431E+07         0.00000E+00
    0.25431E+07        -0.68552E+07         0.00000E+00
    0.00000E+00         0.00000E+00         0.00000E+00
 
    0.49898E+06         0.26340E+07         0.00000E+00
    0.26340E+07        -0.68498E+07         0.00000E+00
    0.00000E+00         0.00000E+00         0.00000E+00
 
    0.47748E+06         0.27248E+07         0.00000E+00
    0.27248E+07        -0.68441E+07         0.00000E+00
    0.00000E+00         0.00000E+00         0.00000E+00
 
    0.45587E+06         0.28155E+07         0.00000E+00
    0.28155E+07        -0.68381E+07         0.00000E+00
    0.00000E+00         0.00000E+00         0.00000E+00
 
    0.43413E+06         0.29062E+07         0.00000E+00
    0.29062E+07        -0.68318E+07         0.00000E+00
    0.00000E+00         0.00000E+00         0.00000E+00
 
    0.41227E+06         0.29967E+07         0.00000E+00
    0.29967E+07        -0.68253E+07         0.00000E+00
    0.00000E+00         0.00000E+00         0.00000E+00
 
    0.39026E+06         0.30872E+07         0.00000E+00
    0.30872E+07        -0.68184E+07         0.00000E+00
    0.00000E+00         0.00000E+00         0.00000E+00
 
    0.36811E+06         0.31776E+07         0.00000E+00
    0.31776E+07        -0.68113E+07         0.00000E+00
    0.00000E+00         0.00000E+00         0.00000E+00
 
    0.34581E+06         0.32680E+07         0.00000E+00
    0.32680E+07        -0.68038E+07         0.00000E+00
    0.00000E+00         0.00000E+00         0.00000E+00
 
    0.32334E+06         0.33583E+07         0.00000E+00
    0.33583E+07        -0.67961E+07         0.00000E+00
    0.00000E+00         0.00000E+00         0.00000E+00
 
    0.30071E+06         0.34485E+07         0.00000E+00
    0.34485E+07        -0.67880E+07         0.00000E+00
    0.00000E+00         0.00000E+00         0.00000E+00
 
    0.27790E+06         0.35386E+07         0.00000E+00
    0.35386E+07        -0.67796E+07         0.00000E+00
    0.00000E+00         0.00000E+00         0.00000E+00
 
    0.25490E+06         0.36287E+07         0.00000E+00
    0.36287E+07        -0.67709E+07         0.00000E+00
    0.00000E+00         0.00000E+00         0.00000E+00
 
    0.23170E+06         0.37187E+07         0.00000E+00
    0.37187E+07        -0.67619E+07         0.00000E+00
    0.00000E+00         0.00000E+00         0.00000E+00
 
    0.20831E+06         0.38086E+07         0.00000E+00
    0.38086E+07        -0.67525E+07         0.00000E+00
    0.00000E+00         0.00000E+00         0.00000E+00
 
    0.18470E+06         0.38985E+07         0.00000E+00
    0.38985E+07        -0.67427E+07         0.00000E+00
    0.00000E+00         0.00000E+00         0.00000E+00
 
    0.16087E+06         0.39883E+07         0.00000E+00
    0.39883E+07        -0.67326E+07         0.00000E+00
    0.00000E+00         0.00000E+00         0.00000E+00
 
    0.13681E+06         0.40780E+07         0.00000E+00
    0.40780E+07        -0.67222E+07         0.00000E+00
    0.00000E+00         0.00000E+00         0.00000E+00
 
    0.11251E+06         0.41677E+07         0.00000E+00
    0.41677E+07        -0.67113E+07         0.00000E+00
    0.00000E+00         0.00000E+00         0.00000E+00
 
    0.87962E+05         0.42573E+07         0.00000E+00
    0.42573E+07        -0.67001E+07         0.00000E+00
    0.00000E+00         0.00000E+00         0.00000E+00
 
    0.63159E+05         0.43468E+07         0.00000E+00
    0.43468E+07        -0.66885E+07         0.00000E+00
    0.00000E+00         0.00000E+00         0.00000E+00
 
    0.38089E+05         0.44363E+07         0.00000E+00
    0.44363E+07        -0.66765E+07         0.00000E+00
    0.00000E+00         0.00000E+00         0.00000E+00
 
    0.12743E+05         0.45256E+07         0.00000E+00
    0.45256E+07        -0.66641E+07         0.00000E+00
    0.00000E+00         0.00000E+00         0.00000E+00
 
    0.11029E+07         0.47865E+05         0.00000E+00
    0.47865E+05        -0.73711E+07         0.00000E+00
    0.00000E+00         0.00000E+00         0.00000E+00
 
    0.10814E+07         0.14308E+06         0.00000E+00
    0.14308E+06        -0.73710E+07         0.00000E+00
    0.00000E+00         0.00000E+00         0.00000E+00
 
    0.10599E+07         0.23812E+06         0.00000E+00
    0.23812E+06        -0.73707E+07         0.00000E+00
    0.00000E+00         0.00000E+00         0.00000E+00
 
    0.10384E+07         0.33298E+06         0.00000E+00
    0.33298E+06        -0.73703E+07         0.00000E+00
    0.00000E+00         0.00000E+00         0.00000E+00
 
    0.10171E+07         0.42768E+06         0.00000E+00
    0.42768E+06        -0.73697E+07         0.00000E+00
    0.00000E+00         0.00000E+00         0.00000E+00
 
    0.99572E+06         0.52222E+06         0.00000E+00
    0.52222E+06        -0.73690E+07         0.00000E+00
    0.00000E+00         0.00000E+00         0.00000E+00
 
    0.97441E+06         0.61660E+06         0.00000E+00
    0.61660E+06        -0.73682E+07         0.00000E+00
    0.00000E+00         0.00000E+00         0.00000E+00
 
    0.95314E+06         0.71083E+06         0.00000E+00
    0.71083E+06        -0.73672E+07         0.00000E+00
    0.00000E+00         0.00000E+00         0.00000E+00
 
    0.93190E+06         0.80491E+06         0.00000E+00
    0.80491E+06        -0.73660E+07         0.00000E+00
    0.00000E+00         0.00000E+00         0.00000E+00
 
    0.91068E+06         0.89886E+06         0.00000E+00
    0.89886E+06        -0.73647E+07         0.00000E+00
    0.00000E+00         0.00000E+00         0.00000E+00
 
    0.88949E+06         0.99267E+06         0.00000E+00
    0.99267E+06        -0.73632E+07         0.00000E+00
    0.00000E+00         0.00000E+00         0.00000E+00
 
    0.86831E+06         0.10864E+07         0.00000E+00
    0.10864E+07        -0.73615E+07         0.00000E+00
    0.00000E+00         0.00000E+00         0.00000E+00
 
    0.84714E+06         0.11799E+07         0.00000E+00
    0.11799E+07        -0.73596E+07         0.00000E+00
    0.00000E+00         0.00000E+00         0.00000E+00
 
    0.82598E+06         0.12734E+07         0.00000E+00
    0.12734E+07        -0.73576E+07         0.00000E+00
    0.00000E+00         0.00000E+00         0.00000E+00
 
    0.80482E+06         0.13667E+07         0.00000E+00
    0.13667E+07        -0.73554E+07         0.00000E+00
    0.00000E+00         0.00000E+00         0.00000E+00
 
    0.78366E+06         0.14599E+07         0.00000E+00
    0.14599E+07        -0.73530E+07         0.00000E+00
    0.00000E+00         0.00000E+00         0.00000E+00
 
    0.76249E+06         0.15530E+07         0.00000E+00
    0.15530E+07        -0.73504E+07         0.00000E+00
    0.00000E+00         0.00000E+00         0.00000E+00
 
    0.74131E+06         0.16460E+07         0.00000E+00
    0.16460E+07        -0.73476E+07         0.00000E+00
    0.00000E+00         0.00000E+00         0.00000E+00
 
    0.72010E+06         0.17390E+07         0.00000E+00
    0.17390E+07        -0.73446E+07         0.00000E+00
    0.00000E+00         0.00000E+00         0.00000E+00
 
    0.69887E+06         0.18318E+07         0.00000E+00
    0.18318E+07        -0.73414E+07         0.00000E+00
    0.00000E+00         0.00000E+00         0.00000E+00
 
    0.67761E+06         0.19245E+07         0.00000E+00
    0.19245E+07        -0.73379E+07         0.00000E+00
    0.00000E+00         0.00000E+00         0.00000E+00
 
    0.65631E+06         0.20172E+07         0.00000E+00
    0.20172E+07        -0.73343E+07         0.00000E+00
    0.00000E+00         0.00000E+00         0.00000E+00
 
    0.63496E+06         0.21098E+07         0.00000E+00
    0.21098E+07        -0.73304E+07         0.00000E+00
    0.00000E+00         0.00000E+00         0.00000E+00
 
    0.61356E+06         0.22023E+07         0.00000E+00
    0.22023E+07        -0.73263E+07         0.00000E+00
    0.00000E+00         0.00000E+00         0.00000E+00
 
    0.59210E+06         0.22947E+07         0.00000E+00
    0.22947E+07        -0.73219E+07         0.00000E+00
    0.00000E+00         0.00000E+00         0.00000E+00
 
    0.57057E+06         0.23871E+07         0.00000E+00
    0.23871E+07        -0.73173E+07         0.00000E+00
    0.00000E+00         0.00000E+00         0.00000E+00
 
    0.54897E+06         0.24794E+07         0.00000E+00
    0.24794E+07        -0.73125E+07         0.00000E+00
    0.00000E+00         0.00000E+00         0.00000E+00
 
    0.52729E+06         0.25716E+07         0.00000E+00
    0.25716E+07        -0.73074E+07         0.00000E+00
    0.00000E+00         0.00000E+00         0.00000E+00
 
    0.50552E+06         0.26638E+07         0.00000E+00
    0.26638E+07        -0.73020E+07         0.00000E+00
    0.00000E+00         0.00000E+00         0.00000E+00
 
    0.48366E+06         0.27559E+07         0.00000E+00
    0.27559E+07        -0.72964E+07         0.00000E+00
    0.00000E+00         0.00000E+00         0.00000E+00
 
    0.46169E+06         0.28480E+07         0.00000E+00
    0.28480E+07        -0.72905E+07         0.00000E+00
    0.00000E+00         0.00000E+00         0.00000E+00
 
    0.43960E+06         0.29400E+07         0.00000E+00
    0.29400E+07        -0.72843E+07         0.00000E+00
    0.00000E+00         0.00000E+00         0.00000E+00
 
    0.41740E+06         0.30320E+07         0.00000E+00
    0.30320E+07        -0.72778E+07         0.00000E+00
    0.00000E+00         0.00000E+00         0.00000E+00
 
    0.39507E+06         0.31239E+07         0.00000E+00
    0.31239E+07        -0.72710E+07         0.00000E+00
    0.00000E+00         0.00000E+00         0.00000E+00
 
    0.37260E+06         0.32158E+07         0.00000E+00
    0.32158E+07        -0.72639E+07         0.00000E+00
    0.00000E+00         0.00000E+00         0.00000E+00
 
    0.34999E+06         0.33076E+07         0.00000E+00
    0.33076E+07        -0.72565E+07         0.00000E+00
    0.00000E+00         0.00000E+00         0.00000E+00
 
    0.32722E+06         0.33994E+07         0.00000E+00
    0.33994E+07        -0.72488E+07         0.00000E+00
    0.00000E+00         0.00000E+00         0.00000E+00
 
    0.30428E+06         0.34912E+07         0.00000E+00
    0.34912E+07        -0.72407E+07         0.00000E+00
    0.00000E+00         0.00000E+00         0.00000E+00
 
    0.28118E+06         0.35829E+07         0.00000E+00
    0.35829E+07        -0.72324E+07         0.00000E+00
    0.00000E+00         0.00000E+00         0.00000E+00
 
    0.25789E+06         0.36745E+07         0.00000E+00
    0.36745E+07        -0.72237E+07         0.00000E+00
    0.00000E+00         0.00000E+00         0.00000E+00
 
    0.23441E+06         0.37662E+07         0.00000E+00
    0.37662E+07        -0.72146E+07         0.00000E+00
    0.00000E+00         0.00000E+00         0.00000E+00
 
    0.21073E+06         0.38578E+07         0.00000E+00
    0.38578E+07        -0.72052E+07         0.00000E+00
    0.00000E+00         0.00000E+00         0.00000E+00
 
    0.18684E+06         0.39493E+07         0.00000E+00
    0.39493E+07        -0.71954E+07         0.00000E+00
    0.00000E+00         0.00000E+00         0.00000E+00
 
    0.16273E+06         0.40408E+07         0.00000E+00
    0.40408E+07        -0.71853E+07         0.00000E+00
    0.00000E+00         0.00000E+00         0.00000E+00
 
    0.13839E+06         0.41323E+07         0.00000E+00
    0.41323E+07        -0.71748E+07         0.00000E+00
    0.00000E+00         0.00000E+00         0.00000E+00
 
    0.11381E+06         0.42238E+07         0.00000E+00
    0.42238E+07        -0.71638E+07         0.00000E+00
    0.00000E+00         0.00000E+00         0.00000E+00
 
    0.88982E+05         0.43152E+07         0.00000E+00
    0.43152E+07        -0.71525E+07         0.00000E+00
    0.00000E+00         0.00000E+00         0.00000E+00
 
    0.63892E+05         0.44065E+07         0.00000E+00
    0.44065E+07        -0.71408E+07         0.00000E+00
    0.00000E+00         0.00000E+00         0.00000E+00
 
    0.38532E+05         0.44978E+07         0.00000E+00
    0.44978E+07        -0.71287E+07         0.00000E+00
    0.00000E+00         0.00000E+00         0.00000E+00
 
    0.12892E+05         0.45891E+07         0.00000E+00
    0.45891E+07        -0.71162E+07         0.00000E+00
    0.00000E+00         0.00000E+00         0.00000E+00
 
    0.11213E+07         0.48278E+05         0.00000E+00
    0.48278E+05        -0.78314E+07         0.00000E+00
    0.00000E+00         0.00000E+00         0.00000E+00
 
    0.10989E+07         0.14434E+06         0.00000E+00
    0.14434E+06        -0.78312E+07         0.00000E+00
    0.00000E+00         0.00000E+00         0.00000E+00
 
    0.10766E+07         0.24023E+06         0.00000E+00
    0.24023E+06        -0.78310E+07         0.00000E+00
    0.00000E+00         0.00000E+00         0.00000E+00
 
    0.10543E+07         0.33595E+06         0.00000E+00
    0.33595E+06        -0.78306E+07         0.00000E+00
    0.00000E+00         0.00000E+00         0.00000E+00
 
    0.10321E+07         0.43152E+06         0.00000E+00
    0.43152E+06        -0.78301E+07         0.00000E+00
    0.00000E+00         0.00000E+00         0.00000E+00
 
    0.10100E+07         0.52694E+06         0.00000E+00
    0.52694E+06        -0.78294E+07         0.00000E+00
    0.00000E+00         0.00000E+00         0.00000E+00
 
    0.98793E+06         0.62221E+06         0.00000E+00
    0.62221E+06        -0.78286E+07         0.00000E+00
    0.00000E+00         0.00000E+00         0.00000E+00
 
    0.96593E+06         0.71734E+06         0.00000E+00
    0.71734E+06        -0.78277E+07         0.00000E+00
    0.00000E+00         0.00000E+00         0.00000E+00
 
    0.94400E+06         0.81234E+06         0.00000E+00
    0.81234E+06        -0.78266E+07         0.00000E+00
    0.00000E+00         0.00000E+00         0.00000E+00
 
    0.92211E+06         0.90722E+06         0.00000E+00
    0.90722E+06        -0.78253E+07         0.00000E+00
    0.00000E+00         0.00000E+00         0.00000E+00
 
    0.90028E+06         0.10020E+07         0.00000E+00
    0.10020E+07        -0.78239E+07         0.00000E+00
    0.00000E+00         0.00000E+00         0.00000E+00
 
    0.87848E+06         0.10966E+07         0.00000E+00
    0.10966E+07        -0.78223E+07         0.00000E+00
    0.00000E+00         0.00000E+00         0.00000E+00
 
    0.85673E+06         0.11911E+07         0.00000E+00
    0.11911E+07        -0.78206E+07         0.00000E+00
    0.00000E+00         0.00000E+00         0.00000E+00
 
    0.83500E+06         0.12856E+07         0.00000E+00
    0.12856E+07        -0.78186E+07         0.00000E+00
    0.00000E+00         0.00000E+00         0.00000E+00
 
    0.81331E+06         0.13799E+07         0.00000E+00
    0.13799E+07        -0.78165E+07         0.00000E+00
    0.00000E+00         0.00000E+00         0.00000E+00
 
    0.79163E+06         0.14742E+07         0.00000E+00
    0.14742E+07        -0.78142E+07         0.00000E+00
    0.00000E+00         0.00000E+00         0.00000E+00
 
    0.76997E+06         0.15683E+07         0.00000E+00
    0.15683E+07        -0.78118E+07         0.00000E+00
    0.00000E+00         0.00000E+00         0.00000E+00
 
    0.74832E+06         0.16624E+07         0.00000E+00
    0.16624E+07        -0.78091E+07         0.00000E+00
    0.00000E+00         0.00000E+00         0.00000E+00
 
    0.72667E+06         0.17564E+07         0.00000E+00
    0.17564E+07        -0.78062E+07         0.00000E+00
    0.00000E+00         0.00000E+00         0.00000E+00
 
    0.70502E+06         0.18503E+07         0.00000E+00
    0.18503E+07        -0.78031E+07         0.00000E+00
    0.00000E+00         0.00000E+00         0.00000E+00
 
    0.68335E+06         0.19442E+07         0.00000E+00
    0.19442E+07        -0.77998E+07         0.00000E+00
    0.00000E+00         0.00000E+00         0.00000E+00
 
    0.66167E+06         0.20380E+07         0.00000E+00
    0.20380E+07        -0.77963E+07         0.00000E+00
    0.00000E+00         0.00000E+00         0.00000E+00
 
    0.63996E+06         0.21317E+07         0.00000E+00
    0.21317E+07        -0.77926E+07         0.00000E+00
    0.00000E+00         0.00000E+00         0.00000E+00
 
    0.61822E+06         0.22254E+07         0.00000E+00
    0.22254E+07        -0.77886E+07         0.00000E+00
    0.00000E+00         0.00000E+00         0.00000E+00
 
    0.59644E+06         0.23191E+07         0.00000E+00
    0.23191E+07        -0.77844E+07         0.00000E+00
    0.00000E+00         0.00000E+00         0.00000E+00
 
    0.57461E+06         0.24127E+07         0.00000E+00
    0.24127E+07        -0.77799E+07         0.00000E+00
    0.00000E+00         0.00000E+00         0.00000E+00
 
    0.55272E+06         0.25063E+07         0.00000E+00
    0.25063E+07        -0.77752E+07         0.00000E+00
    0.00000E+00         0.00000E+00         0.00000E+00
 
    0.53077E+06         0.25998E+07         0.00000E+00
    0.25998E+07        -0.77703E+07         0.00000E+00
    0.00000E+00         0.00000E+00         0.00000E+00
 
    0.50874E+06         0.26933E+07         0.00000E+00
    0.26933E+07        -0.77650E+07         0.00000E+00
    0.00000E+00         0.00000E+00         0.00000E+00
 
    0.48664E+06         0.27867E+07         0.00000E+00
    0.27867E+07        -0.77595E+07         0.00000E+00
    0.00000E+00         0.00000E+00         0.00000E+00
 
    0.46444E+06         0.28802E+07         0.00000E+00
    0.28802E+07        -0.77538E+07         0.00000E+00
    0.00000E+00         0.00000E+00         0.00000E+00
 
    0.44215E+06         0.29736E+07         0.00000E+00
    0.29736E+07        -0.77477E+07         0.00000E+00
    0.00000E+00         0.00000E+00         0.00000E+00
 
    0.41975E+06         0.30670E+07         0.00000E+00
    0.30670E+07        -0.77413E+07         0.00000E+00
    0.00000E+00         0.00000E+00         0.00000E+00
 
    0.39723E+06         0.31603E+07         0.00000E+00
    0.31603E+07        -0.77347E+07         0.00000E+00
    0.00000E+00         0.00000E+00         0.00000E+00
 
    0.37459E+06         0.32537E+07         0.00000E+00
    0.32537E+07        -0.77277E+07         0.00000E+00
    0.00000E+00         0.00000E+00         0.00000E+00
 
    0.35181E+06         0.33470E+07         0.00000E+00
    0.33470E+07        -0.77204E+07         0.00000E+00
    0.00000E+00         0.00000E+00         0.00000E+00
 
    0.32888E+06         0.34404E+07         0.00000E+00
    0.34404E+07        -0.77128E+07         0.00000E+00
    0.00000E+00         0.00000E+00         0.00000E+00
 
    0.30580E+06         0.35337E+07         0.00000E+00
    0.35337E+07        -0.77049E+07         0.00000E+00
    0.00000E+00         0.00000E+00         0.00000E+00
 
    0.28255E+06         0.36270E+07         0.00000E+00
    0.36270E+07        -0.76966E+07         0.00000E+00
    0.00000E+00         0.00000E+00         0.00000E+00
 
    0.25913E+06         0.37203E+07         0.00000E+00
    0.37203E+07        -0.76879E+07         0.00000E+00
    0.00000E+00         0.00000E+00         0.00000E+00
 
    0.23552E+06         0.38136E+07         0.00000E+00
    0.38136E+07        -0.76790E+07         0.00000E+00
    0.00000E+00         0.00000E+00         0.00000E+00
 
    0.21172E+06         0.39069E+07         0.00000E+00
    0.39069E+07        -0.76696E+07         0.00000E+00
    0.00000E+00         0.00000E+00         0.00000E+00
 
    0.18771E+06         0.40002E+07         0.00000E+00
    0.40002E+07        -0.76599E+07         0.00000E+00
    0.00000E+00         0.00000E+00         0.00000E+00
 
    0.16348E+06         0.40935E+07         0.00000E+00
    0.40935E+07        -0.76498E+07         0.00000E+00
    0.00000E+00         0.00000E+00         0.00000E+00
 
    0.13903E+06         0.41867E+07         0.00000E+00
    0.41867E+07        -0.76393E+07         0.00000E+00
    0.00000E+00         0.00000E+00         0.00000E+00
 
    0.11434E+06         0.42800E+07         0.00000E+00
    0.42800E+07        -0.76284E+07         0.00000E+00
    0.00000E+00         0.00000E+00         0.00000E+00
 
    0.89394E+05         0.43733E+07         0.00000E+00
    0.43733E+07        -0.76171E+07         0.00000E+00
    0.00000E+00         0.00000E+00         0.00000E+00
 
    0.64189E+05         0.44666E+07         0.00000E+00
    0.44666E+07        -0.76054E+07         0.00000E+00
    0.00000E+00         0.00000E+00         0.00000E+00
 
    0.38713E+05         0.45598E+07         0.00000E+00
    0.45598E+07        -0.75932E+07         0.00000E+00
    0.00000E+00         0.00000E+00         0.00000E+00
 
    0.12953E+05         0.46531E+07         0.00000E+00
    0.46531E+07        -0.75806E+07         0.00000E+00
    0.00000E+00         0.00000E+00         0.00000E+00
 
    0.11336E+07         0.48668E+05         0.00000E+00
    0.48668E+05        -0.83019E+07         0.00000E+00
    0.00000E+00         0.00000E+00         0.00000E+00
 
    0.11103E+07         0.14553E+06         0.00000E+00
    0.14553E+06        -0.83018E+07         0.00000E+00
    0.00000E+00         0.00000E+00         0.00000E+00
 
    0.10871E+07         0.24223E+06         0.00000E+00
    0.24223E+06        -0.83015E+07         0.00000E+00
    0.00000E+00         0.00000E+00         0.00000E+00
 
    0.10641E+07         0.33877E+06         0.00000E+00
    0.33877E+06        -0.83012E+07         0.00000E+00
    0.00000E+00         0.00000E+00         0.00000E+00
 
    0.10411E+07         0.43517E+06         0.00000E+00
    0.43517E+06        -0.83007E+07         0.00000E+00
    0.00000E+00         0.00000E+00         0.00000E+00
 
    0.10183E+07         0.53143E+06         0.00000E+00
    0.53143E+06        -0.83001E+07         0.00000E+00
    0.00000E+00         0.00000E+00         0.00000E+00
 
    0.99554E+06         0.62755E+06         0.00000E+00
    0.62755E+06        -0.82994E+07         0.00000E+00
    0.00000E+00         0.00000E+00         0.00000E+00
 
    0.97289E+06         0.72355E+06         0.00000E+00
    0.72355E+06        -0.82985E+07         0.00000E+00
    0.00000E+00         0.00000E+00         0.00000E+00
 
    0.95032E+06         0.81943E+06         0.00000E+00
    0.81943E+06        -0.82975E+07         0.00000E+00
    0.00000E+00         0.00000E+00         0.00000E+00
 
    0.92784E+06         0.91520E+06         0.00000E+00
    0.91520E+06        -0.82964E+07         0.00000E+00
    0.00000E+00         0.00000E+00         0.00000E+00
 
    0.90544E+06         0.10109E+07         0.00000E+00
    0.10109E+07        -0.82951E+07         0.00000E+00
    0.00000E+00         0.00000E+00         0.00000E+00
 
    0.88311E+06         0.11064E+07         0.00000E+00
    0.11064E+07        -0.82936E+07         0.00000E+00
    0.00000E+00         0.00000E+00         0.00000E+00
 
    0.86085E+06         0.12019E+07         0.00000E+00
    0.12019E+07        -0.82920E+07         0.00000E+00
    0.00000E+00         0.00000E+00         0.00000E+00
 
    0.83865E+06         0.12973E+07         0.00000E+00
    0.12973E+07        -0.82902E+07         0.00000E+00
    0.00000E+00         0.00000E+00         0.00000E+00
 
    0.81651E+06         0.13926E+07         0.00000E+00
    0.13926E+07        -0.82882E+07         0.00000E+00
    0.00000E+00         0.00000E+00         0.00000E+00
 
    0.79441E+06         0.14878E+07         0.00000E+00
    0.14878E+07        -0.82861E+07         0.00000E+00
    0.00000E+00         0.00000E+00         0.00000E+00
 
    0.77236E+06         0.15830E+07         0.00000E+00
    0.15830E+07        -0.82838E+07         0.00000E+00
    0.00000E+00         0.00000E+00         0.00000E+00
 
    0.75034E+06         0.16781E+07         0.00000E+00
    0.16781E+07        -0.82813E+07         0.00000E+00
    0.00000E+00         0.00000E+00         0.00000E+00
 
    0.72835E+06         0.17732E+07         0.00000E+00
    0.17732E+07        -0.82786E+07         0.00000E+00
    0.00000E+00         0.00000E+00         0.00000E+00
 
    0.70638E+06         0.18682E+07         0.00000E+00
    0.18682E+07        -0.82757E+07         0.00000E+00
    0.00000E+00         0.00000E+00         0.00000E+00
 
    0.68443E+06         0.19632E+07         0.00000E+00
    0.19632E+07        -0.82725E+07         0.00000E+00
    0.00000E+00         0.00000E+00         0.00000E+00
 
    0.66248E+06         0.20581E+07         0.00000E+00
    0.20581E+07        -0.82692E+07         0.00000E+00
    0.00000E+00         0.00000E+00         0.00000E+00
 
    0.64053E+06         0.21530E+07         0.00000E+00
    0.21530E+07        -0.82657E+07         0.00000E+00
    0.00000E+00         0.00000E+00         0.00000E+00
 
    0.61857E+06         0.22479E+07         0.00000E+00
    0.22479E+07        -0.82619E+07         0.00000E+00
    0.00000E+00         0.00000E+00         0.00000E+00
 
    0.59659E+06         0.23427E+07         0.00000E+00
    0.23427E+07        -0.82579E+07         0.00000E+00
    0.00000E+00         0.00000E+00         0.00000E+00
 
    0.57459E+06         0.24376E+07         0.00000E+00
    0.24376E+07        -0.82536E+07         0.00000E+00
    0.00000E+00         0.00000E+00         0.00000E+00
 
    0.55255E+06         0.25324E+07         0.00000E+00
    0.25324E+07        -0.82491E+07         0.00000E+00
    0.00000E+00         0.00000E+00         0.00000E+00
 
    0.53046E+06         0.26272E+07         0.00000E+00
    0.26272E+07        -0.82443E+07         0.00000E+00
    0.00000E+00         0.00000E+00         0.00000E+00
 
    0.50832E+06         0.27220E+07         0.00000E+00
    0.27220E+07        -0.82393E+07         0.00000E+00
    0.00000E+00         0.00000E+00         0.00000E+00
 
    0.48612E+06         0.28168E+07         0.00000E+00
    0.28168E+07        -0.82340E+07         0.00000E+00
    0.00000E+00         0.00000E+00         0.00000E+00
 
    0.46385E+06         0.29116E+07         0.00000E+00
    0.29116E+07        -0.82284E+07         0.00000E+00
    0.00000E+00         0.00000E+00         0.00000E+00
 
    0.44149E+06         0.30064E+07         0.00000E+00
    0.30064E+07        -0.82226E+07         0.00000E+00
    0.00000E+00         0.00000E+00         0.00000E+00
 
    0.41904E+06         0.31013E+07         0.00000E+00
    0.31013E+07        -0.82164E+07         0.00000E+00
    0.00000E+00         0.00000E+00         0.00000E+00
 
    0.39649E+06         0.31961E+07         0.00000E+00
    0.31961E+07        -0.82099E+07         0.00000E+00
    0.00000E+00         0.00000E+00         0.00000E+00
 
    0.37382E+06         0.32910E+07         0.00000E+00
    0.32910E+07        -0.82032E+07         0.00000E+00
    0.00000E+00         0.00000E+00         0.00000E+00
 
    0.35104E+06         0.33858E+07         0.00000E+00
    0.33858E+07        -0.81961E+07         0.00000E+00
    0.00000E+00         0.00000E+00         0.00000E+00
 
    0.32812E+06         0.34807E+07         0.00000E+00
    0.34807E+07        -0.81886E+07         0.00000E+00
    0.00000E+00         0.00000E+00         0.00000E+00
 
    0.30505E+06         0.35756E+07         0.00000E+00
    0.35756E+07        -0.81809E+07         0.00000E+00
    0.00000E+00         0.00000E+00         0.00000E+00
 
    0.28183E+06         0.36706E+07         0.00000E+00
    0.36706E+07        -0.81728E+07         0.00000E+00
    0.00000E+00         0.00000E+00         0.00000E+00
 
    0.25845E+06         0.37656E+07         0.00000E+00
    0.37656E+07        -0.81643E+07         0.00000E+00
    0.00000E+00         0.00000E+00         0.00000E+00
 
    0.23489E+06         0.38606E+07         0.00000E+00
    0.38606E+07        -0.81555E+07         0.00000E+00
    0.00000E+00         0.00000E+00         0.00000E+00
 
    0.21113E+06         0.39556E+07         0.00000E+00
    0.39556E+07        -0.81462E+07         0.00000E+00
    0.00000E+00         0.00000E+00         0.00000E+00
 
    0.18718E+06         0.40507E+07         0.00000E+00
    0.40507E+07        -0.81367E+07         0.00000E+00
    0.00000E+00         0.00000E+00         0.00000E+00
 
    0.16302E+06         0.41458E+07         0.00000E+00
    0.41458E+07        -0.81267E+07         0.00000E+00
    0.00000E+00         0.00000E+00         0.00000E+00
 
    0.13863E+06         0.42409E+07         0.00000E+00
    0.42409E+07        -0.81163E+07         0.00000E+00
    0.00000E+00         0.00000E+00         0.00000E+00
 
    0.11401E+06         0.43361E+07         0.00000E+00
    0.43361E+07        -0.81055E+07         0.00000E+00
    0.00000E+00         0.00000E+00         0.00000E+00
 
    0.89139E+05         0.44313E+07         0.00000E+00
    0.44313E+07        -0.80943E+07         0.00000E+00
    0.00000E+00         0.00000E+00         0.00000E+00
 
    0.64008E+05         0.45265E+07         0.00000E+00
    0.45265E+07        -0.80827E+07         0.00000E+00
    0.00000E+00         0.00000E+00         0.00000E+00
 
    0.38605E+05         0.46218E+07         0.00000E+00
    0.46218E+07        -0.80706E+07         0.00000E+00
    0.00000E+00         0.00000E+00         0.00000E+00
 
    0.12917E+05         0.47171E+07         0.00000E+00
    0.47171E+07        -0.80581E+07         0.00000E+00
    0.00000E+00         0.00000E+00         0.00000E+00
 
    0.11390E+07         0.49030E+05         0.00000E+00
    0.49030E+05        -0.87830E+07         0.00000E+00
    0.00000E+00         0.00000E+00         0.00000E+00
 
    0.11149E+07         0.14664E+06         0.00000E+00
    0.14664E+06        -0.87830E+07         0.00000E+00
    0.00000E+00         0.00000E+00         0.00000E+00
 
    0.10910E+07         0.24409E+06         0.00000E+00
    0.24409E+06        -0.87828E+07         0.00000E+00
    0.00000E+00         0.00000E+00         0.00000E+00
 
    0.10672E+07         0.34140E+06         0.00000E+00
    0.34140E+06        -0.87825E+07         0.00000E+00
    0.00000E+00         0.00000E+00         0.00000E+00
 
    0.10436E+07         0.43857E+06         0.00000E+00
    0.43857E+06        -0.87820E+07         0.00000E+00
    0.00000E+00         0.00000E+00         0.00000E+00
 
    0.10201E+07         0.53562E+06         0.00000E+00
    0.53562E+06        -0.87815E+07         0.00000E+00
    0.00000E+00         0.00000E+00         0.00000E+00
 
    0.99668E+06         0.63254E+06         0.00000E+00
    0.63254E+06        -0.87809E+07         0.00000E+00
    0.00000E+00         0.00000E+00         0.00000E+00
 
    0.97344E+06         0.72936E+06         0.00000E+00
    0.72936E+06        -0.87801E+07         0.00000E+00
    0.00000E+00         0.00000E+00         0.00000E+00
 
    0.95032E+06         0.82607E+06         0.00000E+00
    0.82607E+06        -0.87792E+07         0.00000E+00
    0.00000E+00         0.00000E+00         0.00000E+00
 
    0.92732E+06         0.92268E+06         0.00000E+00
    0.92268E+06        -0.87782E+07         0.00000E+00
    0.00000E+00         0.00000E+00         0.00000E+00
 
    0.90444E+06         0.10192E+07         0.00000E+00
    0.10192E+07        -0.87770E+07         0.00000E+00
    0.00000E+00         0.00000E+00         0.00000E+00
 
    0.88166E+06         0.11157E+07         0.00000E+00
    0.11157E+07        -0.87757E+07         0.00000E+00
    0.00000E+00         0.00000E+00         0.00000E+00
 
    0.85898E+06         0.12120E+07         0.00000E+00
    0.12120E+07        -0.87743E+07         0.00000E+00
    0.00000E+00         0.00000E+00         0.00000E+00
 
    0.83640E+06         0.13083E+07         0.00000E+00
    0.13083E+07        -0.87726E+07         0.00000E+00
    0.00000E+00         0.00000E+00         0.00000E+00
 
    0.81391E+06         0.14046E+07         0.00000E+00
    0.14046E+07        -0.87709E+07         0.00000E+00
    0.00000E+00         0.00000E+00         0.00000E+00
 
    0.79150E+06         0.15008E+07         0.00000E+00
    0.15008E+07        -0.87689E+07         0.00000E+00
    0.00000E+00         0.00000E+00         0.00000E+00
 
    0.76916E+06         0.15969E+07         0.00000E+00
    0.15969E+07        -0.87668E+07         0.00000E+00
    0.00000E+00         0.00000E+00         0.00000E+00
 
    0.74689E+06         0.16931E+07         0.00000E+00
    0.16931E+07        -0.87645E+07         0.00000E+00
    0.00000E+00         0.00000E+00         0.00000E+00
 
    0.72468E+06         0.17892E+07         0.00000E+00
    0.17892E+07        -0.87620E+07         0.00000E+00
    0.00000E+00         0.00000E+00         0.00000E+00
 
    0.70251E+06         0.18852E+07         0.00000E+00
    0.18852E+07        -0.87593E+07         0.00000E+00
    0.00000E+00         0.00000E+00         0.00000E+00
 
    0.68039E+06         0.19813E+07         0.00000E+00
    0.19813E+07        -0.87565E+07         0.00000E+00
    0.00000E+00         0.00000E+00         0.00000E+00
 
    0.65831E+06         0.20773E+07         0.00000E+00
    0.20773E+07        -0.87534E+07         0.00000E+00
    0.00000E+00         0.00000E+00         0.00000E+00
 
    0.63625E+06         0.21733E+07         0.00000E+00
    0.21733E+07        -0.87501E+07         0.00000E+00
    0.00000E+00         0.00000E+00         0.00000E+00
 
    0.61420E+06         0.22694E+07         0.00000E+00
    0.22694E+07        -0.87465E+07         0.00000E+00
    0.00000E+00         0.00000E+00         0.00000E+00
 
    0.59217E+06         0.23654E+07         0.00000E+00
    0.23654E+07        -0.87428E+07         0.00000E+00
    0.00000E+00         0.00000E+00         0.00000E+00
 
    0.57013E+06         0.24614E+07         0.00000E+00
    0.24614E+07        -0.87388E+07         0.00000E+00
    0.00000E+00         0.00000E+00         0.00000E+00
 
    0.54808E+06         0.25575E+07         0.00000E+00
    0.25575E+07        -0.87346E+07         0.00000E+00
    0.00000E+00         0.00000E+00         0.00000E+00
 
    0.52601E+06         0.26536E+07         0.00000E+00
    0.26536E+07        -0.87301E+07         0.00000E+00
    0.00000E+00         0.00000E+00         0.00000E+00
 
    0.50391E+06         0.27497E+07         0.00000E+00
    0.27497E+07        -0.87253E+07         0.00000E+00
    0.00000E+00         0.00000E+00         0.00000E+00
 
    0.48176E+06         0.28459E+07         0.00000E+00
    0.28459E+07        -0.87203E+07         0.00000E+00
    0.00000E+00         0.00000E+00         0.00000E+00
 
    0.45957E+06         0.29420E+07         0.00000E+00
    0.29420E+07        -0.87150E+07         0.00000E+00
    0.00000E+00         0.00000E+00         0.00000E+00
 
    0.43731E+06         0.30383E+07         0.00000E+00
    0.30383E+07        -0.87094E+07         0.00000E+00
    0.00000E+00         0.00000E+00         0.00000E+00
 
    0.41498E+06         0.31345E+07         0.00000E+00
    0.31345E+07        -0.87035E+07         0.00000E+00
    0.00000E+00         0.00000E+00         0.00000E+00
 
    0.39256E+06         0.32308E+07         0.00000E+00
    0.32308E+07        -0.86973E+07         0.00000E+00
    0.00000E+00         0.00000E+00         0.00000E+00
 
    0.37005E+06         0.33272E+07         0.00000E+00
    0.33272E+07        -0.86908E+07         0.00000E+00
    0.00000E+00         0.00000E+00         0.00000E+00
 
    0.34743E+06         0.34236E+07         0.00000E+00
    0.34236E+07        -0.86840E+07         0.00000E+00
    0.00000E+00         0.00000E+00         0.00000E+00
 
    0.32470E+06         0.35201E+07         0.00000E+00
    0.35201E+07        -0.86768E+07         0.00000E+00
    0.00000E+00         0.00000E+00         0.00000E+00
 
    0.30183E+06         0.36166E+07         0.00000E+00
    0.36166E+07        -0.86693E+07         0.00000E+00
    0.00000E+00         0.00000E+00         0.00000E+00
 
    0.27882E+06         0.37132E+07         0.00000E+00
    0.37132E+07        -0.86614E+07         0.00000E+00
    0.00000E+00         0.00000E+00         0.00000E+00
 
    0.25566E+06         0.38099E+07         0.00000E+00
    0.38099E+07        -0.86532E+07         0.00000E+00
    0.00000E+00         0.00000E+00         0.00000E+00
 
    0.23233E+06         0.39066E+07         0.00000E+00
    0.39066E+07        -0.86446E+07         0.00000E+00
    0.00000E+00         0.00000E+00         0.00000E+00
 
    0.20882E+06         0.40035E+07         0.00000E+00
    0.40035E+07        -0.86357E+07         0.00000E+00
    0.00000E+00         0.00000E+00         0.00000E+00
 
    0.18512E+06         0.41003E+07         0.00000E+00
    0.41003E+07        -0.86263E+07         0.00000E+00
    0.00000E+00         0.00000E+00         0.00000E+00
 
    0.16122E+06         0.41973E+07         0.00000E+00
    0.41973E+07        -0.86166E+07         0.00000E+00
    0.00000E+00         0.00000E+00         0.00000E+00
 
    0.13710E+06         0.42943E+07         0.00000E+00
    0.42943E+07        -0.86064E+07         0.00000E+00
    0.00000E+00         0.00000E+00         0.00000E+00
 
    0.11275E+06         0.43914E+07         0.00000E+00
    0.43914E+07        -0.85958E+07         0.00000E+00
    0.00000E+00         0.00000E+00         0.00000E+00
 
    0.88153E+05         0.44886E+07         0.00000E+00
    0.44886E+07        -0.85848E+07         0.00000E+00
    0.00000E+00         0.00000E+00         0.00000E+00
 
    0.63302E+05         0.45859E+07         0.00000E+00
    0.45859E+07        -0.85733E+07         0.00000E+00
    0.00000E+00         0.00000E+00         0.00000E+00
 
    0.38180E+05         0.46832E+07         0.00000E+00
    0.46832E+07        -0.85614E+07         0.00000E+00
    0.00000E+00         0.00000E+00         0.00000E+00
 
    0.12775E+05         0.47807E+07         0.00000E+00
    0.47807E+07        -0.85491E+07         0.00000E+00
    0.00000E+00         0.00000E+00         0.00000E+00
 
    0.11370E+07         0.49355E+05         0.00000E+00
    0.49355E+05        -0.92752E+07         0.00000E+00
    0.00000E+00         0.00000E+00         0.00000E+00
 
    0.11122E+07         0.14764E+06         0.00000E+00
    0.14764E+06        -0.92751E+07         0.00000E+00
    0.00000E+00         0.00000E+00         0.00000E+00
 
    0.10875E+07         0.24578E+06         0.00000E+00
    0.24578E+06        -0.92750E+07         0.00000E+00
    0.00000E+00         0.00000E+00         0.00000E+00
 
    0.10631E+07         0.34378E+06         0.00000E+00
    0.34378E+06        -0.92747E+07         0.00000E+00
    0.00000E+00         0.00000E+00         0.00000E+00
 
    0.10388E+07         0.44166E+06         0.00000E+00
    0.44166E+06        -0.92744E+07         0.00000E+00
    0.00000E+00         0.00000E+00         0.00000E+00
 
    0.10147E+07         0.53943E+06         0.00000E+00
    0.53943E+06        -0.92739E+07         0.00000E+00
    0.00000E+00         0.00000E+00         0.00000E+00
 
    0.99074E+06         0.63709E+06         0.00000E+00
    0.63709E+06        -0.92734E+07         0.00000E+00
    0.00000E+00         0.00000E+00         0.00000E+00
 
    0.96698E+06         0.73465E+06         0.00000E+00
    0.73465E+06        -0.92727E+07         0.00000E+00
    0.00000E+00         0.00000E+00         0.00000E+00
 
    0.94339E+06         0.83213E+06         0.00000E+00
    0.83213E+06        -0.92720E+07         0.00000E+00
    0.00000E+00         0.00000E+00         0.00000E+00
 
    0.91996E+06         0.92953E+06         0.00000E+00
    0.92953E+06        -0.92711E+07         0.00000E+00
    0.00000E+00         0.00000E+00         0.00000E+00
 
    0.89668E+06         0.10269E+07         0.00000E+00
    0.10269E+07        -0.92701E+07         0.00000E+00
    0.00000E+00         0.00000E+00         0.00000E+00
 
    0.87355E+06         0.11241E+07         0.00000E+00
    0.11241E+07        -0.92690E+07         0.00000E+00
    0.00000E+00         0.00000E+00         0.00000E+00
 
    0.85056E+06         0.12213E+07         0.00000E+00
    0.12213E+07        -0.92677E+07         0.00000E+00
    0.00000E+00         0.00000E+00         0.00000E+00
 
    0.82770E+06         0.13185E+07         0.00000E+00
    0.13185E+07        -0.92663E+07         0.00000E+00
    0.00000E+00         0.00000E+00         0.00000E+00
 
    0.80497E+06         0.14156E+07         0.00000E+00
    0.14156E+07        -0.92648E+07         0.00000E+00
    0.00000E+00         0.00000E+00         0.00000E+00
 
    0.78235E+06         0.15128E+07         0.00000E+00
    0.15128E+07        -0.92631E+07         0.00000E+00
    0.00000E+00         0.00000E+00         0.00000E+00
 
    0.75985E+06         0.16098E+07         0.00000E+00
    0.16098E+07        -0.92612E+07         0.00000E+00
    0.00000E+00         0.00000E+00         0.00000E+00
 
    0.73744E+06         0.17069E+07         0.00000E+00
    0.17069E+07        -0.92592E+07         0.00000E+00
    0.00000E+00         0.00000E+00         0.00000E+00
 
    0.71513E+06         0.18040E+07         0.00000E+00
    0.18040E+07        -0.92570E+07         0.00000E+00
    0.00000E+00         0.00000E+00         0.00000E+00
 
    0.69291E+06         0.19011E+07         0.00000E+00
    0.19011E+07        -0.92546E+07         0.00000E+00
    0.00000E+00         0.00000E+00         0.00000E+00
 
    0.67076E+06         0.19981E+07         0.00000E+00
    0.19981E+07        -0.92520E+07         0.00000E+00
    0.00000E+00         0.00000E+00         0.00000E+00
 
    0.64868E+06         0.20953E+07         0.00000E+00
    0.20953E+07        -0.92492E+07         0.00000E+00
    0.00000E+00         0.00000E+00         0.00000E+00
 
    0.62665E+06         0.21924E+07         0.00000E+00
    0.21924E+07        -0.92462E+07         0.00000E+00
    0.00000E+00         0.00000E+00         0.00000E+00
 
    0.60467E+06         0.22895E+07         0.00000E+00
    0.22895E+07        -0.92430E+07         0.00000E+00
    0.00000E+00         0.00000E+00         0.00000E+00
 
    0.58273E+06         0.23867E+07         0.00000E+00
    0.23867E+07        -0.92396E+07         0.00000E+00
    0.00000E+00         0.00000E+00         0.00000E+00
 
    0.56081E+06         0.24840E+07         0.00000E+00
    0.24840E+07        -0.92359E+07         0.00000E+00
    0.00000E+00         0.00000E+00         0.00000E+00
 
    0.53892E+06         0.25812E+07         0.00000E+00
    0.25812E+07        -0.92320E+07         0.00000E+00
    0.00000E+00         0.00000E+00         0.00000E+00
 
    0.51702E+06         0.26786E+07         0.00000E+00
    0.26786E+07        -0.92278E+07         0.00000E+00
    0.00000E+00         0.00000E+00         0.00000E+00
 
    0.49513E+06         0.27760E+07         0.00000E+00
    0.27760E+07        -0.92234E+07         0.00000E+00
    0.00000E+00         0.00000E+00         0.00000E+00
 
    0.47321E+06         0.28735E+07         0.00000E+00
    0.28735E+07        -0.92188E+07         0.00000E+00
    0.00000E+00         0.00000E+00         0.00000E+00
 
    0.45127E+06         0.29710E+07         0.00000E+00
    0.29710E+07        -0.92138E+07         0.00000E+00
    0.00000E+00         0.00000E+00         0.00000E+00
 
    0.42929E+06         0.30686E+07         0.00000E+00
    0.30686E+07        -0.92086E+07         0.00000E+00
    0.00000E+00         0.00000E+00         0.00000E+00
 
    0.40726E+06         0.31663E+07         0.00000E+00
    0.31663E+07        -0.92030E+07         0.00000E+00
    0.00000E+00         0.00000E+00         0.00000E+00
 
    0.38516E+06         0.32641E+07         0.00000E+00
    0.32641E+07        -0.91972E+07         0.00000E+00
    0.00000E+00         0.00000E+00         0.00000E+00
 
    0.36299E+06         0.33620E+07         0.00000E+00
    0.33620E+07        -0.91911E+07         0.00000E+00
    0.00000E+00         0.00000E+00         0.00000E+00
 
    0.34073E+06         0.34599E+07         0.00000E+00
    0.34599E+07        -0.91846E+07         0.00000E+00
    0.00000E+00         0.00000E+00         0.00000E+00
 
    0.31838E+06         0.35580E+07         0.00000E+00
    0.35580E+07        -0.91778E+07         0.00000E+00
    0.00000E+00         0.00000E+00         0.00000E+00
 
    0.29590E+06         0.36562E+07         0.00000E+00
    0.36562E+07        -0.91706E+07         0.00000E+00
    0.00000E+00         0.00000E+00         0.00000E+00
 
    0.27331E+06         0.37545E+07         0.00000E+00
    0.37545E+07        -0.91631E+07         0.00000E+00
    0.00000E+00         0.00000E+00         0.00000E+00
 
    0.25057E+06         0.38528E+07         0.00000E+00
    0.38528E+07        -0.91553E+07         0.00000E+00
    0.00000E+00         0.00000E+00         0.00000E+00
 
    0.22768E+06         0.39513E+07         0.00000E+00
    0.39513E+07        -0.91470E+07         0.00000E+00
    0.00000E+00         0.00000E+00         0.00000E+00
 
    0.20463E+06         0.40499E+07         0.00000E+00
    0.40499E+07        -0.91384E+07         0.00000E+00
    0.00000E+00         0.00000E+00         0.00000E+00
 
    0.18139E+06         0.41487E+07         0.00000E+00
    0.41487E+07        -0.91294E+07         0.00000E+00
    0.00000E+00         0.00000E+00         0.00000E+00
 
    0.15796E+06         0.42475E+07         0.00000E+00
    0.42475E+07        -0.91200E+07         0.00000E+00
    0.00000E+00         0.00000E+00         0.00000E+00
 
    0.13432E+06         0.43465E+07         0.00000E+00
    0.43465E+07        -0.91101E+07         0.00000E+00
    0.00000E+00         0.00000E+00         0.00000E+00
 
    0.11047E+06         0.44456E+07         0.00000E+00
    0.44456E+07        -0.90999E+07         0.00000E+00
    0.00000E+00         0.00000E+00         0.00000E+00
 
    0.86370E+05         0.45448E+07         0.00000E+00
    0.45448E+07        -0.90891E+07         0.00000E+00
    0.00000E+00         0.00000E+00         0.00000E+00
 
    0.62023E+05         0.46441E+07         0.00000E+00
    0.46441E+07        -0.90780E+07         0.00000E+00
    0.00000E+00         0.00000E+00         0.00000E+00
 
    0.37411E+05         0.47436E+07         0.00000E+00
    0.47436E+07        -0.90664E+07         0.00000E+00
    0.00000E+00         0.00000E+00         0.00000E+00
 
    0.12518E+05         0.48432E+07         0.00000E+00
    0.48432E+07        -0.90543E+07         0.00000E+00
    0.00000E+00         0.00000E+00         0.00000E+00
 
    0.11269E+07         0.49636E+05         0.00000E+00
    0.49636E+05        -0.97786E+07         0.00000E+00
    0.00000E+00         0.00000E+00         0.00000E+00
 
    0.11014E+07         0.14850E+06         0.00000E+00
    0.14850E+06        -0.97785E+07         0.00000E+00
    0.00000E+00         0.00000E+00         0.00000E+00
 
    0.10760E+07         0.24724E+06         0.00000E+00
    0.24724E+06        -0.97784E+07         0.00000E+00
    0.00000E+00         0.00000E+00         0.00000E+00
 
    0.10509E+07         0.34586E+06         0.00000E+00
    0.34586E+06        -0.97782E+07         0.00000E+00
    0.00000E+00         0.00000E+00         0.00000E+00
 
    0.10261E+07         0.44436E+06         0.00000E+00
    0.44436E+06        -0.97780E+07         0.00000E+00
    0.00000E+00         0.00000E+00         0.00000E+00
 
    0.10015E+07         0.54276E+06         0.00000E+00
    0.54276E+06        -0.97777E+07         0.00000E+00
    0.00000E+00         0.00000E+00         0.00000E+00
 
    0.97705E+06         0.64108E+06         0.00000E+00
    0.64108E+06        -0.97772E+07         0.00000E+00
    0.00000E+00         0.00000E+00         0.00000E+00
 
    0.95286E+06         0.73931E+06         0.00000E+00
    0.73931E+06        -0.97767E+07         0.00000E+00
    0.00000E+00         0.00000E+00         0.00000E+00
 
    0.92889E+06         0.83748E+06         0.00000E+00
    0.83748E+06        -0.97761E+07         0.00000E+00
    0.00000E+00         0.00000E+00         0.00000E+00
 
    0.90512E+06         0.93558E+06         0.00000E+00
    0.93558E+06        -0.97755E+07         0.00000E+00
    0.00000E+00         0.00000E+00         0.00000E+00
 
    0.88155E+06         0.10336E+07         0.00000E+00
    0.10336E+07        -0.97747E+07         0.00000E+00
    0.00000E+00         0.00000E+00         0.00000E+00
 
    0.85816E+06         0.11317E+07         0.00000E+00
    0.11317E+07        -0.97738E+07         0.00000E+00
    0.00000E+00         0.00000E+00         0.00000E+00
 
    0.83497E+06         0.12296E+07         0.00000E+00
    0.12296E+07        -0.97727E+07         0.00000E+00
    0.00000E+00         0.00000E+00         0.00000E+00
 
    0.81195E+06         0.13276E+07         0.00000E+00
    0.13276E+07        -0.97716E+07         0.00000E+00
    0.00000E+00         0.00000E+00         0.00000E+00
 
    0.78909E+06         0.14256E+07         0.00000E+00
    0.14256E+07        -0.97703E+07         0.00000E+00
    0.00000E+00         0.00000E+00         0.00000E+00
 
    0.76640E+06         0.15235E+07         0.00000E+00
    0.15235E+07        -0.97689E+07         0.00000E+00
    0.00000E+00         0.00000E+00         0.00000E+00
 
    0.74386E+06         0.16215E+07         0.00000E+00
    0.16215E+07        -0.97673E+07         0.00000E+00
    0.00000E+00         0.00000E+00         0.00000E+00
 
    0.72146E+06         0.17194E+07         0.00000E+00
    0.17194E+07        -0.97656E+07         0.00000E+00
    0.00000E+00         0.00000E+00         0.00000E+00
 
    0.69919E+06         0.18174E+07         0.00000E+00
    0.18174E+07        -0.97637E+07         0.00000E+00
    0.00000E+00         0.00000E+00         0.00000E+00
 
    0.67705E+06         0.19155E+07         0.00000E+00
    0.19155E+07        -0.97617E+07         0.00000E+00
    0.00000E+00         0.00000E+00         0.00000E+00
 
    0.65502E+06         0.20135E+07         0.00000E+00
    0.20135E+07        -0.97594E+07         0.00000E+00
    0.00000E+00         0.00000E+00         0.00000E+00
 
    0.63309E+06         0.21116E+07         0.00000E+00
    0.21116E+07        -0.97570E+07         0.00000E+00
    0.00000E+00         0.00000E+00         0.00000E+00
 
    0.61125E+06         0.22098E+07         0.00000E+00
    0.22098E+07        -0.97544E+07         0.00000E+00
    0.00000E+00         0.00000E+00         0.00000E+00
 
    0.58950E+06         0.23080E+07         0.00000E+00
    0.23080E+07        -0.97516E+07         0.00000E+00
    0.00000E+00         0.00000E+00         0.00000E+00
 
    0.56782E+06         0.24064E+07         0.00000E+00
    0.24064E+07        -0.97485E+07         0.00000E+00
    0.00000E+00         0.00000E+00         0.00000E+00
 
    0.54620E+06         0.25047E+07         0.00000E+00
    0.25047E+07        -0.97453E+07         0.00000E+00
    0.00000E+00         0.00000E+00         0.00000E+00
 
    0.52463E+06         0.26032E+07         0.00000E+00
    0.26032E+07        -0.97418E+07         0.00000E+00
    0.00000E+00         0.00000E+00         0.00000E+00
 
    0.50309E+06         0.27018E+07         0.00000E+00
    0.27018E+07        -0.97381E+07         0.00000E+00
    0.00000E+00         0.00000E+00         0.00000E+00
 
    0.48158E+06         0.28004E+07         0.00000E+00
    0.28004E+07        -0.97341E+07         0.00000E+00
    0.00000E+00         0.00000E+00         0.00000E+00
 
    0.46008E+06         0.28992E+07         0.00000E+00
    0.28992E+07        -0.97299E+07         0.00000E+00
    0.00000E+00         0.00000E+00         0.00000E+00
 
    0.43859E+06         0.29981E+07         0.00000E+00
    0.29981E+07        -0.97254E+07         0.00000E+00
    0.00000E+00         0.00000E+00         0.00000E+00
 
    0.41708E+06         0.30971E+07         0.00000E+00
    0.30971E+07        -0.97206E+07         0.00000E+00
    0.00000E+00         0.00000E+00         0.00000E+00
 
    0.39554E+06         0.31962E+07         0.00000E+00
    0.31962E+07        -0.97155E+07         0.00000E+00
    0.00000E+00         0.00000E+00         0.00000E+00
 
    0.37397E+06         0.32954E+07         0.00000E+00
    0.32954E+07        -0.97101E+07         0.00000E+00
    0.00000E+00         0.00000E+00         0.00000E+00
 
    0.35235E+06         0.33948E+07         0.00000E+00
    0.33948E+07        -0.97044E+07         0.00000E+00
    0.00000E+00         0.00000E+00         0.00000E+00
 
    0.33066E+06         0.34943E+07         0.00000E+00
    0.34943E+07        -0.96984E+07         0.00000E+00
    0.00000E+00         0.00000E+00         0.00000E+00
 
    0.30889E+06         0.35940E+07         0.00000E+00
    0.35940E+07        -0.96921E+07         0.00000E+00
    0.00000E+00         0.00000E+00         0.00000E+00
 
    0.28703E+06         0.36938E+07         0.00000E+00
    0.36938E+07        -0.96854E+07         0.00000E+00
    0.00000E+00         0.00000E+00         0.00000E+00
 
    0.26506E+06         0.37937E+07         0.00000E+00
    0.37937E+07        -0.96783E+07         0.00000E+00
    0.00000E+00         0.00000E+00         0.00000E+00
 
    0.24298E+06         0.38938E+07         0.00000E+00
    0.38938E+07        -0.96709E+07         0.00000E+00
    0.00000E+00         0.00000E+00         0.00000E+00
 
    0.22075E+06         0.39941E+07         0.00000E+00
    0.39941E+07        -0.96632E+07         0.00000E+00
    0.00000E+00         0.00000E+00         0.00000E+00
 
    0.19838E+06         0.40945E+07         0.00000E+00
    0.40945E+07        -0.96550E+07         0.00000E+00
    0.00000E+00         0.00000E+00         0.00000E+00
 
    0.17584E+06         0.41951E+07         0.00000E+00
    0.41951E+07        -0.96464E+07         0.00000E+00
    0.00000E+00         0.00000E+00         0.00000E+00
 
    0.15312E+06         0.42959E+07         0.00000E+00
    0.42959E+07        -0.96374E+07         0.00000E+00
    0.00000E+00         0.00000E+00         0.00000E+00
 
    0.13020E+06         0.43968E+07         0.00000E+00
    0.43968E+07        -0.96280E+07         0.00000E+00
    0.00000E+00         0.00000E+00         0.00000E+00
 
    0.10707E+06         0.44979E+07         0.00000E+00
    0.44979E+07        -0.96182E+07         0.00000E+00
    0.00000E+00         0.00000E+00         0.00000E+00
 
    0.83718E+05         0.45992E+07         0.00000E+00
    0.45992E+07        -0.96079E+07         0.00000E+00
    0.00000E+00         0.00000E+00         0.00000E+00
 
    0.60121E+05         0.47006E+07         0.00000E+00
    0.47006E+07        -0.95972E+07         0.00000E+00
    0.00000E+00         0.00000E+00         0.00000E+00
 
    0.36266E+05         0.48022E+07         0.00000E+00
    0.48022E+07        -0.95859E+07         0.00000E+00
    0.00000E+00         0.00000E+00         0.00000E+00
 
    0.12136E+05         0.49040E+07         0.00000E+00
    0.49040E+07        -0.95742E+07         0.00000E+00
    0.00000E+00         0.00000E+00         0.00000E+00
 
    0.11080E+07         0.49863E+05         0.00000E+00
    0.49863E+05        -0.10294E+08         0.00000E+00
    0.00000E+00         0.00000E+00         0.00000E+00
 
    0.10817E+07         0.14921E+06         0.00000E+00
    0.14921E+06        -0.10293E+08         0.00000E+00
    0.00000E+00         0.00000E+00         0.00000E+00
 
    0.10558E+07         0.24844E+06         0.00000E+00
    0.24844E+06        -0.10293E+08         0.00000E+00
    0.00000E+00         0.00000E+00         0.00000E+00
 
    0.10301E+07         0.34757E+06         0.00000E+00
    0.34757E+06        -0.10293E+08         0.00000E+00
    0.00000E+00         0.00000E+00         0.00000E+00
 
    0.10048E+07         0.44659E+06         0.00000E+00
    0.44659E+06        -0.10293E+08         0.00000E+00
    0.00000E+00         0.00000E+00         0.00000E+00
 
    0.97971E+06         0.54553E+06         0.00000E+00
    0.54553E+06        -0.10293E+08         0.00000E+00
    0.00000E+00         0.00000E+00         0.00000E+00
 
    0.95491E+06         0.64440E+06         0.00000E+00
    0.64440E+06        -0.10293E+08         0.00000E+00
    0.00000E+00         0.00000E+00         0.00000E+00
 
    0.93038E+06         0.74320E+06         0.00000E+00
    0.74320E+06        -0.10292E+08         0.00000E+00
    0.00000E+00         0.00000E+00         0.00000E+00
 
    0.90612E+06         0.84196E+06         0.00000E+00
    0.84196E+06        -0.10292E+08         0.00000E+00
    0.00000E+00         0.00000E+00         0.00000E+00
 
    0.88211E+06         0.94067E+06         0.00000E+00
    0.94067E+06        -0.10291E+08         0.00000E+00
    0.00000E+00         0.00000E+00         0.00000E+00
 
    0.85836E+06         0.10394E+07         0.00000E+00
    0.10394E+07        -0.10291E+08         0.00000E+00
    0.00000E+00         0.00000E+00         0.00000E+00
 
    0.83484E+06         0.11380E+07         0.00000E+00
    0.11380E+07        -0.10290E+08         0.00000E+00
    0.00000E+00         0.00000E+00         0.00000E+00
 
    0.81156E+06         0.12367E+07         0.00000E+00
    0.12367E+07        -0.10290E+08         0.00000E+00
    0.00000E+00         0.00000E+00         0.00000E+00
 
    0.78850E+06         0.13354E+07         0.00000E+00
    0.13354E+07        -0.10289E+08         0.00000E+00
    0.00000E+00         0.00000E+00         0.00000E+00
 
    0.76566E+06         0.14341E+07         0.00000E+00
    0.14341E+07        -0.10288E+08         0.00000E+00
    0.00000E+00         0.00000E+00         0.00000E+00
 
    0.74302E+06         0.15328E+07         0.00000E+00
    0.15328E+07        -0.10287E+08         0.00000E+00
    0.00000E+00         0.00000E+00         0.00000E+00
 
    0.72059E+06         0.16315E+07         0.00000E+00
    0.16315E+07        -0.10285E+08         0.00000E+00
    0.00000E+00         0.00000E+00         0.00000E+00
 
    0.69834E+06         0.17303E+07         0.00000E+00
    0.17303E+07        -0.10284E+08         0.00000E+00
    0.00000E+00         0.00000E+00         0.00000E+00
 
    0.67626E+06         0.18291E+07         0.00000E+00
    0.18291E+07        -0.10283E+08         0.00000E+00
    0.00000E+00         0.00000E+00         0.00000E+00
 
    0.65436E+06         0.19281E+07         0.00000E+00
    0.19281E+07        -0.10281E+08         0.00000E+00
    0.00000E+00         0.00000E+00         0.00000E+00
 
    0.63261E+06         0.20270E+07         0.00000E+00
    0.20270E+07        -0.10279E+08         0.00000E+00
    0.00000E+00         0.00000E+00         0.00000E+00
 
    0.61101E+06         0.21261E+07         0.00000E+00
    0.21261E+07        -0.10277E+08         0.00000E+00
    0.00000E+00         0.00000E+00         0.00000E+00
 
    0.58954E+06         0.22253E+07         0.00000E+00
    0.22253E+07        -0.10275E+08         0.00000E+00
    0.00000E+00         0.00000E+00         0.00000E+00
 
    0.56819E+06         0.23245E+07         0.00000E+00
    0.23245E+07        -0.10273E+08         0.00000E+00
    0.00000E+00         0.00000E+00         0.00000E+00
 
    0.54695E+06         0.24239E+07         0.00000E+00
    0.24239E+07        -0.10270E+08         0.00000E+00
    0.00000E+00         0.00000E+00         0.00000E+00
 
    0.52581E+06         0.25234E+07         0.00000E+00
    0.25234E+07        -0.10267E+08         0.00000E+00
    0.00000E+00         0.00000E+00         0.00000E+00
 
    0.50476E+06         0.26230E+07         0.00000E+00
    0.26230E+07        -0.10264E+08         0.00000E+00
    0.00000E+00         0.00000E+00         0.00000E+00
 
    0.48377E+06         0.27227E+07         0.00000E+00
    0.27227E+07        -0.10261E+08         0.00000E+00
    0.00000E+00         0.00000E+00         0.00000E+00
 
    0.46285E+06         0.28226E+07         0.00000E+00
    0.28226E+07        -0.10258E+08         0.00000E+00
    0.00000E+00         0.00000E+00         0.00000E+00
 
    0.44197E+06         0.29226E+07         0.00000E+00
    0.29226E+07        -0.10254E+08         0.00000E+00
    0.00000E+00         0.00000E+00         0.00000E+00
 
    0.42113E+06         0.30228E+07         0.00000E+00
    0.30228E+07        -0.10250E+08         0.00000E+00
    0.00000E+00         0.00000E+00         0.00000E+00
 
    0.40031E+06         0.31231E+07         0.00000E+00
    0.31231E+07        -0.10246E+08         0.00000E+00
    0.00000E+00         0.00000E+00         0.00000E+00
 
    0.37949E+06         0.32236E+07         0.00000E+00
    0.32236E+07        -0.10241E+08         0.00000E+00
    0.00000E+00         0.00000E+00         0.00000E+00
 
    0.35866E+06         0.33243E+07         0.00000E+00
    0.33243E+07        -0.10236E+08         0.00000E+00
    0.00000E+00         0.00000E+00         0.00000E+00
 
    0.33780E+06         0.34252E+07         0.00000E+00
    0.34252E+07        -0.10231E+08         0.00000E+00
    0.00000E+00         0.00000E+00         0.00000E+00
 
    0.31691E+06         0.35262E+07         0.00000E+00
    0.35262E+07        -0.10226E+08         0.00000E+00
    0.00000E+00         0.00000E+00         0.00000E+00
 
    0.29597E+06         0.36274E+07         0.00000E+00
    0.36274E+07        -0.10220E+08         0.00000E+00
    0.00000E+00         0.00000E+00         0.00000E+00
 
    0.27495E+06         0.37289E+07         0.00000E+00
    0.37289E+07        -0.10214E+08         0.00000E+00
    0.00000E+00         0.00000E+00         0.00000E+00
 
    0.25385E+06         0.38305E+07         0.00000E+00
    0.38305E+07        -0.10208E+08         0.00000E+00
    0.00000E+00         0.00000E+00         0.00000E+00
 
    0.23266E+06         0.39323E+07         0.00000E+00
    0.39323E+07        -0.10201E+08         0.00000E+00
    0.00000E+00         0.00000E+00         0.00000E+00
 
    0.21134E+06         0.40344E+07         0.00000E+00
    0.40344E+07        -0.10193E+08         0.00000E+00
    0.00000E+00         0.00000E+00         0.00000E+00
 
    0.18990E+06         0.41366E+07         0.00000E+00
    0.41366E+07        -0.10186E+08         0.00000E+00
    0.00000E+00         0.00000E+00         0.00000E+00
 
    0.16830E+06         0.42391E+07         0.00000E+00
    0.42391E+07        -0.10178E+08         0.00000E+00
    0.00000E+00         0.00000E+00         0.00000E+00
 
    0.14655E+06         0.43418E+07         0.00000E+00
    0.43418E+07        -0.10169E+08         0.00000E+00
    0.00000E+00         0.00000E+00         0.00000E+00
 
    0.12461E+06         0.44447E+07         0.00000E+00
    0.44447E+07        -0.10161E+08         0.00000E+00
    0.00000E+00         0.00000E+00         0.00000E+00
 
    0.10247E+06         0.45478E+07         0.00000E+00
    0.45478E+07        -0.10151E+08         0.00000E+00
    0.00000E+00         0.00000E+00         0.00000E+00
 
    0.80124E+05         0.46512E+07         0.00000E+00
    0.46512E+07        -0.10142E+08         0.00000E+00
    0.00000E+00         0.00000E+00         0.00000E+00
 
    0.57543E+05         0.47548E+07         0.00000E+00
    0.47548E+07        -0.10131E+08         0.00000E+00
    0.00000E+00         0.00000E+00         0.00000E+00
 
    0.34713E+05         0.48586E+07         0.00000E+00
    0.48586E+07        -0.10121E+08         0.00000E+00
    0.00000E+00         0.00000E+00         0.00000E+00
 
    0.11617E+05         0.49626E+07         0.00000E+00
    0.49626E+07        -0.10110E+08         0.00000E+00
    0.00000E+00         0.00000E+00         0.00000E+00
 
    0.10793E+07         0.50027E+05         0.00000E+00
    0.50027E+05        -0.10820E+08         0.00000E+00
    0.00000E+00         0.00000E+00         0.00000E+00
 
    0.10525E+07         0.14973E+06         0.00000E+00
    0.14973E+06        -0.10820E+08         0.00000E+00
    0.00000E+00         0.00000E+00         0.00000E+00
 
    0.10260E+07         0.24933E+06         0.00000E+00
    0.24933E+06        -0.10820E+08         0.00000E+00
    0.00000E+00         0.00000E+00         0.00000E+00
 
    0.99987E+06         0.34884E+06         0.00000E+00
    0.34884E+06        -0.10820E+08         0.00000E+00
    0.00000E+00         0.00000E+00         0.00000E+00
 
    0.97409E+06         0.44826E+06         0.00000E+00
    0.44826E+06        -0.10820E+08         0.00000E+00
    0.00000E+00         0.00000E+00         0.00000E+00
 
    0.94865E+06         0.54761E+06         0.00000E+00
    0.54761E+06        -0.10820E+08         0.00000E+00
    0.00000E+00         0.00000E+00         0.00000E+00
 
    0.92356E+06         0.64691E+06         0.00000E+00
    0.64691E+06        -0.10820E+08         0.00000E+00
    0.00000E+00         0.00000E+00         0.00000E+00
 
    0.89879E+06         0.74617E+06         0.00000E+00
    0.74617E+06        -0.10820E+08         0.00000E+00
    0.00000E+00         0.00000E+00         0.00000E+00
 
    0.87434E+06         0.84540E+06         0.00000E+00
    0.84540E+06        -0.10820E+08         0.00000E+00
    0.00000E+00         0.00000E+00         0.00000E+00
 
    0.85021E+06         0.94462E+06         0.00000E+00
    0.94462E+06        -0.10819E+08         0.00000E+00
    0.00000E+00         0.00000E+00         0.00000E+00
 
    0.82639E+06         0.10438E+07         0.00000E+00
    0.10438E+07        -0.10819E+08         0.00000E+00
    0.00000E+00         0.00000E+00         0.00000E+00
 
    0.80286E+06         0.11430E+07         0.00000E+00
    0.11430E+07        -0.10819E+08         0.00000E+00
    0.00000E+00         0.00000E+00         0.00000E+00
 
    0.77962E+06         0.12423E+07         0.00000E+00
    0.12423E+07        -0.10818E+08         0.00000E+00
    0.00000E+00         0.00000E+00         0.00000E+00
 
    0.75667E+06         0.13416E+07         0.00000E+00
    0.13416E+07        -0.10818E+08         0.00000E+00
    0.00000E+00         0.00000E+00         0.00000E+00
 
    0.73398E+06         0.14409E+07         0.00000E+00
    0.14409E+07        -0.10817E+08         0.00000E+00
    0.00000E+00         0.00000E+00         0.00000E+00
 
    0.71155E+06         0.15402E+07         0.00000E+00
    0.15402E+07        -0.10817E+08         0.00000E+00
    0.00000E+00         0.00000E+00         0.00000E+00
 
    0.68938E+06         0.16397E+07         0.00000E+00
    0.16397E+07        -0.10816E+08         0.00000E+00
    0.00000E+00         0.00000E+00         0.00000E+00
 
    0.66744E+06         0.17392E+07         0.00000E+00
    0.17392E+07        -0.10815E+08         0.00000E+00
    0.00000E+00         0.00000E+00         0.00000E+00
 
    0.64573E+06         0.18388E+07         0.00000E+00
    0.18388E+07        -0.10814E+08         0.00000E+00
    0.00000E+00         0.00000E+00         0.00000E+00
 
    0.62424E+06         0.19385E+07         0.00000E+00
    0.19385E+07        -0.10813E+08         0.00000E+00
    0.00000E+00         0.00000E+00         0.00000E+00
 
    0.60295E+06         0.20383E+07         0.00000E+00
    0.20383E+07        -0.10811E+08         0.00000E+00
    0.00000E+00         0.00000E+00         0.00000E+00
 
    0.58186E+06         0.21383E+07         0.00000E+00
    0.21383E+07        -0.10810E+08         0.00000E+00
    0.00000E+00         0.00000E+00         0.00000E+00
 
    0.56094E+06         0.22383E+07         0.00000E+00
    0.22383E+07        -0.10808E+08         0.00000E+00
    0.00000E+00         0.00000E+00         0.00000E+00
 
    0.54019E+06         0.23385E+07         0.00000E+00
    0.23385E+07        -0.10807E+08         0.00000E+00
    0.00000E+00         0.00000E+00         0.00000E+00
 
    0.51960E+06         0.24389E+07         0.00000E+00
    0.24389E+07        -0.10805E+08         0.00000E+00
    0.00000E+00         0.00000E+00         0.00000E+00
 
    0.49914E+06         0.25394E+07         0.00000E+00
    0.25394E+07        -0.10802E+08         0.00000E+00
    0.00000E+00         0.00000E+00         0.00000E+00
 
    0.47882E+06         0.26401E+07         0.00000E+00
    0.26401E+07        -0.10800E+08         0.00000E+00
    0.00000E+00         0.00000E+00         0.00000E+00
 
    0.45860E+06         0.27409E+07         0.00000E+00
    0.27409E+07        -0.10797E+08         0.00000E+00
    0.00000E+00         0.00000E+00         0.00000E+00
 
    0.43849E+06         0.28420E+07         0.00000E+00
    0.28420E+07        -0.10795E+08         0.00000E+00
    0.00000E+00         0.00000E+00         0.00000E+00
 
    0.41846E+06         0.29432E+07         0.00000E+00
    0.29432E+07        -0.10792E+08         0.00000E+00
    0.00000E+00         0.00000E+00         0.00000E+00
 
    0.39849E+06         0.30446E+07         0.00000E+00
    0.30446E+07        -0.10788E+08         0.00000E+00
    0.00000E+00         0.00000E+00         0.00000E+00
 
    0.37859E+06         0.31463E+07         0.00000E+00
    0.31463E+07        -0.10785E+08         0.00000E+00
    0.00000E+00         0.00000E+00         0.00000E+00
 
    0.35872E+06         0.32481E+07         0.00000E+00
    0.32481E+07        -0.10781E+08         0.00000E+00
    0.00000E+00         0.00000E+00         0.00000E+00
 
    0.33887E+06         0.33502E+07         0.00000E+00
    0.33502E+07        -0.10777E+08         0.00000E+00
    0.00000E+00         0.00000E+00         0.00000E+00
 
    0.31903E+06         0.34525E+07         0.00000E+00
    0.34525E+07        -0.10772E+08         0.00000E+00
    0.00000E+00         0.00000E+00         0.00000E+00
 
    0.29919E+06         0.35551E+07         0.00000E+00
    0.35551E+07        -0.10767E+08         0.00000E+00
    0.00000E+00         0.00000E+00         0.00000E+00
 
    0.27932E+06         0.36578E+07         0.00000E+00
    0.36578E+07        -0.10762E+08         0.00000E+00
    0.00000E+00         0.00000E+00         0.00000E+00
 
    0.25940E+06         0.37609E+07         0.00000E+00
    0.37609E+07        -0.10757E+08         0.00000E+00
    0.00000E+00         0.00000E+00         0.00000E+00
 
    0.23943E+06         0.38641E+07         0.00000E+00
    0.38641E+07        -0.10751E+08         0.00000E+00
    0.00000E+00         0.00000E+00         0.00000E+00
 
    0.21939E+06         0.39677E+07         0.00000E+00
    0.39677E+07        -0.10745E+08         0.00000E+00
    0.00000E+00         0.00000E+00         0.00000E+00
 
    0.19925E+06         0.40715E+07         0.00000E+00
    0.40715E+07        -0.10739E+08         0.00000E+00
    0.00000E+00         0.00000E+00         0.00000E+00
 
    0.17900E+06         0.41756E+07         0.00000E+00
    0.41756E+07        -0.10732E+08         0.00000E+00
    0.00000E+00         0.00000E+00         0.00000E+00
 
    0.15863E+06         0.42799E+07         0.00000E+00
    0.42799E+07        -0.10724E+08         0.00000E+00
    0.00000E+00         0.00000E+00         0.00000E+00
 
    0.13811E+06         0.43845E+07         0.00000E+00
    0.43845E+07        -0.10717E+08         0.00000E+00
    0.00000E+00         0.00000E+00         0.00000E+00
 
    0.11743E+06         0.44894E+07         0.00000E+00
    0.44894E+07        -0.10708E+08         0.00000E+00
    0.00000E+00         0.00000E+00         0.00000E+00
 
    0.96569E+05         0.45946E+07         0.00000E+00
    0.45946E+07        -0.10700E+08         0.00000E+00
    0.00000E+00         0.00000E+00         0.00000E+00
 
    0.75509E+05         0.47001E+07         0.00000E+00
    0.47001E+07        -0.10691E+08         0.00000E+00
    0.00000E+00         0.00000E+00         0.00000E+00
 
    0.54232E+05         0.48058E+07         0.00000E+00
    0.48058E+07        -0.10681E+08         0.00000E+00
    0.00000E+00         0.00000E+00         0.00000E+00
 
    0.32718E+05         0.49119E+07         0.00000E+00
    0.49119E+07        -0.10671E+08         0.00000E+00
    0.00000E+00         0.00000E+00         0.00000E+00
 
    0.10950E+05         0.50182E+07         0.00000E+00
    0.50182E+07        -0.10661E+08         0.00000E+00
    0.00000E+00         0.00000E+00         0.00000E+00
 
    0.10401E+07         0.50115E+05         0.00000E+00
    0.50115E+05        -0.11359E+08         0.00000E+00
    0.00000E+00         0.00000E+00         0.00000E+00
 
    0.10128E+07         0.15003E+06         0.00000E+00
    0.15003E+06        -0.11359E+08         0.00000E+00
    0.00000E+00         0.00000E+00         0.00000E+00
 
    0.98580E+06         0.24985E+06         0.00000E+00
    0.24985E+06        -0.11359E+08         0.00000E+00
    0.00000E+00         0.00000E+00         0.00000E+00
 
    0.95926E+06         0.34959E+06         0.00000E+00
    0.34959E+06        -0.11359E+08         0.00000E+00
    0.00000E+00         0.00000E+00         0.00000E+00
 
    0.93315E+06         0.44926E+06         0.00000E+00
    0.44926E+06        -0.11359E+08         0.00000E+00
    0.00000E+00         0.00000E+00         0.00000E+00
 
    0.90745E+06         0.54889E+06         0.00000E+00
    0.54889E+06        -0.11359E+08         0.00000E+00
    0.00000E+00         0.00000E+00         0.00000E+00
 
    0.88215E+06         0.64848E+06         0.00000E+00
    0.64848E+06        -0.11359E+08         0.00000E+00
    0.00000E+00         0.00000E+00         0.00000E+00
 
    0.85725E+06         0.74805E+06         0.00000E+00
    0.74805E+06        -0.11359E+08         0.00000E+00
    0.00000E+00         0.00000E+00         0.00000E+00
 
    0.83274E+06         0.84762E+06         0.00000E+00
    0.84762E+06        -0.11359E+08         0.00000E+00
    0.00000E+00         0.00000E+00         0.00000E+00
 
    0.80860E+06         0.94719E+06         0.00000E+00
    0.94719E+06        -0.11360E+08         0.00000E+00
    0.00000E+00         0.00000E+00         0.00000E+00
 
    0.78485E+06         0.10468E+07         0.00000E+00
    0.10468E+07        -0.11360E+08         0.00000E+00
    0.00000E+00         0.00000E+00         0.00000E+00
 
    0.76145E+06         0.11464E+07         0.00000E+00
    0.11464E+07        -0.11360E+08         0.00000E+00
    0.00000E+00         0.00000E+00         0.00000E+00
 
    0.73840E+06         0.12461E+07         0.00000E+00
    0.12461E+07        -0.11360E+08         0.00000E+00
    0.00000E+00         0.00000E+00         0.00000E+00
 
    0.71570E+06         0.13459E+07         0.00000E+00
    0.13459E+07        -0.11359E+08         0.00000E+00
    0.00000E+00         0.00000E+00         0.00000E+00
 
    0.69333E+06         0.14457E+07         0.00000E+00
    0.14457E+07        -0.11359E+08         0.00000E+00
    0.00000E+00         0.00000E+00         0.00000E+00
 
    0.67128E+06         0.15456E+07         0.00000E+00
    0.15456E+07        -0.11359E+08         0.00000E+00
    0.00000E+00         0.00000E+00         0.00000E+00
 
    0.64954E+06         0.16456E+07         0.00000E+00
    0.16456E+07        -0.11359E+08         0.00000E+00
    0.00000E+00         0.00000E+00         0.00000E+00
 
    0.62809E+06         0.17457E+07         0.00000E+00
    0.17457E+07        -0.11358E+08         0.00000E+00
    0.00000E+00         0.00000E+00         0.00000E+00
 
    0.60693E+06         0.18460E+07         0.00000E+00
    0.18460E+07        -0.11358E+08         0.00000E+00
    0.00000E+00         0.00000E+00         0.00000E+00
 
    0.58604E+06         0.19464E+07         0.00000E+00
    0.19464E+07        -0.11357E+08         0.00000E+00
    0.00000E+00         0.00000E+00         0.00000E+00
 
    0.56541E+06         0.20469E+07         0.00000E+00
    0.20469E+07        -0.11357E+08         0.00000E+00
    0.00000E+00         0.00000E+00         0.00000E+00
 
    0.54503E+06         0.21476E+07         0.00000E+00
    0.21476E+07        -0.11356E+08         0.00000E+00
    0.00000E+00         0.00000E+00         0.00000E+00
 
    0.52488E+06         0.22485E+07         0.00000E+00
    0.22485E+07        -0.11355E+08         0.00000E+00
    0.00000E+00         0.00000E+00         0.00000E+00
 
    0.50494E+06         0.23496E+07         0.00000E+00
    0.23496E+07        -0.11354E+08         0.00000E+00
    0.00000E+00         0.00000E+00         0.00000E+00
 
    0.48521E+06         0.24508E+07         0.00000E+00
    0.24508E+07        -0.11352E+08         0.00000E+00
    0.00000E+00         0.00000E+00         0.00000E+00
 
    0.46567E+06         0.25523E+07         0.00000E+00
    0.25523E+07        -0.11351E+08         0.00000E+00
    0.00000E+00         0.00000E+00         0.00000E+00
 
    0.44630E+06         0.26540E+07         0.00000E+00
    0.26540E+07        -0.11349E+08         0.00000E+00
    0.00000E+00         0.00000E+00         0.00000E+00
 
    0.42709E+06         0.27559E+07         0.00000E+00
    0.27559E+07        -0.11347E+08         0.00000E+00
    0.00000E+00         0.00000E+00         0.00000E+00
 
    0.40802E+06         0.28580E+07         0.00000E+00
    0.28580E+07        -0.11345E+08         0.00000E+00
    0.00000E+00         0.00000E+00         0.00000E+00
 
    0.38907E+06         0.29604E+07         0.00000E+00
    0.29604E+07        -0.11343E+08         0.00000E+00
    0.00000E+00         0.00000E+00         0.00000E+00
 
    0.37024E+06         0.30630E+07         0.00000E+00
    0.30630E+07        -0.11340E+08         0.00000E+00
    0.00000E+00         0.00000E+00         0.00000E+00
 
    0.35151E+06         0.31659E+07         0.00000E+00
    0.31659E+07        -0.11337E+08         0.00000E+00
    0.00000E+00         0.00000E+00         0.00000E+00
 
    0.33284E+06         0.32691E+07         0.00000E+00
    0.32691E+07        -0.11334E+08         0.00000E+00
    0.00000E+00         0.00000E+00         0.00000E+00
 
    0.31424E+06         0.33725E+07         0.00000E+00
    0.33725E+07        -0.11331E+08         0.00000E+00
    0.00000E+00         0.00000E+00         0.00000E+00
 
    0.29569E+06         0.34762E+07         0.00000E+00
    0.34762E+07        -0.11327E+08         0.00000E+00
    0.00000E+00         0.00000E+00         0.00000E+00
 
    0.27716E+06         0.35802E+07         0.00000E+00
    0.35802E+07        -0.11323E+08         0.00000E+00
    0.00000E+00         0.00000E+00         0.00000E+00
 
    0.25863E+06         0.36845E+07         0.00000E+00
    0.36845E+07        -0.11319E+08         0.00000E+00
    0.00000E+00         0.00000E+00         0.00000E+00
 
    0.24010E+06         0.37891E+07         0.00000E+00
    0.37891E+07        -0.11315E+08         0.00000E+00
    0.00000E+00         0.00000E+00         0.00000E+00
 
    0.22154E+06         0.38940E+07         0.00000E+00
    0.38940E+07        -0.11310E+08         0.00000E+00
    0.00000E+00         0.00000E+00         0.00000E+00
 
    0.20293E+06         0.39993E+07         0.00000E+00
    0.39993E+07        -0.11304E+08         0.00000E+00
    0.00000E+00         0.00000E+00         0.00000E+00
 
    0.18426E+06         0.41048E+07         0.00000E+00
    0.41048E+07        -0.11299E+08         0.00000E+00
    0.00000E+00         0.00000E+00         0.00000E+00
 
    0.16550E+06         0.42107E+07         0.00000E+00
    0.42107E+07        -0.11293E+08         0.00000E+00
    0.00000E+00         0.00000E+00         0.00000E+00
 
    0.14664E+06         0.43169E+07         0.00000E+00
    0.43169E+07        -0.11286E+08         0.00000E+00
    0.00000E+00         0.00000E+00         0.00000E+00
 
    0.12766E+06         0.44235E+07         0.00000E+00
    0.44235E+07        -0.11279E+08         0.00000E+00
    0.00000E+00         0.00000E+00         0.00000E+00
 
    0.10854E+06         0.45303E+07         0.00000E+00
    0.45303E+07        -0.11272E+08         0.00000E+00
    0.00000E+00         0.00000E+00         0.00000E+00
 
    0.89256E+05         0.46376E+07         0.00000E+00
    0.46376E+07        -0.11264E+08         0.00000E+00
    0.00000E+00         0.00000E+00         0.00000E+00
 
    0.69794E+05         0.47452E+07         0.00000E+00
    0.47452E+07        -0.11256E+08         0.00000E+00
    0.00000E+00         0.00000E+00         0.00000E+00
 
    0.50131E+05         0.48531E+07         0.00000E+00
    0.48531E+07        -0.11247E+08         0.00000E+00
    0.00000E+00         0.00000E+00         0.00000E+00
 
    0.30248E+05         0.49614E+07         0.00000E+00
    0.49614E+07        -0.11238E+08         0.00000E+00
    0.00000E+00         0.00000E+00         0.00000E+00
 
    0.10124E+05         0.50701E+07         0.00000E+00
    0.50701E+07        -0.11229E+08         0.00000E+00
    0.00000E+00         0.00000E+00         0.00000E+00
 
    0.98947E+06         0.50114E+05         0.00000E+00
    0.50114E+05        -0.11909E+08         0.00000E+00
    0.00000E+00         0.00000E+00         0.00000E+00
 
    0.96161E+06         0.15006E+06         0.00000E+00
    0.15006E+06        -0.11909E+08         0.00000E+00
    0.00000E+00         0.00000E+00         0.00000E+00
 
    0.93425E+06         0.24993E+06         0.00000E+00
    0.24993E+06        -0.11910E+08         0.00000E+00
    0.00000E+00         0.00000E+00         0.00000E+00
 
    0.90740E+06         0.34973E+06         0.00000E+00
    0.34973E+06        -0.11910E+08         0.00000E+00
    0.00000E+00         0.00000E+00         0.00000E+00
 
    0.88104E+06         0.44949E+06         0.00000E+00
    0.44949E+06        -0.11910E+08         0.00000E+00
    0.00000E+00         0.00000E+00         0.00000E+00
 
    0.85517E+06         0.54922E+06         0.00000E+00
    0.54922E+06        -0.11910E+08         0.00000E+00
    0.00000E+00         0.00000E+00         0.00000E+00
 
    0.82979E+06         0.64893E+06         0.00000E+00
    0.64893E+06        -0.11911E+08         0.00000E+00
    0.00000E+00         0.00000E+00         0.00000E+00
 
    0.80487E+06         0.74865E+06         0.00000E+00
    0.74865E+06        -0.11911E+08         0.00000E+00
    0.00000E+00         0.00000E+00         0.00000E+00
 
    0.78043E+06         0.84839E+06         0.00000E+00
    0.84839E+06        -0.11912E+08         0.00000E+00
    0.00000E+00         0.00000E+00         0.00000E+00
 
    0.75643E+06         0.94817E+06         0.00000E+00
    0.94817E+06        -0.11912E+08         0.00000E+00
    0.00000E+00         0.00000E+00         0.00000E+00
 
    0.73288E+06         0.10480E+07         0.00000E+00
    0.10480E+07        -0.11912E+08         0.00000E+00
    0.00000E+00         0.00000E+00         0.00000E+00
 
    0.70977E+06         0.11479E+07         0.00000E+00
    0.11479E+07        -0.11913E+08         0.00000E+00
    0.00000E+00         0.00000E+00         0.00000E+00
 
    0.68707E+06         0.12479E+07         0.00000E+00
    0.12479E+07        -0.11913E+08         0.00000E+00
    0.00000E+00         0.00000E+00         0.00000E+00
 
    0.66479E+06         0.13480E+07         0.00000E+00
    0.13480E+07        -0.11914E+08         0.00000E+00
    0.00000E+00         0.00000E+00         0.00000E+00
 
    0.64291E+06         0.14481E+07         0.00000E+00
    0.14481E+07        -0.11914E+08         0.00000E+00
    0.00000E+00         0.00000E+00         0.00000E+00
 
    0.62142E+06         0.15485E+07         0.00000E+00
    0.15485E+07        -0.11914E+08         0.00000E+00
    0.00000E+00         0.00000E+00         0.00000E+00
 
    0.60030E+06         0.16489E+07         0.00000E+00
    0.16489E+07        -0.11914E+08         0.00000E+00
    0.00000E+00         0.00000E+00         0.00000E+00
 
    0.57955E+06         0.17495E+07         0.00000E+00
    0.17495E+07        -0.11915E+08         0.00000E+00
    0.00000E+00         0.00000E+00         0.00000E+00
 
    0.55914E+06         0.18503E+07         0.00000E+00
    0.18503E+07        -0.11915E+08         0.00000E+00
    0.00000E+00         0.00000E+00         0.00000E+00
 
    0.53907E+06         0.19513E+07         0.00000E+00
    0.19513E+07        -0.11915E+08         0.00000E+00
    0.00000E+00         0.00000E+00         0.00000E+00
 
    0.51931E+06         0.20524E+07         0.00000E+00
    0.20524E+07        -0.11915E+08         0.00000E+00
    0.00000E+00         0.00000E+00         0.00000E+00
 
    0.49986E+06         0.21538E+07         0.00000E+00
    0.21538E+07        -0.11915E+08         0.00000E+00
    0.00000E+00         0.00000E+00         0.00000E+00
 
    0.48070E+06         0.22554E+07         0.00000E+00
    0.22554E+07        -0.11914E+08         0.00000E+00
    0.00000E+00         0.00000E+00         0.00000E+00
 
    0.46182E+06         0.23572E+07         0.00000E+00
    0.23572E+07        -0.11914E+08         0.00000E+00
    0.00000E+00         0.00000E+00         0.00000E+00
 
    0.44319E+06         0.24592E+07         0.00000E+00
    0.24592E+07        -0.11913E+08         0.00000E+00
    0.00000E+00         0.00000E+00         0.00000E+00
 
    0.42481E+06         0.25616E+07         0.00000E+00
    0.25616E+07        -0.11913E+08         0.00000E+00
    0.00000E+00         0.00000E+00         0.00000E+00
 
    0.40665E+06         0.26641E+07         0.00000E+00
    0.26641E+07        -0.11912E+08         0.00000E+00
    0.00000E+00         0.00000E+00         0.00000E+00
 
    0.38870E+06         0.27670E+07         0.00000E+00
    0.27670E+07        -0.11911E+08         0.00000E+00
    0.00000E+00         0.00000E+00         0.00000E+00
 
    0.37094E+06         0.28701E+07         0.00000E+00
    0.28701E+07        -0.11910E+08         0.00000E+00
    0.00000E+00         0.00000E+00         0.00000E+00
 
    0.35335E+06         0.29736E+07         0.00000E+00
    0.29736E+07        -0.11908E+08         0.00000E+00
    0.00000E+00         0.00000E+00         0.00000E+00
 
    0.33592E+06         0.30773E+07         0.00000E+00
    0.30773E+07        -0.11906E+08         0.00000E+00
    0.00000E+00         0.00000E+00         0.00000E+00
 
    0.31863E+06         0.31814E+07         0.00000E+00
    0.31814E+07        -0.11905E+08         0.00000E+00
    0.00000E+00         0.00000E+00         0.00000E+00
 
    0.30146E+06         0.32858E+07         0.00000E+00
    0.32858E+07        -0.11902E+08         0.00000E+00
    0.00000E+00         0.00000E+00         0.00000E+00
 
    0.28439E+06         0.33905E+07         0.00000E+00
    0.33905E+07        -0.11900E+08         0.00000E+00
    0.00000E+00         0.00000E+00         0.00000E+00
 
    0.26740E+06         0.34956E+07         0.00000E+00
    0.34956E+07        -0.11897E+08         0.00000E+00
    0.00000E+00         0.00000E+00         0.00000E+00
 
    0.25048E+06         0.36010E+07         0.00000E+00
    0.36010E+07        -0.11894E+08         0.00000E+00
    0.00000E+00         0.00000E+00         0.00000E+00
 
    0.23360E+06         0.37067E+07         0.00000E+00
    0.37067E+07        -0.11891E+08         0.00000E+00
    0.00000E+00         0.00000E+00         0.00000E+00
 
    0.21674E+06         0.38129E+07         0.00000E+00
    0.38129E+07        -0.11887E+08         0.00000E+00
    0.00000E+00         0.00000E+00         0.00000E+00
 
    0.19990E+06         0.39194E+07         0.00000E+00
    0.39194E+07        -0.11883E+08         0.00000E+00
    0.00000E+00         0.00000E+00         0.00000E+00
 
    0.18304E+06         0.40263E+07         0.00000E+00
    0.40263E+07        -0.11879E+08         0.00000E+00
    0.00000E+00         0.00000E+00         0.00000E+00
 
    0.16614E+06         0.41336E+07         0.00000E+00
    0.41336E+07        -0.11875E+08         0.00000E+00
    0.00000E+00         0.00000E+00         0.00000E+00
 
    0.14919E+06         0.42412E+07         0.00000E+00
    0.42412E+07        -0.11869E+08         0.00000E+00
    0.00000E+00         0.00000E+00         0.00000E+00
 
    0.13216E+06         0.43493E+07         0.00000E+00
    0.43493E+07        -0.11864E+08         0.00000E+00
    0.00000E+00         0.00000E+00         0.00000E+00
 
    0.11504E+06         0.44578E+07         0.00000E+00
    0.44578E+07        -0.11858E+08         0.00000E+00
    0.00000E+00         0.00000E+00         0.00000E+00
 
    0.97803E+05         0.45667E+07         0.00000E+00
    0.45667E+07        -0.11852E+08         0.00000E+00
    0.00000E+00         0.00000E+00         0.00000E+00
 
    0.80428E+05         0.46759E+07         0.00000E+00
    0.46759E+07        -0.11845E+08         0.00000E+00
    0.00000E+00         0.00000E+00         0.00000E+00
 
    0.62895E+05         0.47857E+07         0.00000E+00
    0.47857E+07        -0.11838E+08         0.00000E+00
    0.00000E+00         0.00000E+00         0.00000E+00
 
    0.45181E+05         0.48958E+07         0.00000E+00
    0.48958E+07        -0.11830E+08         0.00000E+00
    0.00000E+00         0.00000E+00         0.00000E+00
 
    0.27266E+05         0.50064E+07         0.00000E+00
    0.50064E+07        -0.11822E+08         0.00000E+00
    0.00000E+00         0.00000E+00         0.00000E+00
 
    0.91276E+04         0.51174E+07         0.00000E+00
    0.51174E+07        -0.11814E+08         0.00000E+00
    0.00000E+00         0.00000E+00         0.00000E+00
 
    0.92627E+06         0.50009E+05         0.00000E+00
    0.50009E+05        -0.12472E+08         0.00000E+00
    0.00000E+00         0.00000E+00         0.00000E+00
 
    0.89799E+06         0.14978E+06         0.00000E+00
    0.14978E+06        -0.12472E+08         0.00000E+00
    0.00000E+00         0.00000E+00         0.00000E+00
 
    0.87032E+06         0.24949E+06         0.00000E+00
    0.24949E+06        -0.12473E+08         0.00000E+00
    0.00000E+00         0.00000E+00         0.00000E+00
 
    0.84324E+06         0.34916E+06         0.00000E+00
    0.34916E+06        -0.12473E+08         0.00000E+00
    0.00000E+00         0.00000E+00         0.00000E+00
 
    0.81675E+06         0.44880E+06         0.00000E+00
    0.44880E+06        -0.12473E+08         0.00000E+00
    0.00000E+00         0.00000E+00         0.00000E+00
 
    0.79083E+06         0.54843E+06         0.00000E+00
    0.54843E+06        -0.12474E+08         0.00000E+00
    0.00000E+00         0.00000E+00         0.00000E+00
 
    0.76548E+06         0.64808E+06         0.00000E+00
    0.64808E+06        -0.12474E+08         0.00000E+00
    0.00000E+00         0.00000E+00         0.00000E+00
 
    0.74069E+06         0.74776E+06         0.00000E+00
    0.74776E+06        -0.12475E+08         0.00000E+00
    0.00000E+00         0.00000E+00         0.00000E+00
 
    0.71644E+06         0.84749E+06         0.00000E+00
    0.84749E+06        -0.12476E+08         0.00000E+00
    0.00000E+00         0.00000E+00         0.00000E+00
 
    0.69274E+06         0.94728E+06         0.00000E+00
    0.94728E+06        -0.12477E+08         0.00000E+00
    0.00000E+00         0.00000E+00         0.00000E+00
 
    0.66956E+06         0.10472E+07         0.00000E+00
    0.10472E+07        -0.12478E+08         0.00000E+00
    0.00000E+00         0.00000E+00         0.00000E+00
 
    0.64690E+06         0.11471E+07         0.00000E+00
    0.11471E+07        -0.12478E+08         0.00000E+00
    0.00000E+00         0.00000E+00         0.00000E+00
 
    0.62474E+06         0.12472E+07         0.00000E+00
    0.12472E+07        -0.12479E+08         0.00000E+00
    0.00000E+00         0.00000E+00         0.00000E+00
 
    0.60307E+06         0.13475E+07         0.00000E+00
    0.13475E+07        -0.12480E+08         0.00000E+00
    0.00000E+00         0.00000E+00         0.00000E+00
 
    0.58188E+06         0.14479E+07         0.00000E+00
    0.14479E+07        -0.12481E+08         0.00000E+00
    0.00000E+00         0.00000E+00         0.00000E+00
 
    0.56115E+06         0.15484E+07         0.00000E+00
    0.15484E+07        -0.12482E+08         0.00000E+00
    0.00000E+00         0.00000E+00         0.00000E+00
 
    0.54087E+06         0.16492E+07         0.00000E+00
    0.16492E+07        -0.12483E+08         0.00000E+00
    0.00000E+00         0.00000E+00         0.00000E+00
 
    0.52102E+06         0.17501E+07         0.00000E+00
    0.17501E+07        -0.12484E+08         0.00000E+00
    0.00000E+00         0.00000E+00         0.00000E+00
 
    0.50159E+06         0.18513E+07         0.00000E+00
    0.18513E+07        -0.12485E+08         0.00000E+00
    0.00000E+00         0.00000E+00         0.00000E+00
 
    0.48257E+06         0.19526E+07         0.00000E+00
    0.19526E+07        -0.12486E+08         0.00000E+00
    0.00000E+00         0.00000E+00         0.00000E+00
 
    0.46393E+06         0.20543E+07         0.00000E+00
    0.20543E+07        -0.12486E+08         0.00000E+00
    0.00000E+00         0.00000E+00         0.00000E+00
 
    0.44566E+06         0.21562E+07         0.00000E+00
    0.21562E+07        -0.12487E+08         0.00000E+00
    0.00000E+00         0.00000E+00         0.00000E+00
 
    0.42775E+06         0.22583E+07         0.00000E+00
    0.22583E+07        -0.12488E+08         0.00000E+00
    0.00000E+00         0.00000E+00         0.00000E+00
 
    0.41017E+06         0.23608E+07         0.00000E+00
    0.23608E+07        -0.12488E+08         0.00000E+00
    0.00000E+00         0.00000E+00         0.00000E+00
 
    0.39291E+06         0.24635E+07         0.00000E+00
    0.24635E+07        -0.12488E+08         0.00000E+00
    0.00000E+00         0.00000E+00         0.00000E+00
 
    0.37596E+06         0.25665E+07         0.00000E+00
    0.25665E+07        -0.12489E+08         0.00000E+00
    0.00000E+00         0.00000E+00         0.00000E+00
 
    0.35928E+06         0.26699E+07         0.00000E+00
    0.26699E+07        -0.12489E+08         0.00000E+00
    0.00000E+00         0.00000E+00         0.00000E+00
 
    0.34288E+06         0.27736E+07         0.00000E+00
    0.27736E+07        -0.12489E+08         0.00000E+00
    0.00000E+00         0.00000E+00         0.00000E+00
 
    0.32671E+06         0.28777E+07         0.00000E+00
    0.28777E+07        -0.12488E+08         0.00000E+00
    0.00000E+00         0.00000E+00         0.00000E+00
 
    0.31077E+06         0.29821E+07         0.00000E+00
    0.29821E+07        -0.12488E+08         0.00000E+00
    0.00000E+00         0.00000E+00         0.00000E+00
 
    0.29504E+06         0.30869E+07         0.00000E+00
    0.30869E+07        -0.12487E+08         0.00000E+00
    0.00000E+00         0.00000E+00         0.00000E+00
 
    0.27950E+06         0.31920E+07         0.00000E+00
    0.31920E+07        -0.12486E+08         0.00000E+00
    0.00000E+00         0.00000E+00         0.00000E+00
 
    0.26412E+06         0.32976E+07         0.00000E+00
    0.32976E+07        -0.12485E+08         0.00000E+00
    0.00000E+00         0.00000E+00         0.00000E+00
 
    0.24889E+06         0.34035E+07         0.00000E+00
    0.34035E+07        -0.12484E+08         0.00000E+00
    0.00000E+00         0.00000E+00         0.00000E+00
 
    0.23379E+06         0.35099E+07         0.00000E+00
    0.35099E+07        -0.12482E+08         0.00000E+00
    0.00000E+00         0.00000E+00         0.00000E+00
 
    0.21880E+06         0.36166E+07         0.00000E+00
    0.36166E+07        -0.12480E+08         0.00000E+00
    0.00000E+00         0.00000E+00         0.00000E+00
 
    0.20388E+06         0.37238E+07         0.00000E+00
    0.37238E+07        -0.12478E+08         0.00000E+00
    0.00000E+00         0.00000E+00         0.00000E+00
 
    0.18904E+06         0.38314E+07         0.00000E+00
    0.38314E+07        -0.12476E+08         0.00000E+00
    0.00000E+00         0.00000E+00         0.00000E+00
 
    0.17423E+06         0.39395E+07         0.00000E+00
    0.39395E+07        -0.12473E+08         0.00000E+00
    0.00000E+00         0.00000E+00         0.00000E+00
 
    0.15945E+06         0.40480E+07         0.00000E+00
    0.40480E+07        -0.12470E+08         0.00000E+00
    0.00000E+00         0.00000E+00         0.00000E+00
 
    0.14467E+06         0.41570E+07         0.00000E+00
    0.41570E+07        -0.12466E+08         0.00000E+00
    0.00000E+00         0.00000E+00         0.00000E+00
 
    0.12986E+06         0.42664E+07         0.00000E+00
    0.42664E+07        -0.12462E+08         0.00000E+00
    0.00000E+00         0.00000E+00         0.00000E+00
 
    0.11501E+06         0.43763E+07         0.00000E+00
    0.43763E+07        -0.12458E+08         0.00000E+00
    0.00000E+00         0.00000E+00         0.00000E+00
 
    0.10010E+06         0.44867E+07         0.00000E+00
    0.44867E+07        -0.12454E+08         0.00000E+00
    0.00000E+00         0.00000E+00         0.00000E+00
 
    0.85091E+05         0.45975E+07         0.00000E+00
    0.45975E+07        -0.12448E+08         0.00000E+00
    0.00000E+00         0.00000E+00         0.00000E+00
 
    0.69976E+05         0.47088E+07         0.00000E+00
    0.47088E+07        -0.12443E+08         0.00000E+00
    0.00000E+00         0.00000E+00         0.00000E+00
 
    0.54727E+05         0.48207E+07         0.00000E+00
    0.48207E+07        -0.12437E+08         0.00000E+00
    0.00000E+00         0.00000E+00         0.00000E+00
 
    0.39321E+05         0.49330E+07         0.00000E+00
    0.49330E+07        -0.12430E+08         0.00000E+00
    0.00000E+00         0.00000E+00         0.00000E+00
 
    0.23736E+05         0.50458E+07         0.00000E+00
    0.50458E+07        -0.12423E+08         0.00000E+00
    0.00000E+00         0.00000E+00         0.00000E+00
 
    0.79477E+04         0.51592E+07         0.00000E+00
    0.51592E+07        -0.12416E+08         0.00000E+00
    0.00000E+00         0.00000E+00         0.00000E+00
 
    0.84936E+06         0.49784E+05         0.00000E+00
    0.49784E+05        -0.13047E+08         0.00000E+00
    0.00000E+00         0.00000E+00         0.00000E+00
 
    0.82077E+06         0.14915E+06         0.00000E+00
    0.14915E+06        -0.13047E+08         0.00000E+00
    0.00000E+00         0.00000E+00         0.00000E+00
 
    0.79287E+06         0.24846E+06         0.00000E+00
    0.24846E+06        -0.13048E+08         0.00000E+00
    0.00000E+00         0.00000E+00         0.00000E+00
 
    0.76567E+06         0.34776E+06         0.00000E+00
    0.34776E+06        -0.13048E+08         0.00000E+00
    0.00000E+00         0.00000E+00         0.00000E+00
 
    0.73915E+06         0.44705E+06         0.00000E+00
    0.44705E+06        -0.13049E+08         0.00000E+00
    0.00000E+00         0.00000E+00         0.00000E+00
 
    0.71331E+06         0.54636E+06         0.00000E+00
    0.54636E+06        -0.13050E+08         0.00000E+00
    0.00000E+00         0.00000E+00         0.00000E+00
 
    0.68814E+06         0.64572E+06         0.00000E+00
    0.64572E+06        -0.13051E+08         0.00000E+00
    0.00000E+00         0.00000E+00         0.00000E+00
 
    0.66362E+06         0.74513E+06         0.00000E+00
    0.74513E+06        -0.13052E+08         0.00000E+00
    0.00000E+00         0.00000E+00         0.00000E+00
 
    0.63974E+06         0.84463E+06         0.00000E+00
    0.84463E+06        -0.13053E+08         0.00000E+00
    0.00000E+00         0.00000E+00         0.00000E+00
 
    0.61650E+06         0.94422E+06         0.00000E+00
    0.94422E+06        -0.13054E+08         0.00000E+00
    0.00000E+00         0.00000E+00         0.00000E+00
 
    0.59387E+06         0.10439E+07         0.00000E+00
    0.10439E+07        -0.13055E+08         0.00000E+00
    0.00000E+00         0.00000E+00         0.00000E+00
 
    0.57185E+06         0.11438E+07         0.00000E+00
    0.11438E+07        -0.13057E+08         0.00000E+00
    0.00000E+00         0.00000E+00         0.00000E+00
 
    0.55043E+06         0.12438E+07         0.00000E+00
    0.12438E+07        -0.13058E+08         0.00000E+00
    0.00000E+00         0.00000E+00         0.00000E+00
 
    0.52958E+06         0.13440E+07         0.00000E+00
    0.13440E+07        -0.13060E+08         0.00000E+00
    0.00000E+00         0.00000E+00         0.00000E+00
 
    0.50929E+06         0.14444E+07         0.00000E+00
    0.14444E+07        -0.13062E+08         0.00000E+00
    0.00000E+00         0.00000E+00         0.00000E+00
 
    0.48955E+06         0.15450E+07         0.00000E+00
    0.15450E+07        -0.13063E+08         0.00000E+00
    0.00000E+00         0.00000E+00         0.00000E+00
 
    0.47034E+06         0.16459E+07         0.00000E+00
    0.16459E+07        -0.13065E+08         0.00000E+00
    0.00000E+00         0.00000E+00         0.00000E+00
 
    0.45165E+06         0.17470E+07         0.00000E+00
    0.17470E+07        -0.13066E+08         0.00000E+00
    0.00000E+00         0.00000E+00         0.00000E+00
 
    0.43345E+06         0.18483E+07         0.00000E+00
    0.18483E+07        -0.13068E+08         0.00000E+00
    0.00000E+00         0.00000E+00         0.00000E+00
 
    0.41574E+06         0.19500E+07         0.00000E+00
    0.19500E+07        -0.13070E+08         0.00000E+00
    0.00000E+00         0.00000E+00         0.00000E+00
 
    0.39848E+06         0.20519E+07         0.00000E+00
    0.20519E+07        -0.13071E+08         0.00000E+00
    0.00000E+00         0.00000E+00         0.00000E+00
 
    0.38167E+06         0.21542E+07         0.00000E+00
    0.21542E+07        -0.13073E+08         0.00000E+00
    0.00000E+00         0.00000E+00         0.00000E+00
 
    0.36529E+06         0.22567E+07         0.00000E+00
    0.22567E+07        -0.13075E+08         0.00000E+00
    0.00000E+00         0.00000E+00         0.00000E+00
 
    0.34931E+06         0.23597E+07         0.00000E+00
    0.23597E+07        -0.13076E+08         0.00000E+00
    0.00000E+00         0.00000E+00         0.00000E+00
 
    0.33371E+06         0.24630E+07         0.00000E+00
    0.24630E+07        -0.13077E+08         0.00000E+00
    0.00000E+00         0.00000E+00         0.00000E+00
 
    0.31848E+06         0.25666E+07         0.00000E+00
    0.25666E+07        -0.13079E+08         0.00000E+00
    0.00000E+00         0.00000E+00         0.00000E+00
 
    0.30360E+06         0.26707E+07         0.00000E+00
    0.26707E+07        -0.13080E+08         0.00000E+00
    0.00000E+00         0.00000E+00         0.00000E+00
 
    0.28904E+06         0.27751E+07         0.00000E+00
    0.27751E+07        -0.13081E+08         0.00000E+00
    0.00000E+00         0.00000E+00         0.00000E+00
 
    0.27479E+06         0.28799E+07         0.00000E+00
    0.28799E+07        -0.13082E+08         0.00000E+00
    0.00000E+00         0.00000E+00         0.00000E+00
 
    0.26082E+06         0.29852E+07         0.00000E+00
    0.29852E+07        -0.13082E+08         0.00000E+00
    0.00000E+00         0.00000E+00         0.00000E+00
 
    0.24711E+06         0.30909E+07         0.00000E+00
    0.30909E+07        -0.13083E+08         0.00000E+00
    0.00000E+00         0.00000E+00         0.00000E+00
 
    0.23365E+06         0.31971E+07         0.00000E+00
    0.31971E+07        -0.13083E+08         0.00000E+00
    0.00000E+00         0.00000E+00         0.00000E+00
 
    0.22040E+06         0.33037E+07         0.00000E+00
    0.33037E+07        -0.13083E+08         0.00000E+00
    0.00000E+00         0.00000E+00         0.00000E+00
 
    0.20735E+06         0.34108E+07         0.00000E+00
    0.34108E+07        -0.13083E+08         0.00000E+00
    0.00000E+00         0.00000E+00         0.00000E+00
 
    0.19447E+06         0.35183E+07         0.00000E+00
    0.35183E+07        -0.13083E+08         0.00000E+00
    0.00000E+00         0.00000E+00         0.00000E+00
 
    0.18175E+06         0.36264E+07         0.00000E+00
    0.36264E+07        -0.13082E+08         0.00000E+00
    0.00000E+00         0.00000E+00         0.00000E+00
 
    0.16915E+06         0.37349E+07         0.00000E+00
    0.37349E+07        -0.13081E+08         0.00000E+00
    0.00000E+00         0.00000E+00         0.00000E+00
 
    0.15666E+06         0.38439E+07         0.00000E+00
    0.38439E+07        -0.13080E+08         0.00000E+00
    0.00000E+00         0.00000E+00         0.00000E+00
 
    0.14426E+06         0.39535E+07         0.00000E+00
    0.39535E+07        -0.13079E+08         0.00000E+00
    0.00000E+00         0.00000E+00         0.00000E+00
 
    0.13191E+06         0.40635E+07         0.00000E+00
    0.40635E+07        -0.13077E+08         0.00000E+00
    0.00000E+00         0.00000E+00         0.00000E+00
 
    0.11960E+06         0.41742E+07         0.00000E+00
    0.41742E+07        -0.13075E+08         0.00000E+00
    0.00000E+00         0.00000E+00         0.00000E+00
 
    0.10731E+06         0.42853E+07         0.00000E+00
    0.42853E+07        -0.13072E+08         0.00000E+00
    0.00000E+00         0.00000E+00         0.00000E+00
 
    0.95005E+05         0.43970E+07         0.00000E+00
    0.43970E+07        -0.13069E+08         0.00000E+00
    0.00000E+00         0.00000E+00         0.00000E+00
 
    0.82666E+05         0.45092E+07         0.00000E+00
    0.45092E+07        -0.13066E+08         0.00000E+00
    0.00000E+00         0.00000E+00         0.00000E+00
 
    0.70269E+05         0.46220E+07         0.00000E+00
    0.46220E+07        -0.13062E+08         0.00000E+00
    0.00000E+00         0.00000E+00         0.00000E+00
 
    0.57791E+05         0.47354E+07         0.00000E+00
    0.47354E+07        -0.13058E+08         0.00000E+00
    0.00000E+00         0.00000E+00         0.00000E+00
 
    0.45207E+05         0.48493E+07         0.00000E+00
    0.48493E+07        -0.13053E+08         0.00000E+00
    0.00000E+00         0.00000E+00         0.00000E+00
 
    0.32492E+05         0.49638E+07         0.00000E+00
    0.49638E+07        -0.13048E+08         0.00000E+00
    0.00000E+00         0.00000E+00         0.00000E+00
 
    0.19622E+05         0.50789E+07         0.00000E+00
    0.50789E+07        -0.13043E+08         0.00000E+00
    0.00000E+00         0.00000E+00         0.00000E+00
 
    0.65726E+04         0.51945E+07         0.00000E+00
    0.51945E+07        -0.13037E+08         0.00000E+00
    0.00000E+00         0.00000E+00         0.00000E+00
 
    0.75748E+06         0.49417E+05         0.00000E+00
    0.49417E+05        -0.13635E+08         0.00000E+00
    0.00000E+00         0.00000E+00         0.00000E+00
 
    0.72864E+06         0.14809E+06         0.00000E+00
    0.14809E+06        -0.13635E+08         0.00000E+00
    0.00000E+00         0.00000E+00         0.00000E+00
 
    0.70063E+06         0.24675E+06         0.00000E+00
    0.24675E+06        -0.13635E+08         0.00000E+00
    0.00000E+00         0.00000E+00         0.00000E+00
 
    0.67343E+06         0.34540E+06         0.00000E+00
    0.34540E+06        -0.13636E+08         0.00000E+00
    0.00000E+00         0.00000E+00         0.00000E+00
 
    0.64702E+06         0.44407E+06         0.00000E+00
    0.44407E+06        -0.13637E+08         0.00000E+00
    0.00000E+00         0.00000E+00         0.00000E+00
 
    0.62140E+06         0.54280E+06         0.00000E+00
    0.54280E+06        -0.13638E+08         0.00000E+00
    0.00000E+00         0.00000E+00         0.00000E+00
 
    0.59656E+06         0.64160E+06         0.00000E+00
    0.64160E+06        -0.13639E+08         0.00000E+00
    0.00000E+00         0.00000E+00         0.00000E+00
 
    0.57248E+06         0.74049E+06         0.00000E+00
    0.74049E+06        -0.13641E+08         0.00000E+00
    0.00000E+00         0.00000E+00         0.00000E+00
 
    0.54915E+06         0.83951E+06         0.00000E+00
    0.83951E+06        -0.13642E+08         0.00000E+00
    0.00000E+00         0.00000E+00         0.00000E+00
 
    0.52656E+06         0.93866E+06         0.00000E+00
    0.93866E+06        -0.13644E+08         0.00000E+00
    0.00000E+00         0.00000E+00         0.00000E+00
 
    0.50470E+06         0.10380E+07         0.00000E+00
    0.10380E+07        -0.13646E+08         0.00000E+00
    0.00000E+00         0.00000E+00         0.00000E+00
 
    0.48354E+06         0.11375E+07         0.00000E+00
    0.11375E+07        -0.13648E+08         0.00000E+00
    0.00000E+00         0.00000E+00         0.00000E+00
 
    0.46307E+06         0.12372E+07         0.00000E+00
    0.12372E+07        -0.13650E+08         0.00000E+00
    0.00000E+00         0.00000E+00         0.00000E+00
 
    0.44328E+06         0.13371E+07         0.00000E+00
    0.13371E+07        -0.13652E+08         0.00000E+00
    0.00000E+00         0.00000E+00         0.00000E+00
 
    0.42415E+06         0.14373E+07         0.00000E+00
    0.14373E+07        -0.13655E+08         0.00000E+00
    0.00000E+00         0.00000E+00         0.00000E+00
 
    0.40566E+06         0.15378E+07         0.00000E+00
    0.15378E+07        -0.13657E+08         0.00000E+00
    0.00000E+00         0.00000E+00         0.00000E+00
 
    0.38779E+06         0.16385E+07         0.00000E+00
    0.16385E+07        -0.13660E+08         0.00000E+00
    0.00000E+00         0.00000E+00         0.00000E+00
 
    0.37052E+06         0.17396E+07         0.00000E+00
    0.17396E+07        -0.13662E+08         0.00000E+00
    0.00000E+00         0.00000E+00         0.00000E+00
 
    0.35384E+06         0.18409E+07         0.00000E+00
    0.18409E+07        -0.13665E+08         0.00000E+00
    0.00000E+00         0.00000E+00         0.00000E+00
 
    0.33772E+06         0.19426E+07         0.00000E+00
    0.19426E+07        -0.13668E+08         0.00000E+00
    0.00000E+00         0.00000E+00         0.00000E+00
 
    0.32215E+06         0.20447E+07         0.00000E+00
    0.20447E+07        -0.13670E+08         0.00000E+00
    0.00000E+00         0.00000E+00         0.00000E+00
 
    0.30710E+06         0.21472E+07         0.00000E+00
    0.21472E+07        -0.13673E+08         0.00000E+00
    0.00000E+00         0.00000E+00         0.00000E+00
 
    0.29255E+06         0.22500E+07         0.00000E+00
    0.22500E+07        -0.13675E+08         0.00000E+00
    0.00000E+00         0.00000E+00         0.00000E+00
 
    0.27848E+06         0.23532E+07         0.00000E+00
    0.23532E+07        -0.13678E+08         0.00000E+00
    0.00000E+00         0.00000E+00         0.00000E+00
 
    0.26488E+06         0.24569E+07         0.00000E+00
    0.24569E+07        -0.13681E+08         0.00000E+00
    0.00000E+00         0.00000E+00         0.00000E+00
 
    0.25170E+06         0.25610E+07         0.00000E+00
    0.25610E+07        -0.13683E+08         0.00000E+00
    0.00000E+00         0.00000E+00         0.00000E+00
 
    0.23895E+06         0.26656E+07         0.00000E+00
    0.26656E+07        -0.13685E+08         0.00000E+00
    0.00000E+00         0.00000E+00         0.00000E+00
 
    0.22658E+06         0.27706E+07         0.00000E+00
    0.27706E+07        -0.13688E+08         0.00000E+00
    0.00000E+00         0.00000E+00         0.00000E+00
 
    0.21459E+06         0.28762E+07         0.00000E+00
    0.28762E+07        -0.13690E+08         0.00000E+00
    0.00000E+00         0.00000E+00         0.00000E+00
 
    0.20294E+06         0.29822E+07         0.00000E+00
    0.29822E+07        -0.13692E+08         0.00000E+00
    0.00000E+00         0.00000E+00         0.00000E+00
 
    0.19161E+06         0.30887E+07         0.00000E+00
    0.30887E+07        -0.13694E+08         0.00000E+00
    0.00000E+00         0.00000E+00         0.00000E+00
 
    0.18058E+06         0.31957E+07         0.00000E+00
    0.31957E+07        -0.13695E+08         0.00000E+00
    0.00000E+00         0.00000E+00         0.00000E+00
 
    0.16982E+06         0.33033E+07         0.00000E+00
    0.33033E+07        -0.13697E+08         0.00000E+00
    0.00000E+00         0.00000E+00         0.00000E+00
 
    0.15932E+06         0.34114E+07         0.00000E+00
    0.34114E+07        -0.13698E+08         0.00000E+00
    0.00000E+00         0.00000E+00         0.00000E+00
 
    0.14904E+06         0.35201E+07         0.00000E+00
    0.35201E+07        -0.13699E+08         0.00000E+00
    0.00000E+00         0.00000E+00         0.00000E+00
 
    0.13896E+06         0.36293E+07         0.00000E+00
    0.36293E+07        -0.13700E+08         0.00000E+00
    0.00000E+00         0.00000E+00         0.00000E+00
 
    0.12906E+06         0.37391E+07         0.00000E+00
    0.37391E+07        -0.13701E+08         0.00000E+00
    0.00000E+00         0.00000E+00         0.00000E+00
 
    0.11930E+06         0.38495E+07         0.00000E+00
    0.38495E+07        -0.13701E+08         0.00000E+00
    0.00000E+00         0.00000E+00         0.00000E+00
 
    0.10968E+06         0.39605E+07         0.00000E+00
    0.39605E+07        -0.13701E+08         0.00000E+00
    0.00000E+00         0.00000E+00         0.00000E+00
 
    0.10016E+06         0.40720E+07         0.00000E+00
    0.40720E+07        -0.13700E+08         0.00000E+00
    0.00000E+00         0.00000E+00         0.00000E+00
 
    0.90717E+05         0.41842E+07         0.00000E+00
    0.41842E+07        -0.13700E+08         0.00000E+00
    0.00000E+00         0.00000E+00         0.00000E+00
 
    0.81324E+05         0.42970E+07         0.00000E+00
    0.42970E+07        -0.13699E+08         0.00000E+00
    0.00000E+00         0.00000E+00         0.00000E+00
 
    0.71958E+05         0.44104E+07         0.00000E+00
    0.44104E+07        -0.13697E+08         0.00000E+00
    0.00000E+00         0.00000E+00         0.00000E+00
 
    0.62594E+05         0.45245E+07         0.00000E+00
    0.45245E+07        -0.13696E+08         0.00000E+00
    0.00000E+00         0.00000E+00         0.00000E+00
 
    0.53204E+05         0.46392E+07         0.00000E+00
    0.46392E+07        -0.13693E+08         0.00000E+00
    0.00000E+00         0.00000E+00         0.00000E+00
 
    0.43765E+05         0.47545E+07         0.00000E+00
    0.47545E+07        -0.13691E+08         0.00000E+00
    0.00000E+00         0.00000E+00         0.00000E+00
 
    0.34250E+05         0.48705E+07         0.00000E+00
    0.48705E+07        -0.13688E+08         0.00000E+00
    0.00000E+00         0.00000E+00         0.00000E+00
 
    0.24633E+05         0.49872E+07         0.00000E+00
    0.49872E+07        -0.13684E+08         0.00000E+00
    0.00000E+00         0.00000E+00         0.00000E+00
 
    0.14889E+05         0.51045E+07         0.00000E+00
    0.51045E+07        -0.13680E+08         0.00000E+00
    0.00000E+00         0.00000E+00         0.00000E+00
 
    0.49906E+04         0.52225E+07         0.00000E+00
    0.52225E+07        -0.13676E+08         0.00000E+00
    0.00000E+00         0.00000E+00         0.00000E+00
 
    0.64916E+06         0.48887E+05         0.00000E+00
    0.48887E+05        -0.14234E+08         0.00000E+00
    0.00000E+00         0.00000E+00         0.00000E+00
 
    0.62020E+06         0.14656E+06         0.00000E+00
    0.14656E+06        -0.14234E+08         0.00000E+00
    0.00000E+00         0.00000E+00         0.00000E+00
 
    0.59219E+06         0.24423E+06         0.00000E+00
    0.24423E+06        -0.14235E+08         0.00000E+00
    0.00000E+00         0.00000E+00         0.00000E+00
 
    0.56512E+06         0.34192E+06         0.00000E+00
    0.34192E+06        -0.14236E+08         0.00000E+00
    0.00000E+00         0.00000E+00         0.00000E+00
 
    0.53897E+06         0.43968E+06         0.00000E+00
    0.43968E+06        -0.14237E+08         0.00000E+00
    0.00000E+00         0.00000E+00         0.00000E+00
 
    0.51375E+06         0.53751E+06         0.00000E+00
    0.53751E+06        -0.14238E+08         0.00000E+00
    0.00000E+00         0.00000E+00         0.00000E+00
 
    0.48942E+06         0.63546E+06         0.00000E+00
    0.63546E+06        -0.14240E+08         0.00000E+00
    0.00000E+00         0.00000E+00         0.00000E+00
 
    0.46598E+06         0.73354E+06         0.00000E+00
    0.73354E+06        -0.14242E+08         0.00000E+00
    0.00000E+00         0.00000E+00         0.00000E+00
 
    0.44341E+06         0.83178E+06         0.00000E+00
    0.83178E+06        -0.14244E+08         0.00000E+00
    0.00000E+00         0.00000E+00         0.00000E+00
 
    0.42170E+06         0.93021E+06         0.00000E+00
    0.93021E+06        -0.14246E+08         0.00000E+00
    0.00000E+00         0.00000E+00         0.00000E+00
 
    0.40082E+06         0.10289E+07         0.00000E+00
    0.10289E+07        -0.14249E+08         0.00000E+00
    0.00000E+00         0.00000E+00         0.00000E+00
 
    0.38077E+06         0.11277E+07         0.00000E+00
    0.11277E+07        -0.14252E+08         0.00000E+00
    0.00000E+00         0.00000E+00         0.00000E+00
 
    0.36152E+06         0.12269E+07         0.00000E+00
    0.12269E+07        -0.14255E+08         0.00000E+00
    0.00000E+00         0.00000E+00         0.00000E+00
 
    0.34306E+06         0.13263E+07         0.00000E+00
    0.13263E+07        -0.14258E+08         0.00000E+00
    0.00000E+00         0.00000E+00         0.00000E+00
 
    0.32536E+06         0.14260E+07         0.00000E+00
    0.14260E+07        -0.14261E+08         0.00000E+00
    0.00000E+00         0.00000E+00         0.00000E+00
 
    0.30840E+06         0.15261E+07         0.00000E+00
    0.15261E+07        -0.14264E+08         0.00000E+00
    0.00000E+00         0.00000E+00         0.00000E+00
 
    0.29217E+06         0.16265E+07         0.00000E+00
    0.16265E+07        -0.14268E+08         0.00000E+00
    0.00000E+00         0.00000E+00         0.00000E+00
 
    0.27664E+06         0.17272E+07         0.00000E+00
    0.17272E+07        -0.14271E+08         0.00000E+00
    0.00000E+00         0.00000E+00         0.00000E+00
 
    0.26179E+06         0.18284E+07         0.00000E+00
    0.18284E+07        -0.14275E+08         0.00000E+00
    0.00000E+00         0.00000E+00         0.00000E+00
 
    0.24760E+06         0.19300E+07         0.00000E+00
    0.19300E+07        -0.14279E+08         0.00000E+00
    0.00000E+00         0.00000E+00         0.00000E+00
 
    0.23404E+06         0.20320E+07         0.00000E+00
    0.20320E+07        -0.14283E+08         0.00000E+00
    0.00000E+00         0.00000E+00         0.00000E+00
 
    0.22109E+06         0.21344E+07         0.00000E+00
    0.21344E+07        -0.14286E+08         0.00000E+00
    0.00000E+00         0.00000E+00         0.00000E+00
 
    0.20872E+06         0.22373E+07         0.00000E+00
    0.22373E+07        -0.14290E+08         0.00000E+00
    0.00000E+00         0.00000E+00         0.00000E+00
 
    0.19693E+06         0.23407E+07         0.00000E+00
    0.23407E+07        -0.14294E+08         0.00000E+00
    0.00000E+00         0.00000E+00         0.00000E+00
 
    0.18566E+06         0.24446E+07         0.00000E+00
    0.24446E+07        -0.14298E+08         0.00000E+00
    0.00000E+00         0.00000E+00         0.00000E+00
 
    0.17492E+06         0.25490E+07         0.00000E+00
    0.25490E+07        -0.14302E+08         0.00000E+00
    0.00000E+00         0.00000E+00         0.00000E+00
 
    0.16466E+06         0.26540E+07         0.00000E+00
    0.26540E+07        -0.14306E+08         0.00000E+00
    0.00000E+00         0.00000E+00         0.00000E+00
 
    0.15486E+06         0.27595E+07         0.00000E+00
    0.27595E+07        -0.14309E+08         0.00000E+00
    0.00000E+00         0.00000E+00         0.00000E+00
 
    0.14550E+06         0.28655E+07         0.00000E+00
    0.28655E+07        -0.14313E+08         0.00000E+00
    0.00000E+00         0.00000E+00         0.00000E+00
 
    0.13655E+06         0.29721E+07         0.00000E+00
    0.29721E+07        -0.14316E+08         0.00000E+00
    0.00000E+00         0.00000E+00         0.00000E+00
 
    0.12799E+06         0.30793E+07         0.00000E+00
    0.30793E+07        -0.14320E+08         0.00000E+00
    0.00000E+00         0.00000E+00         0.00000E+00
 
    0.11979E+06         0.31871E+07         0.00000E+00
    0.31871E+07        -0.14323E+08         0.00000E+00
    0.00000E+00         0.00000E+00         0.00000E+00
 
    0.11192E+06         0.32955E+07         0.00000E+00
    0.32955E+07        -0.14326E+08         0.00000E+00
    0.00000E+00         0.00000E+00         0.00000E+00
 
    0.10436E+06         0.34046E+07         0.00000E+00
    0.34046E+07        -0.14329E+08         0.00000E+00
    0.00000E+00         0.00000E+00         0.00000E+00
 
    0.97078E+05         0.35142E+07         0.00000E+00
    0.35142E+07        -0.14331E+08         0.00000E+00
    0.00000E+00         0.00000E+00         0.00000E+00
 
    0.90050E+05         0.36245E+07         0.00000E+00
    0.36245E+07        -0.14334E+08         0.00000E+00
    0.00000E+00         0.00000E+00         0.00000E+00
 
    0.83248E+05         0.37355E+07         0.00000E+00
    0.37355E+07        -0.14336E+08         0.00000E+00
    0.00000E+00         0.00000E+00         0.00000E+00
 
    0.76647E+05         0.38472E+07         0.00000E+00
    0.38472E+07        -0.14338E+08         0.00000E+00
    0.00000E+00         0.00000E+00         0.00000E+00
 
    0.70218E+05         0.39595E+07         0.00000E+00
    0.39595E+07        -0.14340E+08         0.00000E+00
    0.00000E+00         0.00000E+00         0.00000E+00
 
    0.63935E+05         0.40725E+07         0.00000E+00
    0.40725E+07        -0.14341E+08         0.00000E+00
    0.00000E+00         0.00000E+00         0.00000E+00
 
    0.57772E+05         0.41862E+07         0.00000E+00
    0.41862E+07        -0.14342E+08         0.00000E+00
    0.00000E+00         0.00000E+00         0.00000E+00
 
    0.51701E+05         0.43006E+07         0.00000E+00
    0.43006E+07        -0.14343E+08         0.00000E+00
    0.00000E+00         0.00000E+00         0.00000E+00
 
    0.45694E+05         0.44157E+07         0.00000E+00
    0.44157E+07        -0.14343E+08         0.00000E+00
    0.00000E+00         0.00000E+00         0.00000E+00
 
    0.39726E+05         0.45315E+07         0.00000E+00
    0.45315E+07        -0.14343E+08         0.00000E+00
    0.00000E+00         0.00000E+00         0.00000E+00
 
    0.33769E+05         0.46481E+07         0.00000E+00
    0.46481E+07        -0.14343E+08         0.00000E+00
    0.00000E+00         0.00000E+00         0.00000E+00
 
    0.27795E+05         0.47654E+07         0.00000E+00
    0.47654E+07        -0.14342E+08         0.00000E+00
    0.00000E+00         0.00000E+00         0.00000E+00
 
    0.21777E+05         0.48834E+07         0.00000E+00
    0.48834E+07        -0.14341E+08         0.00000E+00
    0.00000E+00         0.00000E+00         0.00000E+00
 
    0.15689E+05         0.50022E+07         0.00000E+00
    0.50022E+07        -0.14339E+08         0.00000E+00
    0.00000E+00         0.00000E+00         0.00000E+00
 
    0.95026E+04         0.51217E+07         0.00000E+00
    0.51217E+07        -0.14337E+08         0.00000E+00
    0.00000E+00         0.00000E+00         0.00000E+00
 
    0.31907E+04         0.52420E+07         0.00000E+00
    0.52420E+07        -0.14334E+08         0.00000E+00
    0.00000E+00         0.00000E+00         0.00000E+00
 
    0.52280E+06         0.48166E+05         0.00000E+00
    0.48166E+05        -0.14845E+08         0.00000E+00
    0.00000E+00         0.00000E+00         0.00000E+00
 
    0.49383E+06         0.14446E+06         0.00000E+00
    0.14446E+06        -0.14846E+08         0.00000E+00
    0.00000E+00         0.00000E+00         0.00000E+00
 
    0.46597E+06         0.24078E+06         0.00000E+00
    0.24078E+06        -0.14847E+08         0.00000E+00
    0.00000E+00         0.00000E+00         0.00000E+00
 
    0.43919E+06         0.33716E+06         0.00000E+00
    0.33716E+06        -0.14848E+08         0.00000E+00
    0.00000E+00         0.00000E+00         0.00000E+00
 
    0.41349E+06         0.43364E+06         0.00000E+00
    0.43364E+06        -0.14849E+08         0.00000E+00
    0.00000E+00         0.00000E+00         0.00000E+00
 
    0.38884E+06         0.53024E+06         0.00000E+00
    0.53024E+06        -0.14851E+08         0.00000E+00
    0.00000E+00         0.00000E+00         0.00000E+00
 
    0.36524E+06         0.62699E+06         0.00000E+00
    0.62699E+06        -0.14853E+08         0.00000E+00
    0.00000E+00         0.00000E+00         0.00000E+00
 
    0.34267E+06         0.72393E+06         0.00000E+00
    0.72393E+06        -0.14855E+08         0.00000E+00
    0.00000E+00         0.00000E+00         0.00000E+00
 
    0.32110E+06         0.82107E+06         0.00000E+00
    0.82107E+06        -0.14858E+08         0.00000E+00
    0.00000E+00         0.00000E+00         0.00000E+00
 
    0.30052E+06         0.91846E+06         0.00000E+00
    0.91846E+06        -0.14861E+08         0.00000E+00
    0.00000E+00         0.00000E+00         0.00000E+00
 
    0.28091E+06         0.10161E+07         0.00000E+00
    0.10161E+07        -0.14865E+08         0.00000E+00
    0.00000E+00         0.00000E+00         0.00000E+00
 
    0.26225E+06         0.11141E+07         0.00000E+00
    0.11141E+07        -0.14868E+08         0.00000E+00
    0.00000E+00         0.00000E+00         0.00000E+00
 
    0.24451E+06         0.12123E+07         0.00000E+00
    0.12123E+07        -0.14872E+08         0.00000E+00
    0.00000E+00         0.00000E+00         0.00000E+00
 
    0.22769E+06         0.13110E+07         0.00000E+00
    0.13110E+07        -0.14876E+08         0.00000E+00
    0.00000E+00         0.00000E+00         0.00000E+00
 
    0.21174E+06         0.14099E+07         0.00000E+00
    0.14099E+07        -0.14880E+08         0.00000E+00
    0.00000E+00         0.00000E+00         0.00000E+00
 
    0.19665E+06         0.15093E+07         0.00000E+00
    0.15093E+07        -0.14885E+08         0.00000E+00
    0.00000E+00         0.00000E+00         0.00000E+00
 
    0.18239E+06         0.16091E+07         0.00000E+00
    0.16091E+07        -0.14889E+08         0.00000E+00
    0.00000E+00         0.00000E+00         0.00000E+00
 
    0.16895E+06         0.17094E+07         0.00000E+00
    0.17094E+07        -0.14894E+08         0.00000E+00
    0.00000E+00         0.00000E+00         0.00000E+00
 
    0.15628E+06         0.18101E+07         0.00000E+00
    0.18101E+07        -0.14899E+08         0.00000E+00
    0.00000E+00         0.00000E+00         0.00000E+00
 
    0.14438E+06         0.19113E+07         0.00000E+00
    0.19113E+07        -0.14904E+08         0.00000E+00
    0.00000E+00         0.00000E+00         0.00000E+00
 
    0.13321E+06         0.20130E+07         0.00000E+00
    0.20130E+07        -0.14909E+08         0.00000E+00
    0.00000E+00         0.00000E+00         0.00000E+00
 
    0.12274E+06         0.21152E+07         0.00000E+00
    0.21152E+07        -0.14914E+08         0.00000E+00
    0.00000E+00         0.00000E+00         0.00000E+00
 
    0.11295E+06         0.22180E+07         0.00000E+00
    0.22180E+07        -0.14919E+08         0.00000E+00
    0.00000E+00         0.00000E+00         0.00000E+00
 
    0.10381E+06         0.23213E+07         0.00000E+00
    0.23213E+07        -0.14925E+08         0.00000E+00
    0.00000E+00         0.00000E+00         0.00000E+00
 
    0.95300E+05         0.24252E+07         0.00000E+00
    0.24252E+07        -0.14930E+08         0.00000E+00
    0.00000E+00         0.00000E+00         0.00000E+00
 
    0.87381E+05         0.25297E+07         0.00000E+00
    0.25297E+07        -0.14935E+08         0.00000E+00
    0.00000E+00         0.00000E+00         0.00000E+00
 
    0.80028E+05         0.26349E+07         0.00000E+00
    0.26349E+07        -0.14941E+08         0.00000E+00
    0.00000E+00         0.00000E+00         0.00000E+00
 
    0.73215E+05         0.27406E+07         0.00000E+00
    0.27406E+07        -0.14946E+08         0.00000E+00
    0.00000E+00         0.00000E+00         0.00000E+00
 
    0.66912E+05         0.28470E+07         0.00000E+00
    0.28470E+07        -0.14951E+08         0.00000E+00
    0.00000E+00         0.00000E+00         0.00000E+00
 
    0.61090E+05         0.29541E+07         0.00000E+00
    0.29541E+07        -0.14956E+08         0.00000E+00
    0.00000E+00         0.00000E+00         0.00000E+00
 
    0.55721E+05         0.30618E+07         0.00000E+00
    0.30618E+07        -0.14961E+08         0.00000E+00
    0.00000E+00         0.00000E+00         0.00000E+00
 
    0.50775E+05         0.31703E+07         0.00000E+00
    0.31703E+07        -0.14966E+08         0.00000E+00
    0.00000E+00         0.00000E+00         0.00000E+00
 
    0.46225E+05         0.32794E+07         0.00000E+00
    0.32794E+07        -0.14971E+08         0.00000E+00
    0.00000E+00         0.00000E+00         0.00000E+00
 
    0.42040E+05         0.33892E+07         0.00000E+00
    0.33892E+07        -0.14976E+08         0.00000E+00
    0.00000E+00         0.00000E+00         0.00000E+00
 
    0.38192E+05         0.34998E+07         0.00000E+00
    0.34998E+07        -0.14980E+08         0.00000E+00
    0.00000E+00         0.00000E+00         0.00000E+00
 
    0.34651E+05         0.36111E+07         0.00000E+00
    0.36111E+07        -0.14984E+08         0.00000E+00
    0.00000E+00         0.00000E+00         0.00000E+00
 
    0.31390E+05         0.37232E+07         0.00000E+00
    0.37232E+07        -0.14988E+08         0.00000E+00
    0.00000E+00         0.00000E+00         0.00000E+00
 
    0.28377E+05         0.38360E+07         0.00000E+00
    0.38360E+07        -0.14992E+08         0.00000E+00
    0.00000E+00         0.00000E+00         0.00000E+00
 
    0.25585E+05         0.39495E+07         0.00000E+00
    0.39495E+07        -0.14996E+08         0.00000E+00
    0.00000E+00         0.00000E+00         0.00000E+00
 
    0.22985E+05         0.40639E+07         0.00000E+00
    0.40639E+07        -0.14999E+08         0.00000E+00
    0.00000E+00         0.00000E+00         0.00000E+00
 
    0.20547E+05         0.41790E+07         0.00000E+00
    0.41790E+07        -0.15002E+08         0.00000E+00
    0.00000E+00         0.00000E+00         0.00000E+00
 
    0.18242E+05         0.42950E+07         0.00000E+00
    0.42950E+07        -0.15005E+08         0.00000E+00
    0.00000E+00         0.00000E+00         0.00000E+00
 
    0.16042E+05         0.44117E+07         0.00000E+00
    0.44117E+07        -0.15007E+08         0.00000E+00
    0.00000E+00         0.00000E+00         0.00000E+00
 
    0.13919E+05         0.45292E+07         0.00000E+00
    0.45292E+07        -0.15009E+08         0.00000E+00
    0.00000E+00         0.00000E+00         0.00000E+00
 
    0.11842E+05         0.46476E+07         0.00000E+00
    0.46476E+07        -0.15010E+08         0.00000E+00
    0.00000E+00         0.00000E+00         0.00000E+00
 
    0.97834E+04         0.47668E+07         0.00000E+00
    0.47668E+07        -0.15012E+08         0.00000E+00
    0.00000E+00         0.00000E+00         0.00000E+00
 
    0.77149E+04         0.48868E+07         0.00000E+00
    0.48868E+07        -0.15012E+08         0.00000E+00
    0.00000E+00         0.00000E+00         0.00000E+00
 
    0.56077E+04         0.50076E+07         0.00000E+00
    0.50076E+07        -0.15013E+08         0.00000E+00
    0.00000E+00         0.00000E+00         0.00000E+00
 
    0.34331E+04         0.51293E+07         0.00000E+00
    0.51293E+07        -0.15012E+08         0.00000E+00
    0.00000E+00         0.00000E+00         0.00000E+00
 
    0.11627E+04         0.52519E+07         0.00000E+00
    0.52519E+07        -0.15012E+08         0.00000E+00
    0.00000E+00         0.00000E+00         0.00000E+00
 
    0.37654E+06         0.47224E+05         0.00000E+00
    0.47224E+05        -0.15469E+08         0.00000E+00
    0.00000E+00         0.00000E+00         0.00000E+00
 
    0.34773E+06         0.14171E+06         0.00000E+00
    0.14171E+06        -0.15469E+08         0.00000E+00
    0.00000E+00         0.00000E+00         0.00000E+00
 
    0.32018E+06         0.23627E+06         0.00000E+00
    0.23627E+06        -0.15470E+08         0.00000E+00
    0.00000E+00         0.00000E+00         0.00000E+00
 
    0.29389E+06         0.33093E+06         0.00000E+00
    0.33093E+06        -0.15472E+08         0.00000E+00
    0.00000E+00         0.00000E+00         0.00000E+00
 
    0.26884E+06         0.42572E+06         0.00000E+00
    0.42572E+06        -0.15473E+08         0.00000E+00
    0.00000E+00         0.00000E+00         0.00000E+00
 
    0.24501E+06         0.52068E+06         0.00000E+00
    0.52068E+06        -0.15476E+08         0.00000E+00
    0.00000E+00         0.00000E+00         0.00000E+00
 
    0.22239E+06         0.61585E+06         0.00000E+00
    0.61585E+06        -0.15478E+08         0.00000E+00
    0.00000E+00         0.00000E+00         0.00000E+00
 
    0.20094E+06         0.71126E+06         0.00000E+00
    0.71126E+06        -0.15481E+08         0.00000E+00
    0.00000E+00         0.00000E+00         0.00000E+00
 
    0.18066E+06         0.80694E+06         0.00000E+00
    0.80694E+06        -0.15485E+08         0.00000E+00
    0.00000E+00         0.00000E+00         0.00000E+00
 
    0.16152E+06         0.90292E+06         0.00000E+00
    0.90292E+06        -0.15489E+08         0.00000E+00
    0.00000E+00         0.00000E+00         0.00000E+00
 
    0.14349E+06         0.99923E+06         0.00000E+00
    0.99923E+06        -0.15493E+08         0.00000E+00
    0.00000E+00         0.00000E+00         0.00000E+00
 
    0.12654E+06         0.10959E+07         0.00000E+00
    0.10959E+07        -0.15497E+08         0.00000E+00
    0.00000E+00         0.00000E+00         0.00000E+00
 
    0.11067E+06         0.11930E+07         0.00000E+00
    0.11930E+07        -0.15502E+08         0.00000E+00
    0.00000E+00         0.00000E+00         0.00000E+00
 
    0.95826E+05         0.12905E+07         0.00000E+00
    0.12905E+07        -0.15507E+08         0.00000E+00
    0.00000E+00         0.00000E+00         0.00000E+00
 
    0.81997E+05         0.13884E+07         0.00000E+00
    0.13884E+07        -0.15512E+08         0.00000E+00
    0.00000E+00         0.00000E+00         0.00000E+00
 
    0.69151E+05         0.14868E+07         0.00000E+00
    0.14868E+07        -0.15518E+08         0.00000E+00
    0.00000E+00         0.00000E+00         0.00000E+00
 
    0.57261E+05         0.15857E+07         0.00000E+00
    0.15857E+07        -0.15524E+08         0.00000E+00
    0.00000E+00         0.00000E+00         0.00000E+00
 
    0.46296E+05         0.16852E+07         0.00000E+00
    0.16852E+07        -0.15530E+08         0.00000E+00
    0.00000E+00         0.00000E+00         0.00000E+00
 
    0.36230E+05         0.17852E+07         0.00000E+00
    0.17852E+07        -0.15536E+08         0.00000E+00
    0.00000E+00         0.00000E+00         0.00000E+00
 
    0.27030E+05         0.18857E+07         0.00000E+00
    0.18857E+07        -0.15543E+08         0.00000E+00
    0.00000E+00         0.00000E+00         0.00000E+00
 
    0.18668E+05         0.19869E+07         0.00000E+00
    0.19869E+07        -0.15549E+08         0.00000E+00
    0.00000E+00         0.00000E+00         0.00000E+00
 
    0.11112E+05         0.20886E+07         0.00000E+00
    0.20886E+07        -0.15556E+08         0.00000E+00
    0.00000E+00         0.00000E+00         0.00000E+00
 
    0.43318E+04         0.21910E+07         0.00000E+00
    0.21910E+07        -0.15563E+08         0.00000E+00
    0.00000E+00         0.00000E+00         0.00000E+00
 
   -0.17036E+04         0.22941E+07         0.00000E+00
    0.22941E+07        -0.15570E+08         0.00000E+00
    0.00000E+00         0.00000E+00         0.00000E+00
 
   -0.70258E+04         0.23978E+07         0.00000E+00
    0.23978E+07        -0.15576E+08         0.00000E+00
    0.00000E+00         0.00000E+00         0.00000E+00
 
   -0.11666E+05         0.25023E+07         0.00000E+00
    0.25023E+07        -0.15584E+08         0.00000E+00
    0.00000E+00         0.00000E+00         0.00000E+00
 
   -0.15657E+05         0.26074E+07         0.00000E+00
    0.26074E+07        -0.15591E+08         0.00000E+00
    0.00000E+00         0.00000E+00         0.00000E+00
 
   -0.19030E+05         0.27132E+07         0.00000E+00
    0.27132E+07        -0.15598E+08         0.00000E+00
    0.00000E+00         0.00000E+00         0.00000E+00
 
   -0.21816E+05         0.28198E+07         0.00000E+00
    0.28198E+07        -0.15605E+08         0.00000E+00
    0.00000E+00         0.00000E+00         0.00000E+00
 
   -0.24049E+05         0.29272E+07         0.00000E+00
    0.29272E+07        -0.15612E+08         0.00000E+00
    0.00000E+00         0.00000E+00         0.00000E+00
 
   -0.25759E+05         0.30353E+07         0.00000E+00
    0.30353E+07        -0.15619E+08         0.00000E+00
    0.00000E+00         0.00000E+00         0.00000E+00
 
   -0.26980E+05         0.31442E+07         0.00000E+00
    0.31442E+07        -0.15625E+08         0.00000E+00
    0.00000E+00         0.00000E+00         0.00000E+00
 
   -0.27743E+05         0.32539E+07         0.00000E+00
    0.32539E+07        -0.15632E+08         0.00000E+00
    0.00000E+00         0.00000E+00         0.00000E+00
 
   -0.28079E+05         0.33645E+07         0.00000E+00
    0.33645E+07        -0.15639E+08         0.00000E+00
    0.00000E+00         0.00000E+00         0.00000E+00
 
   -0.28022E+05         0.34758E+07         0.00000E+00
    0.34758E+07        -0.15645E+08         0.00000E+00
    0.00000E+00         0.00000E+00         0.00000E+00
 
   -0.27601E+05         0.35880E+07         0.00000E+00
    0.35880E+07        -0.15652E+08         0.00000E+00
    0.00000E+00         0.00000E+00         0.00000E+00
 
   -0.26851E+05         0.37010E+07         0.00000E+00
    0.37010E+07        -0.15658E+08         0.00000E+00
    0.00000E+00         0.00000E+00         0.00000E+00
 
   -0.25800E+05         0.38148E+07         0.00000E+00
    0.38148E+07        -0.15663E+08         0.00000E+00
    0.00000E+00         0.00000E+00         0.00000E+00
 
   -0.24482E+05         0.39296E+07         0.00000E+00
    0.39296E+07        -0.15669E+08         0.00000E+00
    0.00000E+00         0.00000E+00         0.00000E+00
 
   -0.22928E+05         0.40452E+07         0.00000E+00
    0.40452E+07        -0.15674E+08         0.00000E+00
    0.00000E+00         0.00000E+00         0.00000E+00
 
   -0.21167E+05         0.41617E+07         0.00000E+00
    0.41617E+07        -0.15680E+08         0.00000E+00
    0.00000E+00         0.00000E+00         0.00000E+00
 
   -0.19232E+05         0.42791E+07         0.00000E+00
    0.42791E+07        -0.15684E+08         0.00000E+00
    0.00000E+00         0.00000E+00         0.00000E+00
 
   -0.17153E+05         0.43973E+07         0.00000E+00
    0.43973E+07        -0.15689E+08         0.00000E+00
    0.00000E+00         0.00000E+00         0.00000E+00
 
   -0.14960E+05         0.45165E+07         0.00000E+00
    0.45165E+07        -0.15693E+08         0.00000E+00
    0.00000E+00         0.00000E+00         0.00000E+00
 
   -0.12684E+05         0.46366E+07         0.00000E+00
    0.46366E+07        -0.15697E+08         0.00000E+00
    0.00000E+00         0.00000E+00         0.00000E+00
 
   -0.10354E+05         0.47576E+07         0.00000E+00
    0.47576E+07        -0.15700E+08         0.00000E+00
    0.00000E+00         0.00000E+00         0.00000E+00
 
   -0.80018E+04         0.48796E+07         0.00000E+00
    0.48796E+07        -0.15703E+08         0.00000E+00
    0.00000E+00         0.00000E+00         0.00000E+00
 
   -0.56558E+04         0.50025E+07         0.00000E+00
    0.50025E+07        -0.15706E+08         0.00000E+00
    0.00000E+00         0.00000E+00         0.00000E+00
 
   -0.33460E+04         0.51263E+07         0.00000E+00
    0.51263E+07        -0.15708E+08         0.00000E+00
    0.00000E+00         0.00000E+00         0.00000E+00
 
   -0.11019E+04         0.52511E+07         0.00000E+00
    0.52511E+07        -0.15709E+08         0.00000E+00
    0.00000E+00         0.00000E+00         0.00000E+00
 
    0.20832E+06         0.46026E+05         0.00000E+00
    0.46026E+05        -0.16104E+08         0.00000E+00
    0.00000E+00         0.00000E+00         0.00000E+00
 
    0.17984E+06         0.13822E+06         0.00000E+00
    0.13822E+06        -0.16104E+08         0.00000E+00
    0.00000E+00         0.00000E+00         0.00000E+00
 
    0.15282E+06         0.23053E+06         0.00000E+00
    0.23053E+06        -0.16106E+08         0.00000E+00
    0.00000E+00         0.00000E+00         0.00000E+00
 
    0.12725E+06         0.32299E+06         0.00000E+00
    0.32299E+06        -0.16107E+08         0.00000E+00
    0.00000E+00         0.00000E+00         0.00000E+00
 
    0.10311E+06         0.41563E+06         0.00000E+00
    0.41563E+06        -0.16109E+08         0.00000E+00
    0.00000E+00         0.00000E+00         0.00000E+00
 
    0.80382E+05         0.50851E+06         0.00000E+00
    0.50851E+06        -0.16112E+08         0.00000E+00
    0.00000E+00         0.00000E+00         0.00000E+00
 
    0.59032E+05         0.60166E+06         0.00000E+00
    0.60166E+06        -0.16115E+08         0.00000E+00
    0.00000E+00         0.00000E+00         0.00000E+00
 
    0.39039E+05         0.69511E+06         0.00000E+00
    0.69511E+06        -0.16119E+08         0.00000E+00
    0.00000E+00         0.00000E+00         0.00000E+00
 
    0.20376E+05         0.78890E+06         0.00000E+00
    0.78890E+06        -0.16123E+08         0.00000E+00
    0.00000E+00         0.00000E+00         0.00000E+00
 
    0.30173E+04         0.88307E+06         0.00000E+00
    0.88307E+06        -0.16128E+08         0.00000E+00
    0.00000E+00         0.00000E+00         0.00000E+00
 
   -0.13067E+05         0.97765E+06         0.00000E+00
    0.97765E+06        -0.16133E+08         0.00000E+00
    0.00000E+00         0.00000E+00         0.00000E+00
 
   -0.27905E+05         0.10727E+07         0.00000E+00
    0.10727E+07        -0.16139E+08         0.00000E+00
    0.00000E+00         0.00000E+00         0.00000E+00
 
   -0.41529E+05         0.11682E+07         0.00000E+00
    0.11682E+07        -0.16145E+08         0.00000E+00
    0.00000E+00         0.00000E+00         0.00000E+00
 
   -0.53968E+05         0.12642E+07         0.00000E+00
    0.12642E+07        -0.16151E+08         0.00000E+00
    0.00000E+00         0.00000E+00         0.00000E+00
 
   -0.65255E+05         0.13607E+07         0.00000E+00
    0.13607E+07        -0.16157E+08         0.00000E+00
    0.00000E+00         0.00000E+00         0.00000E+00
 
   -0.75422E+05         0.14578E+07         0.00000E+00
    0.14578E+07        -0.16164E+08         0.00000E+00
    0.00000E+00         0.00000E+00         0.00000E+00
 
   -0.84502E+05         0.15555E+07         0.00000E+00
    0.15555E+07        -0.16172E+08         0.00000E+00
    0.00000E+00         0.00000E+00         0.00000E+00
 
   -0.92529E+05         0.16539E+07         0.00000E+00
    0.16539E+07        -0.16179E+08         0.00000E+00
    0.00000E+00         0.00000E+00         0.00000E+00
 
   -0.99538E+05         0.17528E+07         0.00000E+00
    0.17528E+07        -0.16187E+08         0.00000E+00
    0.00000E+00         0.00000E+00         0.00000E+00
 
   -0.10556E+06         0.18525E+07         0.00000E+00
    0.18525E+07        -0.16195E+08         0.00000E+00
    0.00000E+00         0.00000E+00         0.00000E+00
 
   -0.11064E+06         0.19528E+07         0.00000E+00
    0.19528E+07        -0.16203E+08         0.00000E+00
    0.00000E+00         0.00000E+00         0.00000E+00
 
   -0.11480E+06         0.20538E+07         0.00000E+00
    0.20538E+07        -0.16211E+08         0.00000E+00
    0.00000E+00         0.00000E+00         0.00000E+00
 
   -0.11808E+06         0.21556E+07         0.00000E+00
    0.21556E+07        -0.16220E+08         0.00000E+00
    0.00000E+00         0.00000E+00         0.00000E+00
 
   -0.12052E+06         0.22582E+07         0.00000E+00
    0.22582E+07        -0.16229E+08         0.00000E+00
    0.00000E+00         0.00000E+00         0.00000E+00
 
   -0.12215E+06         0.23615E+07         0.00000E+00
    0.23615E+07        -0.16238E+08         0.00000E+00
    0.00000E+00         0.00000E+00         0.00000E+00
 
   -0.12301E+06         0.24656E+07         0.00000E+00
    0.24656E+07        -0.16246E+08         0.00000E+00
    0.00000E+00         0.00000E+00         0.00000E+00
 
   -0.12313E+06         0.25705E+07         0.00000E+00
    0.25705E+07        -0.16255E+08         0.00000E+00
    0.00000E+00         0.00000E+00         0.00000E+00
 
   -0.12256E+06         0.26763E+07         0.00000E+00
    0.26763E+07        -0.16265E+08         0.00000E+00
    0.00000E+00         0.00000E+00         0.00000E+00
 
   -0.12132E+06         0.27829E+07         0.00000E+00
    0.27829E+07        -0.16274E+08         0.00000E+00
    0.00000E+00         0.00000E+00         0.00000E+00
 
   -0.11945E+06         0.28903E+07         0.00000E+00
    0.28903E+07        -0.16283E+08         0.00000E+00
    0.00000E+00         0.00000E+00         0.00000E+00
 
   -0.11699E+06         0.29987E+07         0.00000E+00
    0.29987E+07        -0.16292E+08         0.00000E+00
    0.00000E+00         0.00000E+00         0.00000E+00
 
   -0.11398E+06         0.31079E+07         0.00000E+00
    0.31079E+07        -0.16301E+08         0.00000E+00
    0.00000E+00         0.00000E+00         0.00000E+00
 
   -0.11044E+06         0.32181E+07         0.00000E+00
    0.32181E+07        -0.16310E+08         0.00000E+00
    0.00000E+00         0.00000E+00         0.00000E+00
 
   -0.10642E+06         0.33291E+07         0.00000E+00
    0.33291E+07        -0.16318E+08         0.00000E+00
    0.00000E+00         0.00000E+00         0.00000E+00
 
   -0.10194E+06         0.34411E+07         0.00000E+00
    0.34411E+07        -0.16327E+08         0.00000E+00
    0.00000E+00         0.00000E+00         0.00000E+00
 
   -0.97053E+05         0.35540E+07         0.00000E+00
    0.35540E+07        -0.16335E+08         0.00000E+00
    0.00000E+00         0.00000E+00         0.00000E+00
 
   -0.91782E+05         0.36679E+07         0.00000E+00
    0.36679E+07        -0.16344E+08         0.00000E+00
    0.00000E+00         0.00000E+00         0.00000E+00
 
   -0.86162E+05         0.37827E+07         0.00000E+00
    0.37827E+07        -0.16352E+08         0.00000E+00
    0.00000E+00         0.00000E+00         0.00000E+00
 
   -0.80230E+05         0.38985E+07         0.00000E+00
    0.38985E+07        -0.16360E+08         0.00000E+00
    0.00000E+00         0.00000E+00         0.00000E+00
 
   -0.74016E+05         0.40153E+07         0.00000E+00
    0.40153E+07        -0.16368E+08         0.00000E+00
    0.00000E+00         0.00000E+00         0.00000E+00
 
   -0.67556E+05         0.41330E+07         0.00000E+00
    0.41330E+07        -0.16375E+08         0.00000E+00
    0.00000E+00         0.00000E+00         0.00000E+00
 
   -0.60882E+05         0.42517E+07         0.00000E+00
    0.42517E+07        -0.16382E+08         0.00000E+00
    0.00000E+00         0.00000E+00         0.00000E+00
 
   -0.54026E+05         0.43715E+07         0.00000E+00
    0.43715E+07        -0.16389E+08         0.00000E+00
    0.00000E+00         0.00000E+00         0.00000E+00
 
   -0.47021E+05         0.44922E+07         0.00000E+00
    0.44922E+07        -0.16396E+08         0.00000E+00
    0.00000E+00         0.00000E+00         0.00000E+00
 
   -0.39898E+05         0.46140E+07         0.00000E+00
    0.46140E+07        -0.16402E+08         0.00000E+00
    0.00000E+00         0.00000E+00         0.00000E+00
 
   -0.32689E+05         0.47368E+07         0.00000E+00
    0.47368E+07        -0.16408E+08         0.00000E+00
    0.00000E+00         0.00000E+00         0.00000E+00
 
   -0.25425E+05         0.48606E+07         0.00000E+00
    0.48606E+07        -0.16413E+08         0.00000E+00
    0.00000E+00         0.00000E+00         0.00000E+00
 
   -0.18137E+05         0.49854E+07         0.00000E+00
    0.49854E+07        -0.16418E+08         0.00000E+00
    0.00000E+00         0.00000E+00         0.00000E+00
 
   -0.10855E+05         0.51113E+07         0.00000E+00
    0.51113E+07        -0.16423E+08         0.00000E+00
    0.00000E+00         0.00000E+00         0.00000E+00
 
   -0.36097E+04         0.52383E+07         0.00000E+00
    0.52383E+07        -0.16427E+08         0.00000E+00
    0.00000E+00         0.00000E+00         0.00000E+00
 
    0.15755E+05         0.44532E+05         0.00000E+00
    0.44532E+05        -0.16750E+08         0.00000E+00
    0.00000E+00         0.00000E+00         0.00000E+00
 
   -0.12161E+05         0.13387E+06         0.00000E+00
    0.13387E+06        -0.16751E+08         0.00000E+00
    0.00000E+00         0.00000E+00         0.00000E+00
 
   -0.38383E+05         0.22338E+06         0.00000E+00
    0.22338E+06        -0.16752E+08         0.00000E+00
    0.00000E+00         0.00000E+00         0.00000E+00
 
   -0.62937E+05         0.31310E+06         0.00000E+00
    0.31310E+06        -0.16754E+08         0.00000E+00
    0.00000E+00         0.00000E+00         0.00000E+00
 
   -0.85849E+05         0.40307E+06         0.00000E+00
    0.40307E+06        -0.16757E+08         0.00000E+00
    0.00000E+00         0.00000E+00         0.00000E+00
 
   -0.10715E+06         0.49335E+06         0.00000E+00
    0.49335E+06        -0.16760E+08         0.00000E+00
    0.00000E+00         0.00000E+00         0.00000E+00
 
   -0.12686E+06         0.58397E+06         0.00000E+00
    0.58397E+06        -0.16764E+08         0.00000E+00
    0.00000E+00         0.00000E+00         0.00000E+00
 
   -0.14502E+06         0.67498E+06         0.00000E+00
    0.67498E+06        -0.16769E+08         0.00000E+00
    0.00000E+00         0.00000E+00         0.00000E+00
 
   -0.16166E+06         0.76641E+06         0.00000E+00
    0.76641E+06        -0.16774E+08         0.00000E+00
    0.00000E+00         0.00000E+00         0.00000E+00
 
   -0.17682E+06         0.85831E+06         0.00000E+00
    0.85831E+06        -0.16780E+08         0.00000E+00
    0.00000E+00         0.00000E+00         0.00000E+00
 
   -0.19052E+06         0.95072E+06         0.00000E+00
    0.95072E+06        -0.16786E+08         0.00000E+00
    0.00000E+00         0.00000E+00         0.00000E+00
 
   -0.20280E+06         0.10437E+07         0.00000E+00
    0.10437E+07        -0.16792E+08         0.00000E+00
    0.00000E+00         0.00000E+00         0.00000E+00
 
   -0.21370E+06         0.11372E+07         0.00000E+00
    0.11372E+07        -0.16799E+08         0.00000E+00
    0.00000E+00         0.00000E+00         0.00000E+00
 
   -0.22326E+06         0.12313E+07         0.00000E+00
    0.12313E+07        -0.16807E+08         0.00000E+00
    0.00000E+00         0.00000E+00         0.00000E+00
 
   -0.23152E+06         0.13261E+07         0.00000E+00
    0.13261E+07        -0.16815E+08         0.00000E+00
    0.00000E+00         0.00000E+00         0.00000E+00
 
   -0.23850E+06         0.14215E+07         0.00000E+00
    0.14215E+07        -0.16824E+08         0.00000E+00
    0.00000E+00         0.00000E+00         0.00000E+00
 
   -0.24426E+06         0.15176E+07         0.00000E+00
    0.15176E+07        -0.16832E+08         0.00000E+00
    0.00000E+00         0.00000E+00         0.00000E+00
 
   -0.24883E+06         0.16145E+07         0.00000E+00
    0.16145E+07        -0.16841E+08         0.00000E+00
    0.00000E+00         0.00000E+00         0.00000E+00
 
   -0.25225E+06         0.17121E+07         0.00000E+00
    0.17121E+07        -0.16851E+08         0.00000E+00
    0.00000E+00         0.00000E+00         0.00000E+00
 
   -0.25456E+06         0.18105E+07         0.00000E+00
    0.18105E+07        -0.16861E+08         0.00000E+00
    0.00000E+00         0.00000E+00         0.00000E+00
 
   -0.25580E+06         0.19097E+07         0.00000E+00
    0.19097E+07        -0.16871E+08         0.00000E+00
    0.00000E+00         0.00000E+00         0.00000E+00
 
   -0.25602E+06         0.20098E+07         0.00000E+00
    0.20098E+07        -0.16881E+08         0.00000E+00
    0.00000E+00         0.00000E+00         0.00000E+00
 
   -0.25525E+06         0.21107E+07         0.00000E+00
    0.21107E+07        -0.16892E+08         0.00000E+00
    0.00000E+00         0.00000E+00         0.00000E+00
 
   -0.25354E+06         0.22125E+07         0.00000E+00
    0.22125E+07        -0.16902E+08         0.00000E+00
    0.00000E+00         0.00000E+00         0.00000E+00
 
   -0.25092E+06         0.23151E+07         0.00000E+00
    0.23151E+07        -0.16913E+08         0.00000E+00
    0.00000E+00         0.00000E+00         0.00000E+00
 
   -0.24744E+06         0.24187E+07         0.00000E+00
    0.24187E+07        -0.16924E+08         0.00000E+00
    0.00000E+00         0.00000E+00         0.00000E+00
 
   -0.24314E+06         0.25232E+07         0.00000E+00
    0.25232E+07        -0.16935E+08         0.00000E+00
    0.00000E+00         0.00000E+00         0.00000E+00
 
   -0.23805E+06         0.26287E+07         0.00000E+00
    0.26287E+07        -0.16947E+08         0.00000E+00
    0.00000E+00         0.00000E+00         0.00000E+00
 
   -0.23222E+06         0.27351E+07         0.00000E+00
    0.27351E+07        -0.16958E+08         0.00000E+00
    0.00000E+00         0.00000E+00         0.00000E+00
 
   -0.22570E+06         0.28425E+07         0.00000E+00
    0.28425E+07        -0.16969E+08         0.00000E+00
    0.00000E+00         0.00000E+00         0.00000E+00
 
   -0.21851E+06         0.29509E+07         0.00000E+00
    0.29509E+07        -0.16980E+08         0.00000E+00
    0.00000E+00         0.00000E+00         0.00000E+00
 
   -0.21070E+06         0.30603E+07         0.00000E+00
    0.30603E+07        -0.16992E+08         0.00000E+00
    0.00000E+00         0.00000E+00         0.00000E+00
 
   -0.20230E+06         0.31707E+07         0.00000E+00
    0.31707E+07        -0.17003E+08         0.00000E+00
    0.00000E+00         0.00000E+00         0.00000E+00
 
   -0.19337E+06         0.32821E+07         0.00000E+00
    0.32821E+07        -0.17014E+08         0.00000E+00
    0.00000E+00         0.00000E+00         0.00000E+00
 
   -0.18393E+06         0.33946E+07         0.00000E+00
    0.33946E+07        -0.17025E+08         0.00000E+00
    0.00000E+00         0.00000E+00         0.00000E+00
 
   -0.17402E+06         0.35081E+07         0.00000E+00
    0.35081E+07        -0.17036E+08         0.00000E+00
    0.00000E+00         0.00000E+00         0.00000E+00
 
   -0.16368E+06         0.36227E+07         0.00000E+00
    0.36227E+07        -0.17047E+08         0.00000E+00
    0.00000E+00         0.00000E+00         0.00000E+00
 
   -0.15295E+06         0.37384E+07         0.00000E+00
    0.37384E+07        -0.17058E+08         0.00000E+00
    0.00000E+00         0.00000E+00         0.00000E+00
 
   -0.14187E+06         0.38551E+07         0.00000E+00
    0.38551E+07        -0.17068E+08         0.00000E+00
    0.00000E+00         0.00000E+00         0.00000E+00
 
   -0.13046E+06         0.39729E+07         0.00000E+00
    0.39729E+07        -0.17079E+08         0.00000E+00
    0.00000E+00         0.00000E+00         0.00000E+00
 
   -0.11878E+06         0.40919E+07         0.00000E+00
    0.40919E+07        -0.17089E+08         0.00000E+00
    0.00000E+00         0.00000E+00         0.00000E+00
 
   -0.10684E+06         0.42119E+07         0.00000E+00
    0.42119E+07        -0.17098E+08         0.00000E+00
    0.00000E+00         0.00000E+00         0.00000E+00
 
   -0.94684E+05         0.43330E+07         0.00000E+00
    0.43330E+07        -0.17108E+08         0.00000E+00
    0.00000E+00         0.00000E+00         0.00000E+00
 
   -0.82350E+05         0.44552E+07         0.00000E+00
    0.44552E+07        -0.17117E+08         0.00000E+00
    0.00000E+00         0.00000E+00         0.00000E+00
 
   -0.69868E+05         0.45786E+07         0.00000E+00
    0.45786E+07        -0.17126E+08         0.00000E+00
    0.00000E+00         0.00000E+00         0.00000E+00
 
   -0.57270E+05         0.47031E+07         0.00000E+00
    0.47031E+07        -0.17134E+08         0.00000E+00
    0.00000E+00         0.00000E+00         0.00000E+00
 
   -0.44590E+05         0.48287E+07         0.00000E+00
    0.48287E+07        -0.17142E+08         0.00000E+00
    0.00000E+00         0.00000E+00         0.00000E+00
 
   -0.31858E+05         0.49554E+07         0.00000E+00
    0.49554E+07        -0.17150E+08         0.00000E+00
    0.00000E+00         0.00000E+00         0.00000E+00
 
   -0.19106E+05         0.50833E+07         0.00000E+00
    0.50833E+07        -0.17157E+08         0.00000E+00
    0.00000E+00         0.00000E+00         0.00000E+00
 
   -0.63645E+04         0.52123E+07         0.00000E+00
    0.52123E+07        -0.17164E+08         0.00000E+00
    0.00000E+00         0.00000E+00         0.00000E+00
 
   -0.20386E+06         0.42696E+05         0.00000E+00
    0.42696E+05        -0.17408E+08         0.00000E+00
    0.00000E+00         0.00000E+00         0.00000E+00
 
   -0.23090E+06         0.12854E+06         0.00000E+00
    0.12854E+06        -0.17409E+08         0.00000E+00
    0.00000E+00         0.00000E+00         0.00000E+00
 
   -0.25599E+06         0.21462E+06         0.00000E+00
    0.21462E+06        -0.17410E+08         0.00000E+00
    0.00000E+00         0.00000E+00         0.00000E+00
 
   -0.27917E+06         0.30098E+06         0.00000E+00
    0.30098E+06        -0.17413E+08         0.00000E+00
    0.00000E+00         0.00000E+00         0.00000E+00
 
   -0.30047E+06         0.38769E+06         0.00000E+00
    0.38769E+06        -0.17416E+08         0.00000E+00
    0.00000E+00         0.00000E+00         0.00000E+00
 
   -0.31992E+06         0.47479E+06         0.00000E+00
    0.47479E+06        -0.17420E+08         0.00000E+00
    0.00000E+00         0.00000E+00         0.00000E+00
 
   -0.33756E+06         0.56233E+06         0.00000E+00
    0.56233E+06        -0.17425E+08         0.00000E+00
    0.00000E+00         0.00000E+00         0.00000E+00
 
   -0.35343E+06         0.65035E+06         0.00000E+00
    0.65035E+06        -0.17430E+08         0.00000E+00
    0.00000E+00         0.00000E+00         0.00000E+00
 
   -0.36756E+06         0.73890E+06         0.00000E+00
    0.73890E+06        -0.17436E+08         0.00000E+00
    0.00000E+00         0.00000E+00         0.00000E+00
 
   -0.38001E+06         0.82802E+06         0.00000E+00
    0.82802E+06        -0.17443E+08         0.00000E+00
    0.00000E+00         0.00000E+00         0.00000E+00
 
   -0.39081E+06         0.91776E+06         0.00000E+00
    0.91776E+06        -0.17450E+08         0.00000E+00
    0.00000E+00         0.00000E+00         0.00000E+00
 
   -0.40000E+06         0.10082E+07         0.00000E+00
    0.10082E+07        -0.17458E+08         0.00000E+00
    0.00000E+00         0.00000E+00         0.00000E+00
 
   -0.40764E+06         0.10992E+07         0.00000E+00
    0.10992E+07        -0.17467E+08         0.00000E+00
    0.00000E+00         0.00000E+00         0.00000E+00
 
   -0.41375E+06         0.11910E+07         0.00000E+00
    0.11910E+07        -0.17476E+08         0.00000E+00
    0.00000E+00         0.00000E+00         0.00000E+00
 
   -0.41840E+06         0.12836E+07         0.00000E+00
    0.12836E+07        -0.17485E+08         0.00000E+00
    0.00000E+00         0.00000E+00         0.00000E+00
 
   -0.42162E+06         0.13770E+07         0.00000E+00
    0.13770E+07        -0.17495E+08         0.00000E+00
    0.00000E+00         0.00000E+00         0.00000E+00
 
   -0.42346E+06         0.14712E+07         0.00000E+00
    0.14712E+07        -0.17506E+08         0.00000E+00
    0.00000E+00         0.00000E+00         0.00000E+00
 
   -0.42397E+06         0.15662E+07         0.00000E+00
    0.15662E+07        -0.17517E+08         0.00000E+00
    0.00000E+00         0.00000E+00         0.00000E+00
 
   -0.42320E+06         0.16621E+07         0.00000E+00
    0.16621E+07        -0.17528E+08         0.00000E+00
    0.00000E+00         0.00000E+00         0.00000E+00
 
   -0.42118E+06         0.17590E+07         0.00000E+00
    0.17590E+07        -0.17540E+08         0.00000E+00
    0.00000E+00         0.00000E+00         0.00000E+00
 
   -0.41798E+06         0.18568E+07         0.00000E+00
    0.18568E+07        -0.17552E+08         0.00000E+00
    0.00000E+00         0.00000E+00         0.00000E+00
 
   -0.41363E+06         0.19555E+07         0.00000E+00
    0.19555E+07        -0.17564E+08         0.00000E+00
    0.00000E+00         0.00000E+00         0.00000E+00
 
   -0.40819E+06         0.20552E+07         0.00000E+00
    0.20552E+07        -0.17577E+08         0.00000E+00
    0.00000E+00         0.00000E+00         0.00000E+00
 
   -0.40170E+06         0.21560E+07         0.00000E+00
    0.21560E+07        -0.17590E+08         0.00000E+00
    0.00000E+00         0.00000E+00         0.00000E+00
 
   -0.39421E+06         0.22577E+07         0.00000E+00
    0.22577E+07        -0.17603E+08         0.00000E+00
    0.00000E+00         0.00000E+00         0.00000E+00
 
   -0.38576E+06         0.23605E+07         0.00000E+00
    0.23605E+07        -0.17616E+08         0.00000E+00
    0.00000E+00         0.00000E+00         0.00000E+00
 
   -0.37640E+06         0.24644E+07         0.00000E+00
    0.24644E+07        -0.17630E+08         0.00000E+00
    0.00000E+00         0.00000E+00         0.00000E+00
 
   -0.36618E+06         0.25693E+07         0.00000E+00
    0.25693E+07        -0.17644E+08         0.00000E+00
    0.00000E+00         0.00000E+00         0.00000E+00
 
   -0.35515E+06         0.26753E+07         0.00000E+00
    0.26753E+07        -0.17657E+08         0.00000E+00
    0.00000E+00         0.00000E+00         0.00000E+00
 
   -0.34334E+06         0.27825E+07         0.00000E+00
    0.27825E+07        -0.17671E+08         0.00000E+00
    0.00000E+00         0.00000E+00         0.00000E+00
 
   -0.33081E+06         0.28907E+07         0.00000E+00
    0.28907E+07        -0.17685E+08         0.00000E+00
    0.00000E+00         0.00000E+00         0.00000E+00
 
   -0.31760E+06         0.30001E+07         0.00000E+00
    0.30001E+07        -0.17699E+08         0.00000E+00
    0.00000E+00         0.00000E+00         0.00000E+00
 
   -0.30374E+06         0.31106E+07         0.00000E+00
    0.31106E+07        -0.17713E+08         0.00000E+00
    0.00000E+00         0.00000E+00         0.00000E+00
 
   -0.28929E+06         0.32223E+07         0.00000E+00
    0.32223E+07        -0.17727E+08         0.00000E+00
    0.00000E+00         0.00000E+00         0.00000E+00
 
   -0.27429E+06         0.33351E+07         0.00000E+00
    0.33351E+07        -0.17740E+08         0.00000E+00
    0.00000E+00         0.00000E+00         0.00000E+00
 
   -0.25878E+06         0.34492E+07         0.00000E+00
    0.34492E+07        -0.17754E+08         0.00000E+00
    0.00000E+00         0.00000E+00         0.00000E+00
 
   -0.24279E+06         0.35644E+07         0.00000E+00
    0.35644E+07        -0.17768E+08         0.00000E+00
    0.00000E+00         0.00000E+00         0.00000E+00
 
   -0.22638E+06         0.36807E+07         0.00000E+00
    0.36807E+07        -0.17781E+08         0.00000E+00
    0.00000E+00         0.00000E+00         0.00000E+00
 
   -0.20957E+06         0.37983E+07         0.00000E+00
    0.37983E+07        -0.17794E+08         0.00000E+00
    0.00000E+00         0.00000E+00         0.00000E+00
 
   -0.19241E+06         0.39171E+07         0.00000E+00
    0.39171E+07        -0.17807E+08         0.00000E+00
    0.00000E+00         0.00000E+00         0.00000E+00
 
   -0.17494E+06         0.40371E+07         0.00000E+00
    0.40371E+07        -0.17820E+08         0.00000E+00
    0.00000E+00         0.00000E+00         0.00000E+00
 
   -0.15719E+06         0.41583E+07         0.00000E+00
    0.41583E+07        -0.17833E+08         0.00000E+00
    0.00000E+00         0.00000E+00         0.00000E+00
 
   -0.13920E+06         0.42807E+07         0.00000E+00
    0.42807E+07        -0.17845E+08         0.00000E+00
    0.00000E+00         0.00000E+00         0.00000E+00
 
   -0.12100E+06         0.44043E+07         0.00000E+00
    0.44043E+07        -0.17857E+08         0.00000E+00
    0.00000E+00         0.00000E+00         0.00000E+00
 
   -0.10263E+06         0.45292E+07         0.00000E+00
    0.45292E+07        -0.17869E+08         0.00000E+00
    0.00000E+00         0.00000E+00         0.00000E+00
 
   -0.84123E+05         0.46553E+07         0.00000E+00
    0.46553E+07        -0.17880E+08         0.00000E+00
    0.00000E+00         0.00000E+00         0.00000E+00
 
   -0.65512E+05         0.47826E+07         0.00000E+00
    0.47826E+07        -0.17891E+08         0.00000E+00
    0.00000E+00         0.00000E+00         0.00000E+00
 
   -0.46827E+05         0.49112E+07         0.00000E+00
    0.49112E+07        -0.17902E+08         0.00000E+00
    0.00000E+00         0.00000E+00         0.00000E+00
 
   -0.28102E+05         0.50410E+07         0.00000E+00
    0.50410E+07        -0.17912E+08         0.00000E+00
    0.00000E+00         0.00000E+00         0.00000E+00
 
   -0.93667E+04         0.51720E+07         0.00000E+00
    0.51720E+07        -0.17922E+08         0.00000E+00
    0.00000E+00         0.00000E+00         0.00000E+00
 
   -0.45359E+06         0.40466E+05         0.00000E+00
    0.40466E+05        -0.18076E+08         0.00000E+00
    0.00000E+00         0.00000E+00         0.00000E+00
 
   -0.47937E+06         0.12208E+06         0.00000E+00
    0.12208E+06        -0.18077E+08         0.00000E+00
    0.00000E+00         0.00000E+00         0.00000E+00
 
   -0.50291E+06         0.20401E+06         0.00000E+00
    0.20401E+06        -0.18079E+08         0.00000E+00
    0.00000E+00         0.00000E+00         0.00000E+00
 
   -0.52426E+06         0.28634E+06         0.00000E+00
    0.28634E+06        -0.18082E+08         0.00000E+00
    0.00000E+00         0.00000E+00         0.00000E+00
 
   -0.54345E+06         0.36911E+06         0.00000E+00
    0.36911E+06        -0.18085E+08         0.00000E+00
    0.00000E+00         0.00000E+00         0.00000E+00
 
   -0.56054E+06         0.45238E+06         0.00000E+00
    0.45238E+06        -0.18090E+08         0.00000E+00
    0.00000E+00         0.00000E+00         0.00000E+00
 
   -0.57556E+06         0.53621E+06         0.00000E+00
    0.53621E+06        -0.18096E+08         0.00000E+00
    0.00000E+00         0.00000E+00         0.00000E+00
 
   -0.58858E+06         0.62064E+06         0.00000E+00
    0.62064E+06        -0.18102E+08         0.00000E+00
    0.00000E+00         0.00000E+00         0.00000E+00
 
   -0.59963E+06         0.70573E+06         0.00000E+00
    0.70573E+06        -0.18109E+08         0.00000E+00
    0.00000E+00         0.00000E+00         0.00000E+00
 
   -0.60877E+06         0.79152E+06         0.00000E+00
    0.79152E+06        -0.18117E+08         0.00000E+00
    0.00000E+00         0.00000E+00         0.00000E+00
 
   -0.61605E+06         0.87805E+06         0.00000E+00
    0.87805E+06        -0.18126E+08         0.00000E+00
    0.00000E+00         0.00000E+00         0.00000E+00
 
   -0.62152E+06         0.96537E+06         0.00000E+00
    0.96537E+06        -0.18135E+08         0.00000E+00
    0.00000E+00         0.00000E+00         0.00000E+00
 
   -0.62524E+06         0.10535E+07         0.00000E+00
    0.10535E+07        -0.18145E+08         0.00000E+00
    0.00000E+00         0.00000E+00         0.00000E+00
 
   -0.62725E+06         0.11425E+07         0.00000E+00
    0.11425E+07        -0.18156E+08         0.00000E+00
    0.00000E+00         0.00000E+00         0.00000E+00
 
   -0.62762E+06         0.12325E+07         0.00000E+00
    0.12325E+07        -0.18168E+08         0.00000E+00
    0.00000E+00         0.00000E+00         0.00000E+00
 
   -0.62640E+06         0.13233E+07         0.00000E+00
    0.13233E+07        -0.18179E+08         0.00000E+00
    0.00000E+00         0.00000E+00         0.00000E+00
 
   -0.62364E+06         0.14152E+07         0.00000E+00
    0.14152E+07        -0.18192E+08         0.00000E+00
    0.00000E+00         0.00000E+00         0.00000E+00
 
   -0.61940E+06         0.15080E+07         0.00000E+00
    0.15080E+07        -0.18205E+08         0.00000E+00
    0.00000E+00         0.00000E+00         0.00000E+00
 
   -0.61373E+06         0.16019E+07         0.00000E+00
    0.16019E+07        -0.18218E+08         0.00000E+00
    0.00000E+00         0.00000E+00         0.00000E+00
 
   -0.60669E+06         0.16968E+07         0.00000E+00
    0.16968E+07        -0.18232E+08         0.00000E+00
    0.00000E+00         0.00000E+00         0.00000E+00
 
   -0.59833E+06         0.17928E+07         0.00000E+00
    0.17928E+07        -0.18247E+08         0.00000E+00
    0.00000E+00         0.00000E+00         0.00000E+00
 
   -0.58872E+06         0.18899E+07         0.00000E+00
    0.18899E+07        -0.18261E+08         0.00000E+00
    0.00000E+00         0.00000E+00         0.00000E+00
 
   -0.57790E+06         0.19882E+07         0.00000E+00
    0.19882E+07        -0.18276E+08         0.00000E+00
    0.00000E+00         0.00000E+00         0.00000E+00
 
   -0.56593E+06         0.20876E+07         0.00000E+00
    0.20876E+07        -0.18292E+08         0.00000E+00
    0.00000E+00         0.00000E+00         0.00000E+00
 
   -0.55286E+06         0.21881E+07         0.00000E+00
    0.21881E+07        -0.18307E+08         0.00000E+00
    0.00000E+00         0.00000E+00         0.00000E+00
 
   -0.53875E+06         0.22899E+07         0.00000E+00
    0.22899E+07        -0.18323E+08         0.00000E+00
    0.00000E+00         0.00000E+00         0.00000E+00
 
   -0.52365E+06         0.23929E+07         0.00000E+00
    0.23929E+07        -0.18339E+08         0.00000E+00
    0.00000E+00         0.00000E+00         0.00000E+00
 
   -0.50761E+06         0.24971E+07         0.00000E+00
    0.24971E+07        -0.18355E+08         0.00000E+00
    0.00000E+00         0.00000E+00         0.00000E+00
 
   -0.49068E+06         0.26025E+07         0.00000E+00
    0.26025E+07        -0.18372E+08         0.00000E+00
    0.00000E+00         0.00000E+00         0.00000E+00
 
   -0.47292E+06         0.27092E+07         0.00000E+00
    0.27092E+07        -0.18388E+08         0.00000E+00
    0.00000E+00         0.00000E+00         0.00000E+00
 
   -0.45437E+06         0.28171E+07         0.00000E+00
    0.28171E+07        -0.18405E+08         0.00000E+00
    0.00000E+00         0.00000E+00         0.00000E+00
 
   -0.43509E+06         0.29263E+07         0.00000E+00
    0.29263E+07        -0.18421E+08         0.00000E+00
    0.00000E+00         0.00000E+00         0.00000E+00
 
   -0.41512E+06         0.30368E+07         0.00000E+00
    0.30368E+07        -0.18438E+08         0.00000E+00
    0.00000E+00         0.00000E+00         0.00000E+00
 
   -0.39451E+06         0.31485E+07         0.00000E+00
    0.31485E+07        -0.18455E+08         0.00000E+00
    0.00000E+00         0.00000E+00         0.00000E+00
 
   -0.37331E+06         0.32616E+07         0.00000E+00
    0.32616E+07        -0.18471E+08         0.00000E+00
    0.00000E+00         0.00000E+00         0.00000E+00
 
   -0.35156E+06         0.33760E+07         0.00000E+00
    0.33760E+07        -0.18488E+08         0.00000E+00
    0.00000E+00         0.00000E+00         0.00000E+00
 
   -0.32931E+06         0.34916E+07         0.00000E+00
    0.34916E+07        -0.18505E+08         0.00000E+00
    0.00000E+00         0.00000E+00         0.00000E+00
 
   -0.30659E+06         0.36086E+07         0.00000E+00
    0.36086E+07        -0.18521E+08         0.00000E+00
    0.00000E+00         0.00000E+00         0.00000E+00
 
   -0.28347E+06         0.37269E+07         0.00000E+00
    0.37269E+07        -0.18537E+08         0.00000E+00
    0.00000E+00         0.00000E+00         0.00000E+00
 
   -0.25996E+06         0.38466E+07         0.00000E+00
    0.38466E+07        -0.18553E+08         0.00000E+00
    0.00000E+00         0.00000E+00         0.00000E+00
 
   -0.23612E+06         0.39675E+07         0.00000E+00
    0.39675E+07        -0.18569E+08         0.00000E+00
    0.00000E+00         0.00000E+00         0.00000E+00
 
   -0.21199E+06         0.40898E+07         0.00000E+00
    0.40898E+07        -0.18585E+08         0.00000E+00
    0.00000E+00         0.00000E+00         0.00000E+00
 
   -0.18760E+06         0.42134E+07         0.00000E+00
    0.42134E+07        -0.18600E+08         0.00000E+00
    0.00000E+00         0.00000E+00         0.00000E+00
 
   -0.16299E+06         0.43383E+07         0.00000E+00
    0.43383E+07        -0.18615E+08         0.00000E+00
    0.00000E+00         0.00000E+00         0.00000E+00
 
   -0.13819E+06         0.44646E+07         0.00000E+00
    0.44646E+07        -0.18630E+08         0.00000E+00
    0.00000E+00         0.00000E+00         0.00000E+00
 
   -0.11324E+06         0.45922E+07         0.00000E+00
    0.45922E+07        -0.18645E+08         0.00000E+00
    0.00000E+00         0.00000E+00         0.00000E+00
 
   -0.88181E+05         0.47212E+07         0.00000E+00
    0.47212E+07        -0.18659E+08         0.00000E+00
    0.00000E+00         0.00000E+00         0.00000E+00
 
   -0.63034E+05         0.48515E+07         0.00000E+00
    0.48515E+07        -0.18673E+08         0.00000E+00
    0.00000E+00         0.00000E+00         0.00000E+00
 
   -0.37835E+05         0.49831E+07         0.00000E+00
    0.49831E+07        -0.18686E+08         0.00000E+00
    0.00000E+00         0.00000E+00         0.00000E+00
 
   -0.12613E+05         0.51161E+07         0.00000E+00
    0.51161E+07        -0.18699E+08         0.00000E+00
    0.00000E+00         0.00000E+00         0.00000E+00
 
   -0.73693E+06         0.37786E+05         0.00000E+00
    0.37786E+05        -0.18754E+08         0.00000E+00
    0.00000E+00         0.00000E+00         0.00000E+00
 
   -0.76094E+06         0.11433E+06         0.00000E+00
    0.11433E+06        -0.18755E+08         0.00000E+00
    0.00000E+00         0.00000E+00         0.00000E+00
 
   -0.78238E+06         0.19133E+06         0.00000E+00
    0.19133E+06        -0.18758E+08         0.00000E+00
    0.00000E+00         0.00000E+00         0.00000E+00
 
   -0.80132E+06         0.26884E+06         0.00000E+00
    0.26884E+06        -0.18761E+08         0.00000E+00
    0.00000E+00         0.00000E+00         0.00000E+00
 
   -0.81781E+06         0.34693E+06         0.00000E+00
    0.34693E+06        -0.18765E+08         0.00000E+00
    0.00000E+00         0.00000E+00         0.00000E+00
 
   -0.83190E+06         0.42565E+06         0.00000E+00
    0.42565E+06        -0.18771E+08         0.00000E+00
    0.00000E+00         0.00000E+00         0.00000E+00
 
   -0.84365E+06         0.50508E+06         0.00000E+00
    0.50508E+06        -0.18777E+08         0.00000E+00
    0.00000E+00         0.00000E+00         0.00000E+00
 
   -0.85313E+06         0.58525E+06         0.00000E+00
    0.58525E+06        -0.18785E+08         0.00000E+00
    0.00000E+00         0.00000E+00         0.00000E+00
 
   -0.86039E+06         0.66624E+06         0.00000E+00
    0.66624E+06        -0.18793E+08         0.00000E+00
    0.00000E+00         0.00000E+00         0.00000E+00
 
   -0.86550E+06         0.74807E+06         0.00000E+00
    0.74807E+06        -0.18803E+08         0.00000E+00
    0.00000E+00         0.00000E+00         0.00000E+00
 
   -0.86852E+06         0.83082E+06         0.00000E+00
    0.83082E+06        -0.18813E+08         0.00000E+00
    0.00000E+00         0.00000E+00         0.00000E+00
 
   -0.86952E+06         0.91451E+06         0.00000E+00
    0.91451E+06        -0.18824E+08         0.00000E+00
    0.00000E+00         0.00000E+00         0.00000E+00
 
   -0.86855E+06         0.99919E+06         0.00000E+00
    0.99919E+06        -0.18836E+08         0.00000E+00
    0.00000E+00         0.00000E+00         0.00000E+00
 
   -0.86569E+06         0.10849E+07         0.00000E+00
    0.10849E+07        -0.18848E+08         0.00000E+00
    0.00000E+00         0.00000E+00         0.00000E+00
 
   -0.86100E+06         0.11717E+07         0.00000E+00
    0.11717E+07        -0.18862E+08         0.00000E+00
    0.00000E+00         0.00000E+00         0.00000E+00
 
   -0.85454E+06         0.12596E+07         0.00000E+00
    0.12596E+07        -0.18876E+08         0.00000E+00
    0.00000E+00         0.00000E+00         0.00000E+00
 
   -0.84638E+06         0.13486E+07         0.00000E+00
    0.13486E+07        -0.18890E+08         0.00000E+00
    0.00000E+00         0.00000E+00         0.00000E+00
 
   -0.83659E+06         0.14388E+07         0.00000E+00
    0.14388E+07        -0.18905E+08         0.00000E+00
    0.00000E+00         0.00000E+00         0.00000E+00
 
   -0.82523E+06         0.15302E+07         0.00000E+00
    0.15302E+07        -0.18921E+08         0.00000E+00
    0.00000E+00         0.00000E+00         0.00000E+00
 
   -0.81237E+06         0.16229E+07         0.00000E+00
    0.16229E+07        -0.18937E+08         0.00000E+00
    0.00000E+00         0.00000E+00         0.00000E+00
 
   -0.79807E+06         0.17168E+07         0.00000E+00
    0.17168E+07        -0.18954E+08         0.00000E+00
    0.00000E+00         0.00000E+00         0.00000E+00
 
   -0.78239E+06         0.18119E+07         0.00000E+00
    0.18119E+07        -0.18971E+08         0.00000E+00
    0.00000E+00         0.00000E+00         0.00000E+00
 
   -0.76540E+06         0.19084E+07         0.00000E+00
    0.19084E+07        -0.18989E+08         0.00000E+00
    0.00000E+00         0.00000E+00         0.00000E+00
 
   -0.74716E+06         0.20062E+07         0.00000E+00
    0.20062E+07        -0.19007E+08         0.00000E+00
    0.00000E+00         0.00000E+00         0.00000E+00
 
   -0.72773E+06         0.21053E+07         0.00000E+00
    0.21053E+07        -0.19025E+08         0.00000E+00
    0.00000E+00         0.00000E+00         0.00000E+00
 
   -0.70718E+06         0.22058E+07         0.00000E+00
    0.22058E+07        -0.19043E+08         0.00000E+00
    0.00000E+00         0.00000E+00         0.00000E+00
 
   -0.68556E+06         0.23076E+07         0.00000E+00
    0.23076E+07        -0.19062E+08         0.00000E+00
    0.00000E+00         0.00000E+00         0.00000E+00
 
   -0.66294E+06         0.24108E+07         0.00000E+00
    0.24108E+07        -0.19081E+08         0.00000E+00
    0.00000E+00         0.00000E+00         0.00000E+00
 
   -0.63937E+06         0.25155E+07         0.00000E+00
    0.25155E+07        -0.19101E+08         0.00000E+00
    0.00000E+00         0.00000E+00         0.00000E+00
 
   -0.61491E+06         0.26215E+07         0.00000E+00
    0.26215E+07        -0.19120E+08         0.00000E+00
    0.00000E+00         0.00000E+00         0.00000E+00
 
   -0.58962E+06         0.27289E+07         0.00000E+00
    0.27289E+07        -0.19140E+08         0.00000E+00
    0.00000E+00         0.00000E+00         0.00000E+00
 
   -0.56354E+06         0.28377E+07         0.00000E+00
    0.28377E+07        -0.19159E+08         0.00000E+00
    0.00000E+00         0.00000E+00         0.00000E+00
 
   -0.53675E+06         0.29480E+07         0.00000E+00
    0.29480E+07        -0.19179E+08         0.00000E+00
    0.00000E+00         0.00000E+00         0.00000E+00
 
   -0.50928E+06         0.30597E+07         0.00000E+00
    0.30597E+07        -0.19199E+08         0.00000E+00
    0.00000E+00         0.00000E+00         0.00000E+00
 
   -0.48119E+06         0.31728E+07         0.00000E+00
    0.31728E+07        -0.19218E+08         0.00000E+00
    0.00000E+00         0.00000E+00         0.00000E+00
 
   -0.45253E+06         0.32874E+07         0.00000E+00
    0.32874E+07        -0.19238E+08         0.00000E+00
    0.00000E+00         0.00000E+00         0.00000E+00
 
   -0.42335E+06         0.34034E+07         0.00000E+00
    0.34034E+07        -0.19258E+08         0.00000E+00
    0.00000E+00         0.00000E+00         0.00000E+00
 
   -0.39370E+06         0.35209E+07         0.00000E+00
    0.35209E+07        -0.19277E+08         0.00000E+00
    0.00000E+00         0.00000E+00         0.00000E+00
 
   -0.36362E+06         0.36398E+07         0.00000E+00
    0.36398E+07        -0.19297E+08         0.00000E+00
    0.00000E+00         0.00000E+00         0.00000E+00
 
   -0.33315E+06         0.37602E+07         0.00000E+00
    0.37602E+07        -0.19316E+08         0.00000E+00
    0.00000E+00         0.00000E+00         0.00000E+00
 
   -0.30234E+06         0.38820E+07         0.00000E+00
    0.38820E+07        -0.19335E+08         0.00000E+00
    0.00000E+00         0.00000E+00         0.00000E+00
 
   -0.27124E+06         0.40053E+07         0.00000E+00
    0.40053E+07        -0.19354E+08         0.00000E+00
    0.00000E+00         0.00000E+00         0.00000E+00
 
   -0.23987E+06         0.41300E+07         0.00000E+00
    0.41300E+07        -0.19373E+08         0.00000E+00
    0.00000E+00         0.00000E+00         0.00000E+00
 
   -0.20829E+06         0.42561E+07         0.00000E+00
    0.42561E+07        -0.19391E+08         0.00000E+00
    0.00000E+00         0.00000E+00         0.00000E+00
 
   -0.17652E+06         0.43837E+07         0.00000E+00
    0.43837E+07        -0.19409E+08         0.00000E+00
    0.00000E+00         0.00000E+00         0.00000E+00
 
   -0.14460E+06         0.45128E+07         0.00000E+00
    0.45128E+07        -0.19427E+08         0.00000E+00
    0.00000E+00         0.00000E+00         0.00000E+00
 
   -0.11256E+06         0.46433E+07         0.00000E+00
    0.46433E+07        -0.19445E+08         0.00000E+00
    0.00000E+00         0.00000E+00         0.00000E+00
 
   -0.80449E+05         0.47752E+07         0.00000E+00
    0.47752E+07        -0.19462E+08         0.00000E+00
    0.00000E+00         0.00000E+00         0.00000E+00
 
   -0.48283E+05         0.49086E+07         0.00000E+00
    0.49086E+07        -0.19479E+08         0.00000E+00
    0.00000E+00         0.00000E+00         0.00000E+00
 
   -0.16095E+05         0.50434E+07         0.00000E+00
    0.50434E+07        -0.19496E+08         0.00000E+00
    0.00000E+00         0.00000E+00         0.00000E+00
 
   -0.10578E+07         0.34595E+05         0.00000E+00
    0.34595E+05        -0.19442E+08         0.00000E+00
    0.00000E+00         0.00000E+00         0.00000E+00
 
   -0.10794E+07         0.10515E+06         0.00000E+00
    0.10515E+06        -0.19443E+08         0.00000E+00
    0.00000E+00         0.00000E+00         0.00000E+00
 
   -0.10981E+07         0.17631E+06         0.00000E+00
    0.17631E+06        -0.19446E+08         0.00000E+00
    0.00000E+00         0.00000E+00         0.00000E+00
 
   -0.11138E+07         0.24814E+06         0.00000E+00
    0.24814E+06        -0.19450E+08         0.00000E+00
    0.00000E+00         0.00000E+00         0.00000E+00
 
   -0.11269E+07         0.32071E+06         0.00000E+00
    0.32071E+06        -0.19455E+08         0.00000E+00
    0.00000E+00         0.00000E+00         0.00000E+00
 
   -0.11372E+07         0.39410E+06         0.00000E+00
    0.39410E+06        -0.19462E+08         0.00000E+00
    0.00000E+00         0.00000E+00         0.00000E+00
 
   -0.11448E+07         0.46836E+06         0.00000E+00
    0.46836E+06        -0.19469E+08         0.00000E+00
    0.00000E+00         0.00000E+00         0.00000E+00
 
   -0.11499E+07         0.54355E+06         0.00000E+00
    0.54355E+06        -0.19478E+08         0.00000E+00
    0.00000E+00         0.00000E+00         0.00000E+00
 
   -0.11526E+07         0.61974E+06         0.00000E+00
    0.61974E+06        -0.19488E+08         0.00000E+00
    0.00000E+00         0.00000E+00         0.00000E+00
 
   -0.11528E+07         0.69697E+06         0.00000E+00
    0.69697E+06        -0.19499E+08         0.00000E+00
    0.00000E+00         0.00000E+00         0.00000E+00
 
   -0.11507E+07         0.77529E+06         0.00000E+00
    0.77529E+06        -0.19510E+08         0.00000E+00
    0.00000E+00         0.00000E+00         0.00000E+00
 
   -0.11463E+07         0.85475E+06         0.00000E+00
    0.85475E+06        -0.19523E+08         0.00000E+00
    0.00000E+00         0.00000E+00         0.00000E+00
 
   -0.11397E+07         0.93541E+06         0.00000E+00
    0.93541E+06        -0.19537E+08         0.00000E+00
    0.00000E+00         0.00000E+00         0.00000E+00
 
   -0.11311E+07         0.10173E+07         0.00000E+00
    0.10173E+07        -0.19551E+08         0.00000E+00
    0.00000E+00         0.00000E+00         0.00000E+00
 
   -0.11204E+07         0.11004E+07         0.00000E+00
    0.11004E+07        -0.19567E+08         0.00000E+00
    0.00000E+00         0.00000E+00         0.00000E+00
 
   -0.11078E+07         0.11849E+07         0.00000E+00
    0.11849E+07        -0.19583E+08         0.00000E+00
    0.00000E+00         0.00000E+00         0.00000E+00
 
   -0.10933E+07         0.12707E+07         0.00000E+00
    0.12707E+07        -0.19600E+08         0.00000E+00
    0.00000E+00         0.00000E+00         0.00000E+00
 
   -0.10771E+07         0.13578E+07         0.00000E+00
    0.13578E+07        -0.19617E+08         0.00000E+00
    0.00000E+00         0.00000E+00         0.00000E+00
 
   -0.10591E+07         0.14464E+07         0.00000E+00
    0.14464E+07        -0.19635E+08         0.00000E+00
    0.00000E+00         0.00000E+00         0.00000E+00
 
   -0.10395E+07         0.15363E+07         0.00000E+00
    0.15363E+07        -0.19654E+08         0.00000E+00
    0.00000E+00         0.00000E+00         0.00000E+00
 
   -0.10184E+07         0.16277E+07         0.00000E+00
    0.16277E+07        -0.19674E+08         0.00000E+00
    0.00000E+00         0.00000E+00         0.00000E+00
 
   -0.99572E+06         0.17206E+07         0.00000E+00
    0.17206E+07        -0.19693E+08         0.00000E+00
    0.00000E+00         0.00000E+00         0.00000E+00
 
   -0.97167E+06         0.18150E+07         0.00000E+00
    0.18150E+07        -0.19714E+08         0.00000E+00
    0.00000E+00         0.00000E+00         0.00000E+00
 
   -0.94628E+06         0.19108E+07         0.00000E+00
    0.19108E+07        -0.19734E+08         0.00000E+00
    0.00000E+00         0.00000E+00         0.00000E+00
 
   -0.91963E+06         0.20082E+07         0.00000E+00
    0.20082E+07        -0.19756E+08         0.00000E+00
    0.00000E+00         0.00000E+00         0.00000E+00
 
   -0.89178E+06         0.21071E+07         0.00000E+00
    0.21071E+07        -0.19777E+08         0.00000E+00
    0.00000E+00         0.00000E+00         0.00000E+00
 
   -0.86279E+06         0.22076E+07         0.00000E+00
    0.22076E+07        -0.19799E+08         0.00000E+00
    0.00000E+00         0.00000E+00         0.00000E+00
 
   -0.83275E+06         0.23096E+07         0.00000E+00
    0.23096E+07        -0.19821E+08         0.00000E+00
    0.00000E+00         0.00000E+00         0.00000E+00
 
   -0.80172E+06         0.24132E+07         0.00000E+00
    0.24132E+07        -0.19843E+08         0.00000E+00
    0.00000E+00         0.00000E+00         0.00000E+00
 
   -0.76975E+06         0.25183E+07         0.00000E+00
    0.25183E+07        -0.19866E+08         0.00000E+00
    0.00000E+00         0.00000E+00         0.00000E+00
 
   -0.73691E+06         0.26251E+07         0.00000E+00
    0.26251E+07        -0.19889E+08         0.00000E+00
    0.00000E+00         0.00000E+00         0.00000E+00
 
   -0.70327E+06         0.27334E+07         0.00000E+00
    0.27334E+07        -0.19911E+08         0.00000E+00
    0.00000E+00         0.00000E+00         0.00000E+00
 
   -0.66889E+06         0.28433E+07         0.00000E+00
    0.28433E+07        -0.19934E+08         0.00000E+00
    0.00000E+00         0.00000E+00         0.00000E+00
 
   -0.63382E+06         0.29547E+07         0.00000E+00
    0.29547E+07        -0.19957E+08         0.00000E+00
    0.00000E+00         0.00000E+00         0.00000E+00
 
   -0.59811E+06         0.30678E+07         0.00000E+00
    0.30678E+07        -0.19980E+08         0.00000E+00
    0.00000E+00         0.00000E+00         0.00000E+00
 
   -0.56183E+06         0.31825E+07         0.00000E+00
    0.31825E+07        -0.20003E+08         0.00000E+00
    0.00000E+00         0.00000E+00         0.00000E+00
 
   -0.52502E+06         0.32987E+07         0.00000E+00
    0.32987E+07        -0.20026E+08         0.00000E+00
    0.00000E+00         0.00000E+00         0.00000E+00
 
   -0.48775E+06         0.34165E+07         0.00000E+00
    0.34165E+07        -0.20049E+08         0.00000E+00
    0.00000E+00         0.00000E+00         0.00000E+00
 
   -0.45005E+06         0.35359E+07         0.00000E+00
    0.35359E+07        -0.20072E+08         0.00000E+00
    0.00000E+00         0.00000E+00         0.00000E+00
 
   -0.41198E+06         0.36569E+07         0.00000E+00
    0.36569E+07        -0.20095E+08         0.00000E+00
    0.00000E+00         0.00000E+00         0.00000E+00
 
   -0.37358E+06         0.37795E+07         0.00000E+00
    0.37795E+07        -0.20117E+08         0.00000E+00
    0.00000E+00         0.00000E+00         0.00000E+00
 
   -0.33489E+06         0.39036E+07         0.00000E+00
    0.39036E+07        -0.20140E+08         0.00000E+00
    0.00000E+00         0.00000E+00         0.00000E+00
 
   -0.29596E+06         0.40294E+07         0.00000E+00
    0.40294E+07        -0.20162E+08         0.00000E+00
    0.00000E+00         0.00000E+00         0.00000E+00
 
   -0.25683E+06         0.41566E+07         0.00000E+00
    0.41566E+07        -0.20184E+08         0.00000E+00
    0.00000E+00         0.00000E+00         0.00000E+00
 
   -0.21754E+06         0.42855E+07         0.00000E+00
    0.42855E+07        -0.20206E+08         0.00000E+00
    0.00000E+00         0.00000E+00         0.00000E+00
 
   -0.17811E+06         0.44158E+07         0.00000E+00
    0.44158E+07        -0.20227E+08         0.00000E+00
    0.00000E+00         0.00000E+00         0.00000E+00
 
   -0.13860E+06         0.45478E+07         0.00000E+00
    0.45478E+07        -0.20248E+08         0.00000E+00
    0.00000E+00         0.00000E+00         0.00000E+00
 
   -0.99021E+05         0.46812E+07         0.00000E+00
    0.46812E+07        -0.20269E+08         0.00000E+00
    0.00000E+00         0.00000E+00         0.00000E+00
 
   -0.59413E+05         0.48162E+07         0.00000E+00
    0.48162E+07        -0.20290E+08         0.00000E+00
    0.00000E+00         0.00000E+00         0.00000E+00
 
   -0.19802E+05         0.49528E+07         0.00000E+00
    0.49528E+07        -0.20310E+08         0.00000E+00
    0.00000E+00         0.00000E+00         0.00000E+00
 
   -0.14207E+07         0.30826E+05         0.00000E+00
    0.30826E+05        -0.20139E+08         0.00000E+00
    0.00000E+00         0.00000E+00         0.00000E+00
 
   -0.14390E+07         0.94356E+05         0.00000E+00
    0.94356E+05        -0.20141E+08         0.00000E+00
    0.00000E+00         0.00000E+00         0.00000E+00
 
   -0.14539E+07         0.15868E+06         0.00000E+00
    0.15868E+06        -0.20144E+08         0.00000E+00
    0.00000E+00         0.00000E+00         0.00000E+00
 
   -0.14657E+07         0.22389E+06         0.00000E+00
    0.22389E+06        -0.20148E+08         0.00000E+00
    0.00000E+00         0.00000E+00         0.00000E+00
 
   -0.14743E+07         0.29005E+06         0.00000E+00
    0.29005E+06        -0.20154E+08         0.00000E+00
    0.00000E+00         0.00000E+00         0.00000E+00
 
   -0.14798E+07         0.35723E+06         0.00000E+00
    0.35723E+06        -0.20162E+08         0.00000E+00
    0.00000E+00         0.00000E+00         0.00000E+00
 
   -0.14824E+07         0.42551E+06         0.00000E+00
    0.42551E+06        -0.20170E+08         0.00000E+00
    0.00000E+00         0.00000E+00         0.00000E+00
 
   -0.14821E+07         0.49494E+06         0.00000E+00
    0.49494E+06        -0.20181E+08         0.00000E+00
    0.00000E+00         0.00000E+00         0.00000E+00
 
   -0.14791E+07         0.56558E+06         0.00000E+00
    0.56558E+06        -0.20192E+08         0.00000E+00
    0.00000E+00         0.00000E+00         0.00000E+00
 
   -0.14733E+07         0.63750E+06         0.00000E+00
    0.63750E+06        -0.20204E+08         0.00000E+00
    0.00000E+00         0.00000E+00         0.00000E+00
 
   -0.14650E+07         0.71074E+06         0.00000E+00
    0.71074E+06        -0.20218E+08         0.00000E+00
    0.00000E+00         0.00000E+00         0.00000E+00
 
   -0.14542E+07         0.78534E+06         0.00000E+00
    0.78534E+06        -0.20232E+08         0.00000E+00
    0.00000E+00         0.00000E+00         0.00000E+00
 
   -0.14410E+07         0.86136E+06         0.00000E+00
    0.86136E+06        -0.20248E+08         0.00000E+00
    0.00000E+00         0.00000E+00         0.00000E+00
 
   -0.14255E+07         0.93884E+06         0.00000E+00
    0.93884E+06        -0.20265E+08         0.00000E+00
    0.00000E+00         0.00000E+00         0.00000E+00
 
   -0.14078E+07         0.10178E+07         0.00000E+00
    0.10178E+07        -0.20282E+08         0.00000E+00
    0.00000E+00         0.00000E+00         0.00000E+00
 
   -0.13880E+07         0.10983E+07         0.00000E+00
    0.10983E+07        -0.20301E+08         0.00000E+00
    0.00000E+00         0.00000E+00         0.00000E+00
 
   -0.13662E+07         0.11804E+07         0.00000E+00
    0.11804E+07        -0.20320E+08         0.00000E+00
    0.00000E+00         0.00000E+00         0.00000E+00
 
   -0.13424E+07         0.12640E+07         0.00000E+00
    0.12640E+07        -0.20340E+08         0.00000E+00
    0.00000E+00         0.00000E+00         0.00000E+00
 
   -0.13168E+07         0.13493E+07         0.00000E+00
    0.13493E+07        -0.20361E+08         0.00000E+00
    0.00000E+00         0.00000E+00         0.00000E+00
 
   -0.12894E+07         0.14362E+07         0.00000E+00
    0.14362E+07        -0.20382E+08         0.00000E+00
    0.00000E+00         0.00000E+00         0.00000E+00
 
   -0.12604E+07         0.15247E+07         0.00000E+00
    0.15247E+07        -0.20404E+08         0.00000E+00
    0.00000E+00         0.00000E+00         0.00000E+00
 
   -0.12298E+07         0.16150E+07         0.00000E+00
    0.16150E+07        -0.20427E+08         0.00000E+00
    0.00000E+00         0.00000E+00         0.00000E+00
 
   -0.11977E+07         0.17069E+07         0.00000E+00
    0.17069E+07        -0.20450E+08         0.00000E+00
    0.00000E+00         0.00000E+00         0.00000E+00
 
   -0.11642E+07         0.18006E+07         0.00000E+00
    0.18006E+07        -0.20474E+08         0.00000E+00
    0.00000E+00         0.00000E+00         0.00000E+00
 
   -0.11293E+07         0.18959E+07         0.00000E+00
    0.18959E+07        -0.20498E+08         0.00000E+00
    0.00000E+00         0.00000E+00         0.00000E+00
 
   -0.10932E+07         0.19930E+07         0.00000E+00
    0.19930E+07        -0.20523E+08         0.00000E+00
    0.00000E+00         0.00000E+00         0.00000E+00
 
   -0.10560E+07         0.20918E+07         0.00000E+00
    0.20918E+07        -0.20548E+08         0.00000E+00
    0.00000E+00         0.00000E+00         0.00000E+00
 
   -0.10176E+07         0.21924E+07         0.00000E+00
    0.21924E+07        -0.20573E+08         0.00000E+00
    0.00000E+00         0.00000E+00         0.00000E+00
 
   -0.97818E+06         0.22947E+07         0.00000E+00
    0.22947E+07        -0.20599E+08         0.00000E+00
    0.00000E+00         0.00000E+00         0.00000E+00
 
   -0.93783E+06         0.23988E+07         0.00000E+00
    0.23988E+07        -0.20624E+08         0.00000E+00
    0.00000E+00         0.00000E+00         0.00000E+00
 
   -0.89660E+06         0.25047E+07         0.00000E+00
    0.25047E+07        -0.20650E+08         0.00000E+00
    0.00000E+00         0.00000E+00         0.00000E+00
 
   -0.85455E+06         0.26123E+07         0.00000E+00
    0.26123E+07        -0.20676E+08         0.00000E+00
    0.00000E+00         0.00000E+00         0.00000E+00
 
   -0.81176E+06         0.27216E+07         0.00000E+00
    0.27216E+07        -0.20703E+08         0.00000E+00
    0.00000E+00         0.00000E+00         0.00000E+00
 
   -0.76828E+06         0.28327E+07         0.00000E+00
    0.28327E+07        -0.20729E+08         0.00000E+00
    0.00000E+00         0.00000E+00         0.00000E+00
 
   -0.72418E+06         0.29455E+07         0.00000E+00
    0.29455E+07        -0.20756E+08         0.00000E+00
    0.00000E+00         0.00000E+00         0.00000E+00
 
   -0.67952E+06         0.30601E+07         0.00000E+00
    0.30601E+07        -0.20782E+08         0.00000E+00
    0.00000E+00         0.00000E+00         0.00000E+00
 
   -0.63436E+06         0.31765E+07         0.00000E+00
    0.31765E+07        -0.20809E+08         0.00000E+00
    0.00000E+00         0.00000E+00         0.00000E+00
 
   -0.58875E+06         0.32945E+07         0.00000E+00
    0.32945E+07        -0.20835E+08         0.00000E+00
    0.00000E+00         0.00000E+00         0.00000E+00
 
   -0.54275E+06         0.34143E+07         0.00000E+00
    0.34143E+07        -0.20862E+08         0.00000E+00
    0.00000E+00         0.00000E+00         0.00000E+00
 
   -0.49640E+06         0.35358E+07         0.00000E+00
    0.35358E+07        -0.20888E+08         0.00000E+00
    0.00000E+00         0.00000E+00         0.00000E+00
 
   -0.44976E+06         0.36590E+07         0.00000E+00
    0.36590E+07        -0.20914E+08         0.00000E+00
    0.00000E+00         0.00000E+00         0.00000E+00
 
   -0.40287E+06         0.37839E+07         0.00000E+00
    0.37839E+07        -0.20940E+08         0.00000E+00
    0.00000E+00         0.00000E+00         0.00000E+00
 
   -0.35578E+06         0.39105E+07         0.00000E+00
    0.39105E+07        -0.20966E+08         0.00000E+00
    0.00000E+00         0.00000E+00         0.00000E+00
 
   -0.30853E+06         0.40388E+07         0.00000E+00
    0.40388E+07        -0.20992E+08         0.00000E+00
    0.00000E+00         0.00000E+00         0.00000E+00
 
   -0.26116E+06         0.41688E+07         0.00000E+00
    0.41688E+07        -0.21017E+08         0.00000E+00
    0.00000E+00         0.00000E+00         0.00000E+00
 
   -0.21371E+06         0.43004E+07         0.00000E+00
    0.43004E+07        -0.21042E+08         0.00000E+00
    0.00000E+00         0.00000E+00         0.00000E+00
 
   -0.16621E+06         0.44336E+07         0.00000E+00
    0.44336E+07        -0.21067E+08         0.00000E+00
    0.00000E+00         0.00000E+00         0.00000E+00
 
   -0.11869E+06         0.45685E+07         0.00000E+00
    0.45685E+07        -0.21092E+08         0.00000E+00
    0.00000E+00         0.00000E+00         0.00000E+00
 
   -0.71183E+05         0.47051E+07         0.00000E+00
    0.47051E+07        -0.21116E+08         0.00000E+00
    0.00000E+00         0.00000E+00         0.00000E+00
 
   -0.23719E+05         0.48432E+07         0.00000E+00
    0.48432E+07        -0.21140E+08         0.00000E+00
    0.00000E+00         0.00000E+00         0.00000E+00
 
   -0.18304E+07         0.26414E+05         0.00000E+00
    0.26414E+05        -0.20844E+08         0.00000E+00
    0.00000E+00         0.00000E+00         0.00000E+00
 
   -0.18443E+07         0.81785E+05         0.00000E+00
    0.81785E+05        -0.20846E+08         0.00000E+00
    0.00000E+00         0.00000E+00         0.00000E+00
 
   -0.18544E+07         0.13821E+06         0.00000E+00
    0.13821E+06        -0.20850E+08         0.00000E+00
    0.00000E+00         0.00000E+00         0.00000E+00
 
   -0.18610E+07         0.19576E+06         0.00000E+00
    0.19576E+06        -0.20855E+08         0.00000E+00
    0.00000E+00         0.00000E+00         0.00000E+00
 
   -0.18639E+07         0.25453E+06         0.00000E+00
    0.25453E+06        -0.20862E+08         0.00000E+00
    0.00000E+00         0.00000E+00         0.00000E+00
 
   -0.18635E+07         0.31459E+06         0.00000E+00
    0.31459E+06        -0.20870E+08         0.00000E+00
    0.00000E+00         0.00000E+00         0.00000E+00
 
   -0.18598E+07         0.37601E+06         0.00000E+00
    0.37601E+06        -0.20880E+08         0.00000E+00
    0.00000E+00         0.00000E+00         0.00000E+00
 
   -0.18529E+07         0.43885E+06         0.00000E+00
    0.43885E+06        -0.20892E+08         0.00000E+00
    0.00000E+00         0.00000E+00         0.00000E+00
 
   -0.18429E+07         0.50318E+06         0.00000E+00
    0.50318E+06        -0.20905E+08         0.00000E+00
    0.00000E+00         0.00000E+00         0.00000E+00
 
   -0.18300E+07         0.56905E+06         0.00000E+00
    0.56905E+06        -0.20919E+08         0.00000E+00
    0.00000E+00         0.00000E+00         0.00000E+00
 
   -0.18143E+07         0.63651E+06         0.00000E+00
    0.63651E+06        -0.20934E+08         0.00000E+00
    0.00000E+00         0.00000E+00         0.00000E+00
 
   -0.17958E+07         0.70561E+06         0.00000E+00
    0.70561E+06        -0.20951E+08         0.00000E+00
    0.00000E+00         0.00000E+00         0.00000E+00
 
   -0.17747E+07         0.77639E+06         0.00000E+00
    0.77639E+06        -0.20969E+08         0.00000E+00
    0.00000E+00         0.00000E+00         0.00000E+00
 
   -0.17511E+07         0.84889E+06         0.00000E+00
    0.84889E+06        -0.20988E+08         0.00000E+00
    0.00000E+00         0.00000E+00         0.00000E+00
 
   -0.17252E+07         0.92315E+06         0.00000E+00
    0.92315E+06        -0.21008E+08         0.00000E+00
    0.00000E+00         0.00000E+00         0.00000E+00
 
   -0.16969E+07         0.99919E+06         0.00000E+00
    0.99919E+06        -0.21028E+08         0.00000E+00
    0.00000E+00         0.00000E+00         0.00000E+00
 
   -0.16665E+07         0.10771E+07         0.00000E+00
    0.10771E+07        -0.21050E+08         0.00000E+00
    0.00000E+00         0.00000E+00         0.00000E+00
 
   -0.16341E+07         0.11568E+07         0.00000E+00
    0.11568E+07        -0.21073E+08         0.00000E+00
    0.00000E+00         0.00000E+00         0.00000E+00
 
   -0.15996E+07         0.12383E+07         0.00000E+00
    0.12383E+07        -0.21096E+08         0.00000E+00
    0.00000E+00         0.00000E+00         0.00000E+00
 
   -0.15633E+07         0.13218E+07         0.00000E+00
    0.13218E+07        -0.21121E+08         0.00000E+00
    0.00000E+00         0.00000E+00         0.00000E+00
 
   -0.15253E+07         0.14071E+07         0.00000E+00
    0.14071E+07        -0.21146E+08         0.00000E+00
    0.00000E+00         0.00000E+00         0.00000E+00
 
   -0.14856E+07         0.14944E+07         0.00000E+00
    0.14944E+07        -0.21171E+08         0.00000E+00
    0.00000E+00         0.00000E+00         0.00000E+00
 
   -0.14444E+07         0.15836E+07         0.00000E+00
    0.15836E+07        -0.21197E+08         0.00000E+00
    0.00000E+00         0.00000E+00         0.00000E+00
 
   -0.14016E+07         0.16747E+07         0.00000E+00
    0.16747E+07        -0.21224E+08         0.00000E+00
    0.00000E+00         0.00000E+00         0.00000E+00
 
   -0.13576E+07         0.17677E+07         0.00000E+00
    0.17677E+07        -0.21251E+08         0.00000E+00
    0.00000E+00         0.00000E+00         0.00000E+00
 
   -0.13122E+07         0.18627E+07         0.00000E+00
    0.18627E+07        -0.21279E+08         0.00000E+00
    0.00000E+00         0.00000E+00         0.00000E+00
 
   -0.12656E+07         0.19597E+07         0.00000E+00
    0.19597E+07        -0.21307E+08         0.00000E+00
    0.00000E+00         0.00000E+00         0.00000E+00
 
   -0.12179E+07         0.20586E+07         0.00000E+00
    0.20586E+07        -0.21336E+08         0.00000E+00
    0.00000E+00         0.00000E+00         0.00000E+00
 
   -0.11692E+07         0.21594E+07         0.00000E+00
    0.21594E+07        -0.21365E+08         0.00000E+00
    0.00000E+00         0.00000E+00         0.00000E+00
 
   -0.11195E+07         0.22622E+07         0.00000E+00
    0.22622E+07        -0.21394E+08         0.00000E+00
    0.00000E+00         0.00000E+00         0.00000E+00
 
   -0.10690E+07         0.23670E+07         0.00000E+00
    0.23670E+07        -0.21423E+08         0.00000E+00
    0.00000E+00         0.00000E+00         0.00000E+00
 
   -0.10176E+07         0.24737E+07         0.00000E+00
    0.24737E+07        -0.21453E+08         0.00000E+00
    0.00000E+00         0.00000E+00         0.00000E+00
 
   -0.96555E+06         0.25823E+07         0.00000E+00
    0.25823E+07        -0.21483E+08         0.00000E+00
    0.00000E+00         0.00000E+00         0.00000E+00
 
   -0.91282E+06         0.26928E+07         0.00000E+00
    0.26928E+07        -0.21513E+08         0.00000E+00
    0.00000E+00         0.00000E+00         0.00000E+00
 
   -0.85951E+06         0.28053E+07         0.00000E+00
    0.28053E+07        -0.21543E+08         0.00000E+00
    0.00000E+00         0.00000E+00         0.00000E+00
 
   -0.80568E+06         0.29197E+07         0.00000E+00
    0.29197E+07        -0.21573E+08         0.00000E+00
    0.00000E+00         0.00000E+00         0.00000E+00
 
   -0.75139E+06         0.30359E+07         0.00000E+00
    0.30359E+07        -0.21603E+08         0.00000E+00
    0.00000E+00         0.00000E+00         0.00000E+00
 
   -0.69671E+06         0.31541E+07         0.00000E+00
    0.31541E+07        -0.21633E+08         0.00000E+00
    0.00000E+00         0.00000E+00         0.00000E+00
 
   -0.64168E+06         0.32741E+07         0.00000E+00
    0.32741E+07        -0.21663E+08         0.00000E+00
    0.00000E+00         0.00000E+00         0.00000E+00
 
   -0.58637E+06         0.33960E+07         0.00000E+00
    0.33960E+07        -0.21693E+08         0.00000E+00
    0.00000E+00         0.00000E+00         0.00000E+00
 
   -0.53083E+06         0.35197E+07         0.00000E+00
    0.35197E+07        -0.21723E+08         0.00000E+00
    0.00000E+00         0.00000E+00         0.00000E+00
 
   -0.47510E+06         0.36453E+07         0.00000E+00
    0.36453E+07        -0.21753E+08         0.00000E+00
    0.00000E+00         0.00000E+00         0.00000E+00
 
   -0.41924E+06         0.37726E+07         0.00000E+00
    0.37726E+07        -0.21783E+08         0.00000E+00
    0.00000E+00         0.00000E+00         0.00000E+00
 
   -0.36329E+06         0.39018E+07         0.00000E+00
    0.39018E+07        -0.21812E+08         0.00000E+00
    0.00000E+00         0.00000E+00         0.00000E+00
 
   -0.30729E+06         0.40328E+07         0.00000E+00
    0.40328E+07        -0.21842E+08         0.00000E+00
    0.00000E+00         0.00000E+00         0.00000E+00
 
   -0.25129E+06         0.41655E+07         0.00000E+00
    0.41655E+07        -0.21871E+08         0.00000E+00
    0.00000E+00         0.00000E+00         0.00000E+00
 
   -0.19530E+06         0.43000E+07         0.00000E+00
    0.43000E+07        -0.21900E+08         0.00000E+00
    0.00000E+00         0.00000E+00         0.00000E+00
 
   -0.13938E+06         0.44362E+07         0.00000E+00
    0.44362E+07        -0.21929E+08         0.00000E+00
    0.00000E+00         0.00000E+00         0.00000E+00
 
   -0.83547E+05         0.45741E+07         0.00000E+00
    0.45741E+07        -0.21957E+08         0.00000E+00
    0.00000E+00         0.00000E+00         0.00000E+00
 
   -0.27828E+05         0.47137E+07         0.00000E+00
    0.47137E+07        -0.21985E+08         0.00000E+00
    0.00000E+00         0.00000E+00         0.00000E+00
 
   -0.22923E+07         0.21294E+05         0.00000E+00
    0.21294E+05        -0.21557E+08         0.00000E+00
    0.00000E+00         0.00000E+00         0.00000E+00
 
   -0.23004E+07         0.67284E+05         0.00000E+00
    0.67284E+05        -0.21559E+08         0.00000E+00
    0.00000E+00         0.00000E+00         0.00000E+00
 
   -0.23043E+07         0.11464E+06         0.00000E+00
    0.11464E+06        -0.21563E+08         0.00000E+00
    0.00000E+00         0.00000E+00         0.00000E+00
 
   -0.23041E+07         0.16346E+06         0.00000E+00
    0.16346E+06        -0.21569E+08         0.00000E+00
    0.00000E+00         0.00000E+00         0.00000E+00
 
   -0.23000E+07         0.21382E+06         0.00000E+00
    0.21382E+06        -0.21577E+08         0.00000E+00
    0.00000E+00         0.00000E+00         0.00000E+00
 
   -0.22921E+07         0.26579E+06         0.00000E+00
    0.26579E+06        -0.21587E+08         0.00000E+00
    0.00000E+00         0.00000E+00         0.00000E+00
 
   -0.22806E+07         0.31945E+06         0.00000E+00
    0.31945E+06        -0.21598E+08         0.00000E+00
    0.00000E+00         0.00000E+00         0.00000E+00
 
   -0.22656E+07         0.37486E+06         0.00000E+00
    0.37486E+06        -0.21611E+08         0.00000E+00
    0.00000E+00         0.00000E+00         0.00000E+00
 
   -0.22473E+07         0.43208E+06         0.00000E+00
    0.43208E+06        -0.21626E+08         0.00000E+00
    0.00000E+00         0.00000E+00         0.00000E+00
 
   -0.22257E+07         0.49116E+06         0.00000E+00
    0.49116E+06        -0.21642E+08         0.00000E+00
    0.00000E+00         0.00000E+00         0.00000E+00
 
   -0.22010E+07         0.55215E+06         0.00000E+00
    0.55215E+06        -0.21659E+08         0.00000E+00
    0.00000E+00         0.00000E+00         0.00000E+00
 
   -0.21734E+07         0.61509E+06         0.00000E+00
    0.61509E+06        -0.21678E+08         0.00000E+00
    0.00000E+00         0.00000E+00         0.00000E+00
 
   -0.21430E+07         0.68003E+06         0.00000E+00
    0.68003E+06        -0.21698E+08         0.00000E+00
    0.00000E+00         0.00000E+00         0.00000E+00
 
   -0.21099E+07         0.74700E+06         0.00000E+00
    0.74700E+06        -0.21719E+08         0.00000E+00
    0.00000E+00         0.00000E+00         0.00000E+00
 
   -0.20743E+07         0.81602E+06         0.00000E+00
    0.81602E+06        -0.21741E+08         0.00000E+00
    0.00000E+00         0.00000E+00         0.00000E+00
 
   -0.20362E+07         0.88712E+06         0.00000E+00
    0.88712E+06        -0.21765E+08         0.00000E+00
    0.00000E+00         0.00000E+00         0.00000E+00
 
   -0.19959E+07         0.96032E+06         0.00000E+00
    0.96032E+06        -0.21789E+08         0.00000E+00
    0.00000E+00         0.00000E+00         0.00000E+00
 
   -0.19534E+07         0.10357E+07         0.00000E+00
    0.10357E+07        -0.21814E+08         0.00000E+00
    0.00000E+00         0.00000E+00         0.00000E+00
 
   -0.19089E+07         0.11131E+07         0.00000E+00
    0.11131E+07        -0.21840E+08         0.00000E+00
    0.00000E+00         0.00000E+00         0.00000E+00
 
   -0.18624E+07         0.11927E+07         0.00000E+00
    0.11927E+07        -0.21868E+08         0.00000E+00
    0.00000E+00         0.00000E+00         0.00000E+00
 
   -0.18141E+07         0.12745E+07         0.00000E+00
    0.12745E+07        -0.21895E+08         0.00000E+00
    0.00000E+00         0.00000E+00         0.00000E+00
 
   -0.17641E+07         0.13585E+07         0.00000E+00
    0.13585E+07        -0.21924E+08         0.00000E+00
    0.00000E+00         0.00000E+00         0.00000E+00
 
   -0.17125E+07         0.14446E+07         0.00000E+00
    0.14446E+07        -0.21953E+08         0.00000E+00
    0.00000E+00         0.00000E+00         0.00000E+00
 
   -0.16594E+07         0.15329E+07         0.00000E+00
    0.15329E+07        -0.21983E+08         0.00000E+00
    0.00000E+00         0.00000E+00         0.00000E+00
 
   -0.16050E+07         0.16234E+07         0.00000E+00
    0.16234E+07        -0.22013E+08         0.00000E+00
    0.00000E+00         0.00000E+00         0.00000E+00
 
   -0.15492E+07         0.17160E+07         0.00000E+00
    0.17160E+07        -0.22044E+08         0.00000E+00
    0.00000E+00         0.00000E+00         0.00000E+00
 
   -0.14922E+07         0.18108E+07         0.00000E+00
    0.18108E+07        -0.22076E+08         0.00000E+00
    0.00000E+00         0.00000E+00         0.00000E+00
 
   -0.14342E+07         0.19078E+07         0.00000E+00
    0.19078E+07        -0.22107E+08         0.00000E+00
    0.00000E+00         0.00000E+00         0.00000E+00
 
   -0.13751E+07         0.20069E+07         0.00000E+00
    0.20069E+07        -0.22140E+08         0.00000E+00
    0.00000E+00         0.00000E+00         0.00000E+00
 
   -0.13151E+07         0.21082E+07         0.00000E+00
    0.21082E+07        -0.22172E+08         0.00000E+00
    0.00000E+00         0.00000E+00         0.00000E+00
 
   -0.12543E+07         0.22117E+07         0.00000E+00
    0.22117E+07        -0.22205E+08         0.00000E+00
    0.00000E+00         0.00000E+00         0.00000E+00
 
   -0.11927E+07         0.23172E+07         0.00000E+00
    0.23172E+07        -0.22238E+08         0.00000E+00
    0.00000E+00         0.00000E+00         0.00000E+00
 
   -0.11305E+07         0.24249E+07         0.00000E+00
    0.24249E+07        -0.22271E+08         0.00000E+00
    0.00000E+00         0.00000E+00         0.00000E+00
 
   -0.10676E+07         0.25347E+07         0.00000E+00
    0.25347E+07        -0.22305E+08         0.00000E+00
    0.00000E+00         0.00000E+00         0.00000E+00
 
   -0.10043E+07         0.26466E+07         0.00000E+00
    0.26466E+07        -0.22339E+08         0.00000E+00
    0.00000E+00         0.00000E+00         0.00000E+00
 
   -0.94044E+06         0.27605E+07         0.00000E+00
    0.27605E+07        -0.22372E+08         0.00000E+00
    0.00000E+00         0.00000E+00         0.00000E+00
 
   -0.87623E+06         0.28765E+07         0.00000E+00
    0.28765E+07        -0.22406E+08         0.00000E+00
    0.00000E+00         0.00000E+00         0.00000E+00
 
   -0.81169E+06         0.29946E+07         0.00000E+00
    0.29946E+07        -0.22440E+08         0.00000E+00
    0.00000E+00         0.00000E+00         0.00000E+00
 
   -0.74690E+06         0.31147E+07         0.00000E+00
    0.31147E+07        -0.22474E+08         0.00000E+00
    0.00000E+00         0.00000E+00         0.00000E+00
 
   -0.68191E+06         0.32368E+07         0.00000E+00
    0.32368E+07        -0.22508E+08         0.00000E+00
    0.00000E+00         0.00000E+00         0.00000E+00
 
   -0.61678E+06         0.33609E+07         0.00000E+00
    0.33609E+07        -0.22542E+08         0.00000E+00
    0.00000E+00         0.00000E+00         0.00000E+00
 
   -0.55156E+06         0.34869E+07         0.00000E+00
    0.34869E+07        -0.22576E+08         0.00000E+00
    0.00000E+00         0.00000E+00         0.00000E+00
 
   -0.48630E+06         0.36149E+07         0.00000E+00
    0.36149E+07        -0.22609E+08         0.00000E+00
    0.00000E+00         0.00000E+00         0.00000E+00
 
   -0.42106E+06         0.37448E+07         0.00000E+00
    0.37448E+07        -0.22643E+08         0.00000E+00
    0.00000E+00         0.00000E+00         0.00000E+00
 
   -0.35587E+06         0.38767E+07         0.00000E+00
    0.38767E+07        -0.22676E+08         0.00000E+00
    0.00000E+00         0.00000E+00         0.00000E+00
 
   -0.29078E+06         0.40104E+07         0.00000E+00
    0.40104E+07        -0.22710E+08         0.00000E+00
    0.00000E+00         0.00000E+00         0.00000E+00
 
   -0.22583E+06         0.41459E+07         0.00000E+00
    0.41459E+07        -0.22743E+08         0.00000E+00
    0.00000E+00         0.00000E+00         0.00000E+00
 
   -0.16105E+06         0.42833E+07         0.00000E+00
    0.42833E+07        -0.22775E+08         0.00000E+00
    0.00000E+00         0.00000E+00         0.00000E+00
 
   -0.96468E+05         0.44225E+07         0.00000E+00
    0.44225E+07        -0.22808E+08         0.00000E+00
    0.00000E+00         0.00000E+00         0.00000E+00
 
   -0.32116E+05         0.45634E+07         0.00000E+00
    0.45634E+07        -0.22840E+08         0.00000E+00
    0.00000E+00         0.00000E+00         0.00000E+00
 
   -0.28120E+07         0.15411E+05         0.00000E+00
    0.15411E+05        -0.22277E+08         0.00000E+00
    0.00000E+00         0.00000E+00         0.00000E+00
 
   -0.28126E+07         0.50731E+05         0.00000E+00
    0.50731E+05        -0.22280E+08         0.00000E+00
    0.00000E+00         0.00000E+00         0.00000E+00
 
   -0.28084E+07         0.87823E+05         0.00000E+00
    0.87823E+05        -0.22284E+08         0.00000E+00
    0.00000E+00         0.00000E+00         0.00000E+00
 
   -0.27997E+07         0.12678E+06         0.00000E+00
    0.12678E+06        -0.22291E+08         0.00000E+00
    0.00000E+00         0.00000E+00         0.00000E+00
 
   -0.27868E+07         0.16767E+06         0.00000E+00
    0.16767E+06        -0.22300E+08         0.00000E+00
    0.00000E+00         0.00000E+00         0.00000E+00
 
   -0.27696E+07         0.21058E+06         0.00000E+00
    0.21058E+06        -0.22311E+08         0.00000E+00
    0.00000E+00         0.00000E+00         0.00000E+00
 
   -0.27485E+07         0.25558E+06         0.00000E+00
    0.25558E+06        -0.22323E+08         0.00000E+00
    0.00000E+00         0.00000E+00         0.00000E+00
 
   -0.27236E+07         0.30271E+06         0.00000E+00
    0.30271E+06        -0.22338E+08         0.00000E+00
    0.00000E+00         0.00000E+00         0.00000E+00
 
   -0.26951E+07         0.35205E+06         0.00000E+00
    0.35205E+06        -0.22354E+08         0.00000E+00
    0.00000E+00         0.00000E+00         0.00000E+00
 
   -0.26631E+07         0.40363E+06         0.00000E+00
    0.40363E+06        -0.22372E+08         0.00000E+00
    0.00000E+00         0.00000E+00         0.00000E+00
 
   -0.26278E+07         0.45749E+06         0.00000E+00
    0.45749E+06        -0.22391E+08         0.00000E+00
    0.00000E+00         0.00000E+00         0.00000E+00
 
   -0.25893E+07         0.51367E+06         0.00000E+00
    0.51367E+06        -0.22412E+08         0.00000E+00
    0.00000E+00         0.00000E+00         0.00000E+00
 
   -0.25479E+07         0.57220E+06         0.00000E+00
    0.57220E+06        -0.22434E+08         0.00000E+00
    0.00000E+00         0.00000E+00         0.00000E+00
 
   -0.25037E+07         0.63310E+06         0.00000E+00
    0.63310E+06        -0.22457E+08         0.00000E+00
    0.00000E+00         0.00000E+00         0.00000E+00
 
   -0.24569E+07         0.69640E+06         0.00000E+00
    0.69640E+06        -0.22482E+08         0.00000E+00
    0.00000E+00         0.00000E+00         0.00000E+00
 
   -0.24075E+07         0.76211E+06         0.00000E+00
    0.76211E+06        -0.22507E+08         0.00000E+00
    0.00000E+00         0.00000E+00         0.00000E+00
 
   -0.23557E+07         0.83024E+06         0.00000E+00
    0.83024E+06        -0.22534E+08         0.00000E+00
    0.00000E+00         0.00000E+00         0.00000E+00
 
   -0.23017E+07         0.90080E+06         0.00000E+00
    0.90080E+06        -0.22562E+08         0.00000E+00
    0.00000E+00         0.00000E+00         0.00000E+00
 
   -0.22456E+07         0.97381E+06         0.00000E+00
    0.97381E+06        -0.22591E+08         0.00000E+00
    0.00000E+00         0.00000E+00         0.00000E+00
 
   -0.21876E+07         0.10492E+07         0.00000E+00
    0.10492E+07        -0.22621E+08         0.00000E+00
    0.00000E+00         0.00000E+00         0.00000E+00
 
   -0.21277E+07         0.11271E+07         0.00000E+00
    0.11271E+07        -0.22651E+08         0.00000E+00
    0.00000E+00         0.00000E+00         0.00000E+00
 
   -0.20661E+07         0.12074E+07         0.00000E+00
    0.12074E+07        -0.22683E+08         0.00000E+00
    0.00000E+00         0.00000E+00         0.00000E+00
 
   -0.20029E+07         0.12902E+07         0.00000E+00
    0.12902E+07        -0.22715E+08         0.00000E+00
    0.00000E+00         0.00000E+00         0.00000E+00
 
   -0.19382E+07         0.13754E+07         0.00000E+00
    0.13754E+07        -0.22748E+08         0.00000E+00
    0.00000E+00         0.00000E+00         0.00000E+00
 
   -0.18722E+07         0.14630E+07         0.00000E+00
    0.14630E+07        -0.22781E+08         0.00000E+00
    0.00000E+00         0.00000E+00         0.00000E+00
 
   -0.18049E+07         0.15530E+07         0.00000E+00
    0.15530E+07        -0.22815E+08         0.00000E+00
    0.00000E+00         0.00000E+00         0.00000E+00
 
   -0.17365E+07         0.16454E+07         0.00000E+00
    0.16454E+07        -0.22849E+08         0.00000E+00
    0.00000E+00         0.00000E+00         0.00000E+00
 
   -0.16670E+07         0.17402E+07         0.00000E+00
    0.17402E+07        -0.22884E+08         0.00000E+00
    0.00000E+00         0.00000E+00         0.00000E+00
 
   -0.15965E+07         0.18373E+07         0.00000E+00
    0.18373E+07        -0.22920E+08         0.00000E+00
    0.00000E+00         0.00000E+00         0.00000E+00
 
   -0.15252E+07         0.19369E+07         0.00000E+00
    0.19369E+07        -0.22956E+08         0.00000E+00
    0.00000E+00         0.00000E+00         0.00000E+00
 
   -0.14531E+07         0.20387E+07         0.00000E+00
    0.20387E+07        -0.22992E+08         0.00000E+00
    0.00000E+00         0.00000E+00         0.00000E+00
 
   -0.13803E+07         0.21429E+07         0.00000E+00
    0.21429E+07        -0.23028E+08         0.00000E+00
    0.00000E+00         0.00000E+00         0.00000E+00
 
   -0.13070E+07         0.22494E+07         0.00000E+00
    0.22494E+07        -0.23065E+08         0.00000E+00
    0.00000E+00         0.00000E+00         0.00000E+00
 
   -0.12331E+07         0.23582E+07         0.00000E+00
    0.23582E+07        -0.23102E+08         0.00000E+00
    0.00000E+00         0.00000E+00         0.00000E+00
 
   -0.11588E+07         0.24692E+07         0.00000E+00
    0.24692E+07        -0.23140E+08         0.00000E+00
    0.00000E+00         0.00000E+00         0.00000E+00
 
   -0.10841E+07         0.25825E+07         0.00000E+00
    0.25825E+07        -0.23177E+08         0.00000E+00
    0.00000E+00         0.00000E+00         0.00000E+00
 
   -0.10091E+07         0.26981E+07         0.00000E+00
    0.26981E+07        -0.23215E+08         0.00000E+00
    0.00000E+00         0.00000E+00         0.00000E+00
 
   -0.93395E+06         0.28158E+07         0.00000E+00
    0.28158E+07        -0.23252E+08         0.00000E+00
    0.00000E+00         0.00000E+00         0.00000E+00
 
   -0.85862E+06         0.29357E+07         0.00000E+00
    0.29357E+07        -0.23290E+08         0.00000E+00
    0.00000E+00         0.00000E+00         0.00000E+00
 
   -0.78321E+06         0.30578E+07         0.00000E+00
    0.30578E+07        -0.23328E+08         0.00000E+00
    0.00000E+00         0.00000E+00         0.00000E+00
 
   -0.70777E+06         0.31821E+07         0.00000E+00
    0.31821E+07        -0.23366E+08         0.00000E+00
    0.00000E+00         0.00000E+00         0.00000E+00
 
   -0.63237E+06         0.33084E+07         0.00000E+00
    0.33084E+07        -0.23403E+08         0.00000E+00
    0.00000E+00         0.00000E+00         0.00000E+00
 
   -0.55707E+06         0.34368E+07         0.00000E+00
    0.34368E+07        -0.23441E+08         0.00000E+00
    0.00000E+00         0.00000E+00         0.00000E+00
 
   -0.48191E+06         0.35673E+07         0.00000E+00
    0.35673E+07        -0.23479E+08         0.00000E+00
    0.00000E+00         0.00000E+00         0.00000E+00
 
   -0.40695E+06         0.36998E+07         0.00000E+00
    0.36998E+07        -0.23516E+08         0.00000E+00
    0.00000E+00         0.00000E+00         0.00000E+00
 
   -0.33223E+06         0.38343E+07         0.00000E+00
    0.38343E+07        -0.23554E+08         0.00000E+00
    0.00000E+00         0.00000E+00         0.00000E+00
 
   -0.25780E+06         0.39707E+07         0.00000E+00
    0.39707E+07        -0.23591E+08         0.00000E+00
    0.00000E+00         0.00000E+00         0.00000E+00
 
   -0.18369E+06         0.41091E+07         0.00000E+00
    0.41091E+07        -0.23628E+08         0.00000E+00
    0.00000E+00         0.00000E+00         0.00000E+00
 
   -0.10994E+06         0.42493E+07         0.00000E+00
    0.42493E+07        -0.23665E+08         0.00000E+00
    0.00000E+00         0.00000E+00         0.00000E+00
 
   -0.36580E+05         0.43915E+07         0.00000E+00
    0.43915E+07        -0.23702E+08         0.00000E+00
    0.00000E+00         0.00000E+00         0.00000E+00
 
   -0.33956E+07         0.87211E+04         0.00000E+00
    0.87211E+04        -0.23003E+08         0.00000E+00
    0.00000E+00         0.00000E+00         0.00000E+00
 
   -0.33863E+07         0.32051E+05         0.00000E+00
    0.32051E+05        -0.23006E+08         0.00000E+00
    0.00000E+00         0.00000E+00         0.00000E+00
 
   -0.33718E+07         0.57657E+05         0.00000E+00
    0.57657E+05        -0.23011E+08         0.00000E+00
    0.00000E+00         0.00000E+00         0.00000E+00
 
   -0.33524E+07         0.85625E+05         0.00000E+00
    0.85625E+05        -0.23018E+08         0.00000E+00
    0.00000E+00         0.00000E+00         0.00000E+00
 
   -0.33283E+07         0.11603E+06         0.00000E+00
    0.11603E+06        -0.23028E+08         0.00000E+00
    0.00000E+00         0.00000E+00         0.00000E+00
 
   -0.32997E+07         0.14894E+06         0.00000E+00
    0.14894E+06        -0.23040E+08         0.00000E+00
    0.00000E+00         0.00000E+00         0.00000E+00
 
   -0.32668E+07         0.18441E+06         0.00000E+00
    0.18441E+06        -0.23054E+08         0.00000E+00
    0.00000E+00         0.00000E+00         0.00000E+00
 
   -0.32299E+07         0.22250E+06         0.00000E+00
    0.22250E+06        -0.23070E+08         0.00000E+00
    0.00000E+00         0.00000E+00         0.00000E+00
 
   -0.31891E+07         0.26324E+06         0.00000E+00
    0.26324E+06        -0.23088E+08         0.00000E+00
    0.00000E+00         0.00000E+00         0.00000E+00
 
   -0.31446E+07         0.30667E+06         0.00000E+00
    0.30667E+06        -0.23107E+08         0.00000E+00
    0.00000E+00         0.00000E+00         0.00000E+00
 
   -0.30967E+07         0.35282E+06         0.00000E+00
    0.35282E+06        -0.23128E+08         0.00000E+00
    0.00000E+00         0.00000E+00         0.00000E+00
 
   -0.30455E+07         0.40170E+06         0.00000E+00
    0.40170E+06        -0.23151E+08         0.00000E+00
    0.00000E+00         0.00000E+00         0.00000E+00
 
   -0.29912E+07         0.45334E+06         0.00000E+00
    0.45334E+06        -0.23175E+08         0.00000E+00
    0.00000E+00         0.00000E+00         0.00000E+00
 
   -0.29341E+07         0.50775E+06         0.00000E+00
    0.50775E+06        -0.23200E+08         0.00000E+00
    0.00000E+00         0.00000E+00         0.00000E+00
 
   -0.28742E+07         0.56492E+06         0.00000E+00
    0.56492E+06        -0.23227E+08         0.00000E+00
    0.00000E+00         0.00000E+00         0.00000E+00
 
   -0.28118E+07         0.62486E+06         0.00000E+00
    0.62486E+06        -0.23255E+08         0.00000E+00
    0.00000E+00         0.00000E+00         0.00000E+00
 
   -0.27469E+07         0.68757E+06         0.00000E+00
    0.68757E+06        -0.23284E+08         0.00000E+00
    0.00000E+00         0.00000E+00         0.00000E+00
 
   -0.26799E+07         0.75304E+06         0.00000E+00
    0.75304E+06        -0.23314E+08         0.00000E+00
    0.00000E+00         0.00000E+00         0.00000E+00
 
   -0.26107E+07         0.82127E+06         0.00000E+00
    0.82127E+06        -0.23346E+08         0.00000E+00
    0.00000E+00         0.00000E+00         0.00000E+00
 
   -0.25397E+07         0.89223E+06         0.00000E+00
    0.89223E+06        -0.23378E+08         0.00000E+00
    0.00000E+00         0.00000E+00         0.00000E+00
 
   -0.24668E+07         0.96593E+06         0.00000E+00
    0.96593E+06        -0.23411E+08         0.00000E+00
    0.00000E+00         0.00000E+00         0.00000E+00
 
   -0.23922E+07         0.10423E+07         0.00000E+00
    0.10423E+07        -0.23445E+08         0.00000E+00
    0.00000E+00         0.00000E+00         0.00000E+00
 
   -0.23162E+07         0.11214E+07         0.00000E+00
    0.11214E+07        -0.23479E+08         0.00000E+00
    0.00000E+00         0.00000E+00         0.00000E+00
 
   -0.22387E+07         0.12032E+07         0.00000E+00
    0.12032E+07        -0.23515E+08         0.00000E+00
    0.00000E+00         0.00000E+00         0.00000E+00
 
   -0.21599E+07         0.12876E+07         0.00000E+00
    0.12876E+07        -0.23551E+08         0.00000E+00
    0.00000E+00         0.00000E+00         0.00000E+00
 
   -0.20799E+07         0.13747E+07         0.00000E+00
    0.13747E+07        -0.23588E+08         0.00000E+00
    0.00000E+00         0.00000E+00         0.00000E+00
 
   -0.19989E+07         0.14644E+07         0.00000E+00
    0.14644E+07        -0.23625E+08         0.00000E+00
    0.00000E+00         0.00000E+00         0.00000E+00
 
   -0.19168E+07         0.15567E+07         0.00000E+00
    0.15567E+07        -0.23663E+08         0.00000E+00
    0.00000E+00         0.00000E+00         0.00000E+00
 
   -0.18340E+07         0.16515E+07         0.00000E+00
    0.16515E+07        -0.23701E+08         0.00000E+00
    0.00000E+00         0.00000E+00         0.00000E+00
 
   -0.17503E+07         0.17490E+07         0.00000E+00
    0.17490E+07        -0.23740E+08         0.00000E+00
    0.00000E+00         0.00000E+00         0.00000E+00
 
   -0.16660E+07         0.18489E+07         0.00000E+00
    0.18489E+07        -0.23779E+08         0.00000E+00
    0.00000E+00         0.00000E+00         0.00000E+00
 
   -0.15811E+07         0.19514E+07         0.00000E+00
    0.19514E+07        -0.23819E+08         0.00000E+00
    0.00000E+00         0.00000E+00         0.00000E+00
 
   -0.14957E+07         0.20563E+07         0.00000E+00
    0.20563E+07        -0.23859E+08         0.00000E+00
    0.00000E+00         0.00000E+00         0.00000E+00
 
   -0.14099E+07         0.21638E+07         0.00000E+00
    0.21638E+07        -0.23899E+08         0.00000E+00
    0.00000E+00         0.00000E+00         0.00000E+00
 
   -0.13237E+07         0.22736E+07         0.00000E+00
    0.22736E+07        -0.23940E+08         0.00000E+00
    0.00000E+00         0.00000E+00         0.00000E+00
 
   -0.12373E+07         0.23859E+07         0.00000E+00
    0.23859E+07        -0.23981E+08         0.00000E+00
    0.00000E+00         0.00000E+00         0.00000E+00
 
   -0.11508E+07         0.25006E+07         0.00000E+00
    0.25006E+07        -0.24022E+08         0.00000E+00
    0.00000E+00         0.00000E+00         0.00000E+00
 
   -0.10641E+07         0.26177E+07         0.00000E+00
    0.26177E+07        -0.24064E+08         0.00000E+00
    0.00000E+00         0.00000E+00         0.00000E+00
 
   -0.97745E+06         0.27371E+07         0.00000E+00
    0.27371E+07        -0.24105E+08         0.00000E+00
    0.00000E+00         0.00000E+00         0.00000E+00
 
   -0.89083E+06         0.28589E+07         0.00000E+00
    0.28589E+07        -0.24147E+08         0.00000E+00
    0.00000E+00         0.00000E+00         0.00000E+00
 
   -0.80434E+06         0.29829E+07         0.00000E+00
    0.29829E+07        -0.24189E+08         0.00000E+00
    0.00000E+00         0.00000E+00         0.00000E+00
 
   -0.71802E+06         0.31092E+07         0.00000E+00
    0.31092E+07        -0.24231E+08         0.00000E+00
    0.00000E+00         0.00000E+00         0.00000E+00
 
   -0.63196E+06         0.32378E+07         0.00000E+00
    0.32378E+07        -0.24273E+08         0.00000E+00
    0.00000E+00         0.00000E+00         0.00000E+00
 
   -0.54621E+06         0.33685E+07         0.00000E+00
    0.33685E+07        -0.24314E+08         0.00000E+00
    0.00000E+00         0.00000E+00         0.00000E+00
 
   -0.46083E+06         0.35014E+07         0.00000E+00
    0.35014E+07        -0.24356E+08         0.00000E+00
    0.00000E+00         0.00000E+00         0.00000E+00
 
   -0.37588E+06         0.36365E+07         0.00000E+00
    0.36365E+07        -0.24398E+08         0.00000E+00
    0.00000E+00         0.00000E+00         0.00000E+00
 
   -0.29139E+06         0.37736E+07         0.00000E+00
    0.37736E+07        -0.24440E+08         0.00000E+00
    0.00000E+00         0.00000E+00         0.00000E+00
 
   -0.20743E+06         0.39127E+07         0.00000E+00
    0.39127E+07        -0.24481E+08         0.00000E+00
    0.00000E+00         0.00000E+00         0.00000E+00
 
   -0.12404E+06         0.40539E+07         0.00000E+00
    0.40539E+07        -0.24523E+08         0.00000E+00
    0.00000E+00         0.00000E+00         0.00000E+00
 
   -0.41242E+05         0.41970E+07         0.00000E+00
    0.41970E+07        -0.24564E+08         0.00000E+00
    0.00000E+00         0.00000E+00         0.00000E+00
 
   -0.40490E+07         0.12000E+04         0.00000E+00
    0.12000E+04        -0.23734E+08         0.00000E+00
    0.00000E+00         0.00000E+00         0.00000E+00
 
   -0.40270E+07         0.11240E+05         0.00000E+00
    0.11240E+05        -0.23737E+08         0.00000E+00
    0.00000E+00         0.00000E+00         0.00000E+00
 
   -0.39994E+07         0.24185E+05         0.00000E+00
    0.24185E+05        -0.23743E+08         0.00000E+00
    0.00000E+00         0.00000E+00         0.00000E+00
 
   -0.39665E+07         0.40112E+05         0.00000E+00
    0.40112E+05        -0.23751E+08         0.00000E+00
    0.00000E+00         0.00000E+00         0.00000E+00
 
   -0.39285E+07         0.59084E+05         0.00000E+00
    0.59084E+05        -0.23762E+08         0.00000E+00
    0.00000E+00         0.00000E+00         0.00000E+00
 
   -0.38857E+07         0.81154E+05         0.00000E+00
    0.81154E+05        -0.23775E+08         0.00000E+00
    0.00000E+00         0.00000E+00         0.00000E+00
 
   -0.38385E+07         0.10636E+06         0.00000E+00
    0.10636E+06        -0.23790E+08         0.00000E+00
    0.00000E+00         0.00000E+00         0.00000E+00
 
   -0.37870E+07         0.13475E+06         0.00000E+00
    0.13475E+06        -0.23807E+08         0.00000E+00
    0.00000E+00         0.00000E+00         0.00000E+00
 
   -0.37314E+07         0.16632E+06         0.00000E+00
    0.16632E+06        -0.23826E+08         0.00000E+00
    0.00000E+00         0.00000E+00         0.00000E+00
 
   -0.36721E+07         0.20111E+06         0.00000E+00
    0.20111E+06        -0.23847E+08         0.00000E+00
    0.00000E+00         0.00000E+00         0.00000E+00
 
   -0.36093E+07         0.23911E+06         0.00000E+00
    0.23911E+06        -0.23870E+08         0.00000E+00
    0.00000E+00         0.00000E+00         0.00000E+00
 
   -0.35432E+07         0.28032E+06         0.00000E+00
    0.28032E+06        -0.23894E+08         0.00000E+00
    0.00000E+00         0.00000E+00         0.00000E+00
 
   -0.34740E+07         0.32474E+06         0.00000E+00
    0.32474E+06        -0.23920E+08         0.00000E+00
    0.00000E+00         0.00000E+00         0.00000E+00
 
   -0.34019E+07         0.37235E+06         0.00000E+00
    0.37235E+06        -0.23947E+08         0.00000E+00
    0.00000E+00         0.00000E+00         0.00000E+00
 
   -0.33271E+07         0.42313E+06         0.00000E+00
    0.42313E+06        -0.23975E+08         0.00000E+00
    0.00000E+00         0.00000E+00         0.00000E+00
 
   -0.32498E+07         0.47706E+06         0.00000E+00
    0.47706E+06        -0.24005E+08         0.00000E+00
    0.00000E+00         0.00000E+00         0.00000E+00
 
   -0.31702E+07         0.53413E+06         0.00000E+00
    0.53413E+06        -0.24036E+08         0.00000E+00
    0.00000E+00         0.00000E+00         0.00000E+00
 
   -0.30884E+07         0.59429E+06         0.00000E+00
    0.59429E+06        -0.24068E+08         0.00000E+00
    0.00000E+00         0.00000E+00         0.00000E+00
 
   -0.30047E+07         0.65751E+06         0.00000E+00
    0.65751E+06        -0.24101E+08         0.00000E+00
    0.00000E+00         0.00000E+00         0.00000E+00
 
   -0.29191E+07         0.72378E+06         0.00000E+00
    0.72378E+06        -0.24135E+08         0.00000E+00
    0.00000E+00         0.00000E+00         0.00000E+00
 
   -0.28319E+07         0.79304E+06         0.00000E+00
    0.79304E+06        -0.24170E+08         0.00000E+00
    0.00000E+00         0.00000E+00         0.00000E+00
 
   -0.27431E+07         0.86528E+06         0.00000E+00
    0.86528E+06        -0.24206E+08         0.00000E+00
    0.00000E+00         0.00000E+00         0.00000E+00
 
   -0.26528E+07         0.94045E+06         0.00000E+00
    0.94045E+06        -0.24242E+08         0.00000E+00
    0.00000E+00         0.00000E+00         0.00000E+00
 
   -0.25614E+07         0.10185E+07         0.00000E+00
    0.10185E+07        -0.24280E+08         0.00000E+00
    0.00000E+00         0.00000E+00         0.00000E+00
 
   -0.24687E+07         0.10995E+07         0.00000E+00
    0.10995E+07        -0.24318E+08         0.00000E+00
    0.00000E+00         0.00000E+00         0.00000E+00
 
   -0.23750E+07         0.11833E+07         0.00000E+00
    0.11833E+07        -0.24357E+08         0.00000E+00
    0.00000E+00         0.00000E+00         0.00000E+00
 
   -0.22803E+07         0.12699E+07         0.00000E+00
    0.12699E+07        -0.24396E+08         0.00000E+00
    0.00000E+00         0.00000E+00         0.00000E+00
 
   -0.21848E+07         0.13593E+07         0.00000E+00
    0.13593E+07        -0.24436E+08         0.00000E+00
    0.00000E+00         0.00000E+00         0.00000E+00
 
   -0.20885E+07         0.14514E+07         0.00000E+00
    0.14514E+07        -0.24477E+08         0.00000E+00
    0.00000E+00         0.00000E+00         0.00000E+00
 
   -0.19916E+07         0.15463E+07         0.00000E+00
    0.15463E+07        -0.24519E+08         0.00000E+00
    0.00000E+00         0.00000E+00         0.00000E+00
 
   -0.18941E+07         0.16439E+07         0.00000E+00
    0.16439E+07        -0.24561E+08         0.00000E+00
    0.00000E+00         0.00000E+00         0.00000E+00
 
   -0.17962E+07         0.17441E+07         0.00000E+00
    0.17441E+07        -0.24603E+08         0.00000E+00
    0.00000E+00         0.00000E+00         0.00000E+00
 
   -0.16979E+07         0.18471E+07         0.00000E+00
    0.18471E+07        -0.24646E+08         0.00000E+00
    0.00000E+00         0.00000E+00         0.00000E+00
 
   -0.15993E+07         0.19526E+07         0.00000E+00
    0.19526E+07        -0.24689E+08         0.00000E+00
    0.00000E+00         0.00000E+00         0.00000E+00
 
   -0.15004E+07         0.20608E+07         0.00000E+00
    0.20608E+07        -0.24733E+08         0.00000E+00
    0.00000E+00         0.00000E+00         0.00000E+00
 
   -0.14015E+07         0.21715E+07         0.00000E+00
    0.21715E+07        -0.24778E+08         0.00000E+00
    0.00000E+00         0.00000E+00         0.00000E+00
 
   -0.13025E+07         0.22849E+07         0.00000E+00
    0.22849E+07        -0.24822E+08         0.00000E+00
    0.00000E+00         0.00000E+00         0.00000E+00
 
   -0.12035E+07         0.24007E+07         0.00000E+00
    0.24007E+07        -0.24867E+08         0.00000E+00
    0.00000E+00         0.00000E+00         0.00000E+00
 
   -0.11047E+07         0.25191E+07         0.00000E+00
    0.25191E+07        -0.24912E+08         0.00000E+00
    0.00000E+00         0.00000E+00         0.00000E+00
 
   -0.10060E+07         0.26400E+07         0.00000E+00
    0.26400E+07        -0.24958E+08         0.00000E+00
    0.00000E+00         0.00000E+00         0.00000E+00
 
   -0.90762E+06         0.27634E+07         0.00000E+00
    0.27634E+07        -0.25004E+08         0.00000E+00
    0.00000E+00         0.00000E+00         0.00000E+00
 
   -0.80957E+06         0.28892E+07         0.00000E+00
    0.28892E+07        -0.25050E+08         0.00000E+00
    0.00000E+00         0.00000E+00         0.00000E+00
 
   -0.71195E+06         0.30174E+07         0.00000E+00
    0.30174E+07        -0.25096E+08         0.00000E+00
    0.00000E+00         0.00000E+00         0.00000E+00
 
   -0.61481E+06         0.31480E+07         0.00000E+00
    0.31480E+07        -0.25142E+08         0.00000E+00
    0.00000E+00         0.00000E+00         0.00000E+00
 
   -0.51824E+06         0.32809E+07         0.00000E+00
    0.32809E+07        -0.25188E+08         0.00000E+00
    0.00000E+00         0.00000E+00         0.00000E+00
 
   -0.42231E+06         0.34162E+07         0.00000E+00
    0.34162E+07        -0.25235E+08         0.00000E+00
    0.00000E+00         0.00000E+00         0.00000E+00
 
   -0.32707E+06         0.35536E+07         0.00000E+00
    0.35536E+07        -0.25281E+08         0.00000E+00
    0.00000E+00         0.00000E+00         0.00000E+00
 
   -0.23260E+06         0.36933E+07         0.00000E+00
    0.36933E+07        -0.25327E+08         0.00000E+00
    0.00000E+00         0.00000E+00         0.00000E+00
 
   -0.13894E+06         0.38351E+07         0.00000E+00
    0.38351E+07        -0.25373E+08         0.00000E+00
    0.00000E+00         0.00000E+00         0.00000E+00
 
   -0.46164E+05         0.39791E+07         0.00000E+00
    0.39791E+07        -0.25419E+08         0.00000E+00
    0.00000E+00         0.00000E+00         0.00000E+00
 
   -0.47778E+07        -0.71525E+04         0.00000E+00
   -0.71525E+04        -0.24469E+08         0.00000E+00
    0.00000E+00         0.00000E+00         0.00000E+00
 
   -0.47396E+07        -0.11614E+05         0.00000E+00
   -0.11614E+05        -0.24473E+08         0.00000E+00
    0.00000E+00         0.00000E+00         0.00000E+00
 
   -0.46954E+07        -0.12385E+05         0.00000E+00
   -0.12385E+05        -0.24479E+08         0.00000E+00
    0.00000E+00         0.00000E+00         0.00000E+00
 
   -0.46455E+07        -0.94072E+04         0.00000E+00
   -0.94072E+04        -0.24488E+08         0.00000E+00
    0.00000E+00         0.00000E+00         0.00000E+00
 
   -0.45904E+07        -0.26380E+04         0.00000E+00
   -0.26380E+04        -0.24499E+08         0.00000E+00
    0.00000E+00         0.00000E+00         0.00000E+00
 
   -0.45302E+07         0.79511E+04         0.00000E+00
    0.79511E+04        -0.24513E+08         0.00000E+00
    0.00000E+00         0.00000E+00         0.00000E+00
 
   -0.44655E+07         0.22375E+05         0.00000E+00
    0.22375E+05        -0.24529E+08         0.00000E+00
    0.00000E+00         0.00000E+00         0.00000E+00
 
   -0.43964E+07         0.40635E+05         0.00000E+00
    0.40635E+05        -0.24547E+08         0.00000E+00
    0.00000E+00         0.00000E+00         0.00000E+00
 
   -0.43233E+07         0.62723E+05         0.00000E+00
    0.62723E+05        -0.24567E+08         0.00000E+00
    0.00000E+00         0.00000E+00         0.00000E+00
 
   -0.42465E+07         0.88618E+05         0.00000E+00
    0.88618E+05        -0.24589E+08         0.00000E+00
    0.00000E+00         0.00000E+00         0.00000E+00
 
   -0.41662E+07         0.11829E+06         0.00000E+00
    0.11829E+06        -0.24613E+08         0.00000E+00
    0.00000E+00         0.00000E+00         0.00000E+00
 
   -0.40826E+07         0.15171E+06         0.00000E+00
    0.15171E+06        -0.24638E+08         0.00000E+00
    0.00000E+00         0.00000E+00         0.00000E+00
 
   -0.39962E+07         0.18882E+06         0.00000E+00
    0.18882E+06        -0.24665E+08         0.00000E+00
    0.00000E+00         0.00000E+00         0.00000E+00
 
   -0.39070E+07         0.22958E+06         0.00000E+00
    0.22958E+06        -0.24693E+08         0.00000E+00
    0.00000E+00         0.00000E+00         0.00000E+00
 
   -0.38153E+07         0.27394E+06         0.00000E+00
    0.27394E+06        -0.24723E+08         0.00000E+00
    0.00000E+00         0.00000E+00         0.00000E+00
 
   -0.37213E+07         0.32183E+06         0.00000E+00
    0.32183E+06        -0.24753E+08         0.00000E+00
    0.00000E+00         0.00000E+00         0.00000E+00
 
   -0.36252E+07         0.37320E+06         0.00000E+00
    0.37320E+06        -0.24785E+08         0.00000E+00
    0.00000E+00         0.00000E+00         0.00000E+00
 
   -0.35271E+07         0.42799E+06         0.00000E+00
    0.42799E+06        -0.24818E+08         0.00000E+00
    0.00000E+00         0.00000E+00         0.00000E+00
 
   -0.34273E+07         0.48613E+06         0.00000E+00
    0.48613E+06        -0.24852E+08         0.00000E+00
    0.00000E+00         0.00000E+00         0.00000E+00
 
   -0.33259E+07         0.54757E+06         0.00000E+00
    0.54757E+06        -0.24887E+08         0.00000E+00
    0.00000E+00         0.00000E+00         0.00000E+00
 
   -0.32231E+07         0.61225E+06         0.00000E+00
    0.61225E+06        -0.24923E+08         0.00000E+00
    0.00000E+00         0.00000E+00         0.00000E+00
 
   -0.31189E+07         0.68012E+06         0.00000E+00
    0.68012E+06        -0.24959E+08         0.00000E+00
    0.00000E+00         0.00000E+00         0.00000E+00
 
   -0.30135E+07         0.75111E+06         0.00000E+00
    0.75111E+06        -0.24997E+08         0.00000E+00
    0.00000E+00         0.00000E+00         0.00000E+00
 
   -0.29070E+07         0.82518E+06         0.00000E+00
    0.82518E+06        -0.25036E+08         0.00000E+00
    0.00000E+00         0.00000E+00         0.00000E+00
 
   -0.27996E+07         0.90228E+06         0.00000E+00
    0.90228E+06        -0.25075E+08         0.00000E+00
    0.00000E+00         0.00000E+00         0.00000E+00
 
   -0.26912E+07         0.98236E+06         0.00000E+00
    0.98236E+06        -0.25115E+08         0.00000E+00
    0.00000E+00         0.00000E+00         0.00000E+00
 
   -0.25821E+07         0.10654E+07         0.00000E+00
    0.10654E+07        -0.25156E+08         0.00000E+00
    0.00000E+00         0.00000E+00         0.00000E+00
 
   -0.24723E+07         0.11514E+07         0.00000E+00
    0.11514E+07        -0.25198E+08         0.00000E+00
    0.00000E+00         0.00000E+00         0.00000E+00
 
   -0.23619E+07         0.12402E+07         0.00000E+00
    0.12402E+07        -0.25240E+08         0.00000E+00
    0.00000E+00         0.00000E+00         0.00000E+00
 
   -0.22510E+07         0.13319E+07         0.00000E+00
    0.13319E+07        -0.25283E+08         0.00000E+00
    0.00000E+00         0.00000E+00         0.00000E+00
 
   -0.21396E+07         0.14264E+07         0.00000E+00
    0.14264E+07        -0.25327E+08         0.00000E+00
    0.00000E+00         0.00000E+00         0.00000E+00
 
   -0.20279E+07         0.15237E+07         0.00000E+00
    0.15237E+07        -0.25372E+08         0.00000E+00
    0.00000E+00         0.00000E+00         0.00000E+00
 
   -0.19159E+07         0.16238E+07         0.00000E+00
    0.16238E+07        -0.25417E+08         0.00000E+00
    0.00000E+00         0.00000E+00         0.00000E+00
 
   -0.18037E+07         0.17267E+07         0.00000E+00
    0.17267E+07        -0.25463E+08         0.00000E+00
    0.00000E+00         0.00000E+00         0.00000E+00
 
   -0.16914E+07         0.18323E+07         0.00000E+00
    0.18323E+07        -0.25510E+08         0.00000E+00
    0.00000E+00         0.00000E+00         0.00000E+00
 
   -0.15791E+07         0.19407E+07         0.00000E+00
    0.19407E+07        -0.25557E+08         0.00000E+00
    0.00000E+00         0.00000E+00         0.00000E+00
 
   -0.14668E+07         0.20519E+07         0.00000E+00
    0.20519E+07        -0.25604E+08         0.00000E+00
    0.00000E+00         0.00000E+00         0.00000E+00
 
   -0.13547E+07         0.21657E+07         0.00000E+00
    0.21657E+07        -0.25653E+08         0.00000E+00
    0.00000E+00         0.00000E+00         0.00000E+00
 
   -0.12427E+07         0.22822E+07         0.00000E+00
    0.22822E+07        -0.25701E+08         0.00000E+00
    0.00000E+00         0.00000E+00         0.00000E+00
 
   -0.11311E+07         0.24015E+07         0.00000E+00
    0.24015E+07        -0.25751E+08         0.00000E+00
    0.00000E+00         0.00000E+00         0.00000E+00
 
   -0.10199E+07         0.25234E+07         0.00000E+00
    0.25234E+07        -0.25800E+08         0.00000E+00
    0.00000E+00         0.00000E+00         0.00000E+00
 
   -0.90910E+06         0.26479E+07         0.00000E+00
    0.26479E+07        -0.25851E+08         0.00000E+00
    0.00000E+00         0.00000E+00         0.00000E+00
 
   -0.79893E+06         0.27751E+07         0.00000E+00
    0.27751E+07        -0.25901E+08         0.00000E+00
    0.00000E+00         0.00000E+00         0.00000E+00
 
   -0.68941E+06         0.29049E+07         0.00000E+00
    0.29049E+07        -0.25952E+08         0.00000E+00
    0.00000E+00         0.00000E+00         0.00000E+00
 
   -0.58066E+06         0.30373E+07         0.00000E+00
    0.30373E+07        -0.26003E+08         0.00000E+00
    0.00000E+00         0.00000E+00         0.00000E+00
 
   -0.47276E+06         0.31722E+07         0.00000E+00
    0.31722E+07        -0.26054E+08         0.00000E+00
    0.00000E+00         0.00000E+00         0.00000E+00
 
   -0.36581E+06         0.33095E+07         0.00000E+00
    0.33095E+07        -0.26105E+08         0.00000E+00
    0.00000E+00         0.00000E+00         0.00000E+00
 
   -0.25989E+06         0.34493E+07         0.00000E+00
    0.34493E+07        -0.26156E+08         0.00000E+00
    0.00000E+00         0.00000E+00         0.00000E+00
 
   -0.15509E+06         0.35915E+07         0.00000E+00
    0.35915E+07        -0.26208E+08         0.00000E+00
    0.00000E+00         0.00000E+00         0.00000E+00
 
   -0.51488E+05         0.37360E+07         0.00000E+00
    0.37360E+07        -0.26259E+08         0.00000E+00
    0.00000E+00         0.00000E+00         0.00000E+00
 
   -0.55873E+07        -0.16312E+05         0.00000E+00
   -0.16312E+05        -0.25208E+08         0.00000E+00
    0.00000E+00         0.00000E+00         0.00000E+00
 
   -0.55283E+07        -0.36312E+05         0.00000E+00
   -0.36312E+05        -0.25211E+08         0.00000E+00
    0.00000E+00         0.00000E+00         0.00000E+00
 
   -0.54631E+07        -0.51632E+05         0.00000E+00
   -0.51632E+05        -0.25218E+08         0.00000E+00
    0.00000E+00         0.00000E+00         0.00000E+00
 
   -0.53921E+07        -0.62242E+05         0.00000E+00
   -0.62242E+05        -0.25227E+08         0.00000E+00
    0.00000E+00         0.00000E+00         0.00000E+00
 
   -0.53157E+07        -0.68137E+05         0.00000E+00
   -0.68137E+05        -0.25239E+08         0.00000E+00
    0.00000E+00         0.00000E+00         0.00000E+00
 
   -0.52343E+07        -0.69329E+05         0.00000E+00
   -0.69329E+05        -0.25253E+08         0.00000E+00
    0.00000E+00         0.00000E+00         0.00000E+00
 
   -0.51483E+07        -0.65845E+05         0.00000E+00
   -0.65845E+05        -0.25270E+08         0.00000E+00
    0.00000E+00         0.00000E+00         0.00000E+00
 
   -0.50582E+07        -0.57731E+05         0.00000E+00
   -0.57731E+05        -0.25289E+08         0.00000E+00
    0.00000E+00         0.00000E+00         0.00000E+00
 
   -0.49642E+07        -0.45048E+05         0.00000E+00
   -0.45048E+05        -0.25309E+08         0.00000E+00
    0.00000E+00         0.00000E+00         0.00000E+00
 
   -0.48667E+07        -0.27871E+05         0.00000E+00
   -0.27871E+05        -0.25332E+08         0.00000E+00
    0.00000E+00         0.00000E+00         0.00000E+00
 
   -0.47660E+07        -0.62831E+04         0.00000E+00
   -0.62831E+04        -0.25356E+08         0.00000E+00
    0.00000E+00         0.00000E+00         0.00000E+00
 
   -0.46624E+07         0.19620E+05         0.00000E+00
    0.19620E+05        -0.25381E+08         0.00000E+00
    0.00000E+00         0.00000E+00         0.00000E+00
 
   -0.45563E+07         0.49739E+05         0.00000E+00
    0.49739E+05        -0.25408E+08         0.00000E+00
    0.00000E+00         0.00000E+00         0.00000E+00
 
   -0.44478E+07         0.83967E+05         0.00000E+00
    0.83967E+05        -0.25436E+08         0.00000E+00
    0.00000E+00         0.00000E+00         0.00000E+00
 
   -0.43373E+07         0.12220E+06         0.00000E+00
    0.12220E+06        -0.25465E+08         0.00000E+00
    0.00000E+00         0.00000E+00         0.00000E+00
 
   -0.42248E+07         0.16432E+06         0.00000E+00
    0.16432E+06        -0.25496E+08         0.00000E+00
    0.00000E+00         0.00000E+00         0.00000E+00
 
   -0.41106E+07         0.21023E+06         0.00000E+00
    0.21023E+06        -0.25527E+08         0.00000E+00
    0.00000E+00         0.00000E+00         0.00000E+00
 
   -0.39950E+07         0.25981E+06         0.00000E+00
    0.25981E+06        -0.25560E+08         0.00000E+00
    0.00000E+00         0.00000E+00         0.00000E+00
 
   -0.38779E+07         0.31296E+06         0.00000E+00
    0.31296E+06        -0.25593E+08         0.00000E+00
    0.00000E+00         0.00000E+00         0.00000E+00
 
   -0.37596E+07         0.36959E+06         0.00000E+00
    0.36959E+06        -0.25627E+08         0.00000E+00
    0.00000E+00         0.00000E+00         0.00000E+00
 
   -0.36403E+07         0.42961E+06         0.00000E+00
    0.42961E+06        -0.25663E+08         0.00000E+00
    0.00000E+00         0.00000E+00         0.00000E+00
 
   -0.35199E+07         0.49292E+06         0.00000E+00
    0.49292E+06        -0.25699E+08         0.00000E+00
    0.00000E+00         0.00000E+00         0.00000E+00
 
   -0.33987E+07         0.55944E+06         0.00000E+00
    0.55944E+06        -0.25736E+08         0.00000E+00
    0.00000E+00         0.00000E+00         0.00000E+00
 
   -0.32767E+07         0.62912E+06         0.00000E+00
    0.62912E+06        -0.25774E+08         0.00000E+00
    0.00000E+00         0.00000E+00         0.00000E+00
 
   -0.31539E+07         0.70188E+06         0.00000E+00
    0.70188E+06        -0.25813E+08         0.00000E+00
    0.00000E+00         0.00000E+00         0.00000E+00
 
   -0.30305E+07         0.77767E+06         0.00000E+00
    0.77767E+06        -0.25853E+08         0.00000E+00
    0.00000E+00         0.00000E+00         0.00000E+00
 
   -0.29065E+07         0.85644E+06         0.00000E+00
    0.85644E+06        -0.25894E+08         0.00000E+00
    0.00000E+00         0.00000E+00         0.00000E+00
 
   -0.27820E+07         0.93816E+06         0.00000E+00
    0.93816E+06        -0.25936E+08         0.00000E+00
    0.00000E+00         0.00000E+00         0.00000E+00
 
   -0.26571E+07         0.10228E+07         0.00000E+00
    0.10228E+07        -0.25979E+08         0.00000E+00
    0.00000E+00         0.00000E+00         0.00000E+00
 
   -0.25317E+07         0.11103E+07         0.00000E+00
    0.11103E+07        -0.26023E+08         0.00000E+00
    0.00000E+00         0.00000E+00         0.00000E+00
 
   -0.24060E+07         0.12007E+07         0.00000E+00
    0.12007E+07        -0.26067E+08         0.00000E+00
    0.00000E+00         0.00000E+00         0.00000E+00
 
   -0.22801E+07         0.12940E+07         0.00000E+00
    0.12940E+07        -0.26113E+08         0.00000E+00
    0.00000E+00         0.00000E+00         0.00000E+00
 
   -0.21539E+07         0.13901E+07         0.00000E+00
    0.13901E+07        -0.26160E+08         0.00000E+00
    0.00000E+00         0.00000E+00         0.00000E+00
 
   -0.20275E+07         0.14891E+07         0.00000E+00
    0.14891E+07        -0.26207E+08         0.00000E+00
    0.00000E+00         0.00000E+00         0.00000E+00
 
   -0.19011E+07         0.15909E+07         0.00000E+00
    0.15909E+07        -0.26256E+08         0.00000E+00
    0.00000E+00         0.00000E+00         0.00000E+00
 
   -0.17746E+07         0.16956E+07         0.00000E+00
    0.16956E+07        -0.26306E+08         0.00000E+00
    0.00000E+00         0.00000E+00         0.00000E+00
 
   -0.16482E+07         0.18032E+07         0.00000E+00
    0.18032E+07        -0.26356E+08         0.00000E+00
    0.00000E+00         0.00000E+00         0.00000E+00
 
   -0.15220E+07         0.19137E+07         0.00000E+00
    0.19137E+07        -0.26407E+08         0.00000E+00
    0.00000E+00         0.00000E+00         0.00000E+00
 
   -0.13959E+07         0.20271E+07         0.00000E+00
    0.20271E+07        -0.26459E+08         0.00000E+00
    0.00000E+00         0.00000E+00         0.00000E+00
 
   -0.12703E+07         0.21435E+07         0.00000E+00
    0.21435E+07        -0.26512E+08         0.00000E+00
    0.00000E+00         0.00000E+00         0.00000E+00
 
   -0.11450E+07         0.22627E+07         0.00000E+00
    0.22627E+07        -0.26566E+08         0.00000E+00
    0.00000E+00         0.00000E+00         0.00000E+00
 
   -0.10203E+07         0.23849E+07         0.00000E+00
    0.23849E+07        -0.26620E+08         0.00000E+00
    0.00000E+00         0.00000E+00         0.00000E+00
 
   -0.89632E+06         0.25099E+07         0.00000E+00
    0.25099E+07        -0.26675E+08         0.00000E+00
    0.00000E+00         0.00000E+00         0.00000E+00
 
   -0.77308E+06         0.26379E+07         0.00000E+00
    0.26379E+07        -0.26731E+08         0.00000E+00
    0.00000E+00         0.00000E+00         0.00000E+00
 
   -0.65076E+06         0.27688E+07         0.00000E+00
    0.27688E+07        -0.26787E+08         0.00000E+00
    0.00000E+00         0.00000E+00         0.00000E+00
 
   -0.52948E+06         0.29025E+07         0.00000E+00
    0.29025E+07        -0.26843E+08         0.00000E+00
    0.00000E+00         0.00000E+00         0.00000E+00
 
   -0.40938E+06         0.30391E+07         0.00000E+00
    0.30391E+07        -0.26900E+08         0.00000E+00
    0.00000E+00         0.00000E+00         0.00000E+00
 
   -0.29059E+06         0.31784E+07         0.00000E+00
    0.31784E+07        -0.26957E+08         0.00000E+00
    0.00000E+00         0.00000E+00         0.00000E+00
 
   -0.17324E+06         0.33205E+07         0.00000E+00
    0.33205E+07        -0.27014E+08         0.00000E+00
    0.00000E+00         0.00000E+00         0.00000E+00
 
   -0.57474E+05         0.34653E+07         0.00000E+00
    0.34653E+07        -0.27071E+08         0.00000E+00
    0.00000E+00         0.00000E+00         0.00000E+00
 
   -0.64813E+07        -0.26257E+05         0.00000E+00
   -0.26257E+05        -0.25948E+08         0.00000E+00
    0.00000E+00         0.00000E+00         0.00000E+00
 
   -0.63960E+07        -0.62534E+05         0.00000E+00
   -0.62534E+05        -0.25952E+08         0.00000E+00
    0.00000E+00         0.00000E+00         0.00000E+00
 
   -0.63043E+07        -0.92864E+05         0.00000E+00
   -0.92864E+05        -0.25959E+08         0.00000E+00
    0.00000E+00         0.00000E+00         0.00000E+00
 
   -0.62068E+07        -0.11727E+06         0.00000E+00
   -0.11727E+06        -0.25968E+08         0.00000E+00
    0.00000E+00         0.00000E+00         0.00000E+00
 
   -0.61040E+07        -0.13579E+06         0.00000E+00
   -0.13579E+06        -0.25980E+08         0.00000E+00
    0.00000E+00         0.00000E+00         0.00000E+00
 
   -0.59966E+07        -0.14849E+06         0.00000E+00
   -0.14849E+06        -0.25995E+08         0.00000E+00
    0.00000E+00         0.00000E+00         0.00000E+00
 
   -0.58849E+07        -0.15548E+06         0.00000E+00
   -0.15548E+06        -0.26012E+08         0.00000E+00
    0.00000E+00         0.00000E+00         0.00000E+00
 
   -0.57694E+07        -0.15689E+06         0.00000E+00
   -0.15689E+06        -0.26030E+08         0.00000E+00
    0.00000E+00         0.00000E+00         0.00000E+00
 
   -0.56507E+07        -0.15287E+06         0.00000E+00
   -0.15287E+06        -0.26050E+08         0.00000E+00
    0.00000E+00         0.00000E+00         0.00000E+00
 
   -0.55291E+07        -0.14357E+06         0.00000E+00
   -0.14357E+06        -0.26072E+08         0.00000E+00
    0.00000E+00         0.00000E+00         0.00000E+00
 
   -0.54050E+07        -0.12918E+06         0.00000E+00
   -0.12918E+06        -0.26095E+08         0.00000E+00
    0.00000E+00         0.00000E+00         0.00000E+00
 
   -0.52786E+07        -0.10988E+06         0.00000E+00
   -0.10988E+06        -0.26119E+08         0.00000E+00
    0.00000E+00         0.00000E+00         0.00000E+00
 
   -0.51505E+07        -0.85854E+05         0.00000E+00
   -0.85854E+05        -0.26144E+08         0.00000E+00
    0.00000E+00         0.00000E+00         0.00000E+00
 
   -0.50207E+07        -0.57301E+05         0.00000E+00
   -0.57301E+05        -0.26170E+08         0.00000E+00
    0.00000E+00         0.00000E+00         0.00000E+00
 
   -0.48895E+07        -0.24410E+05         0.00000E+00
   -0.24410E+05        -0.26197E+08         0.00000E+00
    0.00000E+00         0.00000E+00         0.00000E+00
 
   -0.47572E+07         0.12633E+05         0.00000E+00
    0.12633E+05        -0.26226E+08         0.00000E+00
    0.00000E+00         0.00000E+00         0.00000E+00
 
   -0.46239E+07         0.53647E+05         0.00000E+00
    0.53647E+05        -0.26255E+08         0.00000E+00
    0.00000E+00         0.00000E+00         0.00000E+00
 
   -0.44897E+07         0.98462E+05         0.00000E+00
    0.98462E+05        -0.26285E+08         0.00000E+00
    0.00000E+00         0.00000E+00         0.00000E+00
 
   -0.43548E+07         0.14692E+06         0.00000E+00
    0.14692E+06        -0.26315E+08         0.00000E+00
    0.00000E+00         0.00000E+00         0.00000E+00
 
   -0.42192E+07         0.19887E+06         0.00000E+00
    0.19887E+06        -0.26347E+08         0.00000E+00
    0.00000E+00         0.00000E+00         0.00000E+00
 
   -0.40831E+07         0.25418E+06         0.00000E+00
    0.25418E+06        -0.26380E+08         0.00000E+00
    0.00000E+00         0.00000E+00         0.00000E+00
 
   -0.39465E+07         0.31272E+06         0.00000E+00
    0.31272E+06        -0.26413E+08         0.00000E+00
    0.00000E+00         0.00000E+00         0.00000E+00
 
   -0.38095E+07         0.37441E+06         0.00000E+00
    0.37441E+06        -0.26448E+08         0.00000E+00
    0.00000E+00         0.00000E+00         0.00000E+00
 
   -0.36720E+07         0.43913E+06         0.00000E+00
    0.43913E+06        -0.26484E+08         0.00000E+00
    0.00000E+00         0.00000E+00         0.00000E+00
 
   -0.35341E+07         0.50683E+06         0.00000E+00
    0.50683E+06        -0.26520E+08         0.00000E+00
    0.00000E+00         0.00000E+00         0.00000E+00
 
   -0.33959E+07         0.57742E+06         0.00000E+00
    0.57742E+06        -0.26558E+08         0.00000E+00
    0.00000E+00         0.00000E+00         0.00000E+00
 
   -0.32572E+07         0.65088E+06         0.00000E+00
    0.65088E+06        -0.26597E+08         0.00000E+00
    0.00000E+00         0.00000E+00         0.00000E+00
 
   -0.31183E+07         0.72716E+06         0.00000E+00
    0.72716E+06        -0.26637E+08         0.00000E+00
    0.00000E+00         0.00000E+00         0.00000E+00
 
   -0.29789E+07         0.80625E+06         0.00000E+00
    0.80625E+06        -0.26679E+08         0.00000E+00
    0.00000E+00         0.00000E+00         0.00000E+00
 
   -0.28393E+07         0.88812E+06         0.00000E+00
    0.88812E+06        -0.26722E+08         0.00000E+00
    0.00000E+00         0.00000E+00         0.00000E+00
 
   -0.26993E+07         0.97280E+06         0.00000E+00
    0.97280E+06        -0.26766E+08         0.00000E+00
    0.00000E+00         0.00000E+00         0.00000E+00
 
   -0.25590E+07         0.10603E+07         0.00000E+00
    0.10603E+07        -0.26812E+08         0.00000E+00
    0.00000E+00         0.00000E+00         0.00000E+00
 
   -0.24184E+07         0.11506E+07         0.00000E+00
    0.11506E+07        -0.26859E+08         0.00000E+00
    0.00000E+00         0.00000E+00         0.00000E+00
 
   -0.22775E+07         0.12438E+07         0.00000E+00
    0.12438E+07        -0.26907E+08         0.00000E+00
    0.00000E+00         0.00000E+00         0.00000E+00
 
   -0.21365E+07         0.13399E+07         0.00000E+00
    0.13399E+07        -0.26957E+08         0.00000E+00
    0.00000E+00         0.00000E+00         0.00000E+00
 
   -0.19953E+07         0.14390E+07         0.00000E+00
    0.14390E+07        -0.27008E+08         0.00000E+00
    0.00000E+00         0.00000E+00         0.00000E+00
 
   -0.18540E+07         0.15411E+07         0.00000E+00
    0.15411E+07        -0.27061E+08         0.00000E+00
    0.00000E+00         0.00000E+00         0.00000E+00
 
   -0.17127E+07         0.16462E+07         0.00000E+00
    0.16462E+07        -0.27115E+08         0.00000E+00
    0.00000E+00         0.00000E+00         0.00000E+00
 
   -0.15715E+07         0.17545E+07         0.00000E+00
    0.17545E+07        -0.27170E+08         0.00000E+00
    0.00000E+00         0.00000E+00         0.00000E+00
 
   -0.14305E+07         0.18659E+07         0.00000E+00
    0.18659E+07        -0.27227E+08         0.00000E+00
    0.00000E+00         0.00000E+00         0.00000E+00
 
   -0.12898E+07         0.19806E+07         0.00000E+00
    0.19806E+07        -0.27284E+08         0.00000E+00
    0.00000E+00         0.00000E+00         0.00000E+00
 
   -0.11496E+07         0.20985E+07         0.00000E+00
    0.20985E+07        -0.27343E+08         0.00000E+00
    0.00000E+00         0.00000E+00         0.00000E+00
 
   -0.10099E+07         0.22198E+07         0.00000E+00
    0.22198E+07        -0.27403E+08         0.00000E+00
    0.00000E+00         0.00000E+00         0.00000E+00
 
   -0.87104E+06         0.23444E+07         0.00000E+00
    0.23444E+07        -0.27464E+08         0.00000E+00
    0.00000E+00         0.00000E+00         0.00000E+00
 
   -0.73311E+06         0.24724E+07         0.00000E+00
    0.24724E+07        -0.27526E+08         0.00000E+00
    0.00000E+00         0.00000E+00         0.00000E+00
 
   -0.59632E+06         0.26038E+07         0.00000E+00
    0.26038E+07        -0.27589E+08         0.00000E+00
    0.00000E+00         0.00000E+00         0.00000E+00
 
   -0.46086E+06         0.27385E+07         0.00000E+00
    0.27385E+07        -0.27652E+08         0.00000E+00
    0.00000E+00         0.00000E+00         0.00000E+00
 
   -0.32695E+06         0.28765E+07         0.00000E+00
    0.28765E+07        -0.27715E+08         0.00000E+00
    0.00000E+00         0.00000E+00         0.00000E+00
 
   -0.19478E+06         0.30179E+07         0.00000E+00
    0.30179E+07        -0.27779E+08         0.00000E+00
    0.00000E+00         0.00000E+00         0.00000E+00
 
   -0.64577E+05         0.31625E+07         0.00000E+00
    0.31625E+07        -0.27843E+08         0.00000E+00
    0.00000E+00         0.00000E+00         0.00000E+00
 
   -0.74624E+07        -0.36943E+05         0.00000E+00
   -0.36943E+05        -0.26689E+08         0.00000E+00
    0.00000E+00         0.00000E+00         0.00000E+00
 
   -0.73433E+07        -0.89870E+05         0.00000E+00
   -0.89870E+05        -0.26693E+08         0.00000E+00
    0.00000E+00         0.00000E+00         0.00000E+00
 
   -0.72178E+07        -0.13513E+06         0.00000E+00
   -0.13513E+06        -0.26700E+08         0.00000E+00
    0.00000E+00         0.00000E+00         0.00000E+00
 
   -0.70869E+07        -0.17277E+06         0.00000E+00
   -0.17277E+06        -0.26710E+08         0.00000E+00
    0.00000E+00         0.00000E+00         0.00000E+00
 
   -0.69513E+07        -0.20297E+06         0.00000E+00
   -0.20297E+06        -0.26722E+08         0.00000E+00
    0.00000E+00         0.00000E+00         0.00000E+00
 
   -0.68117E+07        -0.22594E+06         0.00000E+00
   -0.22594E+06        -0.26735E+08         0.00000E+00
    0.00000E+00         0.00000E+00         0.00000E+00
 
   -0.66689E+07        -0.24192E+06         0.00000E+00
   -0.24192E+06        -0.26751E+08         0.00000E+00
    0.00000E+00         0.00000E+00         0.00000E+00
 
   -0.65232E+07        -0.25118E+06         0.00000E+00
   -0.25118E+06        -0.26768E+08         0.00000E+00
    0.00000E+00         0.00000E+00         0.00000E+00
 
   -0.63754E+07        -0.25400E+06         0.00000E+00
   -0.25400E+06        -0.26786E+08         0.00000E+00
    0.00000E+00         0.00000E+00         0.00000E+00
 
   -0.62260E+07        -0.25070E+06         0.00000E+00
   -0.25070E+06        -0.26805E+08         0.00000E+00
    0.00000E+00         0.00000E+00         0.00000E+00
 
   -0.60752E+07        -0.24160E+06         0.00000E+00
   -0.24160E+06        -0.26825E+08         0.00000E+00
    0.00000E+00         0.00000E+00         0.00000E+00
 
   -0.59236E+07        -0.22706E+06         0.00000E+00
   -0.22706E+06        -0.26845E+08         0.00000E+00
    0.00000E+00         0.00000E+00         0.00000E+00
 
   -0.57714E+07        -0.20739E+06         0.00000E+00
   -0.20739E+06        -0.26866E+08         0.00000E+00
    0.00000E+00         0.00000E+00         0.00000E+00
 
   -0.56188E+07        -0.18293E+06         0.00000E+00
   -0.18293E+06        -0.26888E+08         0.00000E+00
    0.00000E+00         0.00000E+00         0.00000E+00
 
   -0.54661E+07        -0.15400E+06         0.00000E+00
   -0.15400E+06        -0.26910E+08         0.00000E+00
    0.00000E+00         0.00000E+00         0.00000E+00
 
   -0.53133E+07        -0.12089E+06         0.00000E+00
   -0.12089E+06        -0.26933E+08         0.00000E+00
    0.00000E+00         0.00000E+00         0.00000E+00
 
   -0.51607E+07        -0.83863E+05         0.00000E+00
   -0.83863E+05        -0.26957E+08         0.00000E+00
    0.00000E+00         0.00000E+00         0.00000E+00
 
   -0.50082E+07        -0.43178E+05         0.00000E+00
   -0.43178E+05        -0.26981E+08         0.00000E+00
    0.00000E+00         0.00000E+00         0.00000E+00
 
   -0.48559E+07         0.94527E+03         0.00000E+00
    0.94527E+03        -0.27006E+08         0.00000E+00
    0.00000E+00         0.00000E+00         0.00000E+00
 
   -0.47037E+07         0.48309E+05         0.00000E+00
    0.48309E+05        -0.27032E+08         0.00000E+00
    0.00000E+00         0.00000E+00         0.00000E+00
 
   -0.45517E+07         0.98740E+05         0.00000E+00
    0.98740E+05        -0.27059E+08         0.00000E+00
    0.00000E+00         0.00000E+00         0.00000E+00
 
   -0.43999E+07         0.15209E+06         0.00000E+00
    0.15209E+06        -0.27087E+08         0.00000E+00
    0.00000E+00         0.00000E+00         0.00000E+00
 
   -0.42481E+07         0.20824E+06         0.00000E+00
    0.20824E+06        -0.27117E+08         0.00000E+00
    0.00000E+00         0.00000E+00         0.00000E+00
 
   -0.40963E+07         0.26708E+06         0.00000E+00
    0.26708E+06        -0.27147E+08         0.00000E+00
    0.00000E+00         0.00000E+00         0.00000E+00
 
   -0.39445E+07         0.32854E+06         0.00000E+00
    0.32854E+06        -0.27179E+08         0.00000E+00
    0.00000E+00         0.00000E+00         0.00000E+00
 
   -0.37925E+07         0.39256E+06         0.00000E+00
    0.39256E+06        -0.27212E+08         0.00000E+00
    0.00000E+00         0.00000E+00         0.00000E+00
 
   -0.36404E+07         0.45909E+06         0.00000E+00
    0.45909E+06        -0.27247E+08         0.00000E+00
    0.00000E+00         0.00000E+00         0.00000E+00
 
   -0.34880E+07         0.52813E+06         0.00000E+00
    0.52813E+06        -0.27284E+08         0.00000E+00
    0.00000E+00         0.00000E+00         0.00000E+00
 
   -0.33352E+07         0.59968E+06         0.00000E+00
    0.59968E+06        -0.27322E+08         0.00000E+00
    0.00000E+00         0.00000E+00         0.00000E+00
 
   -0.31821E+07         0.67374E+06         0.00000E+00
    0.67374E+06        -0.27362E+08         0.00000E+00
    0.00000E+00         0.00000E+00         0.00000E+00
 
   -0.30285E+07         0.75036E+06         0.00000E+00
    0.75036E+06        -0.27404E+08         0.00000E+00
    0.00000E+00         0.00000E+00         0.00000E+00
 
   -0.28744E+07         0.82959E+06         0.00000E+00
    0.82959E+06        -0.27448E+08         0.00000E+00
    0.00000E+00         0.00000E+00         0.00000E+00
 
   -0.27198E+07         0.91149E+06         0.00000E+00
    0.91149E+06        -0.27494E+08         0.00000E+00
    0.00000E+00         0.00000E+00         0.00000E+00
 
   -0.25647E+07         0.99615E+06         0.00000E+00
    0.99615E+06        -0.27542E+08         0.00000E+00
    0.00000E+00         0.00000E+00         0.00000E+00
 
   -0.24089E+07         0.10837E+07         0.00000E+00
    0.10837E+07        -0.27592E+08         0.00000E+00
    0.00000E+00         0.00000E+00         0.00000E+00
 
   -0.22526E+07         0.11741E+07         0.00000E+00
    0.11741E+07        -0.27644E+08         0.00000E+00
    0.00000E+00         0.00000E+00         0.00000E+00
 
   -0.20958E+07         0.12677E+07         0.00000E+00
    0.12677E+07        -0.27698E+08         0.00000E+00
    0.00000E+00         0.00000E+00         0.00000E+00
 
   -0.19386E+07         0.13645E+07         0.00000E+00
    0.13645E+07        -0.27754E+08         0.00000E+00
    0.00000E+00         0.00000E+00         0.00000E+00
 
   -0.17809E+07         0.14646E+07         0.00000E+00
    0.14646E+07        -0.27812E+08         0.00000E+00
    0.00000E+00         0.00000E+00         0.00000E+00
 
   -0.16230E+07         0.15682E+07         0.00000E+00
    0.15682E+07        -0.27873E+08         0.00000E+00
    0.00000E+00         0.00000E+00         0.00000E+00
 
   -0.14650E+07         0.16754E+07         0.00000E+00
    0.16754E+07        -0.27935E+08         0.00000E+00
    0.00000E+00         0.00000E+00         0.00000E+00
 
   -0.13070E+07         0.17863E+07         0.00000E+00
    0.17863E+07        -0.27999E+08         0.00000E+00
    0.00000E+00         0.00000E+00         0.00000E+00
 
   -0.11492E+07         0.19012E+07         0.00000E+00
    0.19012E+07        -0.28065E+08         0.00000E+00
    0.00000E+00         0.00000E+00         0.00000E+00
 
   -0.99188E+06         0.20200E+07         0.00000E+00
    0.20200E+07        -0.28133E+08         0.00000E+00
    0.00000E+00         0.00000E+00         0.00000E+00
 
   -0.83529E+06         0.21429E+07         0.00000E+00
    0.21429E+07        -0.28201E+08         0.00000E+00
    0.00000E+00         0.00000E+00         0.00000E+00
 
   -0.67968E+06         0.22699E+07         0.00000E+00
    0.22699E+07        -0.28272E+08         0.00000E+00
    0.00000E+00         0.00000E+00         0.00000E+00
 
   -0.52537E+06         0.24011E+07         0.00000E+00
    0.24011E+07        -0.28343E+08         0.00000E+00
    0.00000E+00         0.00000E+00         0.00000E+00
 
   -0.37268E+06         0.25366E+07         0.00000E+00
    0.25366E+07        -0.28415E+08         0.00000E+00
    0.00000E+00         0.00000E+00         0.00000E+00
 
   -0.22198E+06         0.26764E+07         0.00000E+00
    0.26764E+07        -0.28487E+08         0.00000E+00
    0.00000E+00         0.00000E+00         0.00000E+00
 
   -0.73589E+05         0.28202E+07         0.00000E+00
    0.28202E+07        -0.28560E+08         0.00000E+00
    0.00000E+00         0.00000E+00         0.00000E+00
 
   -0.85311E+07        -0.48792E+05         0.00000E+00
   -0.48792E+05        -0.27431E+08         0.00000E+00
    0.00000E+00         0.00000E+00         0.00000E+00
 
   -0.83674E+07        -0.11783E+06         0.00000E+00
   -0.11783E+06        -0.27435E+08         0.00000E+00
    0.00000E+00         0.00000E+00         0.00000E+00
 
   -0.81981E+07        -0.17660E+06         0.00000E+00
   -0.17660E+06        -0.27441E+08         0.00000E+00
    0.00000E+00         0.00000E+00         0.00000E+00
 
   -0.80245E+07        -0.22564E+06         0.00000E+00
   -0.22564E+06        -0.27450E+08         0.00000E+00
    0.00000E+00         0.00000E+00         0.00000E+00
 
   -0.78474E+07        -0.26519E+06         0.00000E+00
   -0.26519E+06        -0.27460E+08         0.00000E+00
    0.00000E+00         0.00000E+00         0.00000E+00
 
   -0.76679E+07        -0.29559E+06         0.00000E+00
   -0.29559E+06        -0.27472E+08         0.00000E+00
    0.00000E+00         0.00000E+00         0.00000E+00
 
   -0.74870E+07        -0.31727E+06         0.00000E+00
   -0.31727E+06        -0.27485E+08         0.00000E+00
    0.00000E+00         0.00000E+00         0.00000E+00
 
   -0.73054E+07        -0.33079E+06         0.00000E+00
   -0.33079E+06        -0.27498E+08         0.00000E+00
    0.00000E+00         0.00000E+00         0.00000E+00
 
   -0.71238E+07        -0.33676E+06         0.00000E+00
   -0.33676E+06        -0.27511E+08         0.00000E+00
    0.00000E+00         0.00000E+00         0.00000E+00
 
   -0.69430E+07        -0.33582E+06         0.00000E+00
   -0.33582E+06        -0.27524E+08         0.00000E+00
    0.00000E+00         0.00000E+00         0.00000E+00
 
   -0.67631E+07        -0.32862E+06         0.00000E+00
   -0.32862E+06        -0.27537E+08         0.00000E+00
    0.00000E+00         0.00000E+00         0.00000E+00
 
   -0.65847E+07        -0.31575E+06         0.00000E+00
   -0.31575E+06        -0.27550E+08         0.00000E+00
    0.00000E+00         0.00000E+00         0.00000E+00
 
   -0.64078E+07        -0.29778E+06         0.00000E+00
   -0.29778E+06        -0.27563E+08         0.00000E+00
    0.00000E+00         0.00000E+00         0.00000E+00
 
   -0.62325E+07        -0.27521E+06         0.00000E+00
   -0.27521E+06        -0.27575E+08         0.00000E+00
    0.00000E+00         0.00000E+00         0.00000E+00
 
   -0.60589E+07        -0.24850E+06         0.00000E+00
   -0.24850E+06        -0.27589E+08         0.00000E+00
    0.00000E+00         0.00000E+00         0.00000E+00
 
   -0.58870E+07        -0.21805E+06         0.00000E+00
   -0.21805E+06        -0.27602E+08         0.00000E+00
    0.00000E+00         0.00000E+00         0.00000E+00
 
   -0.57166E+07        -0.18421E+06         0.00000E+00
   -0.18421E+06        -0.27616E+08         0.00000E+00
    0.00000E+00         0.00000E+00         0.00000E+00
 
   -0.55477E+07        -0.14730E+06         0.00000E+00
   -0.14730E+06        -0.27631E+08         0.00000E+00
    0.00000E+00         0.00000E+00         0.00000E+00
 
   -0.53800E+07        -0.10755E+06         0.00000E+00
   -0.10755E+06        -0.27646E+08         0.00000E+00
    0.00000E+00         0.00000E+00         0.00000E+00
 
   -0.52135E+07        -0.65197E+05         0.00000E+00
   -0.65197E+05        -0.27663E+08         0.00000E+00
    0.00000E+00         0.00000E+00         0.00000E+00
 
   -0.50480E+07        -0.20417E+05         0.00000E+00
   -0.20417E+05        -0.27681E+08         0.00000E+00
    0.00000E+00         0.00000E+00         0.00000E+00
 
   -0.48833E+07         0.26644E+05         0.00000E+00
    0.26644E+05        -0.27700E+08         0.00000E+00
    0.00000E+00         0.00000E+00         0.00000E+00
 
   -0.47192E+07         0.75869E+05         0.00000E+00
    0.75869E+05        -0.27721E+08         0.00000E+00
    0.00000E+00         0.00000E+00         0.00000E+00
 
   -0.45556E+07         0.12717E+06         0.00000E+00
    0.12717E+06        -0.27743E+08         0.00000E+00
    0.00000E+00         0.00000E+00         0.00000E+00
 
   -0.43922E+07         0.18049E+06         0.00000E+00
    0.18049E+06        -0.27767E+08         0.00000E+00
    0.00000E+00         0.00000E+00         0.00000E+00
 
   -0.42288E+07         0.23579E+06         0.00000E+00
    0.23579E+06        -0.27793E+08         0.00000E+00
    0.00000E+00         0.00000E+00         0.00000E+00
 
   -0.40654E+07         0.29305E+06         0.00000E+00
    0.29305E+06        -0.27821E+08         0.00000E+00
    0.00000E+00         0.00000E+00         0.00000E+00
 
   -0.39016E+07         0.35228E+06         0.00000E+00
    0.35228E+06        -0.27852E+08         0.00000E+00
    0.00000E+00         0.00000E+00         0.00000E+00
 
   -0.37374E+07         0.41352E+06         0.00000E+00
    0.41352E+06        -0.27885E+08         0.00000E+00
    0.00000E+00         0.00000E+00         0.00000E+00
 
   -0.35726E+07         0.47681E+06         0.00000E+00
    0.47681E+06        -0.27920E+08         0.00000E+00
    0.00000E+00         0.00000E+00         0.00000E+00
 
   -0.34071E+07         0.54222E+06         0.00000E+00
    0.54222E+06        -0.27958E+08         0.00000E+00
    0.00000E+00         0.00000E+00         0.00000E+00
 
   -0.32406E+07         0.60984E+06         0.00000E+00
    0.60984E+06        -0.27998E+08         0.00000E+00
    0.00000E+00         0.00000E+00         0.00000E+00
 
   -0.30731E+07         0.67980E+06         0.00000E+00
    0.67980E+06        -0.28041E+08         0.00000E+00
    0.00000E+00         0.00000E+00         0.00000E+00
 
   -0.29045E+07         0.75221E+06         0.00000E+00
    0.75221E+06        -0.28088E+08         0.00000E+00
    0.00000E+00         0.00000E+00         0.00000E+00
 
   -0.27346E+07         0.82725E+06         0.00000E+00
    0.82725E+06        -0.28137E+08         0.00000E+00
    0.00000E+00         0.00000E+00         0.00000E+00
 
   -0.25635E+07         0.90508E+06         0.00000E+00
    0.90508E+06        -0.28189E+08         0.00000E+00
    0.00000E+00         0.00000E+00         0.00000E+00
 
   -0.23909E+07         0.98592E+06         0.00000E+00
    0.98592E+06        -0.28244E+08         0.00000E+00
    0.00000E+00         0.00000E+00         0.00000E+00
 
   -0.22170E+07         0.10700E+07         0.00000E+00
    0.10700E+07        -0.28302E+08         0.00000E+00
    0.00000E+00         0.00000E+00         0.00000E+00
 
   -0.20418E+07         0.11575E+07         0.00000E+00
    0.11575E+07        -0.28363E+08         0.00000E+00
    0.00000E+00         0.00000E+00         0.00000E+00
 
   -0.18653E+07         0.12488E+07         0.00000E+00
    0.12488E+07        -0.28427E+08         0.00000E+00
    0.00000E+00         0.00000E+00         0.00000E+00
 
   -0.16876E+07         0.13441E+07         0.00000E+00
    0.13441E+07        -0.28494E+08         0.00000E+00
    0.00000E+00         0.00000E+00         0.00000E+00
 
   -0.15089E+07         0.14437E+07         0.00000E+00
    0.14437E+07        -0.28565E+08         0.00000E+00
    0.00000E+00         0.00000E+00         0.00000E+00
 
   -0.13295E+07         0.15480E+07         0.00000E+00
    0.15480E+07        -0.28638E+08         0.00000E+00
    0.00000E+00         0.00000E+00         0.00000E+00
 
   -0.11497E+07         0.16571E+07         0.00000E+00
    0.16571E+07        -0.28713E+08         0.00000E+00
    0.00000E+00         0.00000E+00         0.00000E+00
 
   -0.96981E+06         0.17714E+07         0.00000E+00
    0.17714E+07        -0.28791E+08         0.00000E+00
    0.00000E+00         0.00000E+00         0.00000E+00
 
   -0.79032E+06         0.18910E+07         0.00000E+00
    0.18910E+07        -0.28872E+08         0.00000E+00
    0.00000E+00         0.00000E+00         0.00000E+00
 
   -0.61166E+06         0.20161E+07         0.00000E+00
    0.20161E+07        -0.28953E+08         0.00000E+00
    0.00000E+00         0.00000E+00         0.00000E+00
 
   -0.43430E+06         0.21468E+07         0.00000E+00
    0.21468E+07        -0.29037E+08         0.00000E+00
    0.00000E+00         0.00000E+00         0.00000E+00
 
   -0.25872E+06         0.22833E+07         0.00000E+00
    0.22833E+07        -0.29121E+08         0.00000E+00
    0.00000E+00         0.00000E+00         0.00000E+00
 
   -0.85720E+05         0.24259E+07         0.00000E+00
    0.24259E+07        -0.29206E+08         0.00000E+00
    0.00000E+00         0.00000E+00         0.00000E+00
 
   -0.96838E+07        -0.61059E+05         0.00000E+00
   -0.61059E+05        -0.28169E+08         0.00000E+00
    0.00000E+00         0.00000E+00         0.00000E+00
 
   -0.94601E+07        -0.14500E+06         0.00000E+00
   -0.14500E+06        -0.28173E+08         0.00000E+00
    0.00000E+00         0.00000E+00         0.00000E+00
 
   -0.92318E+07        -0.21550E+06         0.00000E+00
   -0.21550E+06        -0.28180E+08         0.00000E+00
    0.00000E+00         0.00000E+00         0.00000E+00
 
   -0.90005E+07        -0.27171E+06         0.00000E+00
   -0.27171E+06        -0.28188E+08         0.00000E+00
    0.00000E+00         0.00000E+00         0.00000E+00
 
   -0.87688E+07        -0.31431E+06         0.00000E+00
   -0.31431E+06        -0.28195E+08         0.00000E+00
    0.00000E+00         0.00000E+00         0.00000E+00
 
   -0.85387E+07        -0.34465E+06         0.00000E+00
   -0.34465E+06        -0.28202E+08         0.00000E+00
    0.00000E+00         0.00000E+00         0.00000E+00
 
   -0.83118E+07        -0.36425E+06         0.00000E+00
   -0.36425E+06        -0.28206E+08         0.00000E+00
    0.00000E+00         0.00000E+00         0.00000E+00
 
   -0.80891E+07        -0.37463E+06         0.00000E+00
   -0.37463E+06        -0.28209E+08         0.00000E+00
    0.00000E+00         0.00000E+00         0.00000E+00
 
   -0.78710E+07        -0.37714E+06         0.00000E+00
   -0.37714E+06        -0.28211E+08         0.00000E+00
    0.00000E+00         0.00000E+00         0.00000E+00
 
   -0.76579E+07        -0.37298E+06         0.00000E+00
   -0.37298E+06        -0.28211E+08         0.00000E+00
    0.00000E+00         0.00000E+00         0.00000E+00
 
   -0.74497E+07        -0.36317E+06         0.00000E+00
   -0.36317E+06        -0.28209E+08         0.00000E+00
    0.00000E+00         0.00000E+00         0.00000E+00
 
   -0.72463E+07        -0.34857E+06         0.00000E+00
   -0.34857E+06        -0.28208E+08         0.00000E+00
    0.00000E+00         0.00000E+00         0.00000E+00
 
   -0.70475E+07        -0.32989E+06         0.00000E+00
   -0.32989E+06        -0.28206E+08         0.00000E+00
    0.00000E+00         0.00000E+00         0.00000E+00
 
   -0.68529E+07        -0.30773E+06         0.00000E+00
   -0.30773E+06        -0.28203E+08         0.00000E+00
    0.00000E+00         0.00000E+00         0.00000E+00
 
   -0.66622E+07        -0.28256E+06         0.00000E+00
   -0.28256E+06        -0.28201E+08         0.00000E+00
    0.00000E+00         0.00000E+00         0.00000E+00
 
   -0.64750E+07        -0.25480E+06         0.00000E+00
   -0.25480E+06        -0.28200E+08         0.00000E+00
    0.00000E+00         0.00000E+00         0.00000E+00
 
   -0.62910E+07        -0.22476E+06         0.00000E+00
   -0.22476E+06        -0.28200E+08         0.00000E+00
    0.00000E+00         0.00000E+00         0.00000E+00
 
   -0.61097E+07        -0.19270E+06         0.00000E+00
   -0.19270E+06        -0.28200E+08         0.00000E+00
    0.00000E+00         0.00000E+00         0.00000E+00
 
   -0.59308E+07        -0.15885E+06         0.00000E+00
   -0.15885E+06        -0.28202E+08         0.00000E+00
    0.00000E+00         0.00000E+00         0.00000E+00
 
   -0.57540E+07        -0.12336E+06         0.00000E+00
   -0.12336E+06        -0.28206E+08         0.00000E+00
    0.00000E+00         0.00000E+00         0.00000E+00
 
   -0.55789E+07        -0.86360E+05         0.00000E+00
   -0.86360E+05        -0.28212E+08         0.00000E+00
    0.00000E+00         0.00000E+00         0.00000E+00
 
   -0.54051E+07        -0.47956E+05         0.00000E+00
   -0.47956E+05        -0.28219E+08         0.00000E+00
    0.00000E+00         0.00000E+00         0.00000E+00
 
   -0.52323E+07        -0.82157E+04         0.00000E+00
   -0.82157E+04        -0.28229E+08         0.00000E+00
    0.00000E+00         0.00000E+00         0.00000E+00
 
   -0.50603E+07         0.32816E+05         0.00000E+00
    0.32816E+05        -0.28241E+08         0.00000E+00
    0.00000E+00         0.00000E+00         0.00000E+00
 
   -0.48887E+07         0.75115E+05         0.00000E+00
    0.75115E+05        -0.28255E+08         0.00000E+00
    0.00000E+00         0.00000E+00         0.00000E+00
 
   -0.47172E+07         0.11868E+06         0.00000E+00
    0.11868E+06        -0.28272E+08         0.00000E+00
    0.00000E+00         0.00000E+00         0.00000E+00
 
   -0.45455E+07         0.16352E+06         0.00000E+00
    0.16352E+06        -0.28292E+08         0.00000E+00
    0.00000E+00         0.00000E+00         0.00000E+00
 
   -0.43734E+07         0.20968E+06         0.00000E+00
    0.20968E+06        -0.28315E+08         0.00000E+00
    0.00000E+00         0.00000E+00         0.00000E+00
 
   -0.42006E+07         0.25721E+06         0.00000E+00
    0.25721E+06        -0.28341E+08         0.00000E+00
    0.00000E+00         0.00000E+00         0.00000E+00
 
   -0.40268E+07         0.30617E+06         0.00000E+00
    0.30617E+06        -0.28370E+08         0.00000E+00
    0.00000E+00         0.00000E+00         0.00000E+00
 
   -0.38518E+07         0.35666E+06         0.00000E+00
    0.35666E+06        -0.28402E+08         0.00000E+00
    0.00000E+00         0.00000E+00         0.00000E+00
 
   -0.36753E+07         0.40880E+06         0.00000E+00
    0.40880E+06        -0.28438E+08         0.00000E+00
    0.00000E+00         0.00000E+00         0.00000E+00
 
   -0.34971E+07         0.46271E+06         0.00000E+00
    0.46271E+06        -0.28477E+08         0.00000E+00
    0.00000E+00         0.00000E+00         0.00000E+00
 
   -0.33170E+07         0.51856E+06         0.00000E+00
    0.51856E+06        -0.28520E+08         0.00000E+00
    0.00000E+00         0.00000E+00         0.00000E+00
 
   -0.31347E+07         0.57654E+06         0.00000E+00
    0.57654E+06        -0.28567E+08         0.00000E+00
    0.00000E+00         0.00000E+00         0.00000E+00
 
   -0.29500E+07         0.63685E+06         0.00000E+00
    0.63685E+06        -0.28618E+08         0.00000E+00
    0.00000E+00         0.00000E+00         0.00000E+00
 
   -0.27627E+07         0.69977E+06         0.00000E+00
    0.69977E+06        -0.28673E+08         0.00000E+00
    0.00000E+00         0.00000E+00         0.00000E+00
 
   -0.25726E+07         0.76559E+06         0.00000E+00
    0.76559E+06        -0.28732E+08         0.00000E+00
    0.00000E+00         0.00000E+00         0.00000E+00
 
   -0.23796E+07         0.83464E+06         0.00000E+00
    0.83464E+06        -0.28795E+08         0.00000E+00
    0.00000E+00         0.00000E+00         0.00000E+00
 
   -0.21836E+07         0.90734E+06         0.00000E+00
    0.90734E+06        -0.28863E+08         0.00000E+00
    0.00000E+00         0.00000E+00         0.00000E+00
 
   -0.19844E+07         0.98414E+06         0.00000E+00
    0.98414E+06        -0.28935E+08         0.00000E+00
    0.00000E+00         0.00000E+00         0.00000E+00
 
   -0.17822E+07         0.10656E+07         0.00000E+00
    0.10656E+07        -0.29012E+08         0.00000E+00
    0.00000E+00         0.00000E+00         0.00000E+00
 
   -0.15770E+07         0.11522E+07         0.00000E+00
    0.11522E+07        -0.29093E+08         0.00000E+00
    0.00000E+00         0.00000E+00         0.00000E+00
 
   -0.13691E+07         0.12447E+07         0.00000E+00
    0.12447E+07        -0.29179E+08         0.00000E+00
    0.00000E+00         0.00000E+00         0.00000E+00
 
   -0.11590E+07         0.13438E+07         0.00000E+00
    0.13438E+07        -0.29269E+08         0.00000E+00
    0.00000E+00         0.00000E+00         0.00000E+00
 
   -0.94732E+06         0.14502E+07         0.00000E+00
    0.14502E+07        -0.29363E+08         0.00000E+00
    0.00000E+00         0.00000E+00         0.00000E+00
 
   -0.73498E+06         0.15645E+07         0.00000E+00
    0.15645E+07        -0.29460E+08         0.00000E+00
    0.00000E+00         0.00000E+00         0.00000E+00
 
   -0.52310E+06         0.16873E+07         0.00000E+00
    0.16873E+07        -0.29560E+08         0.00000E+00
    0.00000E+00         0.00000E+00         0.00000E+00
 
   -0.31274E+06         0.18183E+07         0.00000E+00
    0.18183E+07        -0.29662E+08         0.00000E+00
    0.00000E+00         0.00000E+00         0.00000E+00
 
   -0.10403E+06         0.19565E+07         0.00000E+00
    0.19565E+07        -0.29764E+08         0.00000E+00
    0.00000E+00         0.00000E+00         0.00000E+00
 
   -0.10918E+08        -0.83122E+05         0.00000E+00
   -0.83122E+05        -0.28912E+08         0.00000E+00
    0.00000E+00         0.00000E+00         0.00000E+00
 
   -0.10595E+08        -0.17848E+06         0.00000E+00
   -0.17848E+06        -0.28921E+08         0.00000E+00
    0.00000E+00         0.00000E+00         0.00000E+00
 
   -0.10272E+08        -0.24359E+06         0.00000E+00
   -0.24359E+06        -0.28924E+08         0.00000E+00
    0.00000E+00         0.00000E+00         0.00000E+00
 
   -0.99588E+07        -0.28654E+06         0.00000E+00
   -0.28654E+06        -0.28920E+08         0.00000E+00
    0.00000E+00         0.00000E+00         0.00000E+00
 
   -0.96585E+07        -0.31323E+06         0.00000E+00
   -0.31323E+06        -0.28910E+08         0.00000E+00
    0.00000E+00         0.00000E+00         0.00000E+00
 
   -0.93719E+07        -0.32790E+06         0.00000E+00
   -0.32790E+06        -0.28895E+08         0.00000E+00
    0.00000E+00         0.00000E+00         0.00000E+00
 
   -0.90989E+07        -0.33362E+06         0.00000E+00
   -0.33362E+06        -0.28877E+08         0.00000E+00
    0.00000E+00         0.00000E+00         0.00000E+00
 
   -0.88386E+07        -0.33260E+06         0.00000E+00
   -0.33260E+06        -0.28855E+08         0.00000E+00
    0.00000E+00         0.00000E+00         0.00000E+00
 
   -0.85899E+07        -0.32646E+06         0.00000E+00
   -0.32646E+06        -0.28832E+08         0.00000E+00
    0.00000E+00         0.00000E+00         0.00000E+00
 
   -0.83517E+07        -0.31637E+06         0.00000E+00
   -0.31637E+06        -0.28808E+08         0.00000E+00
    0.00000E+00         0.00000E+00         0.00000E+00
 
   -0.81229E+07        -0.30320E+06         0.00000E+00
   -0.30320E+06        -0.28783E+08         0.00000E+00
    0.00000E+00         0.00000E+00         0.00000E+00
 
   -0.79024E+07        -0.28760E+06         0.00000E+00
   -0.28760E+06        -0.28758E+08         0.00000E+00
    0.00000E+00         0.00000E+00         0.00000E+00
 
   -0.76893E+07        -0.27005E+06         0.00000E+00
   -0.27005E+06        -0.28735E+08         0.00000E+00
    0.00000E+00         0.00000E+00         0.00000E+00
 
   -0.74827E+07        -0.25092E+06         0.00000E+00
   -0.25092E+06        -0.28712E+08         0.00000E+00
    0.00000E+00         0.00000E+00         0.00000E+00
 
   -0.72817E+07        -0.23048E+06         0.00000E+00
   -0.23048E+06        -0.28691E+08         0.00000E+00
    0.00000E+00         0.00000E+00         0.00000E+00
 
   -0.70858E+07        -0.20895E+06         0.00000E+00
   -0.20895E+06        -0.28672E+08         0.00000E+00
    0.00000E+00         0.00000E+00         0.00000E+00
 
   -0.68941E+07        -0.18648E+06         0.00000E+00
   -0.18648E+06        -0.28654E+08         0.00000E+00
    0.00000E+00         0.00000E+00         0.00000E+00
 
   -0.67060E+07        -0.16320E+06         0.00000E+00
   -0.16320E+06        -0.28639E+08         0.00000E+00
    0.00000E+00         0.00000E+00         0.00000E+00
 
   -0.65211E+07        -0.13919E+06         0.00000E+00
   -0.13919E+06        -0.28626E+08         0.00000E+00
    0.00000E+00         0.00000E+00         0.00000E+00
 
   -0.63387E+07        -0.11451E+06         0.00000E+00
   -0.11451E+06        -0.28616E+08         0.00000E+00
    0.00000E+00         0.00000E+00         0.00000E+00
 
   -0.61585E+07        -0.89207E+05         0.00000E+00
   -0.89207E+05        -0.28609E+08         0.00000E+00
    0.00000E+00         0.00000E+00         0.00000E+00
 
   -0.59798E+07        -0.63313E+05         0.00000E+00
   -0.63313E+05        -0.28604E+08         0.00000E+00
    0.00000E+00         0.00000E+00         0.00000E+00
 
   -0.58024E+07        -0.36839E+05         0.00000E+00
   -0.36839E+05        -0.28603E+08         0.00000E+00
    0.00000E+00         0.00000E+00         0.00000E+00
 
   -0.56257E+07        -0.97838E+04         0.00000E+00
   -0.97838E+04        -0.28604E+08         0.00000E+00
    0.00000E+00         0.00000E+00         0.00000E+00
 
   -0.54495E+07         0.17862E+05         0.00000E+00
    0.17862E+05        -0.28609E+08         0.00000E+00
    0.00000E+00         0.00000E+00         0.00000E+00
 
   -0.52733E+07         0.46120E+05         0.00000E+00
    0.46120E+05        -0.28618E+08         0.00000E+00
    0.00000E+00         0.00000E+00         0.00000E+00
 
   -0.50968E+07         0.75023E+05         0.00000E+00
    0.75023E+05        -0.28629E+08         0.00000E+00
    0.00000E+00         0.00000E+00         0.00000E+00
 
   -0.49196E+07         0.10461E+06         0.00000E+00
    0.10461E+06        -0.28645E+08         0.00000E+00
    0.00000E+00         0.00000E+00         0.00000E+00
 
   -0.47414E+07         0.13494E+06         0.00000E+00
    0.13494E+06        -0.28664E+08         0.00000E+00
    0.00000E+00         0.00000E+00         0.00000E+00
 
   -0.45619E+07         0.16607E+06         0.00000E+00
    0.16607E+06        -0.28686E+08         0.00000E+00
    0.00000E+00         0.00000E+00         0.00000E+00
 
   -0.43806E+07         0.19808E+06         0.00000E+00
    0.19808E+06        -0.28713E+08         0.00000E+00
    0.00000E+00         0.00000E+00         0.00000E+00
 
   -0.41973E+07         0.23107E+06         0.00000E+00
    0.23107E+06        -0.28744E+08         0.00000E+00
    0.00000E+00         0.00000E+00         0.00000E+00
 
   -0.40116E+07         0.26513E+06         0.00000E+00
    0.26513E+06        -0.28779E+08         0.00000E+00
    0.00000E+00         0.00000E+00         0.00000E+00
 
   -0.38232E+07         0.30041E+06         0.00000E+00
    0.30041E+06        -0.28818E+08         0.00000E+00
    0.00000E+00         0.00000E+00         0.00000E+00
 
   -0.36316E+07         0.33706E+06         0.00000E+00
    0.33706E+06        -0.28862E+08         0.00000E+00
    0.00000E+00         0.00000E+00         0.00000E+00
 
   -0.34365E+07         0.37525E+06         0.00000E+00
    0.37525E+06        -0.28911E+08         0.00000E+00
    0.00000E+00         0.00000E+00         0.00000E+00
 
   -0.32374E+07         0.41520E+06         0.00000E+00
    0.41520E+06        -0.28965E+08         0.00000E+00
    0.00000E+00         0.00000E+00         0.00000E+00
 
   -0.30341E+07         0.45719E+06         0.00000E+00
    0.45719E+06        -0.29023E+08         0.00000E+00
    0.00000E+00         0.00000E+00         0.00000E+00
 
   -0.28259E+07         0.50152E+06         0.00000E+00
    0.50152E+06        -0.29087E+08         0.00000E+00
    0.00000E+00         0.00000E+00         0.00000E+00
 
   -0.26124E+07         0.54858E+06         0.00000E+00
    0.54858E+06        -0.29157E+08         0.00000E+00
    0.00000E+00         0.00000E+00         0.00000E+00
 
   -0.23933E+07         0.59885E+06         0.00000E+00
    0.59885E+06        -0.29233E+08         0.00000E+00
    0.00000E+00         0.00000E+00         0.00000E+00
 
   -0.21678E+07         0.65292E+06         0.00000E+00
    0.65292E+06        -0.29314E+08         0.00000E+00
    0.00000E+00         0.00000E+00         0.00000E+00
 
   -0.19357E+07         0.71153E+06         0.00000E+00
    0.71153E+06        -0.29403E+08         0.00000E+00
    0.00000E+00         0.00000E+00         0.00000E+00
 
   -0.16964E+07         0.77563E+06         0.00000E+00
    0.77563E+06        -0.29498E+08         0.00000E+00
    0.00000E+00         0.00000E+00         0.00000E+00
 
   -0.14497E+07         0.84641E+06         0.00000E+00
    0.84641E+06        -0.29600E+08         0.00000E+00
    0.00000E+00         0.00000E+00         0.00000E+00
 
   -0.11953E+07         0.92544E+06         0.00000E+00
    0.92544E+06        -0.29710E+08         0.00000E+00
    0.00000E+00         0.00000E+00         0.00000E+00
 
   -0.93385E+06         0.10147E+07         0.00000E+00
    0.10147E+07        -0.29828E+08         0.00000E+00
    0.00000E+00         0.00000E+00         0.00000E+00
 
   -0.66654E+06         0.11169E+07         0.00000E+00
    0.11169E+07        -0.29953E+08         0.00000E+00
    0.00000E+00         0.00000E+00         0.00000E+00
 
   -0.39659E+06         0.12354E+07         0.00000E+00
    0.12354E+07        -0.30085E+08         0.00000E+00
    0.00000E+00         0.00000E+00         0.00000E+00
 
   -0.13075E+06         0.13744E+07         0.00000E+00
    0.13744E+07        -0.30223E+08         0.00000E+00
    0.00000E+00         0.00000E+00         0.00000E+00
 
   -0.12128E+08        -0.10861E+06         0.00000E+00
   -0.10861E+06        -0.29622E+08         0.00000E+00
    0.00000E+00         0.00000E+00         0.00000E+00
 
   -0.11630E+08        -0.13539E+06         0.00000E+00
   -0.13539E+06        -0.29589E+08         0.00000E+00
    0.00000E+00         0.00000E+00         0.00000E+00
 
   -0.11194E+08        -0.14845E+06         0.00000E+00
   -0.14845E+06        -0.29546E+08         0.00000E+00
    0.00000E+00         0.00000E+00         0.00000E+00
 
   -0.10805E+08        -0.15369E+06         0.00000E+00
   -0.15369E+06        -0.29497E+08         0.00000E+00
    0.00000E+00         0.00000E+00         0.00000E+00
 
   -0.10453E+08        -0.15429E+06         0.00000E+00
   -0.15429E+06        -0.29445E+08         0.00000E+00
    0.00000E+00         0.00000E+00         0.00000E+00
 
   -0.10130E+08        -0.15203E+06         0.00000E+00
   -0.15203E+06        -0.29391E+08         0.00000E+00
    0.00000E+00         0.00000E+00         0.00000E+00
 
   -0.98310E+07        -0.14793E+06         0.00000E+00
   -0.14793E+06        -0.29337E+08         0.00000E+00
    0.00000E+00         0.00000E+00         0.00000E+00
 
   -0.95515E+07        -0.14258E+06         0.00000E+00
   -0.14258E+06        -0.29283E+08         0.00000E+00
    0.00000E+00         0.00000E+00         0.00000E+00
 
   -0.92885E+07        -0.13636E+06         0.00000E+00
   -0.13636E+06        -0.29232E+08         0.00000E+00
    0.00000E+00         0.00000E+00         0.00000E+00
 
   -0.90395E+07        -0.12953E+06         0.00000E+00
   -0.12953E+06        -0.29182E+08         0.00000E+00
    0.00000E+00         0.00000E+00         0.00000E+00
 
   -0.88024E+07        -0.12224E+06         0.00000E+00
   -0.12224E+06        -0.29134E+08         0.00000E+00
    0.00000E+00         0.00000E+00         0.00000E+00
 
   -0.85755E+07        -0.11459E+06         0.00000E+00
   -0.11459E+06        -0.29089E+08         0.00000E+00
    0.00000E+00         0.00000E+00         0.00000E+00
 
   -0.83573E+07        -0.10667E+06         0.00000E+00
   -0.10667E+06        -0.29047E+08         0.00000E+00
    0.00000E+00         0.00000E+00         0.00000E+00
 
   -0.81466E+07        -0.98521E+05         0.00000E+00
   -0.98521E+05        -0.29008E+08         0.00000E+00
    0.00000E+00         0.00000E+00         0.00000E+00
 
   -0.79423E+07        -0.90190E+05         0.00000E+00
   -0.90190E+05        -0.28972E+08         0.00000E+00
    0.00000E+00         0.00000E+00         0.00000E+00
 
   -0.77435E+07        -0.81698E+05         0.00000E+00
   -0.81698E+05        -0.28939E+08         0.00000E+00
    0.00000E+00         0.00000E+00         0.00000E+00
 
   -0.75494E+07        -0.73065E+05         0.00000E+00
   -0.73065E+05        -0.28909E+08         0.00000E+00
    0.00000E+00         0.00000E+00         0.00000E+00
 
   -0.73593E+07        -0.64302E+05         0.00000E+00
   -0.64302E+05        -0.28883E+08         0.00000E+00
    0.00000E+00         0.00000E+00         0.00000E+00
 
   -0.71725E+07        -0.55415E+05         0.00000E+00
   -0.55415E+05        -0.28860E+08         0.00000E+00
    0.00000E+00         0.00000E+00         0.00000E+00
 
   -0.69885E+07        -0.46407E+05         0.00000E+00
   -0.46407E+05        -0.28840E+08         0.00000E+00
    0.00000E+00         0.00000E+00         0.00000E+00
 
   -0.68065E+07        -0.37278E+05         0.00000E+00
   -0.37278E+05        -0.28824E+08         0.00000E+00
    0.00000E+00         0.00000E+00         0.00000E+00
 
   -0.66263E+07        -0.28023E+05         0.00000E+00
   -0.28023E+05        -0.28812E+08         0.00000E+00
    0.00000E+00         0.00000E+00         0.00000E+00
 
   -0.64473E+07        -0.18638E+05         0.00000E+00
   -0.18638E+05        -0.28803E+08         0.00000E+00
    0.00000E+00         0.00000E+00         0.00000E+00
 
   -0.62690E+07        -0.91113E+04         0.00000E+00
   -0.91113E+04        -0.28798E+08         0.00000E+00
    0.00000E+00         0.00000E+00         0.00000E+00
 
   -0.60911E+07         0.56642E+03         0.00000E+00
    0.56642E+03        -0.28797E+08         0.00000E+00
    0.00000E+00         0.00000E+00         0.00000E+00
 
   -0.59131E+07         0.10409E+05         0.00000E+00
    0.10409E+05        -0.28799E+08         0.00000E+00
    0.00000E+00         0.00000E+00         0.00000E+00
 
   -0.57346E+07         0.20434E+05         0.00000E+00
    0.20434E+05        -0.28806E+08         0.00000E+00
    0.00000E+00         0.00000E+00         0.00000E+00
 
   -0.55553E+07         0.30660E+05         0.00000E+00
    0.30660E+05        -0.28817E+08         0.00000E+00
    0.00000E+00         0.00000E+00         0.00000E+00
 
   -0.53748E+07         0.41108E+05         0.00000E+00
    0.41108E+05        -0.28831E+08         0.00000E+00
    0.00000E+00         0.00000E+00         0.00000E+00
 
   -0.51927E+07         0.51806E+05         0.00000E+00
    0.51806E+05        -0.28850E+08         0.00000E+00
    0.00000E+00         0.00000E+00         0.00000E+00
 
   -0.50085E+07         0.62784E+05         0.00000E+00
    0.62784E+05        -0.28873E+08         0.00000E+00
    0.00000E+00         0.00000E+00         0.00000E+00
 
   -0.48220E+07         0.74078E+05         0.00000E+00
    0.74078E+05        -0.28901E+08         0.00000E+00
    0.00000E+00         0.00000E+00         0.00000E+00
 
   -0.46326E+07         0.85728E+05         0.00000E+00
    0.85728E+05        -0.28933E+08         0.00000E+00
    0.00000E+00         0.00000E+00         0.00000E+00
 
   -0.44399E+07         0.97784E+05         0.00000E+00
    0.97784E+05        -0.28970E+08         0.00000E+00
    0.00000E+00         0.00000E+00         0.00000E+00
 
   -0.42435E+07         0.11030E+06         0.00000E+00
    0.11030E+06        -0.29012E+08         0.00000E+00
    0.00000E+00         0.00000E+00         0.00000E+00
 
   -0.40429E+07         0.12336E+06         0.00000E+00
    0.12336E+06        -0.29059E+08         0.00000E+00
    0.00000E+00         0.00000E+00         0.00000E+00
 
   -0.38374E+07         0.13703E+06         0.00000E+00
    0.13703E+06        -0.29111E+08         0.00000E+00
    0.00000E+00         0.00000E+00         0.00000E+00
 
   -0.36266E+07         0.15143E+06         0.00000E+00
    0.15143E+06        -0.29169E+08         0.00000E+00
    0.00000E+00         0.00000E+00         0.00000E+00
 
   -0.34096E+07         0.16667E+06         0.00000E+00
    0.16667E+06        -0.29232E+08         0.00000E+00
    0.00000E+00         0.00000E+00         0.00000E+00
 
   -0.31857E+07         0.18293E+06         0.00000E+00
    0.18293E+06        -0.29302E+08         0.00000E+00
    0.00000E+00         0.00000E+00         0.00000E+00
 
   -0.29540E+07         0.20041E+06         0.00000E+00
    0.20041E+06        -0.29379E+08         0.00000E+00
    0.00000E+00         0.00000E+00         0.00000E+00
 
   -0.27134E+07         0.21937E+06         0.00000E+00
    0.21937E+06        -0.29462E+08         0.00000E+00
    0.00000E+00         0.00000E+00         0.00000E+00
 
   -0.24627E+07         0.24018E+06         0.00000E+00
    0.24018E+06        -0.29554E+08         0.00000E+00
    0.00000E+00         0.00000E+00         0.00000E+00
 
   -0.22002E+07         0.26332E+06         0.00000E+00
    0.26332E+06        -0.29654E+08         0.00000E+00
    0.00000E+00         0.00000E+00         0.00000E+00
 
   -0.19240E+07         0.28946E+06         0.00000E+00
    0.28946E+06        -0.29764E+08         0.00000E+00
    0.00000E+00         0.00000E+00         0.00000E+00
 
   -0.16316E+07         0.31960E+06         0.00000E+00
    0.31960E+06        -0.29885E+08         0.00000E+00
    0.00000E+00         0.00000E+00         0.00000E+00
 
   -0.13199E+07         0.35517E+06         0.00000E+00
    0.35517E+06        -0.30018E+08         0.00000E+00
    0.00000E+00         0.00000E+00         0.00000E+00
 
   -0.98421E+06         0.39842E+06         0.00000E+00
    0.39842E+06        -0.30166E+08         0.00000E+00
    0.00000E+00         0.00000E+00         0.00000E+00
 
   -0.61851E+06         0.45296E+06         0.00000E+00
    0.45296E+06        -0.30332E+08         0.00000E+00
    0.00000E+00         0.00000E+00         0.00000E+00
 
   -0.21361E+06         0.52484E+06         0.00000E+00
    0.52484E+06        -0.30520E+08         0.00000E+00
    0.00000E+00         0.00000E+00         0.00000E+00
 
TENSORS stresstot double 
   -0.61136E+08        -0.76837E+05         0.00000E+00
   -0.76837E+05        -0.50010E+08         0.00000E+00
    0.00000E+00         0.00000E+00        -0.69742E+08
 
   -0.61487E+08        -0.95633E+05         0.00000E+00
   -0.95633E+05        -0.50033E+08         0.00000E+00
    0.00000E+00         0.00000E+00        -0.69742E+08
 
   -0.61794E+08        -0.10472E+06         0.00000E+00
   -0.10472E+06        -0.50063E+08         0.00000E+00
    0.00000E+00         0.00000E+00        -0.69742E+08
 
   -0.62068E+08        -0.10828E+06         0.00000E+00
   -0.10828E+06        -0.50098E+08         0.00000E+00
    0.00000E+00         0.00000E+00        -0.69742E+08
 
   -0.62316E+08        -0.10857E+06         0.00000E+00
   -0.10857E+06        -0.50135E+08         0.00000E+00
    0.00000E+00         0.00000E+00        -0.69742E+08
 
   -0.62544E+08        -0.10684E+06         0.00000E+00
   -0.10684E+06        -0.50172E+08         0.00000E+00
    0.00000E+00         0.00000E+00        -0.69742E+08
 
   -0.62755E+08        -0.10381E+06         0.00000E+00
   -0.10381E+06        -0.50210E+08         0.00000E+00
    0.00000E+00         0.00000E+00        -0.69742E+08
 
   -0.62952E+08        -0.99909E+05         0.00000E+00
   -0.99909E+05        -0.50247E+08         0.00000E+00
    0.00000E+00         0.00000E+00        -0.69742E+08
 
   -0.63137E+08        -0.95405E+05         0.00000E+00
   -0.95405E+05        -0.50284E+08         0.00000E+00
    0.00000E+00         0.00000E+00        -0.69742E+08
 
   -0.63313E+08        -0.90468E+05         0.00000E+00
   -0.90468E+05        -0.50318E+08         0.00000E+00
    0.00000E+00         0.00000E+00        -0.69742E+08
 
   -0.63481E+08        -0.85211E+05         0.00000E+00
   -0.85211E+05        -0.50351E+08         0.00000E+00
    0.00000E+00         0.00000E+00        -0.69742E+08
 
   -0.63641E+08        -0.79711E+05         0.00000E+00
   -0.79711E+05        -0.50382E+08         0.00000E+00
    0.00000E+00         0.00000E+00        -0.69742E+08
 
   -0.63795E+08        -0.74021E+05         0.00000E+00
   -0.74021E+05        -0.50412E+08         0.00000E+00
    0.00000E+00         0.00000E+00        -0.69742E+08
 
   -0.63944E+08        -0.68179E+05         0.00000E+00
   -0.68179E+05        -0.50439E+08         0.00000E+00
    0.00000E+00         0.00000E+00        -0.69741E+08
 
   -0.64089E+08        -0.62209E+05         0.00000E+00
   -0.62209E+05        -0.50464E+08         0.00000E+00
    0.00000E+00         0.00000E+00        -0.69741E+08
 
   -0.64230E+08        -0.56132E+05         0.00000E+00
   -0.56132E+05        -0.50486E+08         0.00000E+00
    0.00000E+00         0.00000E+00        -0.69741E+08
 
   -0.64367E+08        -0.49959E+05         0.00000E+00
   -0.49959E+05        -0.50506E+08         0.00000E+00
    0.00000E+00         0.00000E+00        -0.69741E+08
 
   -0.64502E+08        -0.43698E+05         0.00000E+00
   -0.43698E+05        -0.50524E+08         0.00000E+00
    0.00000E+00         0.00000E+00        -0.69741E+08
 
   -0.64634E+08        -0.37354E+05         0.00000E+00
   -0.37354E+05        -0.50540E+08         0.00000E+00
    0.00000E+00         0.00000E+00        -0.69741E+08
 
   -0.64765E+08        -0.30930E+05         0.00000E+00
   -0.30930E+05        -0.50553E+08         0.00000E+00
    0.00000E+00         0.00000E+00        -0.69741E+08
 
   -0.64894E+08        -0.24423E+05         0.00000E+00
   -0.24423E+05        -0.50563E+08         0.00000E+00
    0.00000E+00         0.00000E+00        -0.69741E+08
 
   -0.65022E+08        -0.17831E+05         0.00000E+00
   -0.17831E+05        -0.50571E+08         0.00000E+00
    0.00000E+00         0.00000E+00        -0.69741E+08
 
   -0.65150E+08        -0.11151E+05         0.00000E+00
   -0.11151E+05        -0.50576E+08         0.00000E+00
    0.00000E+00         0.00000E+00        -0.69741E+08
 
   -0.65276E+08        -0.43754E+04         0.00000E+00
   -0.43754E+04        -0.50579E+08         0.00000E+00
    0.00000E+00         0.00000E+00        -0.69741E+08
 
   -0.65403E+08         0.25036E+04         0.00000E+00
    0.25036E+04        -0.50579E+08         0.00000E+00
    0.00000E+00         0.00000E+00        -0.69741E+08
 
   -0.65530E+08         0.94955E+04         0.00000E+00
    0.94955E+04        -0.50576E+08         0.00000E+00
    0.00000E+00         0.00000E+00        -0.69741E+08
 
   -0.65657E+08         0.16612E+05         0.00000E+00
    0.16612E+05        -0.50570E+08         0.00000E+00
    0.00000E+00         0.00000E+00        -0.69740E+08
 
   -0.65784E+08         0.23867E+05         0.00000E+00
    0.23867E+05        -0.50562E+08         0.00000E+00
    0.00000E+00         0.00000E+00        -0.69740E+08
 
   -0.65913E+08         0.31275E+05         0.00000E+00
    0.31275E+05        -0.50551E+08         0.00000E+00
    0.00000E+00         0.00000E+00        -0.69740E+08
 
   -0.66043E+08         0.38857E+05         0.00000E+00
    0.38857E+05        -0.50536E+08         0.00000E+00
    0.00000E+00         0.00000E+00        -0.69740E+08
 
   -0.66174E+08         0.46632E+05         0.00000E+00
    0.46632E+05        -0.50519E+08         0.00000E+00
    0.00000E+00         0.00000E+00        -0.69740E+08
 
   -0.66307E+08         0.54626E+05         0.00000E+00
    0.54626E+05        -0.50498E+08         0.00000E+00
    0.00000E+00         0.00000E+00        -0.69740E+08
 
   -0.66442E+08         0.62868E+05         0.00000E+00
    0.62868E+05        -0.50475E+08         0.00000E+00
    0.00000E+00         0.00000E+00        -0.69740E+08
 
   -0.66580E+08         0.71393E+05         0.00000E+00
    0.71393E+05        -0.50448E+08         0.00000E+00
    0.00000E+00         0.00000E+00        -0.69740E+08
 
   -0.66720E+08         0.80243E+05         0.00000E+00
    0.80243E+05        -0.50417E+08         0.00000E+00
    0.00000E+00         0.00000E+00        -0.69740E+08
 
   -0.66863E+08         0.89465E+05         0.00000E+00
    0.89465E+05        -0.50383E+08         0.00000E+00
    0.00000E+00         0.00000E+00        -0.69740E+08
 
   -0.67009E+08         0.99120E+05         0.00000E+00
    0.99120E+05        -0.50345E+08         0.00000E+00
    0.00000E+00         0.00000E+00        -0.69740E+08
 
   -0.67160E+08         0.10928E+06         0.00000E+00
    0.10928E+06        -0.50303E+08         0.00000E+00
    0.00000E+00         0.00000E+00        -0.69740E+08
 
   -0.67314E+08         0.12004E+06         0.00000E+00
    0.12004E+06        -0.50257E+08         0.00000E+00
    0.00000E+00         0.00000E+00        -0.69740E+08
 
   -0.67474E+08         0.13151E+06         0.00000E+00
    0.13151E+06        -0.50207E+08         0.00000E+00
    0.00000E+00         0.00000E+00        -0.69740E+08
 
   -0.67639E+08         0.14383E+06         0.00000E+00
    0.14383E+06        -0.50152E+08         0.00000E+00
    0.00000E+00         0.00000E+00        -0.69740E+08
 
   -0.67810E+08         0.15720E+06         0.00000E+00
    0.15720E+06        -0.50092E+08         0.00000E+00
    0.00000E+00         0.00000E+00        -0.69740E+08
 
   -0.67989E+08         0.17186E+06         0.00000E+00
    0.17186E+06        -0.50026E+08         0.00000E+00
    0.00000E+00         0.00000E+00        -0.69740E+08
 
   -0.68176E+08         0.18817E+06         0.00000E+00
    0.18817E+06        -0.49954E+08         0.00000E+00
    0.00000E+00         0.00000E+00        -0.69739E+08
 
   -0.68372E+08         0.20659E+06         0.00000E+00
    0.20659E+06        -0.49876E+08         0.00000E+00
    0.00000E+00         0.00000E+00        -0.69739E+08
 
   -0.68580E+08         0.22782E+06         0.00000E+00
    0.22782E+06        -0.49790E+08         0.00000E+00
    0.00000E+00         0.00000E+00        -0.69739E+08
 
   -0.68802E+08         0.25289E+06         0.00000E+00
    0.25289E+06        -0.49695E+08         0.00000E+00
    0.00000E+00         0.00000E+00        -0.69739E+08
 
   -0.69041E+08         0.28336E+06         0.00000E+00
    0.28336E+06        -0.49589E+08         0.00000E+00
    0.00000E+00         0.00000E+00        -0.69739E+08
 
   -0.69300E+08         0.32180E+06         0.00000E+00
    0.32180E+06        -0.49472E+08         0.00000E+00
    0.00000E+00         0.00000E+00        -0.69739E+08
 
   -0.69588E+08         0.37245E+06         0.00000E+00
    0.37245E+06        -0.49338E+08         0.00000E+00
    0.00000E+00         0.00000E+00        -0.69739E+08
 
   -0.61474E+08        -0.58572E+05         0.00000E+00
   -0.58572E+05        -0.49995E+08         0.00000E+00
    0.00000E+00         0.00000E+00        -0.69225E+08
 
   -0.61701E+08        -0.12563E+06         0.00000E+00
   -0.12563E+06        -0.49988E+08         0.00000E+00
    0.00000E+00         0.00000E+00        -0.69225E+08
 
   -0.61928E+08        -0.17130E+06         0.00000E+00
   -0.17130E+06        -0.49986E+08         0.00000E+00
    0.00000E+00         0.00000E+00        -0.69225E+08
 
   -0.62148E+08        -0.20130E+06         0.00000E+00
   -0.20130E+06        -0.49988E+08         0.00000E+00
    0.00000E+00         0.00000E+00        -0.69225E+08
 
   -0.62360E+08        -0.21981E+06         0.00000E+00
   -0.21981E+06        -0.49995E+08         0.00000E+00
    0.00000E+00         0.00000E+00        -0.69225E+08
 
   -0.62561E+08        -0.22984E+06         0.00000E+00
   -0.22984E+06        -0.50005E+08         0.00000E+00
    0.00000E+00         0.00000E+00        -0.69225E+08
 
   -0.62754E+08        -0.23354E+06         0.00000E+00
   -0.23354E+06        -0.50018E+08         0.00000E+00
    0.00000E+00         0.00000E+00        -0.69225E+08
 
   -0.62937E+08        -0.23250E+06         0.00000E+00
   -0.23250E+06        -0.50032E+08         0.00000E+00
    0.00000E+00         0.00000E+00        -0.69225E+08
 
   -0.63113E+08        -0.22785E+06         0.00000E+00
   -0.22785E+06        -0.50048E+08         0.00000E+00
    0.00000E+00         0.00000E+00        -0.69224E+08
 
   -0.63281E+08        -0.22042E+06         0.00000E+00
   -0.22042E+06        -0.50065E+08         0.00000E+00
    0.00000E+00         0.00000E+00        -0.69224E+08
 
   -0.63442E+08        -0.21083E+06         0.00000E+00
   -0.21083E+06        -0.50082E+08         0.00000E+00
    0.00000E+00         0.00000E+00        -0.69224E+08
 
   -0.63598E+08        -0.19953E+06         0.00000E+00
   -0.19953E+06        -0.50098E+08         0.00000E+00
    0.00000E+00         0.00000E+00        -0.69224E+08
 
   -0.63748E+08        -0.18687E+06         0.00000E+00
   -0.18687E+06        -0.50114E+08         0.00000E+00
    0.00000E+00         0.00000E+00        -0.69224E+08
 
   -0.63894E+08        -0.17310E+06         0.00000E+00
   -0.17310E+06        -0.50129E+08         0.00000E+00
    0.00000E+00         0.00000E+00        -0.69223E+08
 
   -0.64036E+08        -0.15843E+06         0.00000E+00
   -0.15843E+06        -0.50143E+08         0.00000E+00
    0.00000E+00         0.00000E+00        -0.69223E+08
 
   -0.64175E+08        -0.14299E+06         0.00000E+00
   -0.14299E+06        -0.50156E+08         0.00000E+00
    0.00000E+00         0.00000E+00        -0.69223E+08
 
   -0.64311E+08        -0.12690E+06         0.00000E+00
   -0.12690E+06        -0.50168E+08         0.00000E+00
    0.00000E+00         0.00000E+00        -0.69223E+08
 
   -0.64444E+08        -0.11025E+06         0.00000E+00
   -0.11025E+06        -0.50177E+08         0.00000E+00
    0.00000E+00         0.00000E+00        -0.69223E+08
 
   -0.64575E+08        -0.93088E+05         0.00000E+00
   -0.93088E+05        -0.50186E+08         0.00000E+00
    0.00000E+00         0.00000E+00        -0.69222E+08
 
   -0.64704E+08        -0.75472E+05         0.00000E+00
   -0.75472E+05        -0.50192E+08         0.00000E+00
    0.00000E+00         0.00000E+00        -0.69222E+08
 
   -0.64832E+08        -0.57428E+05         0.00000E+00
   -0.57428E+05        -0.50196E+08         0.00000E+00
    0.00000E+00         0.00000E+00        -0.69222E+08
 
   -0.64959E+08        -0.38976E+05         0.00000E+00
   -0.38976E+05        -0.50198E+08         0.00000E+00
    0.00000E+00         0.00000E+00        -0.69222E+08
 
   -0.65085E+08        -0.20125E+05         0.00000E+00
   -0.20125E+05        -0.50198E+08         0.00000E+00
    0.00000E+00         0.00000E+00        -0.69222E+08
 
   -0.65211E+08        -0.87384E+03         0.00000E+00
   -0.87384E+03        -0.50196E+08         0.00000E+00
    0.00000E+00         0.00000E+00        -0.69221E+08
 
   -0.65336E+08         0.18784E+05         0.00000E+00
    0.18784E+05        -0.50191E+08         0.00000E+00
    0.00000E+00         0.00000E+00        -0.69221E+08
 
   -0.65461E+08         0.38863E+05         0.00000E+00
    0.38863E+05        -0.50185E+08         0.00000E+00
    0.00000E+00         0.00000E+00        -0.69221E+08
 
   -0.65587E+08         0.59387E+05         0.00000E+00
    0.59387E+05        -0.50175E+08         0.00000E+00
    0.00000E+00         0.00000E+00        -0.69221E+08
 
   -0.65713E+08         0.80385E+05         0.00000E+00
    0.80385E+05        -0.50163E+08         0.00000E+00
    0.00000E+00         0.00000E+00        -0.69221E+08
 
   -0.65840E+08         0.10189E+06         0.00000E+00
    0.10189E+06        -0.50149E+08         0.00000E+00
    0.00000E+00         0.00000E+00        -0.69220E+08
 
   -0.65968E+08         0.12396E+06         0.00000E+00
    0.12396E+06        -0.50131E+08         0.00000E+00
    0.00000E+00         0.00000E+00        -0.69220E+08
 
   -0.66097E+08         0.14664E+06         0.00000E+00
    0.14664E+06        -0.50111E+08         0.00000E+00
    0.00000E+00         0.00000E+00        -0.69220E+08
 
   -0.66227E+08         0.16999E+06         0.00000E+00
    0.16999E+06        -0.50089E+08         0.00000E+00
    0.00000E+00         0.00000E+00        -0.69220E+08
 
   -0.66360E+08         0.19410E+06         0.00000E+00
    0.19410E+06        -0.50063E+08         0.00000E+00
    0.00000E+00         0.00000E+00        -0.69220E+08
 
   -0.66494E+08         0.21905E+06         0.00000E+00
    0.21905E+06        -0.50034E+08         0.00000E+00
    0.00000E+00         0.00000E+00        -0.69220E+08
 
   -0.66631E+08         0.24496E+06         0.00000E+00
    0.24496E+06        -0.50002E+08         0.00000E+00
    0.00000E+00         0.00000E+00        -0.69219E+08
 
   -0.66770E+08         0.27195E+06         0.00000E+00
    0.27195E+06        -0.49966E+08         0.00000E+00
    0.00000E+00         0.00000E+00        -0.69219E+08
 
   -0.66912E+08         0.30017E+06         0.00000E+00
    0.30017E+06        -0.49927E+08         0.00000E+00
    0.00000E+00         0.00000E+00        -0.69219E+08
 
   -0.67057E+08         0.32981E+06         0.00000E+00
    0.32981E+06        -0.49885E+08         0.00000E+00
    0.00000E+00         0.00000E+00        -0.69219E+08
 
   -0.67205E+08         0.36110E+06         0.00000E+00
    0.36110E+06        -0.49838E+08         0.00000E+00
    0.00000E+00         0.00000E+00        -0.69219E+08
 
   -0.67357E+08         0.39430E+06         0.00000E+00
    0.39430E+06        -0.49788E+08         0.00000E+00
    0.00000E+00         0.00000E+00        -0.69219E+08
 
   -0.67513E+08         0.42975E+06         0.00000E+00
    0.42975E+06        -0.49734E+08         0.00000E+00
    0.00000E+00         0.00000E+00        -0.69219E+08
 
   -0.67674E+08         0.46788E+06         0.00000E+00
    0.46788E+06        -0.49675E+08         0.00000E+00
    0.00000E+00         0.00000E+00        -0.69219E+08
 
   -0.67839E+08         0.50920E+06         0.00000E+00
    0.50920E+06        -0.49611E+08         0.00000E+00
    0.00000E+00         0.00000E+00        -0.69218E+08
 
   -0.68010E+08         0.55437E+06         0.00000E+00
    0.55437E+06        -0.49543E+08         0.00000E+00
    0.00000E+00         0.00000E+00        -0.69218E+08
 
   -0.68186E+08         0.60426E+06         0.00000E+00
    0.60426E+06        -0.49470E+08         0.00000E+00
    0.00000E+00         0.00000E+00        -0.69218E+08
 
   -0.68367E+08         0.65994E+06         0.00000E+00
    0.65994E+06        -0.49391E+08         0.00000E+00
    0.00000E+00         0.00000E+00        -0.69218E+08
 
   -0.68553E+08         0.72285E+06         0.00000E+00
    0.72285E+06        -0.49307E+08         0.00000E+00
    0.00000E+00         0.00000E+00        -0.69218E+08
 
   -0.68743E+08         0.79484E+06         0.00000E+00
    0.79484E+06        -0.49218E+08         0.00000E+00
    0.00000E+00         0.00000E+00        -0.69218E+08
 
   -0.68936E+08         0.87831E+06         0.00000E+00
    0.87831E+06        -0.49124E+08         0.00000E+00
    0.00000E+00         0.00000E+00        -0.69218E+08
 
   -0.69125E+08         0.97629E+06         0.00000E+00
    0.97629E+06        -0.49026E+08         0.00000E+00
    0.00000E+00         0.00000E+00        -0.69218E+08
 
   -0.61823E+08        -0.42788E+05         0.00000E+00
   -0.42788E+05        -0.50000E+08         0.00000E+00
    0.00000E+00         0.00000E+00        -0.68706E+08
 
   -0.61980E+08        -0.10149E+06         0.00000E+00
   -0.10149E+06        -0.49997E+08         0.00000E+00
    0.00000E+00         0.00000E+00        -0.68706E+08
 
   -0.62140E+08        -0.15071E+06         0.00000E+00
   -0.15071E+06        -0.49992E+08         0.00000E+00
    0.00000E+00         0.00000E+00        -0.68706E+08
 
   -0.62303E+08        -0.18985E+06         0.00000E+00
   -0.18985E+06        -0.49986E+08         0.00000E+00
    0.00000E+00         0.00000E+00        -0.68706E+08
 
   -0.62466E+08        -0.21940E+06         0.00000E+00
   -0.21940E+06        -0.49980E+08         0.00000E+00
    0.00000E+00         0.00000E+00        -0.68706E+08
 
   -0.62628E+08        -0.24030E+06         0.00000E+00
   -0.24030E+06        -0.49975E+08         0.00000E+00
    0.00000E+00         0.00000E+00        -0.68705E+08
 
   -0.62788E+08        -0.25364E+06         0.00000E+00
   -0.25364E+06        -0.49971E+08         0.00000E+00
    0.00000E+00         0.00000E+00        -0.68705E+08
 
   -0.62945E+08        -0.26047E+06         0.00000E+00
   -0.26047E+06        -0.49969E+08         0.00000E+00
    0.00000E+00         0.00000E+00        -0.68705E+08
 
   -0.63098E+08        -0.26176E+06         0.00000E+00
   -0.26176E+06        -0.49967E+08         0.00000E+00
    0.00000E+00         0.00000E+00        -0.68705E+08
 
   -0.63249E+08        -0.25835E+06         0.00000E+00
   -0.25835E+06        -0.49966E+08         0.00000E+00
    0.00000E+00         0.00000E+00        -0.68705E+08
 
   -0.63396E+08        -0.25097E+06         0.00000E+00
   -0.25097E+06        -0.49966E+08         0.00000E+00
    0.00000E+00         0.00000E+00        -0.68704E+08
 
   -0.63539E+08        -0.24022E+06         0.00000E+00
   -0.24022E+06        -0.49967E+08         0.00000E+00
    0.00000E+00         0.00000E+00        -0.68704E+08
 
   -0.63680E+08        -0.22661E+06         0.00000E+00
   -0.22661E+06        -0.49968E+08         0.00000E+00
    0.00000E+00         0.00000E+00        -0.68704E+08
 
   -0.63817E+08        -0.21055E+06         0.00000E+00
   -0.21055E+06        -0.49968E+08         0.00000E+00
    0.00000E+00         0.00000E+00        -0.68704E+08
 
   -0.63952E+08        -0.19240E+06         0.00000E+00
   -0.19240E+06        -0.49969E+08         0.00000E+00
    0.00000E+00         0.00000E+00        -0.68703E+08
 
   -0.64084E+08        -0.17242E+06         0.00000E+00
   -0.17242E+06        -0.49969E+08         0.00000E+00
    0.00000E+00         0.00000E+00        -0.68703E+08
 
   -0.64215E+08        -0.15085E+06         0.00000E+00
   -0.15085E+06        -0.49968E+08         0.00000E+00
    0.00000E+00         0.00000E+00        -0.68703E+08
 
   -0.64343E+08        -0.12787E+06         0.00000E+00
   -0.12787E+06        -0.49967E+08         0.00000E+00
    0.00000E+00         0.00000E+00        -0.68703E+08
 
   -0.64470E+08        -0.10364E+06         0.00000E+00
   -0.10364E+06        -0.49964E+08         0.00000E+00
    0.00000E+00         0.00000E+00        -0.68702E+08
 
   -0.64595E+08        -0.78273E+05         0.00000E+00
   -0.78273E+05        -0.49960E+08         0.00000E+00
    0.00000E+00         0.00000E+00        -0.68702E+08
 
   -0.64719E+08        -0.51857E+05         0.00000E+00
   -0.51857E+05        -0.49955E+08         0.00000E+00
    0.00000E+00         0.00000E+00        -0.68702E+08
 
   -0.64843E+08        -0.24464E+05         0.00000E+00
   -0.24464E+05        -0.49949E+08         0.00000E+00
    0.00000E+00         0.00000E+00        -0.68702E+08
 
   -0.64966E+08         0.38570E+04         0.00000E+00
    0.38570E+04        -0.49941E+08         0.00000E+00
    0.00000E+00         0.00000E+00        -0.68701E+08
 
   -0.65088E+08         0.33074E+05         0.00000E+00
    0.33074E+05        -0.49932E+08         0.00000E+00
    0.00000E+00         0.00000E+00        -0.68701E+08
 
   -0.65210E+08         0.63169E+05         0.00000E+00
    0.63169E+05        -0.49920E+08         0.00000E+00
    0.00000E+00         0.00000E+00        -0.68701E+08
 
   -0.65332E+08         0.94141E+05         0.00000E+00
    0.94141E+05        -0.49907E+08         0.00000E+00
    0.00000E+00         0.00000E+00        -0.68700E+08
 
   -0.65454E+08         0.12600E+06         0.00000E+00
    0.12600E+06        -0.49892E+08         0.00000E+00
    0.00000E+00         0.00000E+00        -0.68700E+08
 
   -0.65576E+08         0.15877E+06         0.00000E+00
    0.15877E+06        -0.49875E+08         0.00000E+00
    0.00000E+00         0.00000E+00        -0.68700E+08
 
   -0.65699E+08         0.19249E+06         0.00000E+00
    0.19249E+06        -0.49855E+08         0.00000E+00
    0.00000E+00         0.00000E+00        -0.68700E+08
 
   -0.65823E+08         0.22721E+06         0.00000E+00
    0.22721E+06        -0.49834E+08         0.00000E+00
    0.00000E+00         0.00000E+00        -0.68700E+08
 
   -0.65948E+08         0.26300E+06         0.00000E+00
    0.26300E+06        -0.49810E+08         0.00000E+00
    0.00000E+00         0.00000E+00        -0.68699E+08
 
   -0.66074E+08         0.29993E+06         0.00000E+00
    0.29993E+06        -0.49783E+08         0.00000E+00
    0.00000E+00         0.00000E+00        -0.68699E+08
 
   -0.66201E+08         0.33809E+06         0.00000E+00
    0.33809E+06        -0.49754E+08         0.00000E+00
    0.00000E+00         0.00000E+00        -0.68699E+08
 
   -0.66329E+08         0.37761E+06         0.00000E+00
    0.37761E+06        -0.49723E+08         0.00000E+00
    0.00000E+00         0.00000E+00        -0.68699E+08
 
   -0.66459E+08         0.41861E+06         0.00000E+00
    0.41861E+06        -0.49688E+08         0.00000E+00
    0.00000E+00         0.00000E+00        -0.68698E+08
 
   -0.66591E+08         0.46124E+06         0.00000E+00
    0.46124E+06        -0.49651E+08         0.00000E+00
    0.00000E+00         0.00000E+00        -0.68698E+08
 
   -0.66725E+08         0.50569E+06         0.00000E+00
    0.50569E+06        -0.49611E+08         0.00000E+00
    0.00000E+00         0.00000E+00        -0.68698E+08
 
   -0.66860E+08         0.55218E+06         0.00000E+00
    0.55218E+06        -0.49569E+08         0.00000E+00
    0.00000E+00         0.00000E+00        -0.68698E+08
 
   -0.66998E+08         0.60093E+06         0.00000E+00
    0.60093E+06        -0.49523E+08         0.00000E+00
    0.00000E+00         0.00000E+00        -0.68698E+08
 
   -0.67138E+08         0.65223E+06         0.00000E+00
    0.65223E+06        -0.49474E+08         0.00000E+00
    0.00000E+00         0.00000E+00        -0.68698E+08
 
   -0.67280E+08         0.70641E+06         0.00000E+00
    0.70641E+06        -0.49421E+08         0.00000E+00
    0.00000E+00         0.00000E+00        -0.68697E+08
 
   -0.67424E+08         0.76383E+06         0.00000E+00
    0.76383E+06        -0.49366E+08         0.00000E+00
    0.00000E+00         0.00000E+00        -0.68697E+08
 
   -0.67571E+08         0.82492E+06         0.00000E+00
    0.82492E+06        -0.49308E+08         0.00000E+00
    0.00000E+00         0.00000E+00        -0.68697E+08
 
   -0.67719E+08         0.89013E+06         0.00000E+00
    0.89013E+06        -0.49246E+08         0.00000E+00
    0.00000E+00         0.00000E+00        -0.68697E+08
 
   -0.67869E+08         0.95996E+06         0.00000E+00
    0.95996E+06        -0.49181E+08         0.00000E+00
    0.00000E+00         0.00000E+00        -0.68697E+08
 
   -0.68020E+08         0.10349E+07         0.00000E+00
    0.10349E+07        -0.49114E+08         0.00000E+00
    0.00000E+00         0.00000E+00        -0.68697E+08
 
   -0.68172E+08         0.11155E+07         0.00000E+00
    0.11155E+07        -0.49044E+08         0.00000E+00
    0.00000E+00         0.00000E+00        -0.68697E+08
 
   -0.68323E+08         0.12019E+07         0.00000E+00
    0.12019E+07        -0.48972E+08         0.00000E+00
    0.00000E+00         0.00000E+00        -0.68697E+08
 
   -0.68473E+08         0.12942E+07         0.00000E+00
    0.12942E+07        -0.48900E+08         0.00000E+00
    0.00000E+00         0.00000E+00        -0.68697E+08
 
   -0.68622E+08         0.13916E+07         0.00000E+00
    0.13916E+07        -0.48827E+08         0.00000E+00
    0.00000E+00         0.00000E+00        -0.68697E+08
 
   -0.62111E+08        -0.33975E+05         0.00000E+00
   -0.33975E+05        -0.49999E+08         0.00000E+00
    0.00000E+00         0.00000E+00        -0.68185E+08
 
   -0.62226E+08        -0.81873E+05         0.00000E+00
   -0.81873E+05        -0.49996E+08         0.00000E+00
    0.00000E+00         0.00000E+00        -0.68185E+08
 
   -0.62345E+08        -0.12256E+06         0.00000E+00
   -0.12256E+06        -0.49991E+08         0.00000E+00
    0.00000E+00         0.00000E+00        -0.68185E+08
 
   -0.62467E+08        -0.15640E+06         0.00000E+00
   -0.15640E+06        -0.49985E+08         0.00000E+00
    0.00000E+00         0.00000E+00        -0.68185E+08
 
   -0.62591E+08        -0.18358E+06         0.00000E+00
   -0.18358E+06        -0.49977E+08         0.00000E+00
    0.00000E+00         0.00000E+00        -0.68185E+08
 
   -0.62718E+08        -0.20432E+06         0.00000E+00
   -0.20432E+06        -0.49968E+08         0.00000E+00
    0.00000E+00         0.00000E+00        -0.68185E+08
 
   -0.62845E+08        -0.21893E+06         0.00000E+00
   -0.21893E+06        -0.49959E+08         0.00000E+00
    0.00000E+00         0.00000E+00        -0.68184E+08
 
   -0.62973E+08        -0.22779E+06         0.00000E+00
   -0.22779E+06        -0.49949E+08         0.00000E+00
    0.00000E+00         0.00000E+00        -0.68184E+08
 
   -0.63101E+08        -0.23135E+06         0.00000E+00
   -0.23135E+06        -0.49939E+08         0.00000E+00
    0.00000E+00         0.00000E+00        -0.68184E+08
 
   -0.63229E+08        -0.23006E+06         0.00000E+00
   -0.23006E+06        -0.49929E+08         0.00000E+00
    0.00000E+00         0.00000E+00        -0.68184E+08
 
   -0.63356E+08        -0.22436E+06         0.00000E+00
   -0.22436E+06        -0.49920E+08         0.00000E+00
    0.00000E+00         0.00000E+00        -0.68184E+08
 
   -0.63482E+08        -0.21468E+06         0.00000E+00
   -0.21468E+06        -0.49910E+08         0.00000E+00
    0.00000E+00         0.00000E+00        -0.68183E+08
 
   -0.63607E+08        -0.20141E+06         0.00000E+00
   -0.20141E+06        -0.49900E+08         0.00000E+00
    0.00000E+00         0.00000E+00        -0.68183E+08
 
   -0.63731E+08        -0.18493E+06         0.00000E+00
   -0.18493E+06        -0.49890E+08         0.00000E+00
    0.00000E+00         0.00000E+00        -0.68183E+08
 
   -0.63854E+08        -0.16554E+06         0.00000E+00
   -0.16554E+06        -0.49880E+08         0.00000E+00
    0.00000E+00         0.00000E+00        -0.68183E+08
 
   -0.63975E+08        -0.14353E+06         0.00000E+00
   -0.14353E+06        -0.49869E+08         0.00000E+00
    0.00000E+00         0.00000E+00        -0.68182E+08
 
   -0.64096E+08        -0.11915E+06         0.00000E+00
   -0.11915E+06        -0.49858E+08         0.00000E+00
    0.00000E+00         0.00000E+00        -0.68182E+08
 
   -0.64216E+08        -0.92615E+05         0.00000E+00
   -0.92615E+05        -0.49847E+08         0.00000E+00
    0.00000E+00         0.00000E+00        -0.68182E+08
 
   -0.64335E+08        -0.64104E+05         0.00000E+00
   -0.64104E+05        -0.49835E+08         0.00000E+00
    0.00000E+00         0.00000E+00        -0.68181E+08
 
   -0.64453E+08        -0.33773E+05         0.00000E+00
   -0.33773E+05        -0.49822E+08         0.00000E+00
    0.00000E+00         0.00000E+00        -0.68181E+08
 
   -0.64571E+08        -0.17493E+04         0.00000E+00
   -0.17493E+04        -0.49808E+08         0.00000E+00
    0.00000E+00         0.00000E+00        -0.68181E+08
 
   -0.64688E+08         0.31864E+05         0.00000E+00
    0.31864E+05        -0.49794E+08         0.00000E+00
    0.00000E+00         0.00000E+00        -0.68181E+08
 
   -0.64804E+08         0.66986E+05         0.00000E+00
    0.66986E+05        -0.49778E+08         0.00000E+00
    0.00000E+00         0.00000E+00        -0.68180E+08
 
   -0.64921E+08         0.10355E+06         0.00000E+00
    0.10355E+06        -0.49761E+08         0.00000E+00
    0.00000E+00         0.00000E+00        -0.68180E+08
 
   -0.65037E+08         0.14152E+06         0.00000E+00
    0.14152E+06        -0.49743E+08         0.00000E+00
    0.00000E+00         0.00000E+00        -0.68180E+08
 
   -0.65153E+08         0.18087E+06         0.00000E+00
    0.18087E+06        -0.49723E+08         0.00000E+00
    0.00000E+00         0.00000E+00        -0.68180E+08
 
   -0.65270E+08         0.22158E+06         0.00000E+00
    0.22158E+06        -0.49702E+08         0.00000E+00
    0.00000E+00         0.00000E+00        -0.68179E+08
 
   -0.65386E+08         0.26366E+06         0.00000E+00
    0.26366E+06        -0.49679E+08         0.00000E+00
    0.00000E+00         0.00000E+00        -0.68179E+08
 
   -0.65503E+08         0.30714E+06         0.00000E+00
    0.30714E+06        -0.49655E+08         0.00000E+00
    0.00000E+00         0.00000E+00        -0.68179E+08
 
   -0.65621E+08         0.35204E+06         0.00000E+00
    0.35204E+06        -0.49629E+08         0.00000E+00
    0.00000E+00         0.00000E+00        -0.68179E+08
 
   -0.65739E+08         0.39842E+06         0.00000E+00
    0.39842E+06        -0.49601E+08         0.00000E+00
    0.00000E+00         0.00000E+00        -0.68178E+08
 
   -0.65858E+08         0.44634E+06         0.00000E+00
    0.44634E+06        -0.49571E+08         0.00000E+00
    0.00000E+00         0.00000E+00        -0.68178E+08
 
   -0.65977E+08         0.49589E+06         0.00000E+00
    0.49589E+06        -0.49539E+08         0.00000E+00
    0.00000E+00         0.00000E+00        -0.68178E+08
 
   -0.66097E+08         0.54715E+06         0.00000E+00
    0.54715E+06        -0.49506E+08         0.00000E+00
    0.00000E+00         0.00000E+00        -0.68178E+08
 
   -0.66219E+08         0.60024E+06         0.00000E+00
    0.60024E+06        -0.49470E+08         0.00000E+00
    0.00000E+00         0.00000E+00        -0.68177E+08
 
   -0.66341E+08         0.65528E+06         0.00000E+00
    0.65528E+06        -0.49432E+08         0.00000E+00
    0.00000E+00         0.00000E+00        -0.68177E+08
 
   -0.66464E+08         0.71241E+06         0.00000E+00
    0.71241E+06        -0.49392E+08         0.00000E+00
    0.00000E+00         0.00000E+00        -0.68177E+08
 
   -0.66589E+08         0.77181E+06         0.00000E+00
    0.77181E+06        -0.49349E+08         0.00000E+00
    0.00000E+00         0.00000E+00        -0.68177E+08
 
   -0.66714E+08         0.83363E+06         0.00000E+00
    0.83363E+06        -0.49305E+08         0.00000E+00
    0.00000E+00         0.00000E+00        -0.68177E+08
 
   -0.66840E+08         0.89806E+06         0.00000E+00
    0.89806E+06        -0.49258E+08         0.00000E+00
    0.00000E+00         0.00000E+00        -0.68176E+08
 
   -0.66967E+08         0.96532E+06         0.00000E+00
    0.96532E+06        -0.49210E+08         0.00000E+00
    0.00000E+00         0.00000E+00        -0.68176E+08
 
   -0.67095E+08         0.10356E+07         0.00000E+00
    0.10356E+07        -0.49159E+08         0.00000E+00
    0.00000E+00         0.00000E+00        -0.68176E+08
 
   -0.67223E+08         0.11091E+07         0.00000E+00
    0.11091E+07        -0.49106E+08         0.00000E+00
    0.00000E+00         0.00000E+00        -0.68176E+08
 
   -0.67352E+08         0.11861E+07         0.00000E+00
    0.11861E+07        -0.49052E+08         0.00000E+00
    0.00000E+00         0.00000E+00        -0.68176E+08
 
   -0.67481E+08         0.12666E+07         0.00000E+00
    0.12666E+07        -0.48995E+08         0.00000E+00
    0.00000E+00         0.00000E+00        -0.68176E+08
 
   -0.67609E+08         0.13509E+07         0.00000E+00
    0.13509E+07        -0.48938E+08         0.00000E+00
    0.00000E+00         0.00000E+00        -0.68176E+08
 
   -0.67737E+08         0.14390E+07         0.00000E+00
    0.14390E+07        -0.48879E+08         0.00000E+00
    0.00000E+00         0.00000E+00        -0.68176E+08
 
   -0.67864E+08         0.15311E+07         0.00000E+00
    0.15311E+07        -0.48819E+08         0.00000E+00
    0.00000E+00         0.00000E+00        -0.68176E+08
 
   -0.67990E+08         0.16272E+07         0.00000E+00
    0.16272E+07        -0.48758E+08         0.00000E+00
    0.00000E+00         0.00000E+00        -0.68176E+08
 
   -0.68114E+08         0.17276E+07         0.00000E+00
    0.17276E+07        -0.48697E+08         0.00000E+00
    0.00000E+00         0.00000E+00        -0.68176E+08
 
   -0.62337E+08        -0.25474E+05         0.00000E+00
   -0.25474E+05        -0.49999E+08         0.00000E+00
    0.00000E+00         0.00000E+00        -0.67663E+08
 
   -0.62421E+08        -0.61755E+05         0.00000E+00
   -0.61755E+05        -0.49996E+08         0.00000E+00
    0.00000E+00         0.00000E+00        -0.67663E+08
 
   -0.62509E+08        -0.92666E+05         0.00000E+00
   -0.92666E+05        -0.49991E+08         0.00000E+00
    0.00000E+00         0.00000E+00        -0.67663E+08
 
   -0.62601E+08        -0.11824E+06         0.00000E+00
   -0.11824E+06        -0.49984E+08         0.00000E+00
    0.00000E+00         0.00000E+00        -0.67663E+08
 
   -0.62697E+08        -0.13859E+06         0.00000E+00
   -0.13859E+06        -0.49976E+08         0.00000E+00
    0.00000E+00         0.00000E+00        -0.67663E+08
 
   -0.62795E+08        -0.15387E+06         0.00000E+00
   -0.15387E+06        -0.49966E+08         0.00000E+00
    0.00000E+00         0.00000E+00        -0.67663E+08
 
   -0.62896E+08        -0.16425E+06         0.00000E+00
   -0.16425E+06        -0.49954E+08         0.00000E+00
    0.00000E+00         0.00000E+00        -0.67663E+08
 
   -0.62999E+08        -0.16992E+06         0.00000E+00
   -0.16992E+06        -0.49942E+08         0.00000E+00
    0.00000E+00         0.00000E+00        -0.67663E+08
 
   -0.63103E+08        -0.17107E+06         0.00000E+00
   -0.17107E+06        -0.49928E+08         0.00000E+00
    0.00000E+00         0.00000E+00        -0.67663E+08
 
   -0.63209E+08        -0.16793E+06         0.00000E+00
   -0.16793E+06        -0.49914E+08         0.00000E+00
    0.00000E+00         0.00000E+00        -0.67662E+08
 
   -0.63315E+08        -0.16073E+06         0.00000E+00
   -0.16073E+06        -0.49900E+08         0.00000E+00
    0.00000E+00         0.00000E+00        -0.67662E+08
 
   -0.63422E+08        -0.14970E+06         0.00000E+00
   -0.14970E+06        -0.49884E+08         0.00000E+00
    0.00000E+00         0.00000E+00        -0.67662E+08
 
   -0.63530E+08        -0.13509E+06         0.00000E+00
   -0.13509E+06        -0.49869E+08         0.00000E+00
    0.00000E+00         0.00000E+00        -0.67662E+08
 
   -0.63638E+08        -0.11712E+06         0.00000E+00
   -0.11712E+06        -0.49852E+08         0.00000E+00
    0.00000E+00         0.00000E+00        -0.67662E+08
 
   -0.63747E+08        -0.96012E+05         0.00000E+00
   -0.96012E+05        -0.49836E+08         0.00000E+00
    0.00000E+00         0.00000E+00        -0.67661E+08
 
   -0.63855E+08        -0.71982E+05         0.00000E+00
   -0.71982E+05        -0.49819E+08         0.00000E+00
    0.00000E+00         0.00000E+00        -0.67661E+08
 
   -0.63963E+08        -0.45217E+05         0.00000E+00
   -0.45217E+05        -0.49801E+08         0.00000E+00
    0.00000E+00         0.00000E+00        -0.67661E+08
 
   -0.64072E+08        -0.15891E+05         0.00000E+00
   -0.15891E+05        -0.49783E+08         0.00000E+00
    0.00000E+00         0.00000E+00        -0.67661E+08
 
   -0.64180E+08         0.15836E+05         0.00000E+00
    0.15836E+05        -0.49764E+08         0.00000E+00
    0.00000E+00         0.00000E+00        -0.67660E+08
 
   -0.64288E+08         0.49826E+05         0.00000E+00
    0.49826E+05        -0.49745E+08         0.00000E+00
    0.00000E+00         0.00000E+00        -0.67660E+08
 
   -0.64396E+08         0.85957E+05         0.00000E+00
    0.85957E+05        -0.49725E+08         0.00000E+00
    0.00000E+00         0.00000E+00        -0.67660E+08
 
   -0.64504E+08         0.12413E+06         0.00000E+00
    0.12413E+06        -0.49704E+08         0.00000E+00
    0.00000E+00         0.00000E+00        -0.67660E+08
 
   -0.64612E+08         0.16424E+06         0.00000E+00
    0.16424E+06        -0.49682E+08         0.00000E+00
    0.00000E+00         0.00000E+00        -0.67659E+08
 
   -0.64720E+08         0.20624E+06         0.00000E+00
    0.20624E+06        -0.49659E+08         0.00000E+00
    0.00000E+00         0.00000E+00        -0.67659E+08
 
   -0.64829E+08         0.25005E+06         0.00000E+00
    0.25005E+06        -0.49636E+08         0.00000E+00
    0.00000E+00         0.00000E+00        -0.67659E+08
 
   -0.64937E+08         0.29565E+06         0.00000E+00
    0.29565E+06        -0.49611E+08         0.00000E+00
    0.00000E+00         0.00000E+00        -0.67659E+08
 
   -0.65045E+08         0.34300E+06         0.00000E+00
    0.34300E+06        -0.49585E+08         0.00000E+00
    0.00000E+00         0.00000E+00        -0.67658E+08
 
   -0.65154E+08         0.39210E+06         0.00000E+00
    0.39210E+06        -0.49558E+08         0.00000E+00
    0.00000E+00         0.00000E+00        -0.67658E+08
 
   -0.65263E+08         0.44293E+06         0.00000E+00
    0.44293E+06        -0.49530E+08         0.00000E+00
    0.00000E+00         0.00000E+00        -0.67658E+08
 
   -0.65373E+08         0.49552E+06         0.00000E+00
    0.49552E+06        -0.49500E+08         0.00000E+00
    0.00000E+00         0.00000E+00        -0.67658E+08
 
   -0.65482E+08         0.54989E+06         0.00000E+00
    0.54989E+06        -0.49469E+08         0.00000E+00
    0.00000E+00         0.00000E+00        -0.67657E+08
 
   -0.65593E+08         0.60607E+06         0.00000E+00
    0.60607E+06        -0.49437E+08         0.00000E+00
    0.00000E+00         0.00000E+00        -0.67657E+08
 
   -0.65703E+08         0.66412E+06         0.00000E+00
    0.66412E+06        -0.49404E+08         0.00000E+00
    0.00000E+00         0.00000E+00        -0.67657E+08
 
   -0.65814E+08         0.72409E+06         0.00000E+00
    0.72409E+06        -0.49368E+08         0.00000E+00
    0.00000E+00         0.00000E+00        -0.67657E+08
 
   -0.65926E+08         0.78604E+06         0.00000E+00
    0.78604E+06        -0.49332E+08         0.00000E+00
    0.00000E+00         0.00000E+00        -0.67656E+08
 
   -0.66038E+08         0.85006E+06         0.00000E+00
    0.85006E+06        -0.49294E+08         0.00000E+00
    0.00000E+00         0.00000E+00        -0.67656E+08
 
   -0.66150E+08         0.91622E+06         0.00000E+00
    0.91622E+06        -0.49254E+08         0.00000E+00
    0.00000E+00         0.00000E+00        -0.67656E+08
 
   -0.66263E+08         0.98462E+06         0.00000E+00
    0.98462E+06        -0.49213E+08         0.00000E+00
    0.00000E+00         0.00000E+00        -0.67656E+08
 
   -0.66376E+08         0.10554E+07         0.00000E+00
    0.10554E+07        -0.49171E+08         0.00000E+00
    0.00000E+00         0.00000E+00        -0.67656E+08
 
   -0.66489E+08         0.11285E+07         0.00000E+00
    0.11285E+07        -0.49127E+08         0.00000E+00
    0.00000E+00         0.00000E+00        -0.67656E+08
 
   -0.66602E+08         0.12042E+07         0.00000E+00
    0.12042E+07        -0.49082E+08         0.00000E+00
    0.00000E+00         0.00000E+00        -0.67655E+08
 
   -0.66715E+08         0.12825E+07         0.00000E+00
    0.12825E+07        -0.49035E+08         0.00000E+00
    0.00000E+00         0.00000E+00        -0.67655E+08
 
   -0.66829E+08         0.13635E+07         0.00000E+00
    0.13635E+07        -0.48988E+08         0.00000E+00
    0.00000E+00         0.00000E+00        -0.67655E+08
 
   -0.66942E+08         0.14473E+07         0.00000E+00
    0.14473E+07        -0.48939E+08         0.00000E+00
    0.00000E+00         0.00000E+00        -0.67655E+08
 
   -0.67054E+08         0.15339E+07         0.00000E+00
    0.15339E+07        -0.48889E+08         0.00000E+00
    0.00000E+00         0.00000E+00        -0.67655E+08
 
   -0.67166E+08         0.16235E+07         0.00000E+00
    0.16235E+07        -0.48838E+08         0.00000E+00
    0.00000E+00         0.00000E+00        -0.67655E+08
 
   -0.67277E+08         0.17159E+07         0.00000E+00
    0.17159E+07        -0.48787E+08         0.00000E+00
    0.00000E+00         0.00000E+00        -0.67655E+08
 
   -0.67387E+08         0.18114E+07         0.00000E+00
    0.18114E+07        -0.48735E+08         0.00000E+00
    0.00000E+00         0.00000E+00        -0.67655E+08
 
   -0.67495E+08         0.19098E+07         0.00000E+00
    0.19098E+07        -0.48682E+08         0.00000E+00
    0.00000E+00         0.00000E+00        -0.67655E+08
 
   -0.67602E+08         0.20110E+07         0.00000E+00
    0.20110E+07        -0.48630E+08         0.00000E+00
    0.00000E+00         0.00000E+00        -0.67655E+08
 
   -0.62501E+08        -0.17810E+05         0.00000E+00
   -0.17810E+05        -0.49999E+08         0.00000E+00
    0.00000E+00         0.00000E+00        -0.67142E+08
 
   -0.62561E+08        -0.42105E+05         0.00000E+00
   -0.42105E+05        -0.49997E+08         0.00000E+00
    0.00000E+00         0.00000E+00        -0.67142E+08
 
   -0.62625E+08        -0.62249E+05         0.00000E+00
   -0.62249E+05        -0.49992E+08         0.00000E+00
    0.00000E+00         0.00000E+00        -0.67142E+08
 
   -0.62694E+08        -0.78257E+05         0.00000E+00
   -0.78257E+05        -0.49985E+08         0.00000E+00
    0.00000E+00         0.00000E+00        -0.67142E+08
 
   -0.62766E+08        -0.90150E+05         0.00000E+00
   -0.90150E+05        -0.49976E+08         0.00000E+00
    0.00000E+00         0.00000E+00        -0.67142E+08
 
   -0.62842E+08        -0.97978E+05         0.00000E+00
   -0.97978E+05        -0.49965E+08         0.00000E+00
    0.00000E+00         0.00000E+00        -0.67142E+08
 
   -0.62921E+08        -0.10181E+06         0.00000E+00
   -0.10181E+06        -0.49953E+08         0.00000E+00
    0.00000E+00         0.00000E+00        -0.67141E+08
 
   -0.63003E+08        -0.10174E+06         0.00000E+00
   -0.10174E+06        -0.49940E+08         0.00000E+00
    0.00000E+00         0.00000E+00        -0.67141E+08
 
   -0.63087E+08        -0.97875E+05         0.00000E+00
   -0.97875E+05        -0.49925E+08         0.00000E+00
    0.00000E+00         0.00000E+00        -0.67141E+08
 
   -0.63173E+08        -0.90320E+05         0.00000E+00
   -0.90320E+05        -0.49909E+08         0.00000E+00
    0.00000E+00         0.00000E+00        -0.67141E+08
 
   -0.63261E+08        -0.79201E+05         0.00000E+00
   -0.79201E+05        -0.49892E+08         0.00000E+00
    0.00000E+00         0.00000E+00        -0.67141E+08
 
   -0.63351E+08        -0.64647E+05         0.00000E+00
   -0.64647E+05        -0.49874E+08         0.00000E+00
    0.00000E+00         0.00000E+00        -0.67141E+08
 
   -0.63442E+08        -0.46793E+05         0.00000E+00
   -0.46793E+05        -0.49856E+08         0.00000E+00
    0.00000E+00         0.00000E+00        -0.67141E+08
 
   -0.63534E+08        -0.25772E+05         0.00000E+00
   -0.25772E+05        -0.49837E+08         0.00000E+00
    0.00000E+00         0.00000E+00        -0.67140E+08
 
   -0.63627E+08        -0.17191E+04         0.00000E+00
   -0.17191E+04        -0.49816E+08         0.00000E+00
    0.00000E+00         0.00000E+00        -0.67140E+08
 
   -0.63721E+08         0.25234E+05         0.00000E+00
    0.25234E+05        -0.49796E+08         0.00000E+00
    0.00000E+00         0.00000E+00        -0.67140E+08
 
   -0.63816E+08         0.54961E+05         0.00000E+00
    0.54961E+05        -0.49774E+08         0.00000E+00
    0.00000E+00         0.00000E+00        -0.67140E+08
 
   -0.63912E+08         0.87342E+05         0.00000E+00
    0.87342E+05        -0.49752E+08         0.00000E+00
    0.00000E+00         0.00000E+00        -0.67140E+08
 
   -0.64008E+08         0.12226E+06         0.00000E+00
    0.12226E+06        -0.49730E+08         0.00000E+00
    0.00000E+00         0.00000E+00        -0.67139E+08
 
   -0.64104E+08         0.15962E+06         0.00000E+00
    0.15962E+06        -0.49706E+08         0.00000E+00
    0.00000E+00         0.00000E+00        -0.67139E+08
 
   -0.64201E+08         0.19933E+06         0.00000E+00
    0.19933E+06        -0.49682E+08         0.00000E+00
    0.00000E+00         0.00000E+00        -0.67139E+08
 
   -0.64299E+08         0.24128E+06         0.00000E+00
    0.24128E+06        -0.49657E+08         0.00000E+00
    0.00000E+00         0.00000E+00        -0.67139E+08
 
   -0.64397E+08         0.28543E+06         0.00000E+00
    0.28543E+06        -0.49632E+08         0.00000E+00
    0.00000E+00         0.00000E+00        -0.67139E+08
 
   -0.64495E+08         0.33169E+06         0.00000E+00
    0.33169E+06        -0.49605E+08         0.00000E+00
    0.00000E+00         0.00000E+00        -0.67138E+08
 
   -0.64594E+08         0.38002E+06         0.00000E+00
    0.38002E+06        -0.49578E+08         0.00000E+00
    0.00000E+00         0.00000E+00        -0.67138E+08
 
   -0.64692E+08         0.43037E+06         0.00000E+00
    0.43037E+06        -0.49550E+08         0.00000E+00
    0.00000E+00         0.00000E+00        -0.67138E+08
 
   -0.64792E+08         0.48271E+06         0.00000E+00
    0.48271E+06        -0.49522E+08         0.00000E+00
    0.00000E+00         0.00000E+00        -0.67138E+08
 
   -0.64891E+08         0.53701E+06         0.00000E+00
    0.53701E+06        -0.49492E+08         0.00000E+00
    0.00000E+00         0.00000E+00        -0.67138E+08
 
   -0.64991E+08         0.59327E+06         0.00000E+00
    0.59327E+06        -0.49461E+08         0.00000E+00
    0.00000E+00         0.00000E+00        -0.67137E+08
 
   -0.65091E+08         0.65146E+06         0.00000E+00
    0.65146E+06        -0.49430E+08         0.00000E+00
    0.00000E+00         0.00000E+00        -0.67137E+08
 
   -0.65191E+08         0.71160E+06         0.00000E+00
    0.71160E+06        -0.49398E+08         0.00000E+00
    0.00000E+00         0.00000E+00        -0.67137E+08
 
   -0.65292E+08         0.77370E+06         0.00000E+00
    0.77370E+06        -0.49364E+08         0.00000E+00
    0.00000E+00         0.00000E+00        -0.67137E+08
 
   -0.65393E+08         0.83777E+06         0.00000E+00
    0.83777E+06        -0.49330E+08         0.00000E+00
    0.00000E+00         0.00000E+00        -0.67137E+08
 
   -0.65494E+08         0.90384E+06         0.00000E+00
    0.90384E+06        -0.49294E+08         0.00000E+00
    0.00000E+00         0.00000E+00        -0.67136E+08
 
   -0.65595E+08         0.97193E+06         0.00000E+00
    0.97193E+06        -0.49258E+08         0.00000E+00
    0.00000E+00         0.00000E+00        -0.67136E+08
 
   -0.65697E+08         0.10421E+07         0.00000E+00
    0.10421E+07        -0.49220E+08         0.00000E+00
    0.00000E+00         0.00000E+00        -0.67136E+08
 
   -0.65798E+08         0.11143E+07         0.00000E+00
    0.11143E+07        -0.49182E+08         0.00000E+00
    0.00000E+00         0.00000E+00        -0.67136E+08
 
   -0.65900E+08         0.11887E+07         0.00000E+00
    0.11887E+07        -0.49143E+08         0.00000E+00
    0.00000E+00         0.00000E+00        -0.67136E+08
 
   -0.66001E+08         0.12652E+07         0.00000E+00
    0.12652E+07        -0.49102E+08         0.00000E+00
    0.00000E+00         0.00000E+00        -0.67136E+08
 
   -0.66103E+08         0.13440E+07         0.00000E+00
    0.13440E+07        -0.49061E+08         0.00000E+00
    0.00000E+00         0.00000E+00        -0.67136E+08
 
   -0.66204E+08         0.14250E+07         0.00000E+00
    0.14250E+07        -0.49019E+08         0.00000E+00
    0.00000E+00         0.00000E+00        -0.67135E+08
 
   -0.66305E+08         0.15082E+07         0.00000E+00
    0.15082E+07        -0.48976E+08         0.00000E+00
    0.00000E+00         0.00000E+00        -0.67135E+08
 
   -0.66406E+08         0.15938E+07         0.00000E+00
    0.15938E+07        -0.48932E+08         0.00000E+00
    0.00000E+00         0.00000E+00        -0.67135E+08
 
   -0.66506E+08         0.16817E+07         0.00000E+00
    0.16817E+07        -0.48888E+08         0.00000E+00
    0.00000E+00         0.00000E+00        -0.67135E+08
 
   -0.66605E+08         0.17720E+07         0.00000E+00
    0.17720E+07        -0.48843E+08         0.00000E+00
    0.00000E+00         0.00000E+00        -0.67135E+08
 
   -0.66704E+08         0.18646E+07         0.00000E+00
    0.18646E+07        -0.48798E+08         0.00000E+00
    0.00000E+00         0.00000E+00        -0.67135E+08
 
   -0.66802E+08         0.19595E+07         0.00000E+00
    0.19595E+07        -0.48752E+08         0.00000E+00
    0.00000E+00         0.00000E+00        -0.67135E+08
 
   -0.66898E+08         0.20568E+07         0.00000E+00
    0.20568E+07        -0.48706E+08         0.00000E+00
    0.00000E+00         0.00000E+00        -0.67135E+08
 
   -0.66994E+08         0.21563E+07         0.00000E+00
    0.21563E+07        -0.48660E+08         0.00000E+00
    0.00000E+00         0.00000E+00        -0.67135E+08
 
   -0.67088E+08         0.22581E+07         0.00000E+00
    0.22581E+07        -0.48613E+08         0.00000E+00
    0.00000E+00         0.00000E+00        -0.67135E+08
 
   -0.62602E+08        -0.10677E+05         0.00000E+00
   -0.10677E+05        -0.49999E+08         0.00000E+00
    0.00000E+00         0.00000E+00        -0.66621E+08
 
   -0.62644E+08        -0.23263E+05         0.00000E+00
   -0.23263E+05        -0.49997E+08         0.00000E+00
    0.00000E+00         0.00000E+00        -0.66621E+08
 
   -0.62690E+08        -0.32596E+05         0.00000E+00
   -0.32596E+05        -0.49992E+08         0.00000E+00
    0.00000E+00         0.00000E+00        -0.66621E+08
 
   -0.62740E+08        -0.38651E+05         0.00000E+00
   -0.38651E+05        -0.49985E+08         0.00000E+00
    0.00000E+00         0.00000E+00        -0.66621E+08
 
   -0.62794E+08        -0.41424E+05         0.00000E+00
   -0.41424E+05        -0.49977E+08         0.00000E+00
    0.00000E+00         0.00000E+00        -0.66621E+08
 
   -0.62852E+08        -0.40921E+05         0.00000E+00
   -0.40921E+05        -0.49966E+08         0.00000E+00
    0.00000E+00         0.00000E+00        -0.66621E+08
 
   -0.62913E+08        -0.37161E+05         0.00000E+00
   -0.37161E+05        -0.49954E+08         0.00000E+00
    0.00000E+00         0.00000E+00        -0.66621E+08
 
   -0.62977E+08        -0.30173E+05         0.00000E+00
   -0.30173E+05        -0.49940E+08         0.00000E+00
    0.00000E+00         0.00000E+00        -0.66621E+08
 
   -0.63044E+08        -0.20001E+05         0.00000E+00
   -0.20001E+05        -0.49925E+08         0.00000E+00
    0.00000E+00         0.00000E+00        -0.66621E+08
 
   -0.63113E+08        -0.66948E+04         0.00000E+00
   -0.66948E+04        -0.49909E+08         0.00000E+00
    0.00000E+00         0.00000E+00        -0.66621E+08
 
   -0.63185E+08         0.96864E+04         0.00000E+00
    0.96864E+04        -0.49891E+08         0.00000E+00
    0.00000E+00         0.00000E+00        -0.66620E+08
 
   -0.63258E+08         0.29077E+05         0.00000E+00
    0.29077E+05        -0.49873E+08         0.00000E+00
    0.00000E+00         0.00000E+00        -0.66620E+08
 
   -0.63334E+08         0.51407E+05         0.00000E+00
    0.51407E+05        -0.49853E+08         0.00000E+00
    0.00000E+00         0.00000E+00        -0.66620E+08
 
   -0.63412E+08         0.76603E+05         0.00000E+00
    0.76603E+05        -0.49833E+08         0.00000E+00
    0.00000E+00         0.00000E+00        -0.66620E+08
 
   -0.63490E+08         0.10459E+06         0.00000E+00
    0.10459E+06        -0.49811E+08         0.00000E+00
    0.00000E+00         0.00000E+00        -0.66620E+08
 
   -0.63571E+08         0.13529E+06         0.00000E+00
    0.13529E+06        -0.49789E+08         0.00000E+00
    0.00000E+00         0.00000E+00        -0.66620E+08
 
   -0.63652E+08         0.16862E+06         0.00000E+00
    0.16862E+06        -0.49766E+08         0.00000E+00
    0.00000E+00         0.00000E+00        -0.66620E+08
 
   -0.63735E+08         0.20452E+06         0.00000E+00
    0.20452E+06        -0.49742E+08         0.00000E+00
    0.00000E+00         0.00000E+00        -0.66620E+08
 
   -0.63819E+08         0.24291E+06         0.00000E+00
    0.24291E+06        -0.49718E+08         0.00000E+00
    0.00000E+00         0.00000E+00        -0.66619E+08
 
   -0.63903E+08         0.28371E+06         0.00000E+00
    0.28371E+06        -0.49692E+08         0.00000E+00
    0.00000E+00         0.00000E+00        -0.66619E+08
 
   -0.63989E+08         0.32687E+06         0.00000E+00
    0.32687E+06        -0.49667E+08         0.00000E+00
    0.00000E+00         0.00000E+00        -0.66619E+08
 
   -0.64075E+08         0.37233E+06         0.00000E+00
    0.37233E+06        -0.49640E+08         0.00000E+00
    0.00000E+00         0.00000E+00        -0.66619E+08
 
   -0.64162E+08         0.42002E+06         0.00000E+00
    0.42002E+06        -0.49613E+08         0.00000E+00
    0.00000E+00         0.00000E+00        -0.66619E+08
 
   -0.64250E+08         0.46991E+06         0.00000E+00
    0.46991E+06        -0.49585E+08         0.00000E+00
    0.00000E+00         0.00000E+00        -0.66619E+08
 
   -0.64338E+08         0.52193E+06         0.00000E+00
    0.52193E+06        -0.49556E+08         0.00000E+00
    0.00000E+00         0.00000E+00        -0.66618E+08
 
   -0.64426E+08         0.57607E+06         0.00000E+00
    0.57607E+06        -0.49527E+08         0.00000E+00
    0.00000E+00         0.00000E+00        -0.66618E+08
 
   -0.64515E+08         0.63227E+06         0.00000E+00
    0.63227E+06        -0.49497E+08         0.00000E+00
    0.00000E+00         0.00000E+00        -0.66618E+08
 
   -0.64605E+08         0.69052E+06         0.00000E+00
    0.69052E+06        -0.49466E+08         0.00000E+00
    0.00000E+00         0.00000E+00        -0.66618E+08
 
   -0.64695E+08         0.75080E+06         0.00000E+00
    0.75080E+06        -0.49434E+08         0.00000E+00
    0.00000E+00         0.00000E+00        -0.66618E+08
 
   -0.64785E+08         0.81308E+06         0.00000E+00
    0.81308E+06        -0.49402E+08         0.00000E+00
    0.00000E+00         0.00000E+00        -0.66618E+08
 
   -0.64875E+08         0.87736E+06         0.00000E+00
    0.87736E+06        -0.49369E+08         0.00000E+00
    0.00000E+00         0.00000E+00        -0.66618E+08
 
   -0.64966E+08         0.94363E+06         0.00000E+00
    0.94363E+06        -0.49336E+08         0.00000E+00
    0.00000E+00         0.00000E+00        -0.66617E+08
 
   -0.65057E+08         0.10119E+07         0.00000E+00
    0.10119E+07        -0.49302E+08         0.00000E+00
    0.00000E+00         0.00000E+00        -0.66617E+08
 
   -0.65148E+08         0.10821E+07         0.00000E+00
    0.10821E+07        -0.49267E+08         0.00000E+00
    0.00000E+00         0.00000E+00        -0.66617E+08
 
   -0.65239E+08         0.11543E+07         0.00000E+00
    0.11543E+07        -0.49231E+08         0.00000E+00
    0.00000E+00         0.00000E+00        -0.66617E+08
 
   -0.65331E+08         0.12286E+07         0.00000E+00
    0.12286E+07        -0.49195E+08         0.00000E+00
    0.00000E+00         0.00000E+00        -0.66617E+08
 
   -0.65422E+08         0.13048E+07         0.00000E+00
    0.13048E+07        -0.49158E+08         0.00000E+00
    0.00000E+00         0.00000E+00        -0.66617E+08
 
   -0.65513E+08         0.13830E+07         0.00000E+00
    0.13830E+07        -0.49121E+08         0.00000E+00
    0.00000E+00         0.00000E+00        -0.66617E+08
 
   -0.65604E+08         0.14632E+07         0.00000E+00
    0.14632E+07        -0.49082E+08         0.00000E+00
    0.00000E+00         0.00000E+00        -0.66617E+08
 
   -0.65695E+08         0.15455E+07         0.00000E+00
    0.15455E+07        -0.49044E+08         0.00000E+00
    0.00000E+00         0.00000E+00        -0.66617E+08
 
   -0.65785E+08         0.16298E+07         0.00000E+00
    0.16298E+07        -0.49005E+08         0.00000E+00
    0.00000E+00         0.00000E+00        -0.66616E+08
 
   -0.65876E+08         0.17161E+07         0.00000E+00
    0.17161E+07        -0.48965E+08         0.00000E+00
    0.00000E+00         0.00000E+00        -0.66616E+08
 
   -0.65965E+08         0.18044E+07         0.00000E+00
    0.18044E+07        -0.48925E+08         0.00000E+00
    0.00000E+00         0.00000E+00        -0.66616E+08
 
   -0.66055E+08         0.18947E+07         0.00000E+00
    0.18947E+07        -0.48884E+08         0.00000E+00
    0.00000E+00         0.00000E+00        -0.66616E+08
 
   -0.66143E+08         0.19870E+07         0.00000E+00
    0.19870E+07        -0.48843E+08         0.00000E+00
    0.00000E+00         0.00000E+00        -0.66616E+08
 
   -0.66231E+08         0.20814E+07         0.00000E+00
    0.20814E+07        -0.48802E+08         0.00000E+00
    0.00000E+00         0.00000E+00        -0.66616E+08
 
   -0.66319E+08         0.21776E+07         0.00000E+00
    0.21776E+07        -0.48761E+08         0.00000E+00
    0.00000E+00         0.00000E+00        -0.66616E+08
 
   -0.66405E+08         0.22758E+07         0.00000E+00
    0.22758E+07        -0.48719E+08         0.00000E+00
    0.00000E+00         0.00000E+00        -0.66616E+08
 
   -0.66490E+08         0.23759E+07         0.00000E+00
    0.23759E+07        -0.48678E+08         0.00000E+00
    0.00000E+00         0.00000E+00        -0.66616E+08
 
   -0.66574E+08         0.24778E+07         0.00000E+00
    0.24778E+07        -0.48636E+08         0.00000E+00
    0.00000E+00         0.00000E+00        -0.66616E+08
 
   -0.62644E+08        -0.41032E+04         0.00000E+00
   -0.41032E+04        -0.49999E+08         0.00000E+00
    0.00000E+00         0.00000E+00        -0.66102E+08
 
   -0.62671E+08        -0.55082E+04         0.00000E+00
   -0.55082E+04        -0.49997E+08         0.00000E+00
    0.00000E+00         0.00000E+00        -0.66102E+08
 
   -0.62703E+08        -0.43596E+04         0.00000E+00
   -0.43596E+04        -0.49993E+08         0.00000E+00
    0.00000E+00         0.00000E+00        -0.66102E+08
 
   -0.62738E+08        -0.61480E+03         0.00000E+00
   -0.61480E+03        -0.49986E+08         0.00000E+00
    0.00000E+00         0.00000E+00        -0.66102E+08
 
   -0.62778E+08         0.57583E+04         0.00000E+00
    0.57583E+04        -0.49978E+08         0.00000E+00
    0.00000E+00         0.00000E+00        -0.66102E+08
 
   -0.62821E+08         0.14781E+05         0.00000E+00
    0.14781E+05        -0.49968E+08         0.00000E+00
    0.00000E+00         0.00000E+00        -0.66102E+08
 
   -0.62867E+08         0.26465E+05         0.00000E+00
    0.26465E+05        -0.49956E+08         0.00000E+00
    0.00000E+00         0.00000E+00        -0.66102E+08
 
   -0.62916E+08         0.40812E+05         0.00000E+00
    0.40812E+05        -0.49943E+08         0.00000E+00
    0.00000E+00         0.00000E+00        -0.66102E+08
 
   -0.62969E+08         0.57818E+05         0.00000E+00
    0.57818E+05        -0.49928E+08         0.00000E+00
    0.00000E+00         0.00000E+00        -0.66102E+08
 
   -0.63024E+08         0.77470E+05         0.00000E+00
    0.77470E+05        -0.49912E+08         0.00000E+00
    0.00000E+00         0.00000E+00        -0.66101E+08
 
   -0.63081E+08         0.99747E+05         0.00000E+00
    0.99747E+05        -0.49895E+08         0.00000E+00
    0.00000E+00         0.00000E+00        -0.66101E+08
 
   -0.63141E+08         0.12463E+06         0.00000E+00
    0.12463E+06        -0.49877E+08         0.00000E+00
    0.00000E+00         0.00000E+00        -0.66101E+08
 
   -0.63203E+08         0.15207E+06         0.00000E+00
    0.15207E+06        -0.49857E+08         0.00000E+00
    0.00000E+00         0.00000E+00        -0.66101E+08
 
   -0.63267E+08         0.18206E+06         0.00000E+00
    0.18206E+06        -0.49837E+08         0.00000E+00
    0.00000E+00         0.00000E+00        -0.66101E+08
 
   -0.63333E+08         0.21454E+06         0.00000E+00
    0.21454E+06        -0.49815E+08         0.00000E+00
    0.00000E+00         0.00000E+00        -0.66101E+08
 
   -0.63401E+08         0.24948E+06         0.00000E+00
    0.24948E+06        -0.49793E+08         0.00000E+00
    0.00000E+00         0.00000E+00        -0.66101E+08
 
   -0.63470E+08         0.28684E+06         0.00000E+00
    0.28684E+06        -0.49769E+08         0.00000E+00
    0.00000E+00         0.00000E+00        -0.66101E+08
 
   -0.63540E+08         0.32657E+06         0.00000E+00
    0.32657E+06        -0.49745E+08         0.00000E+00
    0.00000E+00         0.00000E+00        -0.66101E+08
 
   -0.63612E+08         0.36864E+06         0.00000E+00
    0.36864E+06        -0.49721E+08         0.00000E+00
    0.00000E+00         0.00000E+00        -0.66101E+08
 
   -0.63685E+08         0.41300E+06         0.00000E+00
    0.41300E+06        -0.49695E+08         0.00000E+00
    0.00000E+00         0.00000E+00        -0.66101E+08
 
   -0.63759E+08         0.45960E+06         0.00000E+00
    0.45960E+06        -0.49669E+08         0.00000E+00
    0.00000E+00         0.00000E+00        -0.66101E+08
 
   -0.63834E+08         0.50842E+06         0.00000E+00
    0.50842E+06        -0.49642E+08         0.00000E+00
    0.00000E+00         0.00000E+00        -0.66101E+08
 
   -0.63910E+08         0.55941E+06         0.00000E+00
    0.55941E+06        -0.49614E+08         0.00000E+00
    0.00000E+00         0.00000E+00        -0.66101E+08
 
   -0.63987E+08         0.61253E+06         0.00000E+00
    0.61253E+06        -0.49586E+08         0.00000E+00
    0.00000E+00         0.00000E+00        -0.66100E+08
 
   -0.64064E+08         0.66776E+06         0.00000E+00
    0.66776E+06        -0.49557E+08         0.00000E+00
    0.00000E+00         0.00000E+00        -0.66100E+08
 
   -0.64143E+08         0.72506E+06         0.00000E+00
    0.72506E+06        -0.49528E+08         0.00000E+00
    0.00000E+00         0.00000E+00        -0.66100E+08
 
   -0.64222E+08         0.78441E+06         0.00000E+00
    0.78441E+06        -0.49498E+08         0.00000E+00
    0.00000E+00         0.00000E+00        -0.66100E+08
 
   -0.64301E+08         0.84577E+06         0.00000E+00
    0.84577E+06        -0.49467E+08         0.00000E+00
    0.00000E+00         0.00000E+00        -0.66100E+08
 
   -0.64381E+08         0.90913E+06         0.00000E+00
    0.90913E+06        -0.49436E+08         0.00000E+00
    0.00000E+00         0.00000E+00        -0.66100E+08
 
   -0.64461E+08         0.97447E+06         0.00000E+00
    0.97447E+06        -0.49404E+08         0.00000E+00
    0.00000E+00         0.00000E+00        -0.66100E+08
 
   -0.64542E+08         0.10418E+07         0.00000E+00
    0.10418E+07        -0.49372E+08         0.00000E+00
    0.00000E+00         0.00000E+00        -0.66100E+08
 
   -0.64622E+08         0.11110E+07         0.00000E+00
    0.11110E+07        -0.49340E+08         0.00000E+00
    0.00000E+00         0.00000E+00        -0.66100E+08
 
   -0.64704E+08         0.11822E+07         0.00000E+00
    0.11822E+07        -0.49306E+08         0.00000E+00
    0.00000E+00         0.00000E+00        -0.66100E+08
 
   -0.64785E+08         0.12553E+07         0.00000E+00
    0.12553E+07        -0.49273E+08         0.00000E+00
    0.00000E+00         0.00000E+00        -0.66100E+08
 
   -0.64866E+08         0.13303E+07         0.00000E+00
    0.13303E+07        -0.49239E+08         0.00000E+00
    0.00000E+00         0.00000E+00        -0.66100E+08
 
   -0.64948E+08         0.14072E+07         0.00000E+00
    0.14072E+07        -0.49204E+08         0.00000E+00
    0.00000E+00         0.00000E+00        -0.66099E+08
 
   -0.65029E+08         0.14860E+07         0.00000E+00
    0.14860E+07        -0.49169E+08         0.00000E+00
    0.00000E+00         0.00000E+00        -0.66099E+08
 
   -0.65111E+08         0.15666E+07         0.00000E+00
    0.15666E+07        -0.49134E+08         0.00000E+00
    0.00000E+00         0.00000E+00        -0.66099E+08
 
   -0.65192E+08         0.16492E+07         0.00000E+00
    0.16492E+07        -0.49098E+08         0.00000E+00
    0.00000E+00         0.00000E+00        -0.66099E+08
 
   -0.65273E+08         0.17336E+07         0.00000E+00
    0.17336E+07        -0.49062E+08         0.00000E+00
    0.00000E+00         0.00000E+00        -0.66099E+08
 
   -0.65354E+08         0.18198E+07         0.00000E+00
    0.18198E+07        -0.49025E+08         0.00000E+00
    0.00000E+00         0.00000E+00        -0.66099E+08
 
   -0.65435E+08         0.19079E+07         0.00000E+00
    0.19079E+07        -0.48988E+08         0.00000E+00
    0.00000E+00         0.00000E+00        -0.66099E+08
 
   -0.65515E+08         0.19978E+07         0.00000E+00
    0.19978E+07        -0.48952E+08         0.00000E+00
    0.00000E+00         0.00000E+00        -0.66099E+08
 
   -0.65595E+08         0.20894E+07         0.00000E+00
    0.20894E+07        -0.48914E+08         0.00000E+00
    0.00000E+00         0.00000E+00        -0.66099E+08
 
   -0.65674E+08         0.21829E+07         0.00000E+00
    0.21829E+07        -0.48877E+08         0.00000E+00
    0.00000E+00         0.00000E+00        -0.66099E+08
 
   -0.65753E+08         0.22781E+07         0.00000E+00
    0.22781E+07        -0.48840E+08         0.00000E+00
    0.00000E+00         0.00000E+00        -0.66099E+08
 
   -0.65831E+08         0.23749E+07         0.00000E+00
    0.23749E+07        -0.48802E+08         0.00000E+00
    0.00000E+00         0.00000E+00        -0.66099E+08
 
   -0.65909E+08         0.24735E+07         0.00000E+00
    0.24735E+07        -0.48764E+08         0.00000E+00
    0.00000E+00         0.00000E+00        -0.66099E+08
 
   -0.65985E+08         0.25737E+07         0.00000E+00
    0.25737E+07        -0.48727E+08         0.00000E+00
    0.00000E+00         0.00000E+00        -0.66099E+08
 
   -0.66061E+08         0.26755E+07         0.00000E+00
    0.26755E+07        -0.48689E+08         0.00000E+00
    0.00000E+00         0.00000E+00        -0.66099E+08
 
   -0.62630E+08         0.18979E+04         0.00000E+00
    0.18979E+04        -0.49999E+08         0.00000E+00
    0.00000E+00         0.00000E+00        -0.65584E+08
 
   -0.62646E+08         0.10939E+05         0.00000E+00
    0.10939E+05        -0.49997E+08         0.00000E+00
    0.00000E+00         0.00000E+00        -0.65584E+08
 
   -0.62666E+08         0.21978E+05         0.00000E+00
    0.21978E+05        -0.49993E+08         0.00000E+00
    0.00000E+00         0.00000E+00        -0.65584E+08
 
   -0.62690E+08         0.35072E+05         0.00000E+00
    0.35072E+05        -0.49987E+08         0.00000E+00
    0.00000E+00         0.00000E+00        -0.65584E+08
 
   -0.62718E+08         0.50266E+05         0.00000E+00
    0.50266E+05        -0.49979E+08         0.00000E+00
    0.00000E+00         0.00000E+00        -0.65584E+08
 
   -0.62749E+08         0.67598E+05         0.00000E+00
    0.67598E+05        -0.49970E+08         0.00000E+00
    0.00000E+00         0.00000E+00        -0.65584E+08
 
   -0.62783E+08         0.87099E+05         0.00000E+00
    0.87099E+05        -0.49959E+08         0.00000E+00
    0.00000E+00         0.00000E+00        -0.65584E+08
 
   -0.62820E+08         0.10879E+06         0.00000E+00
    0.10879E+06        -0.49947E+08         0.00000E+00
    0.00000E+00         0.00000E+00        -0.65584E+08
 
   -0.62860E+08         0.13269E+06         0.00000E+00
    0.13269E+06        -0.49933E+08         0.00000E+00
    0.00000E+00         0.00000E+00        -0.65584E+08
 
   -0.62903E+08         0.15882E+06         0.00000E+00
    0.15882E+06        -0.49918E+08         0.00000E+00
    0.00000E+00         0.00000E+00        -0.65584E+08
 
   -0.62949E+08         0.18717E+06         0.00000E+00
    0.18717E+06        -0.49901E+08         0.00000E+00
    0.00000E+00         0.00000E+00        -0.65584E+08
 
   -0.62997E+08         0.21774E+06         0.00000E+00
    0.21774E+06        -0.49884E+08         0.00000E+00
    0.00000E+00         0.00000E+00        -0.65584E+08
 
   -0.63047E+08         0.25053E+06         0.00000E+00
    0.25053E+06        -0.49865E+08         0.00000E+00
    0.00000E+00         0.00000E+00        -0.65584E+08
 
   -0.63099E+08         0.28553E+06         0.00000E+00
    0.28553E+06        -0.49845E+08         0.00000E+00
    0.00000E+00         0.00000E+00        -0.65584E+08
 
   -0.63153E+08         0.32274E+06         0.00000E+00
    0.32274E+06        -0.49824E+08         0.00000E+00
    0.00000E+00         0.00000E+00        -0.65584E+08
 
   -0.63209E+08         0.36212E+06         0.00000E+00
    0.36212E+06        -0.49803E+08         0.00000E+00
    0.00000E+00         0.00000E+00        -0.65584E+08
 
   -0.63267E+08         0.40368E+06         0.00000E+00
    0.40368E+06        -0.49780E+08         0.00000E+00
    0.00000E+00         0.00000E+00        -0.65584E+08
 
   -0.63326E+08         0.44737E+06         0.00000E+00
    0.44737E+06        -0.49757E+08         0.00000E+00
    0.00000E+00         0.00000E+00        -0.65584E+08
 
   -0.63387E+08         0.49320E+06         0.00000E+00
    0.49320E+06        -0.49733E+08         0.00000E+00
    0.00000E+00         0.00000E+00        -0.65584E+08
 
   -0.63449E+08         0.54113E+06         0.00000E+00
    0.54113E+06        -0.49708E+08         0.00000E+00
    0.00000E+00         0.00000E+00        -0.65584E+08
 
   -0.63512E+08         0.59113E+06         0.00000E+00
    0.59113E+06        -0.49682E+08         0.00000E+00
    0.00000E+00         0.00000E+00        -0.65584E+08
 
   -0.63577E+08         0.64320E+06         0.00000E+00
    0.64320E+06        -0.49656E+08         0.00000E+00
    0.00000E+00         0.00000E+00        -0.65584E+08
 
   -0.63642E+08         0.69729E+06         0.00000E+00
    0.69729E+06        -0.49629E+08         0.00000E+00
    0.00000E+00         0.00000E+00        -0.65584E+08
 
   -0.63709E+08         0.75340E+06         0.00000E+00
    0.75340E+06        -0.49602E+08         0.00000E+00
    0.00000E+00         0.00000E+00        -0.65584E+08
 
   -0.63776E+08         0.81150E+06         0.00000E+00
    0.81150E+06        -0.49574E+08         0.00000E+00
    0.00000E+00         0.00000E+00        -0.65584E+08
 
   -0.63844E+08         0.87156E+06         0.00000E+00
    0.87156E+06        -0.49545E+08         0.00000E+00
    0.00000E+00         0.00000E+00        -0.65584E+08
 
   -0.63913E+08         0.93357E+06         0.00000E+00
    0.93357E+06        -0.49516E+08         0.00000E+00
    0.00000E+00         0.00000E+00        -0.65584E+08
 
   -0.63983E+08         0.99750E+06         0.00000E+00
    0.99750E+06        -0.49487E+08         0.00000E+00
    0.00000E+00         0.00000E+00        -0.65584E+08
 
   -0.64053E+08         0.10633E+07         0.00000E+00
    0.10633E+07        -0.49457E+08         0.00000E+00
    0.00000E+00         0.00000E+00        -0.65584E+08
 
   -0.64124E+08         0.11311E+07         0.00000E+00
    0.11311E+07        -0.49427E+08         0.00000E+00
    0.00000E+00         0.00000E+00        -0.65584E+08
 
   -0.64195E+08         0.12007E+07         0.00000E+00
    0.12007E+07        -0.49396E+08         0.00000E+00
    0.00000E+00         0.00000E+00        -0.65584E+08
 
   -0.64266E+08         0.12721E+07         0.00000E+00
    0.12721E+07        -0.49365E+08         0.00000E+00
    0.00000E+00         0.00000E+00        -0.65584E+08
 
   -0.64338E+08         0.13454E+07         0.00000E+00
    0.13454E+07        -0.49333E+08         0.00000E+00
    0.00000E+00         0.00000E+00        -0.65584E+08
 
   -0.64410E+08         0.14205E+07         0.00000E+00
    0.14205E+07        -0.49301E+08         0.00000E+00
    0.00000E+00         0.00000E+00        -0.65584E+08
 
   -0.64482E+08         0.14974E+07         0.00000E+00
    0.14974E+07        -0.49269E+08         0.00000E+00
    0.00000E+00         0.00000E+00        -0.65584E+08
 
   -0.64554E+08         0.15761E+07         0.00000E+00
    0.15761E+07        -0.49236E+08         0.00000E+00
    0.00000E+00         0.00000E+00        -0.65584E+08
 
   -0.64627E+08         0.16565E+07         0.00000E+00
    0.16565E+07        -0.49203E+08         0.00000E+00
    0.00000E+00         0.00000E+00        -0.65584E+08
 
   -0.64699E+08         0.17387E+07         0.00000E+00
    0.17387E+07        -0.49170E+08         0.00000E+00
    0.00000E+00         0.00000E+00        -0.65584E+08
 
   -0.64772E+08         0.18227E+07         0.00000E+00
    0.18227E+07        -0.49137E+08         0.00000E+00
    0.00000E+00         0.00000E+00        -0.65584E+08
 
   -0.64844E+08         0.19083E+07         0.00000E+00
    0.19083E+07        -0.49104E+08         0.00000E+00
    0.00000E+00         0.00000E+00        -0.65584E+08
 
   -0.64916E+08         0.19957E+07         0.00000E+00
    0.19957E+07        -0.49070E+08         0.00000E+00
    0.00000E+00         0.00000E+00        -0.65584E+08
 
   -0.64988E+08         0.20847E+07         0.00000E+00
    0.20847E+07        -0.49036E+08         0.00000E+00
    0.00000E+00         0.00000E+00        -0.65584E+08
 
   -0.65060E+08         0.21754E+07         0.00000E+00
    0.21754E+07        -0.49002E+08         0.00000E+00
    0.00000E+00         0.00000E+00        -0.65584E+08
 
   -0.65131E+08         0.22678E+07         0.00000E+00
    0.22678E+07        -0.48968E+08         0.00000E+00
    0.00000E+00         0.00000E+00        -0.65584E+08
 
   -0.65202E+08         0.23617E+07         0.00000E+00
    0.23617E+07        -0.48934E+08         0.00000E+00
    0.00000E+00         0.00000E+00        -0.65584E+08
 
   -0.65273E+08         0.24572E+07         0.00000E+00
    0.24572E+07        -0.48900E+08         0.00000E+00
    0.00000E+00         0.00000E+00        -0.65584E+08
 
   -0.65343E+08         0.25542E+07         0.00000E+00
    0.25542E+07        -0.48866E+08         0.00000E+00
    0.00000E+00         0.00000E+00        -0.65584E+08
 
   -0.65412E+08         0.26527E+07         0.00000E+00
    0.26527E+07        -0.48831E+08         0.00000E+00
    0.00000E+00         0.00000E+00        -0.65584E+08
 
   -0.65481E+08         0.27528E+07         0.00000E+00
    0.27528E+07        -0.48797E+08         0.00000E+00
    0.00000E+00         0.00000E+00        -0.65584E+08
 
   -0.65550E+08         0.28542E+07         0.00000E+00
    0.28542E+07        -0.48763E+08         0.00000E+00
    0.00000E+00         0.00000E+00        -0.65584E+08
 
   -0.62565E+08         0.73115E+04         0.00000E+00
    0.73115E+04        -0.49999E+08         0.00000E+00
    0.00000E+00         0.00000E+00        -0.65070E+08
 
   -0.62572E+08         0.25944E+05         0.00000E+00
    0.25944E+05        -0.49998E+08         0.00000E+00
    0.00000E+00         0.00000E+00        -0.65070E+08
 
   -0.62583E+08         0.46131E+05         0.00000E+00
    0.46131E+05        -0.49994E+08         0.00000E+00
    0.00000E+00         0.00000E+00        -0.65070E+08
 
   -0.62598E+08         0.67933E+05         0.00000E+00
    0.67933E+05        -0.49988E+08         0.00000E+00
    0.00000E+00         0.00000E+00        -0.65070E+08
 
   -0.62616E+08         0.91407E+05         0.00000E+00
    0.91407E+05        -0.49981E+08         0.00000E+00
    0.00000E+00         0.00000E+00        -0.65070E+08
 
   -0.62637E+08         0.11660E+06         0.00000E+00
    0.11660E+06        -0.49973E+08         0.00000E+00
    0.00000E+00         0.00000E+00        -0.65070E+08
 
   -0.62662E+08         0.14355E+06         0.00000E+00
    0.14355E+06        -0.49963E+08         0.00000E+00
    0.00000E+00         0.00000E+00        -0.65070E+08
 
   -0.62689E+08         0.17230E+06         0.00000E+00
    0.17230E+06        -0.49951E+08         0.00000E+00
    0.00000E+00         0.00000E+00        -0.65070E+08
 
   -0.62719E+08         0.20288E+06         0.00000E+00
    0.20288E+06        -0.49938E+08         0.00000E+00
    0.00000E+00         0.00000E+00        -0.65070E+08
 
   -0.62752E+08         0.23530E+06         0.00000E+00
    0.23530E+06        -0.49924E+08         0.00000E+00
    0.00000E+00         0.00000E+00        -0.65070E+08
 
   -0.62787E+08         0.26960E+06         0.00000E+00
    0.26960E+06        -0.49909E+08         0.00000E+00
    0.00000E+00         0.00000E+00        -0.65070E+08
 
   -0.62825E+08         0.30579E+06         0.00000E+00
    0.30579E+06        -0.49892E+08         0.00000E+00
    0.00000E+00         0.00000E+00        -0.65070E+08
 
   -0.62864E+08         0.34388E+06         0.00000E+00
    0.34388E+06        -0.49875E+08         0.00000E+00
    0.00000E+00         0.00000E+00        -0.65070E+08
 
   -0.62906E+08         0.38387E+06         0.00000E+00
    0.38387E+06        -0.49856E+08         0.00000E+00
    0.00000E+00         0.00000E+00        -0.65070E+08
 
   -0.62950E+08         0.42578E+06         0.00000E+00
    0.42578E+06        -0.49837E+08         0.00000E+00
    0.00000E+00         0.00000E+00        -0.65070E+08
 
   -0.62996E+08         0.46959E+06         0.00000E+00
    0.46959E+06        -0.49817E+08         0.00000E+00
    0.00000E+00         0.00000E+00        -0.65070E+08
 
   -0.63044E+08         0.51532E+06         0.00000E+00
    0.51532E+06        -0.49795E+08         0.00000E+00
    0.00000E+00         0.00000E+00        -0.65070E+08
 
   -0.63093E+08         0.56295E+06         0.00000E+00
    0.56295E+06        -0.49773E+08         0.00000E+00
    0.00000E+00         0.00000E+00        -0.65070E+08
 
   -0.63144E+08         0.61249E+06         0.00000E+00
    0.61249E+06        -0.49750E+08         0.00000E+00
    0.00000E+00         0.00000E+00        -0.65070E+08
 
   -0.63196E+08         0.66391E+06         0.00000E+00
    0.66391E+06        -0.49727E+08         0.00000E+00
    0.00000E+00         0.00000E+00        -0.65070E+08
 
   -0.63249E+08         0.71722E+06         0.00000E+00
    0.71722E+06        -0.49703E+08         0.00000E+00
    0.00000E+00         0.00000E+00        -0.65070E+08
 
   -0.63304E+08         0.77240E+06         0.00000E+00
    0.77240E+06        -0.49678E+08         0.00000E+00
    0.00000E+00         0.00000E+00        -0.65070E+08
 
   -0.63360E+08         0.82944E+06         0.00000E+00
    0.82944E+06        -0.49653E+08         0.00000E+00
    0.00000E+00         0.00000E+00        -0.65071E+08
 
   -0.63417E+08         0.88832E+06         0.00000E+00
    0.88832E+06        -0.49627E+08         0.00000E+00
    0.00000E+00         0.00000E+00        -0.65071E+08
 
   -0.63475E+08         0.94904E+06         0.00000E+00
    0.94904E+06        -0.49600E+08         0.00000E+00
    0.00000E+00         0.00000E+00        -0.65071E+08
 
   -0.63533E+08         0.10116E+07         0.00000E+00
    0.10116E+07        -0.49573E+08         0.00000E+00
    0.00000E+00         0.00000E+00        -0.65071E+08
 
   -0.63593E+08         0.10759E+07         0.00000E+00
    0.10759E+07        -0.49546E+08         0.00000E+00
    0.00000E+00         0.00000E+00        -0.65071E+08
 
   -0.63653E+08         0.11421E+07         0.00000E+00
    0.11421E+07        -0.49518E+08         0.00000E+00
    0.00000E+00         0.00000E+00        -0.65071E+08
 
   -0.63714E+08         0.12100E+07         0.00000E+00
    0.12100E+07        -0.49490E+08         0.00000E+00
    0.00000E+00         0.00000E+00        -0.65071E+08
 
   -0.63776E+08         0.12796E+07         0.00000E+00
    0.12796E+07        -0.49461E+08         0.00000E+00
    0.00000E+00         0.00000E+00        -0.65071E+08
 
   -0.63838E+08         0.13510E+07         0.00000E+00
    0.13510E+07        -0.49433E+08         0.00000E+00
    0.00000E+00         0.00000E+00        -0.65071E+08
 
   -0.63900E+08         0.14242E+07         0.00000E+00
    0.14242E+07        -0.49403E+08         0.00000E+00
    0.00000E+00         0.00000E+00        -0.65071E+08
 
   -0.63963E+08         0.14990E+07         0.00000E+00
    0.14990E+07        -0.49374E+08         0.00000E+00
    0.00000E+00         0.00000E+00        -0.65071E+08
 
   -0.64026E+08         0.15756E+07         0.00000E+00
    0.15756E+07        -0.49344E+08         0.00000E+00
    0.00000E+00         0.00000E+00        -0.65071E+08
 
   -0.64090E+08         0.16538E+07         0.00000E+00
    0.16538E+07        -0.49314E+08         0.00000E+00
    0.00000E+00         0.00000E+00        -0.65071E+08
 
   -0.64154E+08         0.17337E+07         0.00000E+00
    0.17337E+07        -0.49284E+08         0.00000E+00
    0.00000E+00         0.00000E+00        -0.65071E+08
 
   -0.64218E+08         0.18153E+07         0.00000E+00
    0.18153E+07        -0.49253E+08         0.00000E+00
    0.00000E+00         0.00000E+00        -0.65071E+08
 
   -0.64282E+08         0.18985E+07         0.00000E+00
    0.18985E+07        -0.49223E+08         0.00000E+00
    0.00000E+00         0.00000E+00        -0.65071E+08
 
   -0.64346E+08         0.19833E+07         0.00000E+00
    0.19833E+07        -0.49192E+08         0.00000E+00
    0.00000E+00         0.00000E+00        -0.65071E+08
 
   -0.64410E+08         0.20696E+07         0.00000E+00
    0.20696E+07        -0.49161E+08         0.00000E+00
    0.00000E+00         0.00000E+00        -0.65071E+08
 
   -0.64474E+08         0.21576E+07         0.00000E+00
    0.21576E+07        -0.49130E+08         0.00000E+00
    0.00000E+00         0.00000E+00        -0.65071E+08
 
   -0.64538E+08         0.22471E+07         0.00000E+00
    0.22471E+07        -0.49099E+08         0.00000E+00
    0.00000E+00         0.00000E+00        -0.65071E+08
 
   -0.64602E+08         0.23381E+07         0.00000E+00
    0.23381E+07        -0.49068E+08         0.00000E+00
    0.00000E+00         0.00000E+00        -0.65071E+08
 
   -0.64665E+08         0.24307E+07         0.00000E+00
    0.24307E+07        -0.49037E+08         0.00000E+00
    0.00000E+00         0.00000E+00        -0.65071E+08
 
   -0.64729E+08         0.25247E+07         0.00000E+00
    0.25247E+07        -0.49006E+08         0.00000E+00
    0.00000E+00         0.00000E+00        -0.65071E+08
 
   -0.64792E+08         0.26201E+07         0.00000E+00
    0.26201E+07        -0.48975E+08         0.00000E+00
    0.00000E+00         0.00000E+00        -0.65071E+08
 
   -0.64854E+08         0.27170E+07         0.00000E+00
    0.27170E+07        -0.48944E+08         0.00000E+00
    0.00000E+00         0.00000E+00        -0.65071E+08
 
   -0.64917E+08         0.28153E+07         0.00000E+00
    0.28153E+07        -0.48913E+08         0.00000E+00
    0.00000E+00         0.00000E+00        -0.65071E+08
 
   -0.64979E+08         0.29149E+07         0.00000E+00
    0.29149E+07        -0.48882E+08         0.00000E+00
    0.00000E+00         0.00000E+00        -0.65071E+08
 
   -0.65041E+08         0.30159E+07         0.00000E+00
    0.30159E+07        -0.48851E+08         0.00000E+00
    0.00000E+00         0.00000E+00        -0.65071E+08
 
   -0.62453E+08         0.12140E+05         0.00000E+00
    0.12140E+05        -0.50000E+08         0.00000E+00
    0.00000E+00         0.00000E+00        -0.64558E+08
 
   -0.62454E+08         0.39449E+05         0.00000E+00
    0.39449E+05        -0.49998E+08         0.00000E+00
    0.00000E+00         0.00000E+00        -0.64558E+08
 
   -0.62458E+08         0.67956E+05         0.00000E+00
    0.67956E+05        -0.49994E+08         0.00000E+00
    0.00000E+00         0.00000E+00        -0.64558E+08
 
   -0.62465E+08         0.97727E+05         0.00000E+00
    0.97727E+05        -0.49990E+08         0.00000E+00
    0.00000E+00         0.00000E+00        -0.64558E+08
 
   -0.62475E+08         0.12882E+06         0.00000E+00
    0.12882E+06        -0.49983E+08         0.00000E+00
    0.00000E+00         0.00000E+00        -0.64558E+08
 
   -0.62489E+08         0.16128E+06         0.00000E+00
    0.16128E+06        -0.49975E+08         0.00000E+00
    0.00000E+00         0.00000E+00        -0.64558E+08
 
   -0.62505E+08         0.19517E+06         0.00000E+00
    0.19517E+06        -0.49966E+08         0.00000E+00
    0.00000E+00         0.00000E+00        -0.64558E+08
 
   -0.62524E+08         0.23052E+06         0.00000E+00
    0.23052E+06        -0.49956E+08         0.00000E+00
    0.00000E+00         0.00000E+00        -0.64558E+08
 
   -0.62546E+08         0.26737E+06         0.00000E+00
    0.26737E+06        -0.49944E+08         0.00000E+00
    0.00000E+00         0.00000E+00        -0.64558E+08
 
   -0.62570E+08         0.30576E+06         0.00000E+00
    0.30576E+06        -0.49931E+08         0.00000E+00
    0.00000E+00         0.00000E+00        -0.64558E+08
 
   -0.62597E+08         0.34572E+06         0.00000E+00
    0.34572E+06        -0.49917E+08         0.00000E+00
    0.00000E+00         0.00000E+00        -0.64559E+08
 
   -0.62626E+08         0.38726E+06         0.00000E+00
    0.38726E+06        -0.49902E+08         0.00000E+00
    0.00000E+00         0.00000E+00        -0.64559E+08
 
   -0.62657E+08         0.43042E+06         0.00000E+00
    0.43042E+06        -0.49886E+08         0.00000E+00
    0.00000E+00         0.00000E+00        -0.64559E+08
 
   -0.62690E+08         0.47520E+06         0.00000E+00
    0.47520E+06        -0.49869E+08         0.00000E+00
    0.00000E+00         0.00000E+00        -0.64559E+08
 
   -0.62725E+08         0.52163E+06         0.00000E+00
    0.52163E+06        -0.49851E+08         0.00000E+00
    0.00000E+00         0.00000E+00        -0.64559E+08
 
   -0.62762E+08         0.56972E+06         0.00000E+00
    0.56972E+06        -0.49832E+08         0.00000E+00
    0.00000E+00         0.00000E+00        -0.64559E+08
 
   -0.62801E+08         0.61947E+06         0.00000E+00
    0.61947E+06        -0.49813E+08         0.00000E+00
    0.00000E+00         0.00000E+00        -0.64559E+08
 
   -0.62841E+08         0.67090E+06         0.00000E+00
    0.67090E+06        -0.49792E+08         0.00000E+00
    0.00000E+00         0.00000E+00        -0.64559E+08
 
   -0.62883E+08         0.72400E+06         0.00000E+00
    0.72400E+06        -0.49771E+08         0.00000E+00
    0.00000E+00         0.00000E+00        -0.64559E+08
 
   -0.62926E+08         0.77877E+06         0.00000E+00
    0.77877E+06        -0.49750E+08         0.00000E+00
    0.00000E+00         0.00000E+00        -0.64560E+08
 
   -0.62970E+08         0.83523E+06         0.00000E+00
    0.83523E+06        -0.49727E+08         0.00000E+00
    0.00000E+00         0.00000E+00        -0.64560E+08
 
   -0.63016E+08         0.89335E+06         0.00000E+00
    0.89335E+06        -0.49704E+08         0.00000E+00
    0.00000E+00         0.00000E+00        -0.64560E+08
 
   -0.63063E+08         0.95316E+06         0.00000E+00
    0.95316E+06        -0.49681E+08         0.00000E+00
    0.00000E+00         0.00000E+00        -0.64560E+08
 
   -0.63111E+08         0.10146E+07         0.00000E+00
    0.10146E+07        -0.49657E+08         0.00000E+00
    0.00000E+00         0.00000E+00        -0.64560E+08
 
   -0.63161E+08         0.10778E+07         0.00000E+00
    0.10778E+07        -0.49632E+08         0.00000E+00
    0.00000E+00         0.00000E+00        -0.64560E+08
 
   -0.63211E+08         0.11425E+07         0.00000E+00
    0.11425E+07        -0.49607E+08         0.00000E+00
    0.00000E+00         0.00000E+00        -0.64560E+08
 
   -0.63262E+08         0.12090E+07         0.00000E+00
    0.12090E+07        -0.49582E+08         0.00000E+00
    0.00000E+00         0.00000E+00        -0.64560E+08
 
   -0.63313E+08         0.12770E+07         0.00000E+00
    0.12770E+07        -0.49556E+08         0.00000E+00
    0.00000E+00         0.00000E+00        -0.64561E+08
 
   -0.63366E+08         0.13467E+07         0.00000E+00
    0.13467E+07        -0.49530E+08         0.00000E+00
    0.00000E+00         0.00000E+00        -0.64561E+08
 
   -0.63419E+08         0.14181E+07         0.00000E+00
    0.14181E+07        -0.49504E+08         0.00000E+00
    0.00000E+00         0.00000E+00        -0.64561E+08
 
   -0.63473E+08         0.14910E+07         0.00000E+00
    0.14910E+07        -0.49477E+08         0.00000E+00
    0.00000E+00         0.00000E+00        -0.64561E+08
 
   -0.63527E+08         0.15655E+07         0.00000E+00
    0.15655E+07        -0.49450E+08         0.00000E+00
    0.00000E+00         0.00000E+00        -0.64561E+08
 
   -0.63582E+08         0.16416E+07         0.00000E+00
    0.16416E+07        -0.49423E+08         0.00000E+00
    0.00000E+00         0.00000E+00        -0.64561E+08
 
   -0.63637E+08         0.17193E+07         0.00000E+00
    0.17193E+07        -0.49395E+08         0.00000E+00
    0.00000E+00         0.00000E+00        -0.64561E+08
 
   -0.63692E+08         0.17985E+07         0.00000E+00
    0.17985E+07        -0.49368E+08         0.00000E+00
    0.00000E+00         0.00000E+00        -0.64561E+08
 
   -0.63748E+08         0.18793E+07         0.00000E+00
    0.18793E+07        -0.49340E+08         0.00000E+00
    0.00000E+00         0.00000E+00        -0.64561E+08
 
   -0.63804E+08         0.19615E+07         0.00000E+00
    0.19615E+07        -0.49312E+08         0.00000E+00
    0.00000E+00         0.00000E+00        -0.64561E+08
 
   -0.63860E+08         0.20453E+07         0.00000E+00
    0.20453E+07        -0.49284E+08         0.00000E+00
    0.00000E+00         0.00000E+00        -0.64561E+08
 
   -0.63917E+08         0.21306E+07         0.00000E+00
    0.21306E+07        -0.49256E+08         0.00000E+00
    0.00000E+00         0.00000E+00        -0.64562E+08
 
   -0.63973E+08         0.22174E+07         0.00000E+00
    0.22174E+07        -0.49228E+08         0.00000E+00
    0.00000E+00         0.00000E+00        -0.64562E+08
 
   -0.64030E+08         0.23056E+07         0.00000E+00
    0.23056E+07        -0.49200E+08         0.00000E+00
    0.00000E+00         0.00000E+00        -0.64562E+08
 
   -0.64086E+08         0.23953E+07         0.00000E+00
    0.23953E+07        -0.49171E+08         0.00000E+00
    0.00000E+00         0.00000E+00        -0.64562E+08
 
   -0.64143E+08         0.24863E+07         0.00000E+00
    0.24863E+07        -0.49143E+08         0.00000E+00
    0.00000E+00         0.00000E+00        -0.64562E+08
 
   -0.64199E+08         0.25788E+07         0.00000E+00
    0.25788E+07        -0.49115E+08         0.00000E+00
    0.00000E+00         0.00000E+00        -0.64562E+08
 
   -0.64256E+08         0.26726E+07         0.00000E+00
    0.26726E+07        -0.49087E+08         0.00000E+00
    0.00000E+00         0.00000E+00        -0.64562E+08
 
   -0.64312E+08         0.27678E+07         0.00000E+00
    0.27678E+07        -0.49059E+08         0.00000E+00
    0.00000E+00         0.00000E+00        -0.64562E+08
 
   -0.64368E+08         0.28643E+07         0.00000E+00
    0.28643E+07        -0.49031E+08         0.00000E+00
    0.00000E+00         0.00000E+00        -0.64562E+08
 
   -0.64424E+08         0.29622E+07         0.00000E+00
    0.29622E+07        -0.49003E+08         0.00000E+00
    0.00000E+00         0.00000E+00        -0.64562E+08
 
   -0.64479E+08         0.30613E+07         0.00000E+00
    0.30613E+07        -0.48975E+08         0.00000E+00
    0.00000E+00         0.00000E+00        -0.64562E+08
 
   -0.64534E+08         0.31616E+07         0.00000E+00
    0.31616E+07        -0.48947E+08         0.00000E+00
    0.00000E+00         0.00000E+00        -0.64562E+08
 
   -0.62299E+08         0.16400E+05         0.00000E+00
    0.16400E+05        -0.50000E+08         0.00000E+00
    0.00000E+00         0.00000E+00        -0.64050E+08
 
   -0.62295E+08         0.51460E+05         0.00000E+00
    0.51460E+05        -0.49998E+08         0.00000E+00
    0.00000E+00         0.00000E+00        -0.64050E+08
 
   -0.62293E+08         0.87435E+05         0.00000E+00
    0.87435E+05        -0.49995E+08         0.00000E+00
    0.00000E+00         0.00000E+00        -0.64050E+08
 
   -0.62295E+08         0.12439E+06         0.00000E+00
    0.12439E+06        -0.49991E+08         0.00000E+00
    0.00000E+00         0.00000E+00        -0.64050E+08
 
   -0.62299E+08         0.16238E+06         0.00000E+00
    0.16238E+06        -0.49985E+08         0.00000E+00
    0.00000E+00         0.00000E+00        -0.64050E+08
 
   -0.62307E+08         0.20146E+06         0.00000E+00
    0.20146E+06        -0.49978E+08         0.00000E+00
    0.00000E+00         0.00000E+00        -0.64050E+08
 
   -0.62316E+08         0.24168E+06         0.00000E+00
    0.24168E+06        -0.49970E+08         0.00000E+00
    0.00000E+00         0.00000E+00        -0.64050E+08
 
   -0.62329E+08         0.28309E+06         0.00000E+00
    0.28309E+06        -0.49961E+08         0.00000E+00
    0.00000E+00         0.00000E+00        -0.64050E+08
 
   -0.62344E+08         0.32573E+06         0.00000E+00
    0.32573E+06        -0.49950E+08         0.00000E+00
    0.00000E+00         0.00000E+00        -0.64051E+08
 
   -0.62361E+08         0.36963E+06         0.00000E+00
    0.36963E+06        -0.49939E+08         0.00000E+00
    0.00000E+00         0.00000E+00        -0.64051E+08
 
   -0.62380E+08         0.41484E+06         0.00000E+00
    0.41484E+06        -0.49926E+08         0.00000E+00
    0.00000E+00         0.00000E+00        -0.64051E+08
 
   -0.62402E+08         0.46138E+06         0.00000E+00
    0.46138E+06        -0.49912E+08         0.00000E+00
    0.00000E+00         0.00000E+00        -0.64051E+08
 
   -0.62425E+08         0.50927E+06         0.00000E+00
    0.50927E+06        -0.49898E+08         0.00000E+00
    0.00000E+00         0.00000E+00        -0.64051E+08
 
   -0.62451E+08         0.55855E+06         0.00000E+00
    0.55855E+06        -0.49882E+08         0.00000E+00
    0.00000E+00         0.00000E+00        -0.64051E+08
 
   -0.62478E+08         0.60923E+06         0.00000E+00
    0.60923E+06        -0.49866E+08         0.00000E+00
    0.00000E+00         0.00000E+00        -0.64051E+08
 
   -0.62507E+08         0.66134E+06         0.00000E+00
    0.66134E+06        -0.49849E+08         0.00000E+00
    0.00000E+00         0.00000E+00        -0.64052E+08
 
   -0.62538E+08         0.71488E+06         0.00000E+00
    0.71488E+06        -0.49831E+08         0.00000E+00
    0.00000E+00         0.00000E+00        -0.64052E+08
 
   -0.62571E+08         0.76988E+06         0.00000E+00
    0.76988E+06        -0.49813E+08         0.00000E+00
    0.00000E+00         0.00000E+00        -0.64052E+08
 
   -0.62605E+08         0.82634E+06         0.00000E+00
    0.82634E+06        -0.49794E+08         0.00000E+00
    0.00000E+00         0.00000E+00        -0.64052E+08
 
   -0.62640E+08         0.88426E+06         0.00000E+00
    0.88426E+06        -0.49774E+08         0.00000E+00
    0.00000E+00         0.00000E+00        -0.64052E+08
 
   -0.62677E+08         0.94367E+06         0.00000E+00
    0.94367E+06        -0.49753E+08         0.00000E+00
    0.00000E+00         0.00000E+00        -0.64053E+08
 
   -0.62715E+08         0.10046E+07         0.00000E+00
    0.10046E+07        -0.49732E+08         0.00000E+00
    0.00000E+00         0.00000E+00        -0.64053E+08
 
   -0.62754E+08         0.10669E+07         0.00000E+00
    0.10669E+07        -0.49711E+08         0.00000E+00
    0.00000E+00         0.00000E+00        -0.64053E+08
 
   -0.62794E+08         0.11308E+07         0.00000E+00
    0.11308E+07        -0.49689E+08         0.00000E+00
    0.00000E+00         0.00000E+00        -0.64053E+08
 
   -0.62835E+08         0.11962E+07         0.00000E+00
    0.11962E+07        -0.49667E+08         0.00000E+00
    0.00000E+00         0.00000E+00        -0.64053E+08
 
   -0.62878E+08         0.12630E+07         0.00000E+00
    0.12630E+07        -0.49644E+08         0.00000E+00
    0.00000E+00         0.00000E+00        -0.64053E+08
 
   -0.62921E+08         0.13313E+07         0.00000E+00
    0.13313E+07        -0.49621E+08         0.00000E+00
    0.00000E+00         0.00000E+00        -0.64054E+08
 
   -0.62965E+08         0.14011E+07         0.00000E+00
    0.14011E+07        -0.49597E+08         0.00000E+00
    0.00000E+00         0.00000E+00        -0.64054E+08
 
   -0.63010E+08         0.14724E+07         0.00000E+00
    0.14724E+07        -0.49573E+08         0.00000E+00
    0.00000E+00         0.00000E+00        -0.64054E+08
 
   -0.63055E+08         0.15452E+07         0.00000E+00
    0.15452E+07        -0.49549E+08         0.00000E+00
    0.00000E+00         0.00000E+00        -0.64054E+08
 
   -0.63101E+08         0.16194E+07         0.00000E+00
    0.16194E+07        -0.49525E+08         0.00000E+00
    0.00000E+00         0.00000E+00        -0.64054E+08
 
   -0.63148E+08         0.16950E+07         0.00000E+00
    0.16950E+07        -0.49500E+08         0.00000E+00
    0.00000E+00         0.00000E+00        -0.64054E+08
 
   -0.63195E+08         0.17722E+07         0.00000E+00
    0.17722E+07        -0.49476E+08         0.00000E+00
    0.00000E+00         0.00000E+00        -0.64055E+08
 
   -0.63243E+08         0.18507E+07         0.00000E+00
    0.18507E+07        -0.49451E+08         0.00000E+00
    0.00000E+00         0.00000E+00        -0.64055E+08
 
   -0.63291E+08         0.19307E+07         0.00000E+00
    0.19307E+07        -0.49426E+08         0.00000E+00
    0.00000E+00         0.00000E+00        -0.64055E+08
 
   -0.63339E+08         0.20121E+07         0.00000E+00
    0.20121E+07        -0.49400E+08         0.00000E+00
    0.00000E+00         0.00000E+00        -0.64055E+08
 
   -0.63388E+08         0.20949E+07         0.00000E+00
    0.20949E+07        -0.49375E+08         0.00000E+00
    0.00000E+00         0.00000E+00        -0.64055E+08
 
   -0.63437E+08         0.21791E+07         0.00000E+00
    0.21791E+07        -0.49350E+08         0.00000E+00
    0.00000E+00         0.00000E+00        -0.64055E+08
 
   -0.63486E+08         0.22646E+07         0.00000E+00
    0.22646E+07        -0.49324E+08         0.00000E+00
    0.00000E+00         0.00000E+00        -0.64055E+08
 
   -0.63536E+08         0.23515E+07         0.00000E+00
    0.23515E+07        -0.49299E+08         0.00000E+00
    0.00000E+00         0.00000E+00        -0.64056E+08
 
   -0.63585E+08         0.24398E+07         0.00000E+00
    0.24398E+07        -0.49273E+08         0.00000E+00
    0.00000E+00         0.00000E+00        -0.64056E+08
 
   -0.63635E+08         0.25294E+07         0.00000E+00
    0.25294E+07        -0.49248E+08         0.00000E+00
    0.00000E+00         0.00000E+00        -0.64056E+08
 
   -0.63685E+08         0.26203E+07         0.00000E+00
    0.26203E+07        -0.49222E+08         0.00000E+00
    0.00000E+00         0.00000E+00        -0.64056E+08
 
   -0.63734E+08         0.27126E+07         0.00000E+00
    0.27126E+07        -0.49197E+08         0.00000E+00
    0.00000E+00         0.00000E+00        -0.64056E+08
 
   -0.63784E+08         0.28061E+07         0.00000E+00
    0.28061E+07        -0.49172E+08         0.00000E+00
    0.00000E+00         0.00000E+00        -0.64056E+08
 
   -0.63834E+08         0.29009E+07         0.00000E+00
    0.29009E+07        -0.49146E+08         0.00000E+00
    0.00000E+00         0.00000E+00        -0.64056E+08
 
   -0.63883E+08         0.29969E+07         0.00000E+00
    0.29969E+07        -0.49121E+08         0.00000E+00
    0.00000E+00         0.00000E+00        -0.64056E+08
 
   -0.63933E+08         0.30941E+07         0.00000E+00
    0.30941E+07        -0.49096E+08         0.00000E+00
    0.00000E+00         0.00000E+00        -0.64056E+08
 
   -0.63982E+08         0.31926E+07         0.00000E+00
    0.31926E+07        -0.49071E+08         0.00000E+00
    0.00000E+00         0.00000E+00        -0.64056E+08
 
   -0.64032E+08         0.32922E+07         0.00000E+00
    0.32922E+07        -0.49047E+08         0.00000E+00
    0.00000E+00         0.00000E+00        -0.64056E+08
 
   -0.62108E+08         0.20126E+05         0.00000E+00
    0.20126E+05        -0.50000E+08         0.00000E+00
    0.00000E+00         0.00000E+00        -0.63546E+08
 
   -0.62100E+08         0.62034E+05         0.00000E+00
    0.62034E+05        -0.49998E+08         0.00000E+00
    0.00000E+00         0.00000E+00        -0.63546E+08
 
   -0.62095E+08         0.10463E+06         0.00000E+00
    0.10463E+06        -0.49996E+08         0.00000E+00
    0.00000E+00         0.00000E+00        -0.63546E+08
 
   -0.62092E+08         0.14798E+06         0.00000E+00
    0.14798E+06        -0.49992E+08         0.00000E+00
    0.00000E+00         0.00000E+00        -0.63546E+08
 
   -0.62091E+08         0.19214E+06         0.00000E+00
    0.19214E+06        -0.49987E+08         0.00000E+00
    0.00000E+00         0.00000E+00        -0.63546E+08
 
   -0.62094E+08         0.23716E+06         0.00000E+00
    0.23716E+06        -0.49981E+08         0.00000E+00
    0.00000E+00         0.00000E+00        -0.63546E+08
 
   -0.62098E+08         0.28309E+06         0.00000E+00
    0.28309E+06        -0.49974E+08         0.00000E+00
    0.00000E+00         0.00000E+00        -0.63547E+08
 
   -0.62105E+08         0.32998E+06         0.00000E+00
    0.32998E+06        -0.49965E+08         0.00000E+00
    0.00000E+00         0.00000E+00        -0.63547E+08
 
   -0.62114E+08         0.37786E+06         0.00000E+00
    0.37786E+06        -0.49956E+08         0.00000E+00
    0.00000E+00         0.00000E+00        -0.63547E+08
 
   -0.62126E+08         0.42679E+06         0.00000E+00
    0.42679E+06        -0.49946E+08         0.00000E+00
    0.00000E+00         0.00000E+00        -0.63547E+08
 
   -0.62139E+08         0.47679E+06         0.00000E+00
    0.47679E+06        -0.49934E+08         0.00000E+00
    0.00000E+00         0.00000E+00        -0.63547E+08
 
   -0.62154E+08         0.52789E+06         0.00000E+00
    0.52789E+06        -0.49922E+08         0.00000E+00
    0.00000E+00         0.00000E+00        -0.63547E+08
 
   -0.62172E+08         0.58014E+06         0.00000E+00
    0.58014E+06        -0.49909E+08         0.00000E+00
    0.00000E+00         0.00000E+00        -0.63548E+08
 
   -0.62191E+08         0.63355E+06         0.00000E+00
    0.63355E+06        -0.49896E+08         0.00000E+00
    0.00000E+00         0.00000E+00        -0.63548E+08
 
   -0.62212E+08         0.68816E+06         0.00000E+00
    0.68816E+06        -0.49881E+08         0.00000E+00
    0.00000E+00         0.00000E+00        -0.63548E+08
 
   -0.62234E+08         0.74398E+06         0.00000E+00
    0.74398E+06        -0.49866E+08         0.00000E+00
    0.00000E+00         0.00000E+00        -0.63548E+08
 
   -0.62258E+08         0.80103E+06         0.00000E+00
    0.80103E+06        -0.49850E+08         0.00000E+00
    0.00000E+00         0.00000E+00        -0.63548E+08
 
   -0.62284E+08         0.85933E+06         0.00000E+00
    0.85933E+06        -0.49833E+08         0.00000E+00
    0.00000E+00         0.00000E+00        -0.63549E+08
 
   -0.62311E+08         0.91890E+06         0.00000E+00
    0.91890E+06        -0.49816E+08         0.00000E+00
    0.00000E+00         0.00000E+00        -0.63549E+08
 
   -0.62340E+08         0.97975E+06         0.00000E+00
    0.97975E+06        -0.49798E+08         0.00000E+00
    0.00000E+00         0.00000E+00        -0.63549E+08
 
   -0.62369E+08         0.10419E+07         0.00000E+00
    0.10419E+07        -0.49780E+08         0.00000E+00
    0.00000E+00         0.00000E+00        -0.63549E+08
 
   -0.62400E+08         0.11053E+07         0.00000E+00
    0.11053E+07        -0.49761E+08         0.00000E+00
    0.00000E+00         0.00000E+00        -0.63550E+08
 
   -0.62433E+08         0.11701E+07         0.00000E+00
    0.11701E+07        -0.49742E+08         0.00000E+00
    0.00000E+00         0.00000E+00        -0.63550E+08
 
   -0.62466E+08         0.12362E+07         0.00000E+00
    0.12362E+07        -0.49722E+08         0.00000E+00
    0.00000E+00         0.00000E+00        -0.63550E+08
 
   -0.62500E+08         0.13036E+07         0.00000E+00
    0.13036E+07        -0.49702E+08         0.00000E+00
    0.00000E+00         0.00000E+00        -0.63550E+08
 
   -0.62535E+08         0.13723E+07         0.00000E+00
    0.13723E+07        -0.49681E+08         0.00000E+00
    0.00000E+00         0.00000E+00        -0.63551E+08
 
   -0.62572E+08         0.14423E+07         0.00000E+00
    0.14423E+07        -0.49660E+08         0.00000E+00
    0.00000E+00         0.00000E+00        -0.63551E+08
 
   -0.62608E+08         0.15137E+07         0.00000E+00
    0.15137E+07        -0.49639E+08         0.00000E+00
    0.00000E+00         0.00000E+00        -0.63551E+08
 
   -0.62646E+08         0.15864E+07         0.00000E+00
    0.15864E+07        -0.49618E+08         0.00000E+00
    0.00000E+00         0.00000E+00        -0.63551E+08
 
   -0.62685E+08         0.16604E+07         0.00000E+00
    0.16604E+07        -0.49596E+08         0.00000E+00
    0.00000E+00         0.00000E+00        -0.63551E+08
 
   -0.62724E+08         0.17357E+07         0.00000E+00
    0.17357E+07        -0.49574E+08         0.00000E+00
    0.00000E+00         0.00000E+00        -0.63552E+08
 
   -0.62764E+08         0.18124E+07         0.00000E+00
    0.18124E+07        -0.49552E+08         0.00000E+00
    0.00000E+00         0.00000E+00        -0.63552E+08
 
   -0.62804E+08         0.18903E+07         0.00000E+00
    0.18903E+07        -0.49529E+08         0.00000E+00
    0.00000E+00         0.00000E+00        -0.63552E+08
 
   -0.62845E+08         0.19696E+07         0.00000E+00
    0.19696E+07        -0.49507E+08         0.00000E+00
    0.00000E+00         0.00000E+00        -0.63552E+08
 
   -0.62886E+08         0.20502E+07         0.00000E+00
    0.20502E+07        -0.49484E+08         0.00000E+00
    0.00000E+00         0.00000E+00        -0.63553E+08
 
   -0.62928E+08         0.21320E+07         0.00000E+00
    0.21320E+07        -0.49462E+08         0.00000E+00
    0.00000E+00         0.00000E+00        -0.63553E+08
 
   -0.62970E+08         0.22152E+07         0.00000E+00
    0.22152E+07        -0.49439E+08         0.00000E+00
    0.00000E+00         0.00000E+00        -0.63553E+08
 
   -0.63012E+08         0.22996E+07         0.00000E+00
    0.22996E+07        -0.49416E+08         0.00000E+00
    0.00000E+00         0.00000E+00        -0.63553E+08
 
   -0.63055E+08         0.23853E+07         0.00000E+00
    0.23853E+07        -0.49393E+08         0.00000E+00
    0.00000E+00         0.00000E+00        -0.63553E+08
 
   -0.63098E+08         0.24723E+07         0.00000E+00
    0.24723E+07        -0.49371E+08         0.00000E+00
    0.00000E+00         0.00000E+00        -0.63553E+08
 
   -0.63141E+08         0.25605E+07         0.00000E+00
    0.25605E+07        -0.49348E+08         0.00000E+00
    0.00000E+00         0.00000E+00        -0.63553E+08
 
   -0.63184E+08         0.26499E+07         0.00000E+00
    0.26499E+07        -0.49325E+08         0.00000E+00
    0.00000E+00         0.00000E+00        -0.63554E+08
 
   -0.63228E+08         0.27406E+07         0.00000E+00
    0.27406E+07        -0.49302E+08         0.00000E+00
    0.00000E+00         0.00000E+00        -0.63554E+08
 
   -0.63271E+08         0.28324E+07         0.00000E+00
    0.28324E+07        -0.49280E+08         0.00000E+00
    0.00000E+00         0.00000E+00        -0.63554E+08
 
   -0.63315E+08         0.29255E+07         0.00000E+00
    0.29255E+07        -0.49257E+08         0.00000E+00
    0.00000E+00         0.00000E+00        -0.63554E+08
 
   -0.63358E+08         0.30197E+07         0.00000E+00
    0.30197E+07        -0.49235E+08         0.00000E+00
    0.00000E+00         0.00000E+00        -0.63554E+08
 
   -0.63402E+08         0.31152E+07         0.00000E+00
    0.31152E+07        -0.49212E+08         0.00000E+00
    0.00000E+00         0.00000E+00        -0.63554E+08
 
   -0.63445E+08         0.32118E+07         0.00000E+00
    0.32118E+07        -0.49190E+08         0.00000E+00
    0.00000E+00         0.00000E+00        -0.63554E+08
 
   -0.63489E+08         0.33095E+07         0.00000E+00
    0.33095E+07        -0.49168E+08         0.00000E+00
    0.00000E+00         0.00000E+00        -0.63554E+08
 
   -0.63532E+08         0.34084E+07         0.00000E+00
    0.34084E+07        -0.49146E+08         0.00000E+00
    0.00000E+00         0.00000E+00        -0.63554E+08
 
   -0.61885E+08         0.23356E+05         0.00000E+00
    0.23356E+05        -0.50000E+08         0.00000E+00
    0.00000E+00         0.00000E+00        -0.63047E+08
 
   -0.61874E+08         0.71261E+05         0.00000E+00
    0.71261E+05        -0.49999E+08         0.00000E+00
    0.00000E+00         0.00000E+00        -0.63047E+08
 
   -0.61865E+08         0.11968E+06         0.00000E+00
    0.11968E+06        -0.49996E+08         0.00000E+00
    0.00000E+00         0.00000E+00        -0.63047E+08
 
   -0.61859E+08         0.16867E+06         0.00000E+00
    0.16867E+06        -0.49993E+08         0.00000E+00
    0.00000E+00         0.00000E+00        -0.63047E+08
 
   -0.61855E+08         0.21828E+06         0.00000E+00
    0.21828E+06        -0.49989E+08         0.00000E+00
    0.00000E+00         0.00000E+00        -0.63047E+08
 
   -0.61853E+08         0.26857E+06         0.00000E+00
    0.26857E+06        -0.49983E+08         0.00000E+00
    0.00000E+00         0.00000E+00        -0.63047E+08
 
   -0.61853E+08         0.31958E+06         0.00000E+00
    0.31958E+06        -0.49977E+08         0.00000E+00
    0.00000E+00         0.00000E+00        -0.63047E+08
 
   -0.61856E+08         0.37135E+06         0.00000E+00
    0.37135E+06        -0.49970E+08         0.00000E+00
    0.00000E+00         0.00000E+00        -0.63048E+08
 
   -0.61861E+08         0.42394E+06         0.00000E+00
    0.42394E+06        -0.49961E+08         0.00000E+00
    0.00000E+00         0.00000E+00        -0.63048E+08
 
   -0.61867E+08         0.47737E+06         0.00000E+00
    0.47737E+06        -0.49952E+08         0.00000E+00
    0.00000E+00         0.00000E+00        -0.63048E+08
 
   -0.61876E+08         0.53169E+06         0.00000E+00
    0.53169E+06        -0.49942E+08         0.00000E+00
    0.00000E+00         0.00000E+00        -0.63048E+08
 
   -0.61886E+08         0.58692E+06         0.00000E+00
    0.58692E+06        -0.49932E+08         0.00000E+00
    0.00000E+00         0.00000E+00        -0.63048E+08
 
   -0.61898E+08         0.64311E+06         0.00000E+00
    0.64311E+06        -0.49920E+08         0.00000E+00
    0.00000E+00         0.00000E+00        -0.63049E+08
 
   -0.61912E+08         0.70027E+06         0.00000E+00
    0.70027E+06        -0.49908E+08         0.00000E+00
    0.00000E+00         0.00000E+00        -0.63049E+08
 
   -0.61927E+08         0.75844E+06         0.00000E+00
    0.75844E+06        -0.49895E+08         0.00000E+00
    0.00000E+00         0.00000E+00        -0.63049E+08
 
   -0.61944E+08         0.81764E+06         0.00000E+00
    0.81764E+06        -0.49882E+08         0.00000E+00
    0.00000E+00         0.00000E+00        -0.63049E+08
 
   -0.61962E+08         0.87789E+06         0.00000E+00
    0.87789E+06        -0.49868E+08         0.00000E+00
    0.00000E+00         0.00000E+00        -0.63050E+08
 
   -0.61982E+08         0.93921E+06         0.00000E+00
    0.93921E+06        -0.49853E+08         0.00000E+00
    0.00000E+00         0.00000E+00        -0.63050E+08
 
   -0.62003E+08         0.10016E+07         0.00000E+00
    0.10016E+07        -0.49838E+08         0.00000E+00
    0.00000E+00         0.00000E+00        -0.63050E+08
 
   -0.62026E+08         0.10651E+07         0.00000E+00
    0.10651E+07        -0.49822E+08         0.00000E+00
    0.00000E+00         0.00000E+00        -0.63050E+08
 
   -0.62049E+08         0.11298E+07         0.00000E+00
    0.11298E+07        -0.49805E+08         0.00000E+00
    0.00000E+00         0.00000E+00        -0.63051E+08
 
   -0.62074E+08         0.11956E+07         0.00000E+00
    0.11956E+07        -0.49789E+08         0.00000E+00
    0.00000E+00         0.00000E+00        -0.63051E+08
 
   -0.62100E+08         0.12625E+07         0.00000E+00
    0.12625E+07        -0.49771E+08         0.00000E+00
    0.00000E+00         0.00000E+00        -0.63051E+08
 
   -0.62127E+08         0.13306E+07         0.00000E+00
    0.13306E+07        -0.49754E+08         0.00000E+00
    0.00000E+00         0.00000E+00        -0.63052E+08
 
   -0.62155E+08         0.13998E+07         0.00000E+00
    0.13998E+07        -0.49736E+08         0.00000E+00
    0.00000E+00         0.00000E+00        -0.63052E+08
 
   -0.62184E+08         0.14702E+07         0.00000E+00
    0.14702E+07        -0.49717E+08         0.00000E+00
    0.00000E+00         0.00000E+00        -0.63052E+08
 
   -0.62214E+08         0.15418E+07         0.00000E+00
    0.15418E+07        -0.49699E+08         0.00000E+00
    0.00000E+00         0.00000E+00        -0.63052E+08
 
   -0.62245E+08         0.16146E+07         0.00000E+00
    0.16146E+07        -0.49680E+08         0.00000E+00
    0.00000E+00         0.00000E+00        -0.63053E+08
 
   -0.62277E+08         0.16885E+07         0.00000E+00
    0.16885E+07        -0.49661E+08         0.00000E+00
    0.00000E+00         0.00000E+00        -0.63053E+08
 
   -0.62309E+08         0.17637E+07         0.00000E+00
    0.17637E+07        -0.49641E+08         0.00000E+00
    0.00000E+00         0.00000E+00        -0.63053E+08
 
   -0.62342E+08         0.18400E+07         0.00000E+00
    0.18400E+07        -0.49622E+08         0.00000E+00
    0.00000E+00         0.00000E+00        -0.63054E+08
 
   -0.62375E+08         0.19175E+07         0.00000E+00
    0.19175E+07        -0.49602E+08         0.00000E+00
    0.00000E+00         0.00000E+00        -0.63054E+08
 
   -0.62409E+08         0.19962E+07         0.00000E+00
    0.19962E+07        -0.49582E+08         0.00000E+00
    0.00000E+00         0.00000E+00        -0.63054E+08
 
   -0.62444E+08         0.20761E+07         0.00000E+00
    0.20761E+07        -0.49562E+08         0.00000E+00
    0.00000E+00         0.00000E+00        -0.63054E+08
 
   -0.62479E+08         0.21571E+07         0.00000E+00
    0.21571E+07        -0.49542E+08         0.00000E+00
    0.00000E+00         0.00000E+00        -0.63055E+08
 
   -0.62514E+08         0.22394E+07         0.00000E+00
    0.22394E+07        -0.49522E+08         0.00000E+00
    0.00000E+00         0.00000E+00        -0.63055E+08
 
   -0.62550E+08         0.23228E+07         0.00000E+00
    0.23228E+07        -0.49502E+08         0.00000E+00
    0.00000E+00         0.00000E+00        -0.63055E+08
 
   -0.62587E+08         0.24073E+07         0.00000E+00
    0.24073E+07        -0.49481E+08         0.00000E+00
    0.00000E+00         0.00000E+00        -0.63055E+08
 
   -0.62623E+08         0.24930E+07         0.00000E+00
    0.24930E+07        -0.49461E+08         0.00000E+00
    0.00000E+00         0.00000E+00        -0.63055E+08
 
   -0.62660E+08         0.25799E+07         0.00000E+00
    0.25799E+07        -0.49441E+08         0.00000E+00
    0.00000E+00         0.00000E+00        -0.63056E+08
 
   -0.62697E+08         0.26680E+07         0.00000E+00
    0.26680E+07        -0.49421E+08         0.00000E+00
    0.00000E+00         0.00000E+00        -0.63056E+08
 
   -0.62735E+08         0.27571E+07         0.00000E+00
    0.27571E+07        -0.49400E+08         0.00000E+00
    0.00000E+00         0.00000E+00        -0.63056E+08
 
   -0.62772E+08         0.28474E+07         0.00000E+00
    0.28474E+07        -0.49380E+08         0.00000E+00
    0.00000E+00         0.00000E+00        -0.63056E+08
 
   -0.62810E+08         0.29389E+07         0.00000E+00
    0.29389E+07        -0.49360E+08         0.00000E+00
    0.00000E+00         0.00000E+00        -0.63056E+08
 
   -0.62848E+08         0.30314E+07         0.00000E+00
    0.30314E+07        -0.49340E+08         0.00000E+00
    0.00000E+00         0.00000E+00        -0.63056E+08
 
   -0.62886E+08         0.31251E+07         0.00000E+00
    0.31251E+07        -0.49321E+08         0.00000E+00
    0.00000E+00         0.00000E+00        -0.63056E+08
 
   -0.62924E+08         0.32198E+07         0.00000E+00
    0.32198E+07        -0.49301E+08         0.00000E+00
    0.00000E+00         0.00000E+00        -0.63056E+08
 
   -0.62962E+08         0.33157E+07         0.00000E+00
    0.33157E+07        -0.49281E+08         0.00000E+00
    0.00000E+00         0.00000E+00        -0.63056E+08
 
   -0.63000E+08         0.34126E+07         0.00000E+00
    0.34126E+07        -0.49262E+08         0.00000E+00
    0.00000E+00         0.00000E+00        -0.63057E+08
 
   -0.63038E+08         0.35106E+07         0.00000E+00
    0.35106E+07        -0.49243E+08         0.00000E+00
    0.00000E+00         0.00000E+00        -0.63057E+08
 
   -0.61633E+08         0.26139E+05         0.00000E+00
    0.26139E+05        -0.50000E+08         0.00000E+00
    0.00000E+00         0.00000E+00        -0.62552E+08
 
   -0.61620E+08         0.79250E+05         0.00000E+00
    0.79250E+05        -0.49999E+08         0.00000E+00
    0.00000E+00         0.00000E+00        -0.62553E+08
 
   -0.61609E+08         0.13274E+06         0.00000E+00
    0.13274E+06        -0.49997E+08         0.00000E+00
    0.00000E+00         0.00000E+00        -0.62553E+08
 
   -0.61600E+08         0.18665E+06         0.00000E+00
    0.18665E+06        -0.49994E+08         0.00000E+00
    0.00000E+00         0.00000E+00        -0.62553E+08
 
   -0.61593E+08         0.24105E+06         0.00000E+00
    0.24105E+06        -0.49990E+08         0.00000E+00
    0.00000E+00         0.00000E+00        -0.62553E+08
 
   -0.61588E+08         0.29596E+06         0.00000E+00
    0.29596E+06        -0.49985E+08         0.00000E+00
    0.00000E+00         0.00000E+00        -0.62553E+08
 
   -0.61585E+08         0.35145E+06         0.00000E+00
    0.35145E+06        -0.49980E+08         0.00000E+00
    0.00000E+00         0.00000E+00        -0.62553E+08
 
   -0.61584E+08         0.40755E+06         0.00000E+00
    0.40755E+06        -0.49974E+08         0.00000E+00
    0.00000E+00         0.00000E+00        -0.62553E+08
 
   -0.61585E+08         0.46429E+06         0.00000E+00
    0.46429E+06        -0.49966E+08         0.00000E+00
    0.00000E+00         0.00000E+00        -0.62553E+08
 
   -0.61588E+08         0.52173E+06         0.00000E+00
    0.52173E+06        -0.49959E+08         0.00000E+00
    0.00000E+00         0.00000E+00        -0.62554E+08
 
   -0.61592E+08         0.57989E+06         0.00000E+00
    0.57989E+06        -0.49950E+08         0.00000E+00
    0.00000E+00         0.00000E+00        -0.62554E+08
 
   -0.61598E+08         0.63881E+06         0.00000E+00
    0.63881E+06        -0.49941E+08         0.00000E+00
    0.00000E+00         0.00000E+00        -0.62554E+08
 
   -0.61606E+08         0.69851E+06         0.00000E+00
    0.69851E+06        -0.49931E+08         0.00000E+00
    0.00000E+00         0.00000E+00        -0.62554E+08
 
   -0.61615E+08         0.75903E+06         0.00000E+00
    0.75903E+06        -0.49920E+08         0.00000E+00
    0.00000E+00         0.00000E+00        -0.62555E+08
 
   -0.61626E+08         0.82040E+06         0.00000E+00
    0.82040E+06        -0.49909E+08         0.00000E+00
    0.00000E+00         0.00000E+00        -0.62555E+08
 
   -0.61638E+08         0.88264E+06         0.00000E+00
    0.88264E+06        -0.49897E+08         0.00000E+00
    0.00000E+00         0.00000E+00        -0.62555E+08
 
   -0.61651E+08         0.94577E+06         0.00000E+00
    0.94577E+06        -0.49884E+08         0.00000E+00
    0.00000E+00         0.00000E+00        -0.62556E+08
 
   -0.61666E+08         0.10098E+07         0.00000E+00
    0.10098E+07        -0.49871E+08         0.00000E+00
    0.00000E+00         0.00000E+00        -0.62556E+08
 
   -0.61682E+08         0.10748E+07         0.00000E+00
    0.10748E+07        -0.49858E+08         0.00000E+00
    0.00000E+00         0.00000E+00        -0.62556E+08
 
   -0.61699E+08         0.11407E+07         0.00000E+00
    0.11407E+07        -0.49844E+08         0.00000E+00
    0.00000E+00         0.00000E+00        -0.62557E+08
 
   -0.61718E+08         0.12076E+07         0.00000E+00
    0.12076E+07        -0.49830E+08         0.00000E+00
    0.00000E+00         0.00000E+00        -0.62557E+08
 
   -0.61737E+08         0.12755E+07         0.00000E+00
    0.12755E+07        -0.49815E+08         0.00000E+00
    0.00000E+00         0.00000E+00        -0.62557E+08
 
   -0.61758E+08         0.13444E+07         0.00000E+00
    0.13444E+07        -0.49800E+08         0.00000E+00
    0.00000E+00         0.00000E+00        -0.62558E+08
 
   -0.61780E+08         0.14143E+07         0.00000E+00
    0.14143E+07        -0.49784E+08         0.00000E+00
    0.00000E+00         0.00000E+00        -0.62558E+08
 
   -0.61802E+08         0.14852E+07         0.00000E+00
    0.14852E+07        -0.49768E+08         0.00000E+00
    0.00000E+00         0.00000E+00        -0.62558E+08
 
   -0.61826E+08         0.15571E+07         0.00000E+00
    0.15571E+07        -0.49752E+08         0.00000E+00
    0.00000E+00         0.00000E+00        -0.62559E+08
 
   -0.61850E+08         0.16301E+07         0.00000E+00
    0.16301E+07        -0.49736E+08         0.00000E+00
    0.00000E+00         0.00000E+00        -0.62559E+08
 
   -0.61875E+08         0.17041E+07         0.00000E+00
    0.17041E+07        -0.49719E+08         0.00000E+00
    0.00000E+00         0.00000E+00        -0.62559E+08
 
   -0.61901E+08         0.17792E+07         0.00000E+00
    0.17792E+07        -0.49702E+08         0.00000E+00
    0.00000E+00         0.00000E+00        -0.62560E+08
 
   -0.61928E+08         0.18553E+07         0.00000E+00
    0.18553E+07        -0.49685E+08         0.00000E+00
    0.00000E+00         0.00000E+00        -0.62560E+08
 
   -0.61955E+08         0.19325E+07         0.00000E+00
    0.19325E+07        -0.49668E+08         0.00000E+00
    0.00000E+00         0.00000E+00        -0.62560E+08
 
   -0.61983E+08         0.20108E+07         0.00000E+00
    0.20108E+07        -0.49650E+08         0.00000E+00
    0.00000E+00         0.00000E+00        -0.62560E+08
 
   -0.62011E+08         0.20901E+07         0.00000E+00
    0.20901E+07        -0.49633E+08         0.00000E+00
    0.00000E+00         0.00000E+00        -0.62561E+08
 
   -0.62040E+08         0.21704E+07         0.00000E+00
    0.21704E+07        -0.49615E+08         0.00000E+00
    0.00000E+00         0.00000E+00        -0.62561E+08
 
   -0.62070E+08         0.22519E+07         0.00000E+00
    0.22519E+07        -0.49597E+08         0.00000E+00
    0.00000E+00         0.00000E+00        -0.62561E+08
 
   -0.62100E+08         0.23344E+07         0.00000E+00
    0.23344E+07        -0.49579E+08         0.00000E+00
    0.00000E+00         0.00000E+00        -0.62562E+08
 
   -0.62130E+08         0.24179E+07         0.00000E+00
    0.24179E+07        -0.49562E+08         0.00000E+00
    0.00000E+00         0.00000E+00        -0.62562E+08
 
   -0.62161E+08         0.25026E+07         0.00000E+00
    0.25026E+07        -0.49544E+08         0.00000E+00
    0.00000E+00         0.00000E+00        -0.62562E+08
 
   -0.62192E+08         0.25882E+07         0.00000E+00
    0.25882E+07        -0.49526E+08         0.00000E+00
    0.00000E+00         0.00000E+00        -0.62562E+08
 
   -0.62223E+08         0.26750E+07         0.00000E+00
    0.26750E+07        -0.49508E+08         0.00000E+00
    0.00000E+00         0.00000E+00        -0.62563E+08
 
   -0.62255E+08         0.27628E+07         0.00000E+00
    0.27628E+07        -0.49490E+08         0.00000E+00
    0.00000E+00         0.00000E+00        -0.62563E+08
 
   -0.62287E+08         0.28516E+07         0.00000E+00
    0.28516E+07        -0.49473E+08         0.00000E+00
    0.00000E+00         0.00000E+00        -0.62563E+08
 
   -0.62319E+08         0.29415E+07         0.00000E+00
    0.29415E+07        -0.49455E+08         0.00000E+00
    0.00000E+00         0.00000E+00        -0.62563E+08
 
   -0.62351E+08         0.30324E+07         0.00000E+00
    0.30324E+07        -0.49438E+08         0.00000E+00
    0.00000E+00         0.00000E+00        -0.62563E+08
 
   -0.62384E+08         0.31244E+07         0.00000E+00
    0.31244E+07        -0.49420E+08         0.00000E+00
    0.00000E+00         0.00000E+00        -0.62563E+08
 
   -0.62416E+08         0.32174E+07         0.00000E+00
    0.32174E+07        -0.49403E+08         0.00000E+00
    0.00000E+00         0.00000E+00        -0.62563E+08
 
   -0.62449E+08         0.33114E+07         0.00000E+00
    0.33114E+07        -0.49386E+08         0.00000E+00
    0.00000E+00         0.00000E+00        -0.62564E+08
 
   -0.62482E+08         0.34064E+07         0.00000E+00
    0.34064E+07        -0.49369E+08         0.00000E+00
    0.00000E+00         0.00000E+00        -0.62564E+08
 
   -0.62514E+08         0.35025E+07         0.00000E+00
    0.35025E+07        -0.49352E+08         0.00000E+00
    0.00000E+00         0.00000E+00        -0.62564E+08
 
   -0.62547E+08         0.35996E+07         0.00000E+00
    0.35996E+07        -0.49335E+08         0.00000E+00
    0.00000E+00         0.00000E+00        -0.62564E+08
 
   -0.61357E+08         0.28520E+05         0.00000E+00
    0.28520E+05        -0.50000E+08         0.00000E+00
    0.00000E+00         0.00000E+00        -0.62063E+08
 
   -0.61342E+08         0.86121E+05         0.00000E+00
    0.86121E+05        -0.49999E+08         0.00000E+00
    0.00000E+00         0.00000E+00        -0.62063E+08
 
   -0.61329E+08         0.14399E+06         0.00000E+00
    0.14399E+06        -0.49997E+08         0.00000E+00
    0.00000E+00         0.00000E+00        -0.62063E+08
 
   -0.61318E+08         0.20218E+06         0.00000E+00
    0.20218E+06        -0.49995E+08         0.00000E+00
    0.00000E+00         0.00000E+00        -0.62064E+08
 
   -0.61309E+08         0.26073E+06         0.00000E+00
    0.26073E+06        -0.49991E+08         0.00000E+00
    0.00000E+00         0.00000E+00        -0.62064E+08
 
   -0.61302E+08         0.31968E+06         0.00000E+00
    0.31968E+06        -0.49987E+08         0.00000E+00
    0.00000E+00         0.00000E+00        -0.62064E+08
 
   -0.61297E+08         0.37907E+06         0.00000E+00
    0.37907E+06        -0.49983E+08         0.00000E+00
    0.00000E+00         0.00000E+00        -0.62064E+08
 
   -0.61293E+08         0.43895E+06         0.00000E+00
    0.43895E+06        -0.49977E+08         0.00000E+00
    0.00000E+00         0.00000E+00        -0.62064E+08
 
   -0.61291E+08         0.49935E+06         0.00000E+00
    0.49935E+06        -0.49971E+08         0.00000E+00
    0.00000E+00         0.00000E+00        -0.62064E+08
 
   -0.61290E+08         0.56031E+06         0.00000E+00
    0.56031E+06        -0.49964E+08         0.00000E+00
    0.00000E+00         0.00000E+00        -0.62065E+08
 
   -0.61291E+08         0.62185E+06         0.00000E+00
    0.62185E+06        -0.49957E+08         0.00000E+00
    0.00000E+00         0.00000E+00        -0.62065E+08
 
   -0.61293E+08         0.68402E+06         0.00000E+00
    0.68402E+06        -0.49949E+08         0.00000E+00
    0.00000E+00         0.00000E+00        -0.62065E+08
 
   -0.61297E+08         0.74684E+06         0.00000E+00
    0.74684E+06        -0.49940E+08         0.00000E+00
    0.00000E+00         0.00000E+00        -0.62066E+08
 
   -0.61303E+08         0.81034E+06         0.00000E+00
    0.81034E+06        -0.49931E+08         0.00000E+00
    0.00000E+00         0.00000E+00        -0.62066E+08
 
   -0.61310E+08         0.87454E+06         0.00000E+00
    0.87454E+06        -0.49921E+08         0.00000E+00
    0.00000E+00         0.00000E+00        -0.62066E+08
 
   -0.61318E+08         0.93948E+06         0.00000E+00
    0.93948E+06        -0.49910E+08         0.00000E+00
    0.00000E+00         0.00000E+00        -0.62067E+08
 
   -0.61327E+08         0.10052E+07         0.00000E+00
    0.10052E+07        -0.49900E+08         0.00000E+00
    0.00000E+00         0.00000E+00        -0.62067E+08
 
   -0.61337E+08         0.10716E+07         0.00000E+00
    0.10716E+07        -0.49888E+08         0.00000E+00
    0.00000E+00         0.00000E+00        -0.62067E+08
 
   -0.61349E+08         0.11389E+07         0.00000E+00
    0.11389E+07        -0.49877E+08         0.00000E+00
    0.00000E+00         0.00000E+00        -0.62068E+08
 
   -0.61362E+08         0.12070E+07         0.00000E+00
    0.12070E+07        -0.49864E+08         0.00000E+00
    0.00000E+00         0.00000E+00        -0.62068E+08
 
   -0.61376E+08         0.12759E+07         0.00000E+00
    0.12759E+07        -0.49852E+08         0.00000E+00
    0.00000E+00         0.00000E+00        -0.62068E+08
 
   -0.61391E+08         0.13457E+07         0.00000E+00
    0.13457E+07        -0.49839E+08         0.00000E+00
    0.00000E+00         0.00000E+00        -0.62069E+08
 
   -0.61407E+08         0.14163E+07         0.00000E+00
    0.14163E+07        -0.49826E+08         0.00000E+00
    0.00000E+00         0.00000E+00        -0.62069E+08
 
   -0.61424E+08         0.14878E+07         0.00000E+00
    0.14878E+07        -0.49812E+08         0.00000E+00
    0.00000E+00         0.00000E+00        -0.62069E+08
 
   -0.61442E+08         0.15602E+07         0.00000E+00
    0.15602E+07        -0.49798E+08         0.00000E+00
    0.00000E+00         0.00000E+00        -0.62070E+08
 
   -0.61460E+08         0.16335E+07         0.00000E+00
    0.16335E+07        -0.49784E+08         0.00000E+00
    0.00000E+00         0.00000E+00        -0.62070E+08
 
   -0.61480E+08         0.17077E+07         0.00000E+00
    0.17077E+07        -0.49770E+08         0.00000E+00
    0.00000E+00         0.00000E+00        -0.62071E+08
 
   -0.61500E+08         0.17828E+07         0.00000E+00
    0.17828E+07        -0.49755E+08         0.00000E+00
    0.00000E+00         0.00000E+00        -0.62071E+08
 
   -0.61521E+08         0.18589E+07         0.00000E+00
    0.18589E+07        -0.49740E+08         0.00000E+00
    0.00000E+00         0.00000E+00        -0.62071E+08
 
   -0.61542E+08         0.19359E+07         0.00000E+00
    0.19359E+07        -0.49725E+08         0.00000E+00
    0.00000E+00         0.00000E+00        -0.62072E+08
 
   -0.61565E+08         0.20138E+07         0.00000E+00
    0.20138E+07        -0.49710E+08         0.00000E+00
    0.00000E+00         0.00000E+00        -0.62072E+08
 
   -0.61588E+08         0.20927E+07         0.00000E+00
    0.20927E+07        -0.49695E+08         0.00000E+00
    0.00000E+00         0.00000E+00        -0.62072E+08
 
   -0.61611E+08         0.21725E+07         0.00000E+00
    0.21725E+07        -0.49680E+08         0.00000E+00
    0.00000E+00         0.00000E+00        -0.62073E+08
 
   -0.61635E+08         0.22533E+07         0.00000E+00
    0.22533E+07        -0.49664E+08         0.00000E+00
    0.00000E+00         0.00000E+00        -0.62073E+08
 
   -0.61659E+08         0.23350E+07         0.00000E+00
    0.23350E+07        -0.49649E+08         0.00000E+00
    0.00000E+00         0.00000E+00        -0.62073E+08
 
   -0.61684E+08         0.24177E+07         0.00000E+00
    0.24177E+07        -0.49633E+08         0.00000E+00
    0.00000E+00         0.00000E+00        -0.62074E+08
 
   -0.61710E+08         0.25013E+07         0.00000E+00
    0.25013E+07        -0.49618E+08         0.00000E+00
    0.00000E+00         0.00000E+00        -0.62074E+08
 
   -0.61735E+08         0.25859E+07         0.00000E+00
    0.25859E+07        -0.49602E+08         0.00000E+00
    0.00000E+00         0.00000E+00        -0.62074E+08
 
   -0.61761E+08         0.26715E+07         0.00000E+00
    0.26715E+07        -0.49587E+08         0.00000E+00
    0.00000E+00         0.00000E+00        -0.62074E+08
 
   -0.61788E+08         0.27580E+07         0.00000E+00
    0.27580E+07        -0.49571E+08         0.00000E+00
    0.00000E+00         0.00000E+00        -0.62075E+08
 
   -0.61814E+08         0.28455E+07         0.00000E+00
    0.28455E+07        -0.49556E+08         0.00000E+00
    0.00000E+00         0.00000E+00        -0.62075E+08
 
   -0.61841E+08         0.29340E+07         0.00000E+00
    0.29340E+07        -0.49540E+08         0.00000E+00
    0.00000E+00         0.00000E+00        -0.62075E+08
 
   -0.61868E+08         0.30234E+07         0.00000E+00
    0.30234E+07        -0.49525E+08         0.00000E+00
    0.00000E+00         0.00000E+00        -0.62075E+08
 
   -0.61896E+08         0.31138E+07         0.00000E+00
    0.31138E+07        -0.49510E+08         0.00000E+00
    0.00000E+00         0.00000E+00        -0.62075E+08
 
   -0.61923E+08         0.32051E+07         0.00000E+00
    0.32051E+07        -0.49495E+08         0.00000E+00
    0.00000E+00         0.00000E+00        -0.62076E+08
 
   -0.61951E+08         0.32974E+07         0.00000E+00
    0.32974E+07        -0.49480E+08         0.00000E+00
    0.00000E+00         0.00000E+00        -0.62076E+08
 
   -0.61978E+08         0.33906E+07         0.00000E+00
    0.33906E+07        -0.49465E+08         0.00000E+00
    0.00000E+00         0.00000E+00        -0.62076E+08
 
   -0.62006E+08         0.34848E+07         0.00000E+00
    0.34848E+07        -0.49451E+08         0.00000E+00
    0.00000E+00         0.00000E+00        -0.62076E+08
 
   -0.62034E+08         0.35799E+07         0.00000E+00
    0.35799E+07        -0.49436E+08         0.00000E+00
    0.00000E+00         0.00000E+00        -0.62076E+08
 
   -0.62062E+08         0.36760E+07         0.00000E+00
    0.36760E+07        -0.49422E+08         0.00000E+00
    0.00000E+00         0.00000E+00        -0.62076E+08
 
   -0.61059E+08         0.30547E+05         0.00000E+00
    0.30547E+05        -0.50000E+08         0.00000E+00
    0.00000E+00         0.00000E+00        -0.61580E+08
 
   -0.61044E+08         0.91996E+05         0.00000E+00
    0.91996E+05        -0.49999E+08         0.00000E+00
    0.00000E+00         0.00000E+00        -0.61580E+08
 
   -0.61030E+08         0.15363E+06         0.00000E+00
    0.15363E+06        -0.49998E+08         0.00000E+00
    0.00000E+00         0.00000E+00        -0.61580E+08
 
   -0.61017E+08         0.21550E+06         0.00000E+00
    0.21550E+06        -0.49996E+08         0.00000E+00
    0.00000E+00         0.00000E+00        -0.61580E+08
 
   -0.61007E+08         0.27763E+06         0.00000E+00
    0.27763E+06        -0.49993E+08         0.00000E+00
    0.00000E+00         0.00000E+00        -0.61580E+08
 
   -0.60997E+08         0.34007E+06         0.00000E+00
    0.34007E+06        -0.49989E+08         0.00000E+00
    0.00000E+00         0.00000E+00        -0.61580E+08
 
   -0.60990E+08         0.40285E+06         0.00000E+00
    0.40285E+06        -0.49985E+08         0.00000E+00
    0.00000E+00         0.00000E+00        -0.61581E+08
 
   -0.60984E+08         0.46601E+06         0.00000E+00
    0.46601E+06        -0.49981E+08         0.00000E+00
    0.00000E+00         0.00000E+00        -0.61581E+08
 
   -0.60979E+08         0.52959E+06         0.00000E+00
    0.52959E+06        -0.49975E+08         0.00000E+00
    0.00000E+00         0.00000E+00        -0.61581E+08
 
   -0.60976E+08         0.59362E+06         0.00000E+00
    0.59362E+06        -0.49969E+08         0.00000E+00
    0.00000E+00         0.00000E+00        -0.61581E+08
 
   -0.60974E+08         0.65812E+06         0.00000E+00
    0.65812E+06        -0.49963E+08         0.00000E+00
    0.00000E+00         0.00000E+00        -0.61582E+08
 
   -0.60974E+08         0.72313E+06         0.00000E+00
    0.72313E+06        -0.49956E+08         0.00000E+00
    0.00000E+00         0.00000E+00        -0.61582E+08
 
   -0.60975E+08         0.78867E+06         0.00000E+00
    0.78867E+06        -0.49948E+08         0.00000E+00
    0.00000E+00         0.00000E+00        -0.61582E+08
 
   -0.60977E+08         0.85478E+06         0.00000E+00
    0.85478E+06        -0.49940E+08         0.00000E+00
    0.00000E+00         0.00000E+00        -0.61583E+08
 
   -0.60980E+08         0.92148E+06         0.00000E+00
    0.92148E+06        -0.49932E+08         0.00000E+00
    0.00000E+00         0.00000E+00        -0.61583E+08
 
   -0.60985E+08         0.98879E+06         0.00000E+00
    0.98879E+06        -0.49923E+08         0.00000E+00
    0.00000E+00         0.00000E+00        -0.61583E+08
 
   -0.60991E+08         0.10567E+07         0.00000E+00
    0.10567E+07        -0.49914E+08         0.00000E+00
    0.00000E+00         0.00000E+00        -0.61584E+08
 
   -0.60998E+08         0.11253E+07         0.00000E+00
    0.11253E+07        -0.49904E+08         0.00000E+00
    0.00000E+00         0.00000E+00        -0.61584E+08
 
   -0.61006E+08         0.11946E+07         0.00000E+00
    0.11946E+07        -0.49894E+08         0.00000E+00
    0.00000E+00         0.00000E+00        -0.61584E+08
 
   -0.61015E+08         0.12646E+07         0.00000E+00
    0.12646E+07        -0.49883E+08         0.00000E+00
    0.00000E+00         0.00000E+00        -0.61585E+08
 
   -0.61025E+08         0.13353E+07         0.00000E+00
    0.13353E+07        -0.49872E+08         0.00000E+00
    0.00000E+00         0.00000E+00        -0.61585E+08
 
   -0.61036E+08         0.14067E+07         0.00000E+00
    0.14067E+07        -0.49861E+08         0.00000E+00
    0.00000E+00         0.00000E+00        -0.61586E+08
 
   -0.61048E+08         0.14789E+07         0.00000E+00
    0.14789E+07        -0.49850E+08         0.00000E+00
    0.00000E+00         0.00000E+00        -0.61586E+08
 
   -0.61061E+08         0.15518E+07         0.00000E+00
    0.15518E+07        -0.49838E+08         0.00000E+00
    0.00000E+00         0.00000E+00        -0.61586E+08
 
   -0.61074E+08         0.16255E+07         0.00000E+00
    0.16255E+07        -0.49826E+08         0.00000E+00
    0.00000E+00         0.00000E+00        -0.61587E+08
 
   -0.61089E+08         0.17000E+07         0.00000E+00
    0.17000E+07        -0.49814E+08         0.00000E+00
    0.00000E+00         0.00000E+00        -0.61587E+08
 
   -0.61104E+08         0.17752E+07         0.00000E+00
    0.17752E+07        -0.49801E+08         0.00000E+00
    0.00000E+00         0.00000E+00        -0.61588E+08
 
   -0.61120E+08         0.18513E+07         0.00000E+00
    0.18513E+07        -0.49788E+08         0.00000E+00
    0.00000E+00         0.00000E+00        -0.61588E+08
 
   -0.61136E+08         0.19282E+07         0.00000E+00
    0.19282E+07        -0.49776E+08         0.00000E+00
    0.00000E+00         0.00000E+00        -0.61588E+08
 
   -0.61153E+08         0.20059E+07         0.00000E+00
    0.20059E+07        -0.49763E+08         0.00000E+00
    0.00000E+00         0.00000E+00        -0.61589E+08
 
   -0.61171E+08         0.20845E+07         0.00000E+00
    0.20845E+07        -0.49750E+08         0.00000E+00
    0.00000E+00         0.00000E+00        -0.61589E+08
 
   -0.61190E+08         0.21639E+07         0.00000E+00
    0.21639E+07        -0.49736E+08         0.00000E+00
    0.00000E+00         0.00000E+00        -0.61590E+08
 
   -0.61209E+08         0.22441E+07         0.00000E+00
    0.22441E+07        -0.49723E+08         0.00000E+00
    0.00000E+00         0.00000E+00        -0.61590E+08
 
   -0.61228E+08         0.23252E+07         0.00000E+00
    0.23252E+07        -0.49710E+08         0.00000E+00
    0.00000E+00         0.00000E+00        -0.61590E+08
 
   -0.61248E+08         0.24072E+07         0.00000E+00
    0.24072E+07        -0.49696E+08         0.00000E+00
    0.00000E+00         0.00000E+00        -0.61591E+08
 
   -0.61268E+08         0.24900E+07         0.00000E+00
    0.24900E+07        -0.49683E+08         0.00000E+00
    0.00000E+00         0.00000E+00        -0.61591E+08
 
   -0.61289E+08         0.25736E+07         0.00000E+00
    0.25736E+07        -0.49670E+08         0.00000E+00
    0.00000E+00         0.00000E+00        -0.61591E+08
 
   -0.61310E+08         0.26582E+07         0.00000E+00
    0.26582E+07        -0.49656E+08         0.00000E+00
    0.00000E+00         0.00000E+00        -0.61592E+08
 
   -0.61332E+08         0.27436E+07         0.00000E+00
    0.27436E+07        -0.49643E+08         0.00000E+00
    0.00000E+00         0.00000E+00        -0.61592E+08
 
   -0.61353E+08         0.28298E+07         0.00000E+00
    0.28298E+07        -0.49630E+08         0.00000E+00
    0.00000E+00         0.00000E+00        -0.61592E+08
 
   -0.61375E+08         0.29170E+07         0.00000E+00
    0.29170E+07        -0.49616E+08         0.00000E+00
    0.00000E+00         0.00000E+00        -0.61592E+08
 
   -0.61398E+08         0.30050E+07         0.00000E+00
    0.30050E+07        -0.49603E+08         0.00000E+00
    0.00000E+00         0.00000E+00        -0.61593E+08
 
   -0.61420E+08         0.30939E+07         0.00000E+00
    0.30939E+07        -0.49590E+08         0.00000E+00
    0.00000E+00         0.00000E+00        -0.61593E+08
 
   -0.61443E+08         0.31837E+07         0.00000E+00
    0.31837E+07        -0.49577E+08         0.00000E+00
    0.00000E+00         0.00000E+00        -0.61593E+08
 
   -0.61466E+08         0.32743E+07         0.00000E+00
    0.32743E+07        -0.49564E+08         0.00000E+00
    0.00000E+00         0.00000E+00        -0.61593E+08
 
   -0.61489E+08         0.33658E+07         0.00000E+00
    0.33658E+07        -0.49552E+08         0.00000E+00
    0.00000E+00         0.00000E+00        -0.61593E+08
 
   -0.61512E+08         0.34582E+07         0.00000E+00
    0.34582E+07        -0.49539E+08         0.00000E+00
    0.00000E+00         0.00000E+00        -0.61593E+08
 
   -0.61535E+08         0.35515E+07         0.00000E+00
    0.35515E+07        -0.49527E+08         0.00000E+00
    0.00000E+00         0.00000E+00        -0.61593E+08
 
   -0.61559E+08         0.36457E+07         0.00000E+00
    0.36457E+07        -0.49515E+08         0.00000E+00
    0.00000E+00         0.00000E+00        -0.61594E+08
 
   -0.61582E+08         0.37407E+07         0.00000E+00
    0.37407E+07        -0.49503E+08         0.00000E+00
    0.00000E+00         0.00000E+00        -0.61594E+08
 
   -0.60744E+08         0.32265E+05         0.00000E+00
    0.32265E+05        -0.50000E+08         0.00000E+00
    0.00000E+00         0.00000E+00        -0.61102E+08
 
   -0.60728E+08         0.96992E+05         0.00000E+00
    0.96992E+05        -0.49999E+08         0.00000E+00
    0.00000E+00         0.00000E+00        -0.61102E+08
 
   -0.60713E+08         0.16184E+06         0.00000E+00
    0.16184E+06        -0.49998E+08         0.00000E+00
    0.00000E+00         0.00000E+00        -0.61102E+08
 
   -0.60699E+08         0.22685E+06         0.00000E+00
    0.22685E+06        -0.49996E+08         0.00000E+00
    0.00000E+00         0.00000E+00        -0.61102E+08
 
   -0.60687E+08         0.29205E+06         0.00000E+00
    0.29205E+06        -0.49994E+08         0.00000E+00
    0.00000E+00         0.00000E+00        -0.61103E+08
 
   -0.60677E+08         0.35749E+06         0.00000E+00
    0.35749E+06        -0.49991E+08         0.00000E+00
    0.00000E+00         0.00000E+00        -0.61103E+08
 
   -0.60668E+08         0.42319E+06         0.00000E+00
    0.42319E+06        -0.49987E+08         0.00000E+00
    0.00000E+00         0.00000E+00        -0.61103E+08
 
   -0.60660E+08         0.48918E+06         0.00000E+00
    0.48918E+06        -0.49983E+08         0.00000E+00
    0.00000E+00         0.00000E+00        -0.61103E+08
 
   -0.60653E+08         0.55550E+06         0.00000E+00
    0.55550E+06        -0.49979E+08         0.00000E+00
    0.00000E+00         0.00000E+00        -0.61104E+08
 
   -0.60648E+08         0.62217E+06         0.00000E+00
    0.62217E+06        -0.49974E+08         0.00000E+00
    0.00000E+00         0.00000E+00        -0.61104E+08
 
   -0.60644E+08         0.68923E+06         0.00000E+00
    0.68923E+06        -0.49968E+08         0.00000E+00
    0.00000E+00         0.00000E+00        -0.61104E+08
 
   -0.60641E+08         0.75671E+06         0.00000E+00
    0.75671E+06        -0.49962E+08         0.00000E+00
    0.00000E+00         0.00000E+00        -0.61104E+08
 
   -0.60640E+08         0.82462E+06         0.00000E+00
    0.82462E+06        -0.49956E+08         0.00000E+00
    0.00000E+00         0.00000E+00        -0.61105E+08
 
   -0.60639E+08         0.89299E+06         0.00000E+00
    0.89299E+06        -0.49949E+08         0.00000E+00
    0.00000E+00         0.00000E+00        -0.61105E+08
 
   -0.60640E+08         0.96185E+06         0.00000E+00
    0.96185E+06        -0.49942E+08         0.00000E+00
    0.00000E+00         0.00000E+00        -0.61106E+08
 
   -0.60642E+08         0.10312E+07         0.00000E+00
    0.10312E+07        -0.49934E+08         0.00000E+00
    0.00000E+00         0.00000E+00        -0.61106E+08
 
   -0.60645E+08         0.11011E+07         0.00000E+00
    0.11011E+07        -0.49926E+08         0.00000E+00
    0.00000E+00         0.00000E+00        -0.61106E+08
 
   -0.60649E+08         0.11716E+07         0.00000E+00
    0.11716E+07        -0.49918E+08         0.00000E+00
    0.00000E+00         0.00000E+00        -0.61107E+08
 
   -0.60653E+08         0.12426E+07         0.00000E+00
    0.12426E+07        -0.49909E+08         0.00000E+00
    0.00000E+00         0.00000E+00        -0.61107E+08
 
   -0.60659E+08         0.13142E+07         0.00000E+00
    0.13142E+07        -0.49900E+08         0.00000E+00
    0.00000E+00         0.00000E+00        -0.61108E+08
 
   -0.60666E+08         0.13865E+07         0.00000E+00
    0.13865E+07        -0.49891E+08         0.00000E+00
    0.00000E+00         0.00000E+00        -0.61108E+08
 
   -0.60673E+08         0.14593E+07         0.00000E+00
    0.14593E+07        -0.49881E+08         0.00000E+00
    0.00000E+00         0.00000E+00        -0.61108E+08
 
   -0.60682E+08         0.15328E+07         0.00000E+00
    0.15328E+07        -0.49871E+08         0.00000E+00
    0.00000E+00         0.00000E+00        -0.61109E+08
 
   -0.60691E+08         0.16070E+07         0.00000E+00
    0.16070E+07        -0.49861E+08         0.00000E+00
    0.00000E+00         0.00000E+00        -0.61109E+08
 
   -0.60701E+08         0.16818E+07         0.00000E+00
    0.16818E+07        -0.49851E+08         0.00000E+00
    0.00000E+00         0.00000E+00        -0.61110E+08
 
   -0.60712E+08         0.17573E+07         0.00000E+00
    0.17573E+07        -0.49840E+08         0.00000E+00
    0.00000E+00         0.00000E+00        -0.61110E+08
 
   -0.60723E+08         0.18335E+07         0.00000E+00
    0.18335E+07        -0.49830E+08         0.00000E+00
    0.00000E+00         0.00000E+00        -0.61111E+08
 
   -0.60735E+08         0.19104E+07         0.00000E+00
    0.19104E+07        -0.49819E+08         0.00000E+00
    0.00000E+00         0.00000E+00        -0.61111E+08
 
   -0.60748E+08         0.19880E+07         0.00000E+00
    0.19880E+07        -0.49808E+08         0.00000E+00
    0.00000E+00         0.00000E+00        -0.61111E+08
 
   -0.60761E+08         0.20663E+07         0.00000E+00
    0.20663E+07        -0.49797E+08         0.00000E+00
    0.00000E+00         0.00000E+00        -0.61112E+08
 
   -0.60775E+08         0.21454E+07         0.00000E+00
    0.21454E+07        -0.49785E+08         0.00000E+00
    0.00000E+00         0.00000E+00        -0.61112E+08
 
   -0.60790E+08         0.22252E+07         0.00000E+00
    0.22252E+07        -0.49774E+08         0.00000E+00
    0.00000E+00         0.00000E+00        -0.61113E+08
 
   -0.60805E+08         0.23058E+07         0.00000E+00
    0.23058E+07        -0.49763E+08         0.00000E+00
    0.00000E+00         0.00000E+00        -0.61113E+08
 
   -0.60820E+08         0.23871E+07         0.00000E+00
    0.23871E+07        -0.49751E+08         0.00000E+00
    0.00000E+00         0.00000E+00        -0.61113E+08
 
   -0.60836E+08         0.24692E+07         0.00000E+00
    0.24692E+07        -0.49740E+08         0.00000E+00
    0.00000E+00         0.00000E+00        -0.61114E+08
 
   -0.60852E+08         0.25520E+07         0.00000E+00
    0.25520E+07        -0.49728E+08         0.00000E+00
    0.00000E+00         0.00000E+00        -0.61114E+08
 
   -0.60869E+08         0.26356E+07         0.00000E+00
    0.26356E+07        -0.49717E+08         0.00000E+00
    0.00000E+00         0.00000E+00        -0.61114E+08
 
   -0.60886E+08         0.27200E+07         0.00000E+00
    0.27200E+07        -0.49706E+08         0.00000E+00
    0.00000E+00         0.00000E+00        -0.61115E+08
 
   -0.60903E+08         0.28052E+07         0.00000E+00
    0.28052E+07        -0.49694E+08         0.00000E+00
    0.00000E+00         0.00000E+00        -0.61115E+08
 
   -0.60921E+08         0.28911E+07         0.00000E+00
    0.28911E+07        -0.49683E+08         0.00000E+00
    0.00000E+00         0.00000E+00        -0.61115E+08
 
   -0.60939E+08         0.29779E+07         0.00000E+00
    0.29779E+07        -0.49672E+08         0.00000E+00
    0.00000E+00         0.00000E+00        -0.61116E+08
 
   -0.60957E+08         0.30654E+07         0.00000E+00
    0.30654E+07        -0.49661E+08         0.00000E+00
    0.00000E+00         0.00000E+00        -0.61116E+08
 
   -0.60975E+08         0.31537E+07         0.00000E+00
    0.31537E+07        -0.49650E+08         0.00000E+00
    0.00000E+00         0.00000E+00        -0.61116E+08
 
   -0.60994E+08         0.32428E+07         0.00000E+00
    0.32428E+07        -0.49639E+08         0.00000E+00
    0.00000E+00         0.00000E+00        -0.61116E+08
 
   -0.61012E+08         0.33327E+07         0.00000E+00
    0.33327E+07        -0.49628E+08         0.00000E+00
    0.00000E+00         0.00000E+00        -0.61116E+08
 
   -0.61031E+08         0.34235E+07         0.00000E+00
    0.34235E+07        -0.49617E+08         0.00000E+00
    0.00000E+00         0.00000E+00        -0.61117E+08
 
   -0.61050E+08         0.35150E+07         0.00000E+00
    0.35150E+07        -0.49607E+08         0.00000E+00
    0.00000E+00         0.00000E+00        -0.61117E+08
 
   -0.61069E+08         0.36073E+07         0.00000E+00
    0.36073E+07        -0.49597E+08         0.00000E+00
    0.00000E+00         0.00000E+00        -0.61117E+08
 
   -0.61088E+08         0.37004E+07         0.00000E+00
    0.37004E+07        -0.49587E+08         0.00000E+00
    0.00000E+00         0.00000E+00        -0.61117E+08
 
   -0.61107E+08         0.37944E+07         0.00000E+00
    0.37944E+07        -0.49577E+08         0.00000E+00
    0.00000E+00         0.00000E+00        -0.61117E+08
 
   -0.60413E+08         0.33713E+05         0.00000E+00
    0.33713E+05        -0.50000E+08         0.00000E+00
    0.00000E+00         0.00000E+00        -0.60631E+08
 
   -0.60397E+08         0.10122E+06         0.00000E+00
    0.10122E+06        -0.49999E+08         0.00000E+00
    0.00000E+00         0.00000E+00        -0.60631E+08
 
   -0.60381E+08         0.16879E+06         0.00000E+00
    0.16879E+06        -0.49998E+08         0.00000E+00
    0.00000E+00         0.00000E+00        -0.60631E+08
 
   -0.60367E+08         0.23648E+06         0.00000E+00
    0.23648E+06        -0.49997E+08         0.00000E+00
    0.00000E+00         0.00000E+00        -0.60631E+08
 
   -0.60354E+08         0.30430E+06         0.00000E+00
    0.30430E+06        -0.49995E+08         0.00000E+00
    0.00000E+00         0.00000E+00        -0.60631E+08
 
   -0.60343E+08         0.37228E+06         0.00000E+00
    0.37228E+06        -0.49992E+08         0.00000E+00
    0.00000E+00         0.00000E+00        -0.60631E+08
 
   -0.60332E+08         0.44047E+06         0.00000E+00
    0.44047E+06        -0.49989E+08         0.00000E+00
    0.00000E+00         0.00000E+00        -0.60632E+08
 
   -0.60323E+08         0.50888E+06         0.00000E+00
    0.50888E+06        -0.49986E+08         0.00000E+00
    0.00000E+00         0.00000E+00        -0.60632E+08
 
   -0.60315E+08         0.57755E+06         0.00000E+00
    0.57755E+06        -0.49982E+08         0.00000E+00
    0.00000E+00         0.00000E+00        -0.60632E+08
 
   -0.60308E+08         0.64649E+06         0.00000E+00
    0.64649E+06        -0.49978E+08         0.00000E+00
    0.00000E+00         0.00000E+00        -0.60632E+08
 
   -0.60302E+08         0.71575E+06         0.00000E+00
    0.71575E+06        -0.49973E+08         0.00000E+00
    0.00000E+00         0.00000E+00        -0.60633E+08
 
   -0.60298E+08         0.78534E+06         0.00000E+00
    0.78534E+06        -0.49968E+08         0.00000E+00
    0.00000E+00         0.00000E+00        -0.60633E+08
 
   -0.60294E+08         0.85528E+06         0.00000E+00
    0.85528E+06        -0.49963E+08         0.00000E+00
    0.00000E+00         0.00000E+00        -0.60633E+08
 
   -0.60291E+08         0.92560E+06         0.00000E+00
    0.92560E+06        -0.49957E+08         0.00000E+00
    0.00000E+00         0.00000E+00        -0.60634E+08
 
   -0.60290E+08         0.99633E+06         0.00000E+00
    0.99633E+06        -0.49951E+08         0.00000E+00
    0.00000E+00         0.00000E+00        -0.60634E+08
 
   -0.60289E+08         0.10675E+07         0.00000E+00
    0.10675E+07        -0.49944E+08         0.00000E+00
    0.00000E+00         0.00000E+00        -0.60635E+08
 
   -0.60290E+08         0.11391E+07         0.00000E+00
    0.11391E+07        -0.49937E+08         0.00000E+00
    0.00000E+00         0.00000E+00        -0.60635E+08
 
   -0.60291E+08         0.12111E+07         0.00000E+00
    0.12111E+07        -0.49930E+08         0.00000E+00
    0.00000E+00         0.00000E+00        -0.60635E+08
 
   -0.60293E+08         0.12837E+07         0.00000E+00
    0.12837E+07        -0.49923E+08         0.00000E+00
    0.00000E+00         0.00000E+00        -0.60636E+08
 
   -0.60296E+08         0.13567E+07         0.00000E+00
    0.13567E+07        -0.49915E+08         0.00000E+00
    0.00000E+00         0.00000E+00        -0.60636E+08
 
   -0.60300E+08         0.14303E+07         0.00000E+00
    0.14303E+07        -0.49907E+08         0.00000E+00
    0.00000E+00         0.00000E+00        -0.60637E+08
 
   -0.60304E+08         0.15043E+07         0.00000E+00
    0.15043E+07        -0.49899E+08         0.00000E+00
    0.00000E+00         0.00000E+00        -0.60637E+08
 
   -0.60310E+08         0.15790E+07         0.00000E+00
    0.15790E+07        -0.49891E+08         0.00000E+00
    0.00000E+00         0.00000E+00        -0.60638E+08
 
   -0.60316E+08         0.16542E+07         0.00000E+00
    0.16542E+07        -0.49882E+08         0.00000E+00
    0.00000E+00         0.00000E+00        -0.60638E+08
 
   -0.60323E+08         0.17300E+07         0.00000E+00
    0.17300E+07        -0.49873E+08         0.00000E+00
    0.00000E+00         0.00000E+00        -0.60639E+08
 
   -0.60330E+08         0.18063E+07         0.00000E+00
    0.18063E+07        -0.49864E+08         0.00000E+00
    0.00000E+00         0.00000E+00        -0.60639E+08
 
   -0.60339E+08         0.18833E+07         0.00000E+00
    0.18833E+07        -0.49855E+08         0.00000E+00
    0.00000E+00         0.00000E+00        -0.60639E+08
 
   -0.60347E+08         0.19609E+07         0.00000E+00
    0.19609E+07        -0.49846E+08         0.00000E+00
    0.00000E+00         0.00000E+00        -0.60640E+08
 
   -0.60357E+08         0.20390E+07         0.00000E+00
    0.20390E+07        -0.49837E+08         0.00000E+00
    0.00000E+00         0.00000E+00        -0.60640E+08
 
   -0.60367E+08         0.21179E+07         0.00000E+00
    0.21179E+07        -0.49827E+08         0.00000E+00
    0.00000E+00         0.00000E+00        -0.60641E+08
 
   -0.60377E+08         0.21973E+07         0.00000E+00
    0.21973E+07        -0.49818E+08         0.00000E+00
    0.00000E+00         0.00000E+00        -0.60641E+08
 
   -0.60388E+08         0.22775E+07         0.00000E+00
    0.22775E+07        -0.49808E+08         0.00000E+00
    0.00000E+00         0.00000E+00        -0.60642E+08
 
   -0.60399E+08         0.23582E+07         0.00000E+00
    0.23582E+07        -0.49798E+08         0.00000E+00
    0.00000E+00         0.00000E+00        -0.60642E+08
 
   -0.60411E+08         0.24397E+07         0.00000E+00
    0.24397E+07        -0.49789E+08         0.00000E+00
    0.00000E+00         0.00000E+00        -0.60642E+08
 
   -0.60424E+08         0.25218E+07         0.00000E+00
    0.25218E+07        -0.49779E+08         0.00000E+00
    0.00000E+00         0.00000E+00        -0.60643E+08
 
   -0.60436E+08         0.26046E+07         0.00000E+00
    0.26046E+07        -0.49770E+08         0.00000E+00
    0.00000E+00         0.00000E+00        -0.60643E+08
 
   -0.60449E+08         0.26881E+07         0.00000E+00
    0.26881E+07        -0.49760E+08         0.00000E+00
    0.00000E+00         0.00000E+00        -0.60644E+08
 
   -0.60463E+08         0.27723E+07         0.00000E+00
    0.27723E+07        -0.49750E+08         0.00000E+00
    0.00000E+00         0.00000E+00        -0.60644E+08
 
   -0.60476E+08         0.28571E+07         0.00000E+00
    0.28571E+07        -0.49741E+08         0.00000E+00
    0.00000E+00         0.00000E+00        -0.60644E+08
 
   -0.60490E+08         0.29427E+07         0.00000E+00
    0.29427E+07        -0.49731E+08         0.00000E+00
    0.00000E+00         0.00000E+00        -0.60645E+08
 
   -0.60504E+08         0.30290E+07         0.00000E+00
    0.30290E+07        -0.49722E+08         0.00000E+00
    0.00000E+00         0.00000E+00        -0.60645E+08
 
   -0.60519E+08         0.31160E+07         0.00000E+00
    0.31160E+07        -0.49713E+08         0.00000E+00
    0.00000E+00         0.00000E+00        -0.60645E+08
 
   -0.60533E+08         0.32037E+07         0.00000E+00
    0.32037E+07        -0.49704E+08         0.00000E+00
    0.00000E+00         0.00000E+00        -0.60645E+08
 
   -0.60548E+08         0.32921E+07         0.00000E+00
    0.32921E+07        -0.49695E+08         0.00000E+00
    0.00000E+00         0.00000E+00        -0.60645E+08
 
   -0.60563E+08         0.33813E+07         0.00000E+00
    0.33813E+07        -0.49686E+08         0.00000E+00
    0.00000E+00         0.00000E+00        -0.60646E+08
 
   -0.60578E+08         0.34711E+07         0.00000E+00
    0.34711E+07        -0.49677E+08         0.00000E+00
    0.00000E+00         0.00000E+00        -0.60646E+08
 
   -0.60593E+08         0.35617E+07         0.00000E+00
    0.35617E+07        -0.49669E+08         0.00000E+00
    0.00000E+00         0.00000E+00        -0.60646E+08
 
   -0.60608E+08         0.36531E+07         0.00000E+00
    0.36531E+07        -0.49660E+08         0.00000E+00
    0.00000E+00         0.00000E+00        -0.60646E+08
 
   -0.60623E+08         0.37451E+07         0.00000E+00
    0.37451E+07        -0.49652E+08         0.00000E+00
    0.00000E+00         0.00000E+00        -0.60646E+08
 
   -0.60639E+08         0.38379E+07         0.00000E+00
    0.38379E+07        -0.49644E+08         0.00000E+00
    0.00000E+00         0.00000E+00        -0.60646E+08
 
   -0.60070E+08         0.34928E+05         0.00000E+00
    0.34928E+05        -0.50000E+08         0.00000E+00
    0.00000E+00         0.00000E+00        -0.60166E+08
 
   -0.60053E+08         0.10477E+06         0.00000E+00
    0.10477E+06        -0.49999E+08         0.00000E+00
    0.00000E+00         0.00000E+00        -0.60166E+08
 
   -0.60037E+08         0.17465E+06         0.00000E+00
    0.17465E+06        -0.49999E+08         0.00000E+00
    0.00000E+00         0.00000E+00        -0.60166E+08
 
   -0.60023E+08         0.24459E+06         0.00000E+00
    0.24459E+06        -0.49997E+08         0.00000E+00
    0.00000E+00         0.00000E+00        -0.60166E+08
 
   -0.60009E+08         0.31462E+06         0.00000E+00
    0.31462E+06        -0.49996E+08         0.00000E+00
    0.00000E+00         0.00000E+00        -0.60166E+08
 
   -0.59997E+08         0.38477E+06         0.00000E+00
    0.38477E+06        -0.49994E+08         0.00000E+00
    0.00000E+00         0.00000E+00        -0.60166E+08
 
   -0.59985E+08         0.45507E+06         0.00000E+00
    0.45507E+06        -0.49991E+08         0.00000E+00
    0.00000E+00         0.00000E+00        -0.60166E+08
 
   -0.59975E+08         0.52553E+06         0.00000E+00
    0.52553E+06        -0.49988E+08         0.00000E+00
    0.00000E+00         0.00000E+00        -0.60167E+08
 
   -0.59966E+08         0.59619E+06         0.00000E+00
    0.59619E+06        -0.49985E+08         0.00000E+00
    0.00000E+00         0.00000E+00        -0.60167E+08
 
   -0.59958E+08         0.66707E+06         0.00000E+00
    0.66707E+06        -0.49981E+08         0.00000E+00
    0.00000E+00         0.00000E+00        -0.60167E+08
 
   -0.59951E+08         0.73819E+06         0.00000E+00
    0.73819E+06        -0.49977E+08         0.00000E+00
    0.00000E+00         0.00000E+00        -0.60168E+08
 
   -0.59944E+08         0.80958E+06         0.00000E+00
    0.80958E+06        -0.49973E+08         0.00000E+00
    0.00000E+00         0.00000E+00        -0.60168E+08
 
   -0.59939E+08         0.88125E+06         0.00000E+00
    0.88125E+06        -0.49969E+08         0.00000E+00
    0.00000E+00         0.00000E+00        -0.60168E+08
 
   -0.59935E+08         0.95323E+06         0.00000E+00
    0.95323E+06        -0.49964E+08         0.00000E+00
    0.00000E+00         0.00000E+00        -0.60169E+08
 
   -0.59931E+08         0.10255E+07         0.00000E+00
    0.10255E+07        -0.49958E+08         0.00000E+00
    0.00000E+00         0.00000E+00        -0.60169E+08
 
   -0.59929E+08         0.10982E+07         0.00000E+00
    0.10982E+07        -0.49953E+08         0.00000E+00
    0.00000E+00         0.00000E+00        -0.60169E+08
 
   -0.59927E+08         0.11712E+07         0.00000E+00
    0.11712E+07        -0.49947E+08         0.00000E+00
    0.00000E+00         0.00000E+00        -0.60170E+08
 
   -0.59926E+08         0.12446E+07         0.00000E+00
    0.12446E+07        -0.49941E+08         0.00000E+00
    0.00000E+00         0.00000E+00        -0.60170E+08
 
   -0.59926E+08         0.13185E+07         0.00000E+00
    0.13185E+07        -0.49935E+08         0.00000E+00
    0.00000E+00         0.00000E+00        -0.60171E+08
 
   -0.59927E+08         0.13927E+07         0.00000E+00
    0.13927E+07        -0.49928E+08         0.00000E+00
    0.00000E+00         0.00000E+00        -0.60171E+08
 
   -0.59928E+08         0.14674E+07         0.00000E+00
    0.14674E+07        -0.49922E+08         0.00000E+00
    0.00000E+00         0.00000E+00        -0.60172E+08
 
   -0.59930E+08         0.15425E+07         0.00000E+00
    0.15425E+07        -0.49915E+08         0.00000E+00
    0.00000E+00         0.00000E+00        -0.60172E+08
 
   -0.59933E+08         0.16181E+07         0.00000E+00
    0.16181E+07        -0.49908E+08         0.00000E+00
    0.00000E+00         0.00000E+00        -0.60173E+08
 
   -0.59936E+08         0.16942E+07         0.00000E+00
    0.16942E+07        -0.49900E+08         0.00000E+00
    0.00000E+00         0.00000E+00        -0.60173E+08
 
   -0.59941E+08         0.17707E+07         0.00000E+00
    0.17707E+07        -0.49893E+08         0.00000E+00
    0.00000E+00         0.00000E+00        -0.60174E+08
 
   -0.59945E+08         0.18478E+07         0.00000E+00
    0.18478E+07        -0.49886E+08         0.00000E+00
    0.00000E+00         0.00000E+00        -0.60174E+08
 
   -0.59951E+08         0.19254E+07         0.00000E+00
    0.19254E+07        -0.49878E+08         0.00000E+00
    0.00000E+00         0.00000E+00        -0.60175E+08
 
   -0.59957E+08         0.20035E+07         0.00000E+00
    0.20035E+07        -0.49870E+08         0.00000E+00
    0.00000E+00         0.00000E+00        -0.60175E+08
 
   -0.59963E+08         0.20821E+07         0.00000E+00
    0.20821E+07        -0.49862E+08         0.00000E+00
    0.00000E+00         0.00000E+00        -0.60176E+08
 
   -0.59970E+08         0.21613E+07         0.00000E+00
    0.21613E+07        -0.49854E+08         0.00000E+00
    0.00000E+00         0.00000E+00        -0.60176E+08
 
   -0.59977E+08         0.22411E+07         0.00000E+00
    0.22411E+07        -0.49846E+08         0.00000E+00
    0.00000E+00         0.00000E+00        -0.60176E+08
 
   -0.59985E+08         0.23214E+07         0.00000E+00
    0.23214E+07        -0.49838E+08         0.00000E+00
    0.00000E+00         0.00000E+00        -0.60177E+08
 
   -0.59994E+08         0.24023E+07         0.00000E+00
    0.24023E+07        -0.49830E+08         0.00000E+00
    0.00000E+00         0.00000E+00        -0.60177E+08
 
   -0.60002E+08         0.24838E+07         0.00000E+00
    0.24838E+07        -0.49822E+08         0.00000E+00
    0.00000E+00         0.00000E+00        -0.60178E+08
 
   -0.60011E+08         0.25659E+07         0.00000E+00
    0.25659E+07        -0.49814E+08         0.00000E+00
    0.00000E+00         0.00000E+00        -0.60178E+08
 
   -0.60021E+08         0.26486E+07         0.00000E+00
    0.26486E+07        -0.49806E+08         0.00000E+00
    0.00000E+00         0.00000E+00        -0.60178E+08
 
   -0.60031E+08         0.27319E+07         0.00000E+00
    0.27319E+07        -0.49798E+08         0.00000E+00
    0.00000E+00         0.00000E+00        -0.60179E+08
 
   -0.60041E+08         0.28158E+07         0.00000E+00
    0.28158E+07        -0.49790E+08         0.00000E+00
    0.00000E+00         0.00000E+00        -0.60179E+08
 
   -0.60051E+08         0.29003E+07         0.00000E+00
    0.29003E+07        -0.49783E+08         0.00000E+00
    0.00000E+00         0.00000E+00        -0.60180E+08
 
   -0.60062E+08         0.29855E+07         0.00000E+00
    0.29855E+07        -0.49775E+08         0.00000E+00
    0.00000E+00         0.00000E+00        -0.60180E+08
 
   -0.60072E+08         0.30712E+07         0.00000E+00
    0.30712E+07        -0.49767E+08         0.00000E+00
    0.00000E+00         0.00000E+00        -0.60180E+08
 
   -0.60083E+08         0.31576E+07         0.00000E+00
    0.31576E+07        -0.49760E+08         0.00000E+00
    0.00000E+00         0.00000E+00        -0.60180E+08
 
   -0.60095E+08         0.32447E+07         0.00000E+00
    0.32447E+07        -0.49752E+08         0.00000E+00
    0.00000E+00         0.00000E+00        -0.60181E+08
 
   -0.60106E+08         0.33324E+07         0.00000E+00
    0.33324E+07        -0.49745E+08         0.00000E+00
    0.00000E+00         0.00000E+00        -0.60181E+08
 
   -0.60117E+08         0.34207E+07         0.00000E+00
    0.34207E+07        -0.49738E+08         0.00000E+00
    0.00000E+00         0.00000E+00        -0.60181E+08
 
   -0.60129E+08         0.35097E+07         0.00000E+00
    0.35097E+07        -0.49731E+08         0.00000E+00
    0.00000E+00         0.00000E+00        -0.60181E+08
 
   -0.60141E+08         0.35993E+07         0.00000E+00
    0.35993E+07        -0.49724E+08         0.00000E+00
    0.00000E+00         0.00000E+00        -0.60181E+08
 
   -0.60152E+08         0.36896E+07         0.00000E+00
    0.36896E+07        -0.49717E+08         0.00000E+00
    0.00000E+00         0.00000E+00        -0.60181E+08
 
   -0.60164E+08         0.37806E+07         0.00000E+00
    0.37806E+07        -0.49711E+08         0.00000E+00
    0.00000E+00         0.00000E+00        -0.60181E+08
 
   -0.60176E+08         0.38722E+07         0.00000E+00
    0.38722E+07        -0.49705E+08         0.00000E+00
    0.00000E+00         0.00000E+00        -0.60182E+08
 
   -0.59716E+08         0.35943E+05         0.00000E+00
    0.35943E+05        -0.50000E+08         0.00000E+00
    0.00000E+00         0.00000E+00        -0.59707E+08
 
   -0.59699E+08         0.10775E+06         0.00000E+00
    0.10775E+06        -0.50000E+08         0.00000E+00
    0.00000E+00         0.00000E+00        -0.59707E+08
 
   -0.59683E+08         0.17956E+06         0.00000E+00
    0.17956E+06        -0.49999E+08         0.00000E+00
    0.00000E+00         0.00000E+00        -0.59707E+08
 
   -0.59668E+08         0.25140E+06         0.00000E+00
    0.25140E+06        -0.49998E+08         0.00000E+00
    0.00000E+00         0.00000E+00        -0.59707E+08
 
   -0.59654E+08         0.32329E+06         0.00000E+00
    0.32329E+06        -0.49996E+08         0.00000E+00
    0.00000E+00         0.00000E+00        -0.59707E+08
 
   -0.59641E+08         0.39525E+06         0.00000E+00
    0.39525E+06        -0.49995E+08         0.00000E+00
    0.00000E+00         0.00000E+00        -0.59707E+08
 
   -0.59629E+08         0.46732E+06         0.00000E+00
    0.46732E+06        -0.49993E+08         0.00000E+00
    0.00000E+00         0.00000E+00        -0.59708E+08
 
   -0.59618E+08         0.53951E+06         0.00000E+00
    0.53951E+06        -0.49990E+08         0.00000E+00
    0.00000E+00         0.00000E+00        -0.59708E+08
 
   -0.59608E+08         0.61185E+06         0.00000E+00
    0.61185E+06        -0.49987E+08         0.00000E+00
    0.00000E+00         0.00000E+00        -0.59708E+08
 
   -0.59599E+08         0.68436E+06         0.00000E+00
    0.68436E+06        -0.49984E+08         0.00000E+00
    0.00000E+00         0.00000E+00        -0.59708E+08
 
   -0.59590E+08         0.75705E+06         0.00000E+00
    0.75705E+06        -0.49981E+08         0.00000E+00
    0.00000E+00         0.00000E+00        -0.59709E+08
 
   -0.59583E+08         0.82995E+06         0.00000E+00
    0.82995E+06        -0.49978E+08         0.00000E+00
    0.00000E+00         0.00000E+00        -0.59709E+08
 
   -0.59576E+08         0.90308E+06         0.00000E+00
    0.90308E+06        -0.49974E+08         0.00000E+00
    0.00000E+00         0.00000E+00        -0.59709E+08
 
   -0.59570E+08         0.97646E+06         0.00000E+00
    0.97646E+06        -0.49970E+08         0.00000E+00
    0.00000E+00         0.00000E+00        -0.59710E+08
 
   -0.59565E+08         0.10501E+07         0.00000E+00
    0.10501E+07        -0.49965E+08         0.00000E+00
    0.00000E+00         0.00000E+00        -0.59710E+08
 
   -0.59561E+08         0.11240E+07         0.00000E+00
    0.11240E+07        -0.49961E+08         0.00000E+00
    0.00000E+00         0.00000E+00        -0.59711E+08
 
   -0.59558E+08         0.11983E+07         0.00000E+00
    0.11983E+07        -0.49956E+08         0.00000E+00
    0.00000E+00         0.00000E+00        -0.59711E+08
 
   -0.59555E+08         0.12728E+07         0.00000E+00
    0.12728E+07        -0.49951E+08         0.00000E+00
    0.00000E+00         0.00000E+00        -0.59712E+08
 
   -0.59553E+08         0.13477E+07         0.00000E+00
    0.13477E+07        -0.49945E+08         0.00000E+00
    0.00000E+00         0.00000E+00        -0.59712E+08
 
   -0.59552E+08         0.14229E+07         0.00000E+00
    0.14229E+07        -0.49940E+08         0.00000E+00
    0.00000E+00         0.00000E+00        -0.59713E+08
 
   -0.59551E+08         0.14985E+07         0.00000E+00
    0.14985E+07        -0.49934E+08         0.00000E+00
    0.00000E+00         0.00000E+00        -0.59713E+08
 
   -0.59551E+08         0.15745E+07         0.00000E+00
    0.15745E+07        -0.49929E+08         0.00000E+00
    0.00000E+00         0.00000E+00        -0.59714E+08
 
   -0.59552E+08         0.16509E+07         0.00000E+00
    0.16509E+07        -0.49923E+08         0.00000E+00
    0.00000E+00         0.00000E+00        -0.59714E+08
 
   -0.59553E+08         0.17277E+07         0.00000E+00
    0.17277E+07        -0.49917E+08         0.00000E+00
    0.00000E+00         0.00000E+00        -0.59715E+08
 
   -0.59555E+08         0.18049E+07         0.00000E+00
    0.18049E+07        -0.49911E+08         0.00000E+00
    0.00000E+00         0.00000E+00        -0.59715E+08
 
   -0.59557E+08         0.18825E+07         0.00000E+00
    0.18825E+07        -0.49904E+08         0.00000E+00
    0.00000E+00         0.00000E+00        -0.59716E+08
 
   -0.59560E+08         0.19606E+07         0.00000E+00
    0.19606E+07        -0.49898E+08         0.00000E+00
    0.00000E+00         0.00000E+00        -0.59716E+08
 
   -0.59564E+08         0.20391E+07         0.00000E+00
    0.20391E+07        -0.49892E+08         0.00000E+00
    0.00000E+00         0.00000E+00        -0.59717E+08
 
   -0.59568E+08         0.21181E+07         0.00000E+00
    0.21181E+07        -0.49885E+08         0.00000E+00
    0.00000E+00         0.00000E+00        -0.59717E+08
 
   -0.59572E+08         0.21975E+07         0.00000E+00
    0.21975E+07        -0.49878E+08         0.00000E+00
    0.00000E+00         0.00000E+00        -0.59717E+08
 
   -0.59577E+08         0.22775E+07         0.00000E+00
    0.22775E+07        -0.49872E+08         0.00000E+00
    0.00000E+00         0.00000E+00        -0.59718E+08
 
   -0.59582E+08         0.23579E+07         0.00000E+00
    0.23579E+07        -0.49865E+08         0.00000E+00
    0.00000E+00         0.00000E+00        -0.59718E+08
 
   -0.59588E+08         0.24389E+07         0.00000E+00
    0.24389E+07        -0.49859E+08         0.00000E+00
    0.00000E+00         0.00000E+00        -0.59719E+08
 
   -0.59594E+08         0.25203E+07         0.00000E+00
    0.25203E+07        -0.49852E+08         0.00000E+00
    0.00000E+00         0.00000E+00        -0.59719E+08
 
   -0.59600E+08         0.26023E+07         0.00000E+00
    0.26023E+07        -0.49846E+08         0.00000E+00
    0.00000E+00         0.00000E+00        -0.59720E+08
 
   -0.59606E+08         0.26848E+07         0.00000E+00
    0.26848E+07        -0.49839E+08         0.00000E+00
    0.00000E+00         0.00000E+00        -0.59720E+08
 
   -0.59613E+08         0.27678E+07         0.00000E+00
    0.27678E+07        -0.49832E+08         0.00000E+00
    0.00000E+00         0.00000E+00        -0.59720E+08
 
   -0.59621E+08         0.28514E+07         0.00000E+00
    0.28514E+07        -0.49826E+08         0.00000E+00
    0.00000E+00         0.00000E+00        -0.59721E+08
 
   -0.59628E+08         0.29355E+07         0.00000E+00
    0.29355E+07        -0.49820E+08         0.00000E+00
    0.00000E+00         0.00000E+00        -0.59721E+08
 
   -0.59636E+08         0.30202E+07         0.00000E+00
    0.30202E+07        -0.49813E+08         0.00000E+00
    0.00000E+00         0.00000E+00        -0.59721E+08
 
   -0.59643E+08         0.31054E+07         0.00000E+00
    0.31054E+07        -0.49807E+08         0.00000E+00
    0.00000E+00         0.00000E+00        -0.59722E+08
 
   -0.59651E+08         0.31912E+07         0.00000E+00
    0.31912E+07        -0.49801E+08         0.00000E+00
    0.00000E+00         0.00000E+00        -0.59722E+08
 
   -0.59660E+08         0.32775E+07         0.00000E+00
    0.32775E+07        -0.49795E+08         0.00000E+00
    0.00000E+00         0.00000E+00        -0.59722E+08
 
   -0.59668E+08         0.33644E+07         0.00000E+00
    0.33644E+07        -0.49790E+08         0.00000E+00
    0.00000E+00         0.00000E+00        -0.59722E+08
 
   -0.59676E+08         0.34519E+07         0.00000E+00
    0.34519E+07        -0.49784E+08         0.00000E+00
    0.00000E+00         0.00000E+00        -0.59723E+08
 
   -0.59685E+08         0.35400E+07         0.00000E+00
    0.35400E+07        -0.49779E+08         0.00000E+00
    0.00000E+00         0.00000E+00        -0.59723E+08
 
   -0.59693E+08         0.36287E+07         0.00000E+00
    0.36287E+07        -0.49774E+08         0.00000E+00
    0.00000E+00         0.00000E+00        -0.59723E+08
 
   -0.59702E+08         0.37179E+07         0.00000E+00
    0.37179E+07        -0.49769E+08         0.00000E+00
    0.00000E+00         0.00000E+00        -0.59723E+08
 
   -0.59710E+08         0.38077E+07         0.00000E+00
    0.38077E+07        -0.49764E+08         0.00000E+00
    0.00000E+00         0.00000E+00        -0.59723E+08
 
   -0.59719E+08         0.38982E+07         0.00000E+00
    0.38982E+07        -0.49759E+08         0.00000E+00
    0.00000E+00         0.00000E+00        -0.59723E+08
 
   -0.59352E+08         0.36788E+05         0.00000E+00
    0.36788E+05        -0.50000E+08         0.00000E+00
    0.00000E+00         0.00000E+00        -0.59254E+08
 
   -0.59335E+08         0.11023E+06         0.00000E+00
    0.11023E+06        -0.50000E+08         0.00000E+00
    0.00000E+00         0.00000E+00        -0.59254E+08
 
   -0.59320E+08         0.18364E+06         0.00000E+00
    0.18364E+06        -0.49999E+08         0.00000E+00
    0.00000E+00         0.00000E+00        -0.59255E+08
 
   -0.59305E+08         0.25706E+06         0.00000E+00
    0.25706E+06        -0.49998E+08         0.00000E+00
    0.00000E+00         0.00000E+00        -0.59255E+08
 
   -0.59290E+08         0.33050E+06         0.00000E+00
    0.33050E+06        -0.49997E+08         0.00000E+00
    0.00000E+00         0.00000E+00        -0.59255E+08
 
   -0.59277E+08         0.40399E+06         0.00000E+00
    0.40399E+06        -0.49996E+08         0.00000E+00
    0.00000E+00         0.00000E+00        -0.59255E+08
 
   -0.59265E+08         0.47754E+06         0.00000E+00
    0.47754E+06        -0.49994E+08         0.00000E+00
    0.00000E+00         0.00000E+00        -0.59255E+08
 
   -0.59253E+08         0.55117E+06         0.00000E+00
    0.55117E+06        -0.49992E+08         0.00000E+00
    0.00000E+00         0.00000E+00        -0.59256E+08
 
   -0.59242E+08         0.62491E+06         0.00000E+00
    0.62491E+06        -0.49990E+08         0.00000E+00
    0.00000E+00         0.00000E+00        -0.59256E+08
 
   -0.59232E+08         0.69877E+06         0.00000E+00
    0.69877E+06        -0.49987E+08         0.00000E+00
    0.00000E+00         0.00000E+00        -0.59256E+08
 
   -0.59223E+08         0.77278E+06         0.00000E+00
    0.77278E+06        -0.49984E+08         0.00000E+00
    0.00000E+00         0.00000E+00        -0.59257E+08
 
   -0.59215E+08         0.84694E+06         0.00000E+00
    0.84694E+06        -0.49981E+08         0.00000E+00
    0.00000E+00         0.00000E+00        -0.59257E+08
 
   -0.59207E+08         0.92128E+06         0.00000E+00
    0.92128E+06        -0.49978E+08         0.00000E+00
    0.00000E+00         0.00000E+00        -0.59257E+08
 
   -0.59200E+08         0.99582E+06         0.00000E+00
    0.99582E+06        -0.49975E+08         0.00000E+00
    0.00000E+00         0.00000E+00        -0.59258E+08
 
   -0.59194E+08         0.10706E+07         0.00000E+00
    0.10706E+07        -0.49971E+08         0.00000E+00
    0.00000E+00         0.00000E+00        -0.59258E+08
 
   -0.59188E+08         0.11455E+07         0.00000E+00
    0.11455E+07        -0.49967E+08         0.00000E+00
    0.00000E+00         0.00000E+00        -0.59259E+08
 
   -0.59183E+08         0.12208E+07         0.00000E+00
    0.12208E+07        -0.49963E+08         0.00000E+00
    0.00000E+00         0.00000E+00        -0.59259E+08
 
   -0.59179E+08         0.12963E+07         0.00000E+00
    0.12963E+07        -0.49959E+08         0.00000E+00
    0.00000E+00         0.00000E+00        -0.59259E+08
 
   -0.59176E+08         0.13720E+07         0.00000E+00
    0.13720E+07        -0.49955E+08         0.00000E+00
    0.00000E+00         0.00000E+00        -0.59260E+08
 
   -0.59173E+08         0.14481E+07         0.00000E+00
    0.14481E+07        -0.49950E+08         0.00000E+00
    0.00000E+00         0.00000E+00        -0.59260E+08
 
   -0.59170E+08         0.15244E+07         0.00000E+00
    0.15244E+07        -0.49946E+08         0.00000E+00
    0.00000E+00         0.00000E+00        -0.59261E+08
 
   -0.59169E+08         0.16011E+07         0.00000E+00
    0.16011E+07        -0.49941E+08         0.00000E+00
    0.00000E+00         0.00000E+00        -0.59261E+08
 
   -0.59167E+08         0.16781E+07         0.00000E+00
    0.16781E+07        -0.49936E+08         0.00000E+00
    0.00000E+00         0.00000E+00        -0.59262E+08
 
   -0.59167E+08         0.17554E+07         0.00000E+00
    0.17554E+07        -0.49931E+08         0.00000E+00
    0.00000E+00         0.00000E+00        -0.59262E+08
 
   -0.59167E+08         0.18331E+07         0.00000E+00
    0.18331E+07        -0.49926E+08         0.00000E+00
    0.00000E+00         0.00000E+00        -0.59263E+08
 
   -0.59167E+08         0.19112E+07         0.00000E+00
    0.19112E+07        -0.49921E+08         0.00000E+00
    0.00000E+00         0.00000E+00        -0.59263E+08
 
   -0.59168E+08         0.19896E+07         0.00000E+00
    0.19896E+07        -0.49916E+08         0.00000E+00
    0.00000E+00         0.00000E+00        -0.59264E+08
 
   -0.59169E+08         0.20684E+07         0.00000E+00
    0.20684E+07        -0.49910E+08         0.00000E+00
    0.00000E+00         0.00000E+00        -0.59264E+08
 
   -0.59171E+08         0.21476E+07         0.00000E+00
    0.21476E+07        -0.49905E+08         0.00000E+00
    0.00000E+00         0.00000E+00        -0.59265E+08
 
   -0.59173E+08         0.22273E+07         0.00000E+00
    0.22273E+07        -0.49900E+08         0.00000E+00
    0.00000E+00         0.00000E+00        -0.59265E+08
 
   -0.59176E+08         0.23073E+07         0.00000E+00
    0.23073E+07        -0.49894E+08         0.00000E+00
    0.00000E+00         0.00000E+00        -0.59266E+08
 
   -0.59179E+08         0.23878E+07         0.00000E+00
    0.23878E+07        -0.49889E+08         0.00000E+00
    0.00000E+00         0.00000E+00        -0.59266E+08
 
   -0.59182E+08         0.24687E+07         0.00000E+00
    0.24687E+07        -0.49884E+08         0.00000E+00
    0.00000E+00         0.00000E+00        -0.59267E+08
 
   -0.59185E+08         0.25500E+07         0.00000E+00
    0.25500E+07        -0.49878E+08         0.00000E+00
    0.00000E+00         0.00000E+00        -0.59267E+08
 
   -0.59189E+08         0.26318E+07         0.00000E+00
    0.26318E+07        -0.49873E+08         0.00000E+00
    0.00000E+00         0.00000E+00        -0.59268E+08
 
   -0.59193E+08         0.27140E+07         0.00000E+00
    0.27140E+07        -0.49868E+08         0.00000E+00
    0.00000E+00         0.00000E+00        -0.59268E+08
 
   -0.59198E+08         0.27967E+07         0.00000E+00
    0.27967E+07        -0.49863E+08         0.00000E+00
    0.00000E+00         0.00000E+00        -0.59268E+08
 
   -0.59202E+08         0.28799E+07         0.00000E+00
    0.28799E+07        -0.49858E+08         0.00000E+00
    0.00000E+00         0.00000E+00        -0.59269E+08
 
   -0.59207E+08         0.29636E+07         0.00000E+00
    0.29636E+07        -0.49853E+08         0.00000E+00
    0.00000E+00         0.00000E+00        -0.59269E+08
 
   -0.59212E+08         0.30477E+07         0.00000E+00
    0.30477E+07        -0.49848E+08         0.00000E+00
    0.00000E+00         0.00000E+00        -0.59269E+08
 
   -0.59218E+08         0.31323E+07         0.00000E+00
    0.31323E+07        -0.49843E+08         0.00000E+00
    0.00000E+00         0.00000E+00        -0.59270E+08
 
   -0.59223E+08         0.32174E+07         0.00000E+00
    0.32174E+07        -0.49838E+08         0.00000E+00
    0.00000E+00         0.00000E+00        -0.59270E+08
 
   -0.59228E+08         0.33030E+07         0.00000E+00
    0.33030E+07        -0.49834E+08         0.00000E+00
    0.00000E+00         0.00000E+00        -0.59270E+08
 
   -0.59234E+08         0.33891E+07         0.00000E+00
    0.33891E+07        -0.49829E+08         0.00000E+00
    0.00000E+00         0.00000E+00        -0.59270E+08
 
   -0.59240E+08         0.34757E+07         0.00000E+00
    0.34757E+07        -0.49825E+08         0.00000E+00
    0.00000E+00         0.00000E+00        -0.59271E+08
 
   -0.59245E+08         0.35629E+07         0.00000E+00
    0.35629E+07        -0.49821E+08         0.00000E+00
    0.00000E+00         0.00000E+00        -0.59271E+08
 
   -0.59251E+08         0.36505E+07         0.00000E+00
    0.36505E+07        -0.49818E+08         0.00000E+00
    0.00000E+00         0.00000E+00        -0.59271E+08
 
   -0.59257E+08         0.37387E+07         0.00000E+00
    0.37387E+07        -0.49814E+08         0.00000E+00
    0.00000E+00         0.00000E+00        -0.59271E+08
 
   -0.59263E+08         0.38274E+07         0.00000E+00
    0.38274E+07        -0.49811E+08         0.00000E+00
    0.00000E+00         0.00000E+00        -0.59271E+08
 
   -0.59268E+08         0.39166E+07         0.00000E+00
    0.39166E+07        -0.49807E+08         0.00000E+00
    0.00000E+00         0.00000E+00        -0.59271E+08
 
   -0.58982E+08         0.37486E+05         0.00000E+00
    0.37486E+05        -0.50000E+08         0.00000E+00
    0.00000E+00         0.00000E+00        -0.58809E+08
 
   -0.58965E+08         0.11228E+06         0.00000E+00
    0.11228E+06        -0.50000E+08         0.00000E+00
    0.00000E+00         0.00000E+00        -0.58809E+08
 
   -0.58949E+08         0.18703E+06         0.00000E+00
    0.18703E+06        -0.49999E+08         0.00000E+00
    0.00000E+00         0.00000E+00        -0.58809E+08
 
   -0.58934E+08         0.26175E+06         0.00000E+00
    0.26175E+06        -0.49998E+08         0.00000E+00
    0.00000E+00         0.00000E+00        -0.58809E+08
 
   -0.58920E+08         0.33648E+06         0.00000E+00
    0.33648E+06        -0.49997E+08         0.00000E+00
    0.00000E+00         0.00000E+00        -0.58809E+08
 
   -0.58906E+08         0.41122E+06         0.00000E+00
    0.41122E+06        -0.49996E+08         0.00000E+00
    0.00000E+00         0.00000E+00        -0.58809E+08
 
   -0.58894E+08         0.48599E+06         0.00000E+00
    0.48599E+06        -0.49995E+08         0.00000E+00
    0.00000E+00         0.00000E+00        -0.58810E+08
 
   -0.58882E+08         0.56082E+06         0.00000E+00
    0.56082E+06        -0.49993E+08         0.00000E+00
    0.00000E+00         0.00000E+00        -0.58810E+08
 
   -0.58870E+08         0.63572E+06         0.00000E+00
    0.63572E+06        -0.49991E+08         0.00000E+00
    0.00000E+00         0.00000E+00        -0.58810E+08
 
   -0.58860E+08         0.71070E+06         0.00000E+00
    0.71070E+06        -0.49989E+08         0.00000E+00
    0.00000E+00         0.00000E+00        -0.58810E+08
 
   -0.58850E+08         0.78578E+06         0.00000E+00
    0.78578E+06        -0.49987E+08         0.00000E+00
    0.00000E+00         0.00000E+00        -0.58811E+08
 
   -0.58841E+08         0.86098E+06         0.00000E+00
    0.86098E+06        -0.49985E+08         0.00000E+00
    0.00000E+00         0.00000E+00        -0.58811E+08
 
   -0.58832E+08         0.93632E+06         0.00000E+00
    0.93632E+06        -0.49982E+08         0.00000E+00
    0.00000E+00         0.00000E+00        -0.58812E+08
 
   -0.58824E+08         0.10118E+07         0.00000E+00
    0.10118E+07        -0.49979E+08         0.00000E+00
    0.00000E+00         0.00000E+00        -0.58812E+08
 
   -0.58817E+08         0.10875E+07         0.00000E+00
    0.10875E+07        -0.49976E+08         0.00000E+00
    0.00000E+00         0.00000E+00        -0.58812E+08
 
   -0.58811E+08         0.11633E+07         0.00000E+00
    0.11633E+07        -0.49973E+08         0.00000E+00
    0.00000E+00         0.00000E+00        -0.58813E+08
 
   -0.58805E+08         0.12393E+07         0.00000E+00
    0.12393E+07        -0.49970E+08         0.00000E+00
    0.00000E+00         0.00000E+00        -0.58813E+08
 
   -0.58799E+08         0.13156E+07         0.00000E+00
    0.13156E+07        -0.49966E+08         0.00000E+00
    0.00000E+00         0.00000E+00        -0.58814E+08
 
   -0.58794E+08         0.13920E+07         0.00000E+00
    0.13920E+07        -0.49963E+08         0.00000E+00
    0.00000E+00         0.00000E+00        -0.58814E+08
 
   -0.58790E+08         0.14687E+07         0.00000E+00
    0.14687E+07        -0.49959E+08         0.00000E+00
    0.00000E+00         0.00000E+00        -0.58815E+08
 
   -0.58786E+08         0.15457E+07         0.00000E+00
    0.15457E+07        -0.49955E+08         0.00000E+00
    0.00000E+00         0.00000E+00        -0.58815E+08
 
   -0.58783E+08         0.16229E+07         0.00000E+00
    0.16229E+07        -0.49952E+08         0.00000E+00
    0.00000E+00         0.00000E+00        -0.58816E+08
 
   -0.58780E+08         0.17004E+07         0.00000E+00
    0.17004E+07        -0.49948E+08         0.00000E+00
    0.00000E+00         0.00000E+00        -0.58816E+08
 
   -0.58778E+08         0.17781E+07         0.00000E+00
    0.17781E+07        -0.49944E+08         0.00000E+00
    0.00000E+00         0.00000E+00        -0.58817E+08
 
   -0.58776E+08         0.18562E+07         0.00000E+00
    0.18562E+07        -0.49939E+08         0.00000E+00
    0.00000E+00         0.00000E+00        -0.58817E+08
 
   -0.58775E+08         0.19345E+07         0.00000E+00
    0.19345E+07        -0.49935E+08         0.00000E+00
    0.00000E+00         0.00000E+00        -0.58818E+08
 
   -0.58774E+08         0.20132E+07         0.00000E+00
    0.20132E+07        -0.49931E+08         0.00000E+00
    0.00000E+00         0.00000E+00        -0.58818E+08
 
   -0.58774E+08         0.20922E+07         0.00000E+00
    0.20922E+07        -0.49927E+08         0.00000E+00
    0.00000E+00         0.00000E+00        -0.58819E+08
 
   -0.58774E+08         0.21716E+07         0.00000E+00
    0.21716E+07        -0.49923E+08         0.00000E+00
    0.00000E+00         0.00000E+00        -0.58819E+08
 
   -0.58774E+08         0.22513E+07         0.00000E+00
    0.22513E+07        -0.49918E+08         0.00000E+00
    0.00000E+00         0.00000E+00        -0.58820E+08
 
   -0.58774E+08         0.23313E+07         0.00000E+00
    0.23313E+07        -0.49914E+08         0.00000E+00
    0.00000E+00         0.00000E+00        -0.58820E+08
 
   -0.58775E+08         0.24117E+07         0.00000E+00
    0.24117E+07        -0.49910E+08         0.00000E+00
    0.00000E+00         0.00000E+00        -0.58821E+08
 
   -0.58777E+08         0.24925E+07         0.00000E+00
    0.24925E+07        -0.49906E+08         0.00000E+00
    0.00000E+00         0.00000E+00        -0.58821E+08
 
   -0.58778E+08         0.25736E+07         0.00000E+00
    0.25736E+07        -0.49901E+08         0.00000E+00
    0.00000E+00         0.00000E+00        -0.58822E+08
 
   -0.58780E+08         0.26551E+07         0.00000E+00
    0.26551E+07        -0.49897E+08         0.00000E+00
    0.00000E+00         0.00000E+00        -0.58822E+08
 
   -0.58782E+08         0.27371E+07         0.00000E+00
    0.27371E+07        -0.49893E+08         0.00000E+00
    0.00000E+00         0.00000E+00        -0.58822E+08
 
   -0.58784E+08         0.28194E+07         0.00000E+00
    0.28194E+07        -0.49889E+08         0.00000E+00
    0.00000E+00         0.00000E+00        -0.58823E+08
 
   -0.58787E+08         0.29021E+07         0.00000E+00
    0.29021E+07        -0.49885E+08         0.00000E+00
    0.00000E+00         0.00000E+00        -0.58823E+08
 
   -0.58789E+08         0.29852E+07         0.00000E+00
    0.29852E+07        -0.49881E+08         0.00000E+00
    0.00000E+00         0.00000E+00        -0.58824E+08
 
   -0.58792E+08         0.30688E+07         0.00000E+00
    0.30688E+07        -0.49878E+08         0.00000E+00
    0.00000E+00         0.00000E+00        -0.58824E+08
 
   -0.58795E+08         0.31528E+07         0.00000E+00
    0.31528E+07        -0.49874E+08         0.00000E+00
    0.00000E+00         0.00000E+00        -0.58824E+08
 
   -0.58798E+08         0.32372E+07         0.00000E+00
    0.32372E+07        -0.49871E+08         0.00000E+00
    0.00000E+00         0.00000E+00        -0.58825E+08
 
   -0.58801E+08         0.33220E+07         0.00000E+00
    0.33220E+07        -0.49867E+08         0.00000E+00
    0.00000E+00         0.00000E+00        -0.58825E+08
 
   -0.58804E+08         0.34073E+07         0.00000E+00
    0.34073E+07        -0.49864E+08         0.00000E+00
    0.00000E+00         0.00000E+00        -0.58825E+08
 
   -0.58808E+08         0.34930E+07         0.00000E+00
    0.34930E+07        -0.49861E+08         0.00000E+00
    0.00000E+00         0.00000E+00        -0.58825E+08
 
   -0.58811E+08         0.35792E+07         0.00000E+00
    0.35792E+07        -0.49859E+08         0.00000E+00
    0.00000E+00         0.00000E+00        -0.58825E+08
 
   -0.58814E+08         0.36658E+07         0.00000E+00
    0.36658E+07        -0.49856E+08         0.00000E+00
    0.00000E+00         0.00000E+00        -0.58826E+08
 
   -0.58818E+08         0.37528E+07         0.00000E+00
    0.37528E+07        -0.49854E+08         0.00000E+00
    0.00000E+00         0.00000E+00        -0.58826E+08
 
   -0.58821E+08         0.38403E+07         0.00000E+00
    0.38403E+07        -0.49852E+08         0.00000E+00
    0.00000E+00         0.00000E+00        -0.58826E+08
 
   -0.58824E+08         0.39283E+07         0.00000E+00
    0.39283E+07        -0.49850E+08         0.00000E+00
    0.00000E+00         0.00000E+00        -0.58826E+08
 
   -0.58605E+08         0.38059E+05         0.00000E+00
    0.38059E+05        -0.50000E+08         0.00000E+00
    0.00000E+00         0.00000E+00        -0.58370E+08
 
   -0.58588E+08         0.11396E+06         0.00000E+00
    0.11396E+06        -0.50000E+08         0.00000E+00
    0.00000E+00         0.00000E+00        -0.58370E+08
 
   -0.58573E+08         0.18980E+06         0.00000E+00
    0.18980E+06        -0.49999E+08         0.00000E+00
    0.00000E+00         0.00000E+00        -0.58370E+08
 
   -0.58558E+08         0.26561E+06         0.00000E+00
    0.26561E+06        -0.49999E+08         0.00000E+00
    0.00000E+00         0.00000E+00        -0.58370E+08
 
   -0.58543E+08         0.34138E+06         0.00000E+00
    0.34138E+06        -0.49998E+08         0.00000E+00
    0.00000E+00         0.00000E+00        -0.58370E+08
 
   -0.58530E+08         0.41716E+06         0.00000E+00
    0.41716E+06        -0.49997E+08         0.00000E+00
    0.00000E+00         0.00000E+00        -0.58370E+08
 
   -0.58517E+08         0.49293E+06         0.00000E+00
    0.49293E+06        -0.49996E+08         0.00000E+00
    0.00000E+00         0.00000E+00        -0.58371E+08
 
   -0.58505E+08         0.56874E+06         0.00000E+00
    0.56874E+06        -0.49994E+08         0.00000E+00
    0.00000E+00         0.00000E+00        -0.58371E+08
 
   -0.58493E+08         0.64458E+06         0.00000E+00
    0.64458E+06        -0.49993E+08         0.00000E+00
    0.00000E+00         0.00000E+00        -0.58371E+08
 
   -0.58482E+08         0.72047E+06         0.00000E+00
    0.72047E+06        -0.49991E+08         0.00000E+00
    0.00000E+00         0.00000E+00        -0.58371E+08
 
   -0.58472E+08         0.79643E+06         0.00000E+00
    0.79643E+06        -0.49989E+08         0.00000E+00
    0.00000E+00         0.00000E+00        -0.58372E+08
 
   -0.58462E+08         0.87248E+06         0.00000E+00
    0.87248E+06        -0.49987E+08         0.00000E+00
    0.00000E+00         0.00000E+00        -0.58372E+08
 
   -0.58453E+08         0.94863E+06         0.00000E+00
    0.94863E+06        -0.49985E+08         0.00000E+00
    0.00000E+00         0.00000E+00        -0.58373E+08
 
   -0.58445E+08         0.10249E+07         0.00000E+00
    0.10249E+07        -0.49983E+08         0.00000E+00
    0.00000E+00         0.00000E+00        -0.58373E+08
 
   -0.58437E+08         0.11013E+07         0.00000E+00
    0.11013E+07        -0.49981E+08         0.00000E+00
    0.00000E+00         0.00000E+00        -0.58373E+08
 
   -0.58429E+08         0.11778E+07         0.00000E+00
    0.11778E+07        -0.49978E+08         0.00000E+00
    0.00000E+00         0.00000E+00        -0.58374E+08
 
   -0.58422E+08         0.12545E+07         0.00000E+00
    0.12545E+07        -0.49975E+08         0.00000E+00
    0.00000E+00         0.00000E+00        -0.58374E+08
 
   -0.58416E+08         0.13313E+07         0.00000E+00
    0.13313E+07        -0.49973E+08         0.00000E+00
    0.00000E+00         0.00000E+00        -0.58375E+08
 
   -0.58410E+08         0.14083E+07         0.00000E+00
    0.14083E+07        -0.49970E+08         0.00000E+00
    0.00000E+00         0.00000E+00        -0.58375E+08
 
   -0.58405E+08         0.14855E+07         0.00000E+00
    0.14855E+07        -0.49967E+08         0.00000E+00
    0.00000E+00         0.00000E+00        -0.58376E+08
 
   -0.58400E+08         0.15629E+07         0.00000E+00
    0.15629E+07        -0.49964E+08         0.00000E+00
    0.00000E+00         0.00000E+00        -0.58376E+08
 
   -0.58395E+08         0.16405E+07         0.00000E+00
    0.16405E+07        -0.49961E+08         0.00000E+00
    0.00000E+00         0.00000E+00        -0.58377E+08
 
   -0.58391E+08         0.17183E+07         0.00000E+00
    0.17183E+07        -0.49958E+08         0.00000E+00
    0.00000E+00         0.00000E+00        -0.58377E+08
 
   -0.58388E+08         0.17964E+07         0.00000E+00
    0.17964E+07        -0.49954E+08         0.00000E+00
    0.00000E+00         0.00000E+00        -0.58378E+08
 
   -0.58385E+08         0.18747E+07         0.00000E+00
    0.18747E+07        -0.49951E+08         0.00000E+00
    0.00000E+00         0.00000E+00        -0.58378E+08
 
   -0.58382E+08         0.19533E+07         0.00000E+00
    0.19533E+07        -0.49948E+08         0.00000E+00
    0.00000E+00         0.00000E+00        -0.58379E+08
 
   -0.58380E+08         0.20321E+07         0.00000E+00
    0.20321E+07        -0.49944E+08         0.00000E+00
    0.00000E+00         0.00000E+00        -0.58379E+08
 
   -0.58378E+08         0.21112E+07         0.00000E+00
    0.21112E+07        -0.49941E+08         0.00000E+00
    0.00000E+00         0.00000E+00        -0.58380E+08
 
   -0.58376E+08         0.21905E+07         0.00000E+00
    0.21905E+07        -0.49938E+08         0.00000E+00
    0.00000E+00         0.00000E+00        -0.58380E+08
 
   -0.58375E+08         0.22702E+07         0.00000E+00
    0.22702E+07        -0.49934E+08         0.00000E+00
    0.00000E+00         0.00000E+00        -0.58381E+08
 
   -0.58374E+08         0.23501E+07         0.00000E+00
    0.23501E+07        -0.49931E+08         0.00000E+00
    0.00000E+00         0.00000E+00        -0.58381E+08
 
   -0.58373E+08         0.24304E+07         0.00000E+00
    0.24304E+07        -0.49928E+08         0.00000E+00
    0.00000E+00         0.00000E+00        -0.58382E+08
 
   -0.58372E+08         0.25110E+07         0.00000E+00
    0.25110E+07        -0.49925E+08         0.00000E+00
    0.00000E+00         0.00000E+00        -0.58382E+08
 
   -0.58372E+08         0.25919E+07         0.00000E+00
    0.25919E+07        -0.49921E+08         0.00000E+00
    0.00000E+00         0.00000E+00        -0.58383E+08
 
   -0.58372E+08         0.26731E+07         0.00000E+00
    0.26731E+07        -0.49918E+08         0.00000E+00
    0.00000E+00         0.00000E+00        -0.58383E+08
 
   -0.58372E+08         0.27546E+07         0.00000E+00
    0.27546E+07        -0.49915E+08         0.00000E+00
    0.00000E+00         0.00000E+00        -0.58383E+08
 
   -0.58373E+08         0.28365E+07         0.00000E+00
    0.28365E+07        -0.49912E+08         0.00000E+00
    0.00000E+00         0.00000E+00        -0.58384E+08
 
   -0.58373E+08         0.29187E+07         0.00000E+00
    0.29187E+07        -0.49909E+08         0.00000E+00
    0.00000E+00         0.00000E+00        -0.58384E+08
 
   -0.58374E+08         0.30013E+07         0.00000E+00
    0.30013E+07        -0.49907E+08         0.00000E+00
    0.00000E+00         0.00000E+00        -0.58385E+08
 
   -0.58375E+08         0.30843E+07         0.00000E+00
    0.30843E+07        -0.49904E+08         0.00000E+00
    0.00000E+00         0.00000E+00        -0.58385E+08
 
   -0.58376E+08         0.31676E+07         0.00000E+00
    0.31676E+07        -0.49901E+08         0.00000E+00
    0.00000E+00         0.00000E+00        -0.58385E+08
 
   -0.58377E+08         0.32512E+07         0.00000E+00
    0.32512E+07        -0.49899E+08         0.00000E+00
    0.00000E+00         0.00000E+00        -0.58385E+08
 
   -0.58378E+08         0.33353E+07         0.00000E+00
    0.33353E+07        -0.49897E+08         0.00000E+00
    0.00000E+00         0.00000E+00        -0.58386E+08
 
   -0.58379E+08         0.34197E+07         0.00000E+00
    0.34197E+07        -0.49895E+08         0.00000E+00
    0.00000E+00         0.00000E+00        -0.58386E+08
 
   -0.58380E+08         0.35045E+07         0.00000E+00
    0.35045E+07        -0.49893E+08         0.00000E+00
    0.00000E+00         0.00000E+00        -0.58386E+08
 
   -0.58381E+08         0.35896E+07         0.00000E+00
    0.35896E+07        -0.49891E+08         0.00000E+00
    0.00000E+00         0.00000E+00        -0.58386E+08
 
   -0.58383E+08         0.36752E+07         0.00000E+00
    0.36752E+07        -0.49890E+08         0.00000E+00
    0.00000E+00         0.00000E+00        -0.58387E+08
 
   -0.58384E+08         0.37612E+07         0.00000E+00
    0.37612E+07        -0.49889E+08         0.00000E+00
    0.00000E+00         0.00000E+00        -0.58387E+08
 
   -0.58385E+08         0.38475E+07         0.00000E+00
    0.38475E+07        -0.49888E+08         0.00000E+00
    0.00000E+00         0.00000E+00        -0.58387E+08
 
   -0.58386E+08         0.39342E+07         0.00000E+00
    0.39342E+07        -0.49887E+08         0.00000E+00
    0.00000E+00         0.00000E+00        -0.58387E+08
 
   -0.58223E+08         0.38528E+05         0.00000E+00
    0.38528E+05        -0.50000E+08         0.00000E+00
    0.00000E+00         0.00000E+00        -0.57937E+08
 
   -0.58207E+08         0.11533E+06         0.00000E+00
    0.11533E+06        -0.50000E+08         0.00000E+00
    0.00000E+00         0.00000E+00        -0.57937E+08
 
   -0.58191E+08         0.19207E+06         0.00000E+00
    0.19207E+06        -0.49999E+08         0.00000E+00
    0.00000E+00         0.00000E+00        -0.57937E+08
 
   -0.58177E+08         0.26874E+06         0.00000E+00
    0.26874E+06        -0.49999E+08         0.00000E+00
    0.00000E+00         0.00000E+00        -0.57937E+08
 
   -0.58162E+08         0.34538E+06         0.00000E+00
    0.34538E+06        -0.49998E+08         0.00000E+00
    0.00000E+00         0.00000E+00        -0.57938E+08
 
   -0.58149E+08         0.42198E+06         0.00000E+00
    0.42198E+06        -0.49998E+08         0.00000E+00
    0.00000E+00         0.00000E+00        -0.57938E+08
 
   -0.58136E+08         0.49857E+06         0.00000E+00
    0.49857E+06        -0.49997E+08         0.00000E+00
    0.00000E+00         0.00000E+00        -0.57938E+08
 
   -0.58124E+08         0.57516E+06         0.00000E+00
    0.57516E+06        -0.49996E+08         0.00000E+00
    0.00000E+00         0.00000E+00        -0.57938E+08
 
   -0.58112E+08         0.65177E+06         0.00000E+00
    0.65177E+06        -0.49994E+08         0.00000E+00
    0.00000E+00         0.00000E+00        -0.57939E+08
 
   -0.58101E+08         0.72840E+06         0.00000E+00
    0.72840E+06        -0.49993E+08         0.00000E+00
    0.00000E+00         0.00000E+00        -0.57939E+08
 
   -0.58090E+08         0.80506E+06         0.00000E+00
    0.80506E+06        -0.49991E+08         0.00000E+00
    0.00000E+00         0.00000E+00        -0.57939E+08
 
   -0.58080E+08         0.88178E+06         0.00000E+00
    0.88178E+06        -0.49990E+08         0.00000E+00
    0.00000E+00         0.00000E+00        -0.57940E+08
 
   -0.58070E+08         0.95857E+06         0.00000E+00
    0.95857E+06        -0.49988E+08         0.00000E+00
    0.00000E+00         0.00000E+00        -0.57940E+08
 
   -0.58061E+08         0.10354E+07         0.00000E+00
    0.10354E+07        -0.49986E+08         0.00000E+00
    0.00000E+00         0.00000E+00        -0.57940E+08
 
   -0.58053E+08         0.11124E+07         0.00000E+00
    0.11124E+07        -0.49984E+08         0.00000E+00
    0.00000E+00         0.00000E+00        -0.57941E+08
 
   -0.58045E+08         0.11894E+07         0.00000E+00
    0.11894E+07        -0.49982E+08         0.00000E+00
    0.00000E+00         0.00000E+00        -0.57941E+08
 
   -0.58037E+08         0.12666E+07         0.00000E+00
    0.12666E+07        -0.49980E+08         0.00000E+00
    0.00000E+00         0.00000E+00        -0.57942E+08
 
   -0.58030E+08         0.13439E+07         0.00000E+00
    0.13439E+07        -0.49978E+08         0.00000E+00
    0.00000E+00         0.00000E+00        -0.57942E+08
 
   -0.58024E+08         0.14213E+07         0.00000E+00
    0.14213E+07        -0.49976E+08         0.00000E+00
    0.00000E+00         0.00000E+00        -0.57943E+08
 
   -0.58017E+08         0.14989E+07         0.00000E+00
    0.14989E+07        -0.49973E+08         0.00000E+00
    0.00000E+00         0.00000E+00        -0.57943E+08
 
   -0.58012E+08         0.15766E+07         0.00000E+00
    0.15766E+07        -0.49971E+08         0.00000E+00
    0.00000E+00         0.00000E+00        -0.57944E+08
 
   -0.58006E+08         0.16545E+07         0.00000E+00
    0.16545E+07        -0.49969E+08         0.00000E+00
    0.00000E+00         0.00000E+00        -0.57944E+08
 
   -0.58001E+08         0.17326E+07         0.00000E+00
    0.17326E+07        -0.49966E+08         0.00000E+00
    0.00000E+00         0.00000E+00        -0.57945E+08
 
   -0.57997E+08         0.18108E+07         0.00000E+00
    0.18108E+07        -0.49964E+08         0.00000E+00
    0.00000E+00         0.00000E+00        -0.57945E+08
 
   -0.57992E+08         0.18893E+07         0.00000E+00
    0.18893E+07        -0.49961E+08         0.00000E+00
    0.00000E+00         0.00000E+00        -0.57946E+08
 
   -0.57988E+08         0.19679E+07         0.00000E+00
    0.19679E+07        -0.49958E+08         0.00000E+00
    0.00000E+00         0.00000E+00        -0.57946E+08
 
   -0.57985E+08         0.20468E+07         0.00000E+00
    0.20468E+07        -0.49956E+08         0.00000E+00
    0.00000E+00         0.00000E+00        -0.57947E+08
 
   -0.57982E+08         0.21259E+07         0.00000E+00
    0.21259E+07        -0.49953E+08         0.00000E+00
    0.00000E+00         0.00000E+00        -0.57947E+08
 
   -0.57979E+08         0.22052E+07         0.00000E+00
    0.22052E+07        -0.49951E+08         0.00000E+00
    0.00000E+00         0.00000E+00        -0.57948E+08
 
   -0.57976E+08         0.22847E+07         0.00000E+00
    0.22847E+07        -0.49948E+08         0.00000E+00
    0.00000E+00         0.00000E+00        -0.57948E+08
 
   -0.57973E+08         0.23645E+07         0.00000E+00
    0.23645E+07        -0.49946E+08         0.00000E+00
    0.00000E+00         0.00000E+00        -0.57949E+08
 
   -0.57971E+08         0.24446E+07         0.00000E+00
    0.24446E+07        -0.49943E+08         0.00000E+00
    0.00000E+00         0.00000E+00        -0.57949E+08
 
   -0.57969E+08         0.25249E+07         0.00000E+00
    0.25249E+07        -0.49941E+08         0.00000E+00
    0.00000E+00         0.00000E+00        -0.57950E+08
 
   -0.57968E+08         0.26055E+07         0.00000E+00
    0.26055E+07        -0.49939E+08         0.00000E+00
    0.00000E+00         0.00000E+00        -0.57950E+08
 
   -0.57966E+08         0.26863E+07         0.00000E+00
    0.26863E+07        -0.49936E+08         0.00000E+00
    0.00000E+00         0.00000E+00        -0.57951E+08
 
   -0.57965E+08         0.27674E+07         0.00000E+00
    0.27674E+07        -0.49934E+08         0.00000E+00
    0.00000E+00         0.00000E+00        -0.57951E+08
 
   -0.57964E+08         0.28488E+07         0.00000E+00
    0.28488E+07        -0.49932E+08         0.00000E+00
    0.00000E+00         0.00000E+00        -0.57951E+08
 
   -0.57963E+08         0.29305E+07         0.00000E+00
    0.29305E+07        -0.49930E+08         0.00000E+00
    0.00000E+00         0.00000E+00        -0.57952E+08
 
   -0.57962E+08         0.30125E+07         0.00000E+00
    0.30125E+07        -0.49928E+08         0.00000E+00
    0.00000E+00         0.00000E+00        -0.57952E+08
 
   -0.57961E+08         0.30948E+07         0.00000E+00
    0.30948E+07        -0.49926E+08         0.00000E+00
    0.00000E+00         0.00000E+00        -0.57952E+08
 
   -0.57960E+08         0.31774E+07         0.00000E+00
    0.31774E+07        -0.49925E+08         0.00000E+00
    0.00000E+00         0.00000E+00        -0.57953E+08
 
   -0.57959E+08         0.32603E+07         0.00000E+00
    0.32603E+07        -0.49923E+08         0.00000E+00
    0.00000E+00         0.00000E+00        -0.57953E+08
 
   -0.57959E+08         0.33435E+07         0.00000E+00
    0.33435E+07        -0.49922E+08         0.00000E+00
    0.00000E+00         0.00000E+00        -0.57953E+08
 
   -0.57958E+08         0.34271E+07         0.00000E+00
    0.34271E+07        -0.49921E+08         0.00000E+00
    0.00000E+00         0.00000E+00        -0.57953E+08
 
   -0.57958E+08         0.35109E+07         0.00000E+00
    0.35109E+07        -0.49920E+08         0.00000E+00
    0.00000E+00         0.00000E+00        -0.57954E+08
 
   -0.57957E+08         0.35951E+07         0.00000E+00
    0.35951E+07        -0.49919E+08         0.00000E+00
    0.00000E+00         0.00000E+00        -0.57954E+08
 
   -0.57957E+08         0.36796E+07         0.00000E+00
    0.36796E+07        -0.49919E+08         0.00000E+00
    0.00000E+00         0.00000E+00        -0.57954E+08
 
   -0.57956E+08         0.37644E+07         0.00000E+00
    0.37644E+07        -0.49919E+08         0.00000E+00
    0.00000E+00         0.00000E+00        -0.57954E+08
 
   -0.57955E+08         0.38496E+07         0.00000E+00
    0.38496E+07        -0.49918E+08         0.00000E+00
    0.00000E+00         0.00000E+00        -0.57954E+08
 
   -0.57955E+08         0.39351E+07         0.00000E+00
    0.39351E+07        -0.49919E+08         0.00000E+00
    0.00000E+00         0.00000E+00        -0.57954E+08
 
   -0.57836E+08         0.38907E+05         0.00000E+00
    0.38907E+05        -0.50000E+08         0.00000E+00
    0.00000E+00         0.00000E+00        -0.57511E+08
 
   -0.57821E+08         0.11644E+06         0.00000E+00
    0.11644E+06        -0.50000E+08         0.00000E+00
    0.00000E+00         0.00000E+00        -0.57511E+08
 
   -0.57806E+08         0.19390E+06         0.00000E+00
    0.19390E+06        -0.50000E+08         0.00000E+00
    0.00000E+00         0.00000E+00        -0.57511E+08
 
   -0.57791E+08         0.27128E+06         0.00000E+00
    0.27128E+06        -0.49999E+08         0.00000E+00
    0.00000E+00         0.00000E+00        -0.57512E+08
 
   -0.57778E+08         0.34860E+06         0.00000E+00
    0.34860E+06        -0.49999E+08         0.00000E+00
    0.00000E+00         0.00000E+00        -0.57512E+08
 
   -0.57764E+08         0.42587E+06         0.00000E+00
    0.42587E+06        -0.49998E+08         0.00000E+00
    0.00000E+00         0.00000E+00        -0.57512E+08
 
   -0.57751E+08         0.50311E+06         0.00000E+00
    0.50311E+06        -0.49997E+08         0.00000E+00
    0.00000E+00         0.00000E+00        -0.57512E+08
 
   -0.57739E+08         0.58033E+06         0.00000E+00
    0.58033E+06        -0.49996E+08         0.00000E+00
    0.00000E+00         0.00000E+00        -0.57512E+08
 
   -0.57727E+08         0.65754E+06         0.00000E+00
    0.65754E+06        -0.49995E+08         0.00000E+00
    0.00000E+00         0.00000E+00        -0.57513E+08
 
   -0.57716E+08         0.73475E+06         0.00000E+00
    0.73475E+06        -0.49994E+08         0.00000E+00
    0.00000E+00         0.00000E+00        -0.57513E+08
 
   -0.57705E+08         0.81197E+06         0.00000E+00
    0.81197E+06        -0.49993E+08         0.00000E+00
    0.00000E+00         0.00000E+00        -0.57513E+08
 
   -0.57695E+08         0.88921E+06         0.00000E+00
    0.88921E+06        -0.49992E+08         0.00000E+00
    0.00000E+00         0.00000E+00        -0.57514E+08
 
   -0.57685E+08         0.96650E+06         0.00000E+00
    0.96650E+06        -0.49991E+08         0.00000E+00
    0.00000E+00         0.00000E+00        -0.57514E+08
 
   -0.57676E+08         0.10438E+07         0.00000E+00
    0.10438E+07        -0.49989E+08         0.00000E+00
    0.00000E+00         0.00000E+00        -0.57515E+08
 
   -0.57667E+08         0.11212E+07         0.00000E+00
    0.11212E+07        -0.49988E+08         0.00000E+00
    0.00000E+00         0.00000E+00        -0.57515E+08
 
   -0.57658E+08         0.11987E+07         0.00000E+00
    0.11987E+07        -0.49986E+08         0.00000E+00
    0.00000E+00         0.00000E+00        -0.57515E+08
 
   -0.57650E+08         0.12762E+07         0.00000E+00
    0.12762E+07        -0.49984E+08         0.00000E+00
    0.00000E+00         0.00000E+00        -0.57516E+08
 
   -0.57643E+08         0.13538E+07         0.00000E+00
    0.13538E+07        -0.49983E+08         0.00000E+00
    0.00000E+00         0.00000E+00        -0.57516E+08
 
   -0.57635E+08         0.14315E+07         0.00000E+00
    0.14315E+07        -0.49981E+08         0.00000E+00
    0.00000E+00         0.00000E+00        -0.57517E+08
 
   -0.57628E+08         0.15094E+07         0.00000E+00
    0.15094E+07        -0.49979E+08         0.00000E+00
    0.00000E+00         0.00000E+00        -0.57517E+08
 
   -0.57622E+08         0.15873E+07         0.00000E+00
    0.15873E+07        -0.49977E+08         0.00000E+00
    0.00000E+00         0.00000E+00        -0.57518E+08
 
   -0.57616E+08         0.16654E+07         0.00000E+00
    0.16654E+07        -0.49975E+08         0.00000E+00
    0.00000E+00         0.00000E+00        -0.57518E+08
 
   -0.57610E+08         0.17436E+07         0.00000E+00
    0.17436E+07        -0.49973E+08         0.00000E+00
    0.00000E+00         0.00000E+00        -0.57519E+08
 
   -0.57605E+08         0.18219E+07         0.00000E+00
    0.18219E+07        -0.49971E+08         0.00000E+00
    0.00000E+00         0.00000E+00        -0.57519E+08
 
   -0.57599E+08         0.19004E+07         0.00000E+00
    0.19004E+07        -0.49970E+08         0.00000E+00
    0.00000E+00         0.00000E+00        -0.57520E+08
 
   -0.57595E+08         0.19791E+07         0.00000E+00
    0.19791E+07        -0.49968E+08         0.00000E+00
    0.00000E+00         0.00000E+00        -0.57520E+08
 
   -0.57590E+08         0.20579E+07         0.00000E+00
    0.20579E+07        -0.49966E+08         0.00000E+00
    0.00000E+00         0.00000E+00        -0.57521E+08
 
   -0.57586E+08         0.21369E+07         0.00000E+00
    0.21369E+07        -0.49964E+08         0.00000E+00
    0.00000E+00         0.00000E+00        -0.57521E+08
 
   -0.57582E+08         0.22161E+07         0.00000E+00
    0.22161E+07        -0.49962E+08         0.00000E+00
    0.00000E+00         0.00000E+00        -0.57522E+08
 
   -0.57578E+08         0.22955E+07         0.00000E+00
    0.22955E+07        -0.49960E+08         0.00000E+00
    0.00000E+00         0.00000E+00        -0.57522E+08
 
   -0.57574E+08         0.23751E+07         0.00000E+00
    0.23751E+07        -0.49958E+08         0.00000E+00
    0.00000E+00         0.00000E+00        -0.57523E+08
 
   -0.57571E+08         0.24549E+07         0.00000E+00
    0.24549E+07        -0.49957E+08         0.00000E+00
    0.00000E+00         0.00000E+00        -0.57523E+08
 
   -0.57568E+08         0.25349E+07         0.00000E+00
    0.25349E+07        -0.49955E+08         0.00000E+00
    0.00000E+00         0.00000E+00        -0.57524E+08
 
   -0.57565E+08         0.26151E+07         0.00000E+00
    0.26151E+07        -0.49953E+08         0.00000E+00
    0.00000E+00         0.00000E+00        -0.57524E+08
 
   -0.57562E+08         0.26955E+07         0.00000E+00
    0.26955E+07        -0.49952E+08         0.00000E+00
    0.00000E+00         0.00000E+00        -0.57524E+08
 
   -0.57560E+08         0.27761E+07         0.00000E+00
    0.27761E+07        -0.49950E+08         0.00000E+00
    0.00000E+00         0.00000E+00        -0.57525E+08
 
   -0.57557E+08         0.28570E+07         0.00000E+00
    0.28570E+07        -0.49949E+08         0.00000E+00
    0.00000E+00         0.00000E+00        -0.57525E+08
 
   -0.57555E+08         0.29382E+07         0.00000E+00
    0.29382E+07        -0.49948E+08         0.00000E+00
    0.00000E+00         0.00000E+00        -0.57526E+08
 
   -0.57553E+08         0.30195E+07         0.00000E+00
    0.30195E+07        -0.49947E+08         0.00000E+00
    0.00000E+00         0.00000E+00        -0.57526E+08
 
   -0.57550E+08         0.31011E+07         0.00000E+00
    0.31011E+07        -0.49946E+08         0.00000E+00
    0.00000E+00         0.00000E+00        -0.57526E+08
 
   -0.57548E+08         0.31830E+07         0.00000E+00
    0.31830E+07        -0.49945E+08         0.00000E+00
    0.00000E+00         0.00000E+00        -0.57527E+08
 
   -0.57546E+08         0.32651E+07         0.00000E+00
    0.32651E+07        -0.49944E+08         0.00000E+00
    0.00000E+00         0.00000E+00        -0.57527E+08
 
   -0.57544E+08         0.33475E+07         0.00000E+00
    0.33475E+07        -0.49944E+08         0.00000E+00
    0.00000E+00         0.00000E+00        -0.57527E+08
 
   -0.57542E+08         0.34301E+07         0.00000E+00
    0.34301E+07        -0.49943E+08         0.00000E+00
    0.00000E+00         0.00000E+00        -0.57527E+08
 
   -0.57540E+08         0.35131E+07         0.00000E+00
    0.35131E+07        -0.49943E+08         0.00000E+00
    0.00000E+00         0.00000E+00        -0.57528E+08
 
   -0.57538E+08         0.35962E+07         0.00000E+00
    0.35962E+07        -0.49943E+08         0.00000E+00
    0.00000E+00         0.00000E+00        -0.57528E+08
 
   -0.57536E+08         0.36797E+07         0.00000E+00
    0.36797E+07        -0.49944E+08         0.00000E+00
    0.00000E+00         0.00000E+00        -0.57528E+08
 
   -0.57534E+08         0.37634E+07         0.00000E+00
    0.37634E+07        -0.49944E+08         0.00000E+00
    0.00000E+00         0.00000E+00        -0.57528E+08
 
   -0.57532E+08         0.38474E+07         0.00000E+00
    0.38474E+07        -0.49945E+08         0.00000E+00
    0.00000E+00         0.00000E+00        -0.57528E+08
 
   -0.57529E+08         0.39317E+07         0.00000E+00
    0.39317E+07        -0.49946E+08         0.00000E+00
    0.00000E+00         0.00000E+00        -0.57528E+08
 
   -0.57447E+08         0.39212E+05         0.00000E+00
    0.39212E+05        -0.50000E+08         0.00000E+00
    0.00000E+00         0.00000E+00        -0.57092E+08
 
   -0.57432E+08         0.11733E+06         0.00000E+00
    0.11733E+06        -0.50000E+08         0.00000E+00
    0.00000E+00         0.00000E+00        -0.57092E+08
 
   -0.57417E+08         0.19535E+06         0.00000E+00
    0.19535E+06        -0.50000E+08         0.00000E+00
    0.00000E+00         0.00000E+00        -0.57092E+08
 
   -0.57403E+08         0.27329E+06         0.00000E+00
    0.27329E+06        -0.49999E+08         0.00000E+00
    0.00000E+00         0.00000E+00        -0.57092E+08
 
   -0.57390E+08         0.35116E+06         0.00000E+00
    0.35116E+06        -0.49999E+08         0.00000E+00
    0.00000E+00         0.00000E+00        -0.57092E+08
 
   -0.57377E+08         0.42896E+06         0.00000E+00
    0.42896E+06        -0.49998E+08         0.00000E+00
    0.00000E+00         0.00000E+00        -0.57092E+08
 
   -0.57364E+08         0.50671E+06         0.00000E+00
    0.50671E+06        -0.49998E+08         0.00000E+00
    0.00000E+00         0.00000E+00        -0.57093E+08
 
   -0.57352E+08         0.58442E+06         0.00000E+00
    0.58442E+06        -0.49997E+08         0.00000E+00
    0.00000E+00         0.00000E+00        -0.57093E+08
 
   -0.57340E+08         0.66210E+06         0.00000E+00
    0.66210E+06        -0.49996E+08         0.00000E+00
    0.00000E+00         0.00000E+00        -0.57093E+08
 
   -0.57329E+08         0.73976E+06         0.00000E+00
    0.73976E+06        -0.49996E+08         0.00000E+00
    0.00000E+00         0.00000E+00        -0.57094E+08
 
   -0.57318E+08         0.81741E+06         0.00000E+00
    0.81741E+06        -0.49995E+08         0.00000E+00
    0.00000E+00         0.00000E+00        -0.57094E+08
 
   -0.57308E+08         0.89505E+06         0.00000E+00
    0.89505E+06        -0.49994E+08         0.00000E+00
    0.00000E+00         0.00000E+00        -0.57094E+08
 
   -0.57298E+08         0.97271E+06         0.00000E+00
    0.97271E+06        -0.49993E+08         0.00000E+00
    0.00000E+00         0.00000E+00        -0.57095E+08
 
   -0.57288E+08         0.10504E+07         0.00000E+00
    0.10504E+07        -0.49991E+08         0.00000E+00
    0.00000E+00         0.00000E+00        -0.57095E+08
 
   -0.57279E+08         0.11281E+07         0.00000E+00
    0.11281E+07        -0.49990E+08         0.00000E+00
    0.00000E+00         0.00000E+00        -0.57095E+08
 
   -0.57270E+08         0.12058E+07         0.00000E+00
    0.12058E+07        -0.49989E+08         0.00000E+00
    0.00000E+00         0.00000E+00        -0.57096E+08
 
   -0.57262E+08         0.12836E+07         0.00000E+00
    0.12836E+07        -0.49988E+08         0.00000E+00
    0.00000E+00         0.00000E+00        -0.57096E+08
 
   -0.57254E+08         0.13615E+07         0.00000E+00
    0.13615E+07        -0.49986E+08         0.00000E+00
    0.00000E+00         0.00000E+00        -0.57097E+08
 
   -0.57246E+08         0.14394E+07         0.00000E+00
    0.14394E+07        -0.49985E+08         0.00000E+00
    0.00000E+00         0.00000E+00        -0.57097E+08
 
   -0.57239E+08         0.15174E+07         0.00000E+00
    0.15174E+07        -0.49984E+08         0.00000E+00
    0.00000E+00         0.00000E+00        -0.57098E+08
 
   -0.57232E+08         0.15955E+07         0.00000E+00
    0.15955E+07        -0.49982E+08         0.00000E+00
    0.00000E+00         0.00000E+00        -0.57098E+08
 
   -0.57225E+08         0.16736E+07         0.00000E+00
    0.16736E+07        -0.49981E+08         0.00000E+00
    0.00000E+00         0.00000E+00        -0.57099E+08
 
   -0.57218E+08         0.17519E+07         0.00000E+00
    0.17519E+07        -0.49980E+08         0.00000E+00
    0.00000E+00         0.00000E+00        -0.57099E+08
 
   -0.57212E+08         0.18302E+07         0.00000E+00
    0.18302E+07        -0.49978E+08         0.00000E+00
    0.00000E+00         0.00000E+00        -0.57100E+08
 
   -0.57207E+08         0.19087E+07         0.00000E+00
    0.19087E+07        -0.49977E+08         0.00000E+00
    0.00000E+00         0.00000E+00        -0.57100E+08
 
   -0.57201E+08         0.19873E+07         0.00000E+00
    0.19873E+07        -0.49975E+08         0.00000E+00
    0.00000E+00         0.00000E+00        -0.57101E+08
 
   -0.57196E+08         0.20660E+07         0.00000E+00
    0.20660E+07        -0.49974E+08         0.00000E+00
    0.00000E+00         0.00000E+00        -0.57101E+08
 
   -0.57191E+08         0.21449E+07         0.00000E+00
    0.21449E+07        -0.49973E+08         0.00000E+00
    0.00000E+00         0.00000E+00        -0.57102E+08
 
   -0.57186E+08         0.22239E+07         0.00000E+00
    0.22239E+07        -0.49971E+08         0.00000E+00
    0.00000E+00         0.00000E+00        -0.57102E+08
 
   -0.57181E+08         0.23030E+07         0.00000E+00
    0.23030E+07        -0.49970E+08         0.00000E+00
    0.00000E+00         0.00000E+00        -0.57103E+08
 
   -0.57177E+08         0.23824E+07         0.00000E+00
    0.23824E+07        -0.49969E+08         0.00000E+00
    0.00000E+00         0.00000E+00        -0.57103E+08
 
   -0.57173E+08         0.24618E+07         0.00000E+00
    0.24618E+07        -0.49968E+08         0.00000E+00
    0.00000E+00         0.00000E+00        -0.57104E+08
 
   -0.57168E+08         0.25414E+07         0.00000E+00
    0.25414E+07        -0.49967E+08         0.00000E+00
    0.00000E+00         0.00000E+00        -0.57104E+08
 
   -0.57165E+08         0.26212E+07         0.00000E+00
    0.26212E+07        -0.49966E+08         0.00000E+00
    0.00000E+00         0.00000E+00        -0.57104E+08
 
   -0.57161E+08         0.27012E+07         0.00000E+00
    0.27012E+07        -0.49965E+08         0.00000E+00
    0.00000E+00         0.00000E+00        -0.57105E+08
 
   -0.57157E+08         0.27814E+07         0.00000E+00
    0.27814E+07        -0.49964E+08         0.00000E+00
    0.00000E+00         0.00000E+00        -0.57105E+08
 
   -0.57154E+08         0.28617E+07         0.00000E+00
    0.28617E+07        -0.49963E+08         0.00000E+00
    0.00000E+00         0.00000E+00        -0.57106E+08
 
   -0.57150E+08         0.29422E+07         0.00000E+00
    0.29422E+07        -0.49963E+08         0.00000E+00
    0.00000E+00         0.00000E+00        -0.57106E+08
 
   -0.57147E+08         0.30230E+07         0.00000E+00
    0.30230E+07        -0.49962E+08         0.00000E+00
    0.00000E+00         0.00000E+00        -0.57106E+08
 
   -0.57143E+08         0.31039E+07         0.00000E+00
    0.31039E+07        -0.49962E+08         0.00000E+00
    0.00000E+00         0.00000E+00        -0.57107E+08
 
   -0.57140E+08         0.31850E+07         0.00000E+00
    0.31850E+07        -0.49962E+08         0.00000E+00
    0.00000E+00         0.00000E+00        -0.57107E+08
 
   -0.57137E+08         0.32663E+07         0.00000E+00
    0.32663E+07        -0.49962E+08         0.00000E+00
    0.00000E+00         0.00000E+00        -0.57107E+08
 
   -0.57134E+08         0.33479E+07         0.00000E+00
    0.33479E+07        -0.49962E+08         0.00000E+00
    0.00000E+00         0.00000E+00        -0.57107E+08
 
   -0.57130E+08         0.34296E+07         0.00000E+00
    0.34296E+07        -0.49962E+08         0.00000E+00
    0.00000E+00         0.00000E+00        -0.57108E+08
 
   -0.57127E+08         0.35116E+07         0.00000E+00
    0.35116E+07        -0.49963E+08         0.00000E+00
    0.00000E+00         0.00000E+00        -0.57108E+08
 
   -0.57124E+08         0.35938E+07         0.00000E+00
    0.35938E+07        -0.49964E+08         0.00000E+00
    0.00000E+00         0.00000E+00        -0.57108E+08
 
   -0.57121E+08         0.36762E+07         0.00000E+00
    0.36762E+07        -0.49965E+08         0.00000E+00
    0.00000E+00         0.00000E+00        -0.57108E+08
 
   -0.57117E+08         0.37588E+07         0.00000E+00
    0.37588E+07        -0.49966E+08         0.00000E+00
    0.00000E+00         0.00000E+00        -0.57108E+08
 
   -0.57114E+08         0.38417E+07         0.00000E+00
    0.38417E+07        -0.49967E+08         0.00000E+00
    0.00000E+00         0.00000E+00        -0.57108E+08
 
   -0.57110E+08         0.39247E+07         0.00000E+00
    0.39247E+07        -0.49969E+08         0.00000E+00
    0.00000E+00         0.00000E+00        -0.57108E+08
 
   -0.57055E+08         0.39454E+05         0.00000E+00
    0.39454E+05        -0.50000E+08         0.00000E+00
    0.00000E+00         0.00000E+00        -0.56679E+08
 
   -0.57040E+08         0.11803E+06         0.00000E+00
    0.11803E+06        -0.50000E+08         0.00000E+00
    0.00000E+00         0.00000E+00        -0.56679E+08
 
   -0.57026E+08         0.19651E+06         0.00000E+00
    0.19651E+06        -0.50000E+08         0.00000E+00
    0.00000E+00         0.00000E+00        -0.56679E+08
 
   -0.57013E+08         0.27488E+06         0.00000E+00
    0.27488E+06        -0.49999E+08         0.00000E+00
    0.00000E+00         0.00000E+00        -0.56679E+08
 
   -0.56999E+08         0.35317E+06         0.00000E+00
    0.35317E+06        -0.49999E+08         0.00000E+00
    0.00000E+00         0.00000E+00        -0.56679E+08
 
   -0.56987E+08         0.43139E+06         0.00000E+00
    0.43139E+06        -0.49999E+08         0.00000E+00
    0.00000E+00         0.00000E+00        -0.56679E+08
 
   -0.56974E+08         0.50953E+06         0.00000E+00
    0.50953E+06        -0.49998E+08         0.00000E+00
    0.00000E+00         0.00000E+00        -0.56680E+08
 
   -0.56962E+08         0.58762E+06         0.00000E+00
    0.58762E+06        -0.49998E+08         0.00000E+00
    0.00000E+00         0.00000E+00        -0.56680E+08
 
   -0.56951E+08         0.66565E+06         0.00000E+00
    0.66565E+06        -0.49997E+08         0.00000E+00
    0.00000E+00         0.00000E+00        -0.56680E+08
 
   -0.56940E+08         0.74365E+06         0.00000E+00
    0.74365E+06        -0.49997E+08         0.00000E+00
    0.00000E+00         0.00000E+00        -0.56680E+08
 
   -0.56929E+08         0.82162E+06         0.00000E+00
    0.82162E+06        -0.49996E+08         0.00000E+00
    0.00000E+00         0.00000E+00        -0.56681E+08
 
   -0.56919E+08         0.89956E+06         0.00000E+00
    0.89956E+06        -0.49995E+08         0.00000E+00
    0.00000E+00         0.00000E+00        -0.56681E+08
 
   -0.56909E+08         0.97749E+06         0.00000E+00
    0.97749E+06        -0.49994E+08         0.00000E+00
    0.00000E+00         0.00000E+00        -0.56681E+08
 
   -0.56899E+08         0.10554E+07         0.00000E+00
    0.10554E+07        -0.49993E+08         0.00000E+00
    0.00000E+00         0.00000E+00        -0.56682E+08
 
   -0.56890E+08         0.11333E+07         0.00000E+00
    0.11333E+07        -0.49993E+08         0.00000E+00
    0.00000E+00         0.00000E+00        -0.56682E+08
 
   -0.56881E+08         0.12113E+07         0.00000E+00
    0.12113E+07        -0.49992E+08         0.00000E+00
    0.00000E+00         0.00000E+00        -0.56683E+08
 
   -0.56872E+08         0.12892E+07         0.00000E+00
    0.12892E+07        -0.49991E+08         0.00000E+00
    0.00000E+00         0.00000E+00        -0.56683E+08
 
   -0.56864E+08         0.13672E+07         0.00000E+00
    0.13672E+07        -0.49990E+08         0.00000E+00
    0.00000E+00         0.00000E+00        -0.56683E+08
 
   -0.56856E+08         0.14453E+07         0.00000E+00
    0.14453E+07        -0.49989E+08         0.00000E+00
    0.00000E+00         0.00000E+00        -0.56684E+08
 
   -0.56848E+08         0.15233E+07         0.00000E+00
    0.15233E+07        -0.49988E+08         0.00000E+00
    0.00000E+00         0.00000E+00        -0.56684E+08
 
   -0.56841E+08         0.16014E+07         0.00000E+00
    0.16014E+07        -0.49987E+08         0.00000E+00
    0.00000E+00         0.00000E+00        -0.56685E+08
 
   -0.56834E+08         0.16796E+07         0.00000E+00
    0.16796E+07        -0.49986E+08         0.00000E+00
    0.00000E+00         0.00000E+00        -0.56685E+08
 
   -0.56827E+08         0.17578E+07         0.00000E+00
    0.17578E+07        -0.49985E+08         0.00000E+00
    0.00000E+00         0.00000E+00        -0.56686E+08
 
   -0.56820E+08         0.18362E+07         0.00000E+00
    0.18362E+07        -0.49984E+08         0.00000E+00
    0.00000E+00         0.00000E+00        -0.56686E+08
 
   -0.56814E+08         0.19145E+07         0.00000E+00
    0.19145E+07        -0.49983E+08         0.00000E+00
    0.00000E+00         0.00000E+00        -0.56687E+08
 
   -0.56808E+08         0.19930E+07         0.00000E+00
    0.19930E+07        -0.49982E+08         0.00000E+00
    0.00000E+00         0.00000E+00        -0.56687E+08
 
   -0.56802E+08         0.20716E+07         0.00000E+00
    0.20716E+07        -0.49981E+08         0.00000E+00
    0.00000E+00         0.00000E+00        -0.56688E+08
 
   -0.56797E+08         0.21502E+07         0.00000E+00
    0.21502E+07        -0.49980E+08         0.00000E+00
    0.00000E+00         0.00000E+00        -0.56688E+08
 
   -0.56791E+08         0.22290E+07         0.00000E+00
    0.22290E+07        -0.49979E+08         0.00000E+00
    0.00000E+00         0.00000E+00        -0.56689E+08
 
   -0.56786E+08         0.23079E+07         0.00000E+00
    0.23079E+07        -0.49978E+08         0.00000E+00
    0.00000E+00         0.00000E+00        -0.56689E+08
 
   -0.56781E+08         0.23869E+07         0.00000E+00
    0.23869E+07        -0.49978E+08         0.00000E+00
    0.00000E+00         0.00000E+00        -0.56690E+08
 
   -0.56776E+08         0.24660E+07         0.00000E+00
    0.24660E+07        -0.49977E+08         0.00000E+00
    0.00000E+00         0.00000E+00        -0.56690E+08
 
   -0.56771E+08         0.25452E+07         0.00000E+00
    0.25452E+07        -0.49977E+08         0.00000E+00
    0.00000E+00         0.00000E+00        -0.56691E+08
 
   -0.56766E+08         0.26246E+07         0.00000E+00
    0.26246E+07        -0.49976E+08         0.00000E+00
    0.00000E+00         0.00000E+00        -0.56691E+08
 
   -0.56762E+08         0.27040E+07         0.00000E+00
    0.27040E+07        -0.49976E+08         0.00000E+00
    0.00000E+00         0.00000E+00        -0.56691E+08
 
   -0.56757E+08         0.27837E+07         0.00000E+00
    0.27837E+07        -0.49976E+08         0.00000E+00
    0.00000E+00         0.00000E+00        -0.56692E+08
 
   -0.56753E+08         0.28634E+07         0.00000E+00
    0.28634E+07        -0.49975E+08         0.00000E+00
    0.00000E+00         0.00000E+00        -0.56692E+08
 
   -0.56749E+08         0.29434E+07         0.00000E+00
    0.29434E+07        -0.49975E+08         0.00000E+00
    0.00000E+00         0.00000E+00        -0.56693E+08
 
   -0.56744E+08         0.30234E+07         0.00000E+00
    0.30234E+07        -0.49975E+08         0.00000E+00
    0.00000E+00         0.00000E+00        -0.56693E+08
 
   -0.56740E+08         0.31036E+07         0.00000E+00
    0.31036E+07        -0.49976E+08         0.00000E+00
    0.00000E+00         0.00000E+00        -0.56693E+08
 
   -0.56736E+08         0.31840E+07         0.00000E+00
    0.31840E+07        -0.49976E+08         0.00000E+00
    0.00000E+00         0.00000E+00        -0.56693E+08
 
   -0.56732E+08         0.32646E+07         0.00000E+00
    0.32646E+07        -0.49977E+08         0.00000E+00
    0.00000E+00         0.00000E+00        -0.56694E+08
 
   -0.56728E+08         0.33453E+07         0.00000E+00
    0.33453E+07        -0.49977E+08         0.00000E+00
    0.00000E+00         0.00000E+00        -0.56694E+08
 
   -0.56723E+08         0.34261E+07         0.00000E+00
    0.34261E+07        -0.49978E+08         0.00000E+00
    0.00000E+00         0.00000E+00        -0.56694E+08
 
   -0.56719E+08         0.35071E+07         0.00000E+00
    0.35071E+07        -0.49979E+08         0.00000E+00
    0.00000E+00         0.00000E+00        -0.56694E+08
 
   -0.56715E+08         0.35883E+07         0.00000E+00
    0.35883E+07        -0.49980E+08         0.00000E+00
    0.00000E+00         0.00000E+00        -0.56695E+08
 
   -0.56711E+08         0.36697E+07         0.00000E+00
    0.36697E+07        -0.49982E+08         0.00000E+00
    0.00000E+00         0.00000E+00        -0.56695E+08
 
   -0.56706E+08         0.37513E+07         0.00000E+00
    0.37513E+07        -0.49984E+08         0.00000E+00
    0.00000E+00         0.00000E+00        -0.56695E+08
 
   -0.56702E+08         0.38330E+07         0.00000E+00
    0.38330E+07        -0.49985E+08         0.00000E+00
    0.00000E+00         0.00000E+00        -0.56695E+08
 
   -0.56697E+08         0.39149E+07         0.00000E+00
    0.39149E+07        -0.49988E+08         0.00000E+00
    0.00000E+00         0.00000E+00        -0.56695E+08
 
   -0.56661E+08         0.39644E+05         0.00000E+00
    0.39644E+05        -0.50000E+08         0.00000E+00
    0.00000E+00         0.00000E+00        -0.56272E+08
 
   -0.56647E+08         0.11858E+06         0.00000E+00
    0.11858E+06        -0.50000E+08         0.00000E+00
    0.00000E+00         0.00000E+00        -0.56272E+08
 
   -0.56633E+08         0.19740E+06         0.00000E+00
    0.19740E+06        -0.50000E+08         0.00000E+00
    0.00000E+00         0.00000E+00        -0.56272E+08
 
   -0.56620E+08         0.27612E+06         0.00000E+00
    0.27612E+06        -0.50000E+08         0.00000E+00
    0.00000E+00         0.00000E+00        -0.56272E+08
 
   -0.56607E+08         0.35473E+06         0.00000E+00
    0.35473E+06        -0.49999E+08         0.00000E+00
    0.00000E+00         0.00000E+00        -0.56272E+08
 
   -0.56595E+08         0.43326E+06         0.00000E+00
    0.43326E+06        -0.49999E+08         0.00000E+00
    0.00000E+00         0.00000E+00        -0.56272E+08
 
   -0.56583E+08         0.51170E+06         0.00000E+00
    0.51170E+06        -0.49999E+08         0.00000E+00
    0.00000E+00         0.00000E+00        -0.56273E+08
 
   -0.56571E+08         0.59007E+06         0.00000E+00
    0.59007E+06        -0.49998E+08         0.00000E+00
    0.00000E+00         0.00000E+00        -0.56273E+08
 
   -0.56560E+08         0.66837E+06         0.00000E+00
    0.66837E+06        -0.49998E+08         0.00000E+00
    0.00000E+00         0.00000E+00        -0.56273E+08
 
   -0.56549E+08         0.74661E+06         0.00000E+00
    0.74661E+06        -0.49997E+08         0.00000E+00
    0.00000E+00         0.00000E+00        -0.56273E+08
 
   -0.56539E+08         0.82480E+06         0.00000E+00
    0.82480E+06        -0.49997E+08         0.00000E+00
    0.00000E+00         0.00000E+00        -0.56274E+08
 
   -0.56528E+08         0.90296E+06         0.00000E+00
    0.90296E+06        -0.49996E+08         0.00000E+00
    0.00000E+00         0.00000E+00        -0.56274E+08
 
   -0.56518E+08         0.98107E+06         0.00000E+00
    0.98107E+06        -0.49996E+08         0.00000E+00
    0.00000E+00         0.00000E+00        -0.56274E+08
 
   -0.56509E+08         0.10592E+07         0.00000E+00
    0.10592E+07        -0.49995E+08         0.00000E+00
    0.00000E+00         0.00000E+00        -0.56275E+08
 
   -0.56500E+08         0.11372E+07         0.00000E+00
    0.11372E+07        -0.49994E+08         0.00000E+00
    0.00000E+00         0.00000E+00        -0.56275E+08
 
   -0.56491E+08         0.12153E+07         0.00000E+00
    0.12153E+07        -0.49994E+08         0.00000E+00
    0.00000E+00         0.00000E+00        -0.56276E+08
 
   -0.56482E+08         0.12933E+07         0.00000E+00
    0.12933E+07        -0.49993E+08         0.00000E+00
    0.00000E+00         0.00000E+00        -0.56276E+08
 
   -0.56474E+08         0.13714E+07         0.00000E+00
    0.13714E+07        -0.49992E+08         0.00000E+00
    0.00000E+00         0.00000E+00        -0.56276E+08
 
   -0.56466E+08         0.14495E+07         0.00000E+00
    0.14495E+07        -0.49992E+08         0.00000E+00
    0.00000E+00         0.00000E+00        -0.56277E+08
 
   -0.56458E+08         0.15275E+07         0.00000E+00
    0.15275E+07        -0.49991E+08         0.00000E+00
    0.00000E+00         0.00000E+00        -0.56277E+08
 
   -0.56450E+08         0.16056E+07         0.00000E+00
    0.16056E+07        -0.49990E+08         0.00000E+00
    0.00000E+00         0.00000E+00        -0.56278E+08
 
   -0.56443E+08         0.16838E+07         0.00000E+00
    0.16838E+07        -0.49990E+08         0.00000E+00
    0.00000E+00         0.00000E+00        -0.56278E+08
 
   -0.56436E+08         0.17619E+07         0.00000E+00
    0.17619E+07        -0.49989E+08         0.00000E+00
    0.00000E+00         0.00000E+00        -0.56279E+08
 
   -0.56429E+08         0.18401E+07         0.00000E+00
    0.18401E+07        -0.49988E+08         0.00000E+00
    0.00000E+00         0.00000E+00        -0.56279E+08
 
   -0.56422E+08         0.19184E+07         0.00000E+00
    0.19184E+07        -0.49988E+08         0.00000E+00
    0.00000E+00         0.00000E+00        -0.56280E+08
 
   -0.56416E+08         0.19967E+07         0.00000E+00
    0.19967E+07        -0.49987E+08         0.00000E+00
    0.00000E+00         0.00000E+00        -0.56280E+08
 
   -0.56410E+08         0.20750E+07         0.00000E+00
    0.20750E+07        -0.49987E+08         0.00000E+00
    0.00000E+00         0.00000E+00        -0.56281E+08
 
   -0.56404E+08         0.21534E+07         0.00000E+00
    0.21534E+07        -0.49986E+08         0.00000E+00
    0.00000E+00         0.00000E+00        -0.56281E+08
 
   -0.56398E+08         0.22319E+07         0.00000E+00
    0.22319E+07        -0.49986E+08         0.00000E+00
    0.00000E+00         0.00000E+00        -0.56282E+08
 
   -0.56392E+08         0.23105E+07         0.00000E+00
    0.23105E+07        -0.49985E+08         0.00000E+00
    0.00000E+00         0.00000E+00        -0.56282E+08
 
   -0.56386E+08         0.23891E+07         0.00000E+00
    0.23891E+07        -0.49985E+08         0.00000E+00
    0.00000E+00         0.00000E+00        -0.56282E+08
 
   -0.56381E+08         0.24678E+07         0.00000E+00
    0.24678E+07        -0.49985E+08         0.00000E+00
    0.00000E+00         0.00000E+00        -0.56283E+08
 
   -0.56376E+08         0.25466E+07         0.00000E+00
    0.25466E+07        -0.49985E+08         0.00000E+00
    0.00000E+00         0.00000E+00        -0.56283E+08
 
   -0.56370E+08         0.26255E+07         0.00000E+00
    0.26255E+07        -0.49985E+08         0.00000E+00
    0.00000E+00         0.00000E+00        -0.56284E+08
 
   -0.56365E+08         0.27045E+07         0.00000E+00
    0.27045E+07        -0.49985E+08         0.00000E+00
    0.00000E+00         0.00000E+00        -0.56284E+08
 
   -0.56360E+08         0.27836E+07         0.00000E+00
    0.27836E+07        -0.49985E+08         0.00000E+00
    0.00000E+00         0.00000E+00        -0.56284E+08
 
   -0.56355E+08         0.28628E+07         0.00000E+00
    0.28628E+07        -0.49985E+08         0.00000E+00
    0.00000E+00         0.00000E+00        -0.56285E+08
 
   -0.56350E+08         0.29421E+07         0.00000E+00
    0.29421E+07        -0.49986E+08         0.00000E+00
    0.00000E+00         0.00000E+00        -0.56285E+08
 
   -0.56345E+08         0.30215E+07         0.00000E+00
    0.30215E+07        -0.49986E+08         0.00000E+00
    0.00000E+00         0.00000E+00        -0.56286E+08
 
   -0.56340E+08         0.31010E+07         0.00000E+00
    0.31010E+07        -0.49987E+08         0.00000E+00
    0.00000E+00         0.00000E+00        -0.56286E+08
 
   -0.56336E+08         0.31806E+07         0.00000E+00
    0.31806E+07        -0.49988E+08         0.00000E+00
    0.00000E+00         0.00000E+00        -0.56286E+08
 
   -0.56331E+08         0.32604E+07         0.00000E+00
    0.32604E+07        -0.49989E+08         0.00000E+00
    0.00000E+00         0.00000E+00        -0.56286E+08
 
   -0.56326E+08         0.33402E+07         0.00000E+00
    0.33402E+07        -0.49990E+08         0.00000E+00
    0.00000E+00         0.00000E+00        -0.56287E+08
 
   -0.56321E+08         0.34202E+07         0.00000E+00
    0.34202E+07        -0.49991E+08         0.00000E+00
    0.00000E+00         0.00000E+00        -0.56287E+08
 
   -0.56316E+08         0.35003E+07         0.00000E+00
    0.35003E+07        -0.49992E+08         0.00000E+00
    0.00000E+00         0.00000E+00        -0.56287E+08
 
   -0.56311E+08         0.35806E+07         0.00000E+00
    0.35806E+07        -0.49994E+08         0.00000E+00
    0.00000E+00         0.00000E+00        -0.56287E+08
 
   -0.56306E+08         0.36609E+07         0.00000E+00
    0.36609E+07        -0.49996E+08         0.00000E+00
    0.00000E+00         0.00000E+00        -0.56287E+08
 
   -0.56301E+08         0.37414E+07         0.00000E+00
    0.37414E+07        -0.49998E+08         0.00000E+00
    0.00000E+00         0.00000E+00        -0.56287E+08
 
   -0.56296E+08         0.38220E+07         0.00000E+00
    0.38220E+07        -0.50000E+08         0.00000E+00
    0.00000E+00         0.00000E+00        -0.56288E+08
 
   -0.56290E+08         0.39028E+07         0.00000E+00
    0.39028E+07        -0.50003E+08         0.00000E+00
    0.00000E+00         0.00000E+00        -0.56288E+08
 
   -0.56265E+08         0.39792E+05         0.00000E+00
    0.39792E+05        -0.50000E+08         0.00000E+00
    0.00000E+00         0.00000E+00        -0.55871E+08
 
   -0.56252E+08         0.11900E+06         0.00000E+00
    0.11900E+06        -0.50000E+08         0.00000E+00
    0.00000E+00         0.00000E+00        -0.55871E+08
 
   -0.56239E+08         0.19809E+06         0.00000E+00
    0.19809E+06        -0.50000E+08         0.00000E+00
    0.00000E+00         0.00000E+00        -0.55871E+08
 
   -0.56226E+08         0.27706E+06         0.00000E+00
    0.27706E+06        -0.50000E+08         0.00000E+00
    0.00000E+00         0.00000E+00        -0.55871E+08
 
   -0.56214E+08         0.35592E+06         0.00000E+00
    0.35592E+06        -0.50000E+08         0.00000E+00
    0.00000E+00         0.00000E+00        -0.55871E+08
 
   -0.56202E+08         0.43467E+06         0.00000E+00
    0.43467E+06        -0.49999E+08         0.00000E+00
    0.00000E+00         0.00000E+00        -0.55871E+08
 
   -0.56190E+08         0.51333E+06         0.00000E+00
    0.51333E+06        -0.49999E+08         0.00000E+00
    0.00000E+00         0.00000E+00        -0.55871E+08
 
   -0.56179E+08         0.59191E+06         0.00000E+00
    0.59191E+06        -0.49999E+08         0.00000E+00
    0.00000E+00         0.00000E+00        -0.55872E+08
 
   -0.56168E+08         0.67039E+06         0.00000E+00
    0.67039E+06        -0.49998E+08         0.00000E+00
    0.00000E+00         0.00000E+00        -0.55872E+08
 
   -0.56158E+08         0.74881E+06         0.00000E+00
    0.74881E+06        -0.49998E+08         0.00000E+00
    0.00000E+00         0.00000E+00        -0.55872E+08
 
   -0.56147E+08         0.82716E+06         0.00000E+00
    0.82716E+06        -0.49998E+08         0.00000E+00
    0.00000E+00         0.00000E+00        -0.55873E+08
 
   -0.56137E+08         0.90544E+06         0.00000E+00
    0.90544E+06        -0.49997E+08         0.00000E+00
    0.00000E+00         0.00000E+00        -0.55873E+08
 
   -0.56128E+08         0.98368E+06         0.00000E+00
    0.98368E+06        -0.49997E+08         0.00000E+00
    0.00000E+00         0.00000E+00        -0.55873E+08
 
   -0.56118E+08         0.10619E+07         0.00000E+00
    0.10619E+07        -0.49996E+08         0.00000E+00
    0.00000E+00         0.00000E+00        -0.55874E+08
 
   -0.56109E+08         0.11400E+07         0.00000E+00
    0.11400E+07        -0.49996E+08         0.00000E+00
    0.00000E+00         0.00000E+00        -0.55874E+08
 
   -0.56100E+08         0.12181E+07         0.00000E+00
    0.12181E+07        -0.49995E+08         0.00000E+00
    0.00000E+00         0.00000E+00        -0.55874E+08
 
   -0.56092E+08         0.12962E+07         0.00000E+00
    0.12962E+07        -0.49995E+08         0.00000E+00
    0.00000E+00         0.00000E+00        -0.55875E+08
 
   -0.56083E+08         0.13743E+07         0.00000E+00
    0.13743E+07        -0.49995E+08         0.00000E+00
    0.00000E+00         0.00000E+00        -0.55875E+08
 
   -0.56075E+08         0.14523E+07         0.00000E+00
    0.14523E+07        -0.49994E+08         0.00000E+00
    0.00000E+00         0.00000E+00        -0.55876E+08
 
   -0.56067E+08         0.15303E+07         0.00000E+00
    0.15303E+07        -0.49994E+08         0.00000E+00
    0.00000E+00         0.00000E+00        -0.55876E+08
 
   -0.56060E+08         0.16084E+07         0.00000E+00
    0.16084E+07        -0.49993E+08         0.00000E+00
    0.00000E+00         0.00000E+00        -0.55877E+08
 
   -0.56052E+08         0.16864E+07         0.00000E+00
    0.16864E+07        -0.49993E+08         0.00000E+00
    0.00000E+00         0.00000E+00        -0.55877E+08
 
   -0.56045E+08         0.17644E+07         0.00000E+00
    0.17644E+07        -0.49992E+08         0.00000E+00
    0.00000E+00         0.00000E+00        -0.55877E+08
 
   -0.56038E+08         0.18425E+07         0.00000E+00
    0.18425E+07        -0.49992E+08         0.00000E+00
    0.00000E+00         0.00000E+00        -0.55878E+08
 
   -0.56031E+08         0.19205E+07         0.00000E+00
    0.19205E+07        -0.49992E+08         0.00000E+00
    0.00000E+00         0.00000E+00        -0.55878E+08
 
   -0.56025E+08         0.19986E+07         0.00000E+00
    0.19986E+07        -0.49991E+08         0.00000E+00
    0.00000E+00         0.00000E+00        -0.55879E+08
 
   -0.56018E+08         0.20767E+07         0.00000E+00
    0.20767E+07        -0.49991E+08         0.00000E+00
    0.00000E+00         0.00000E+00        -0.55879E+08
 
   -0.56012E+08         0.21549E+07         0.00000E+00
    0.21549E+07        -0.49991E+08         0.00000E+00
    0.00000E+00         0.00000E+00        -0.55880E+08
 
   -0.56006E+08         0.22331E+07         0.00000E+00
    0.22331E+07        -0.49991E+08         0.00000E+00
    0.00000E+00         0.00000E+00        -0.55880E+08
 
   -0.56000E+08         0.23113E+07         0.00000E+00
    0.23113E+07        -0.49991E+08         0.00000E+00
    0.00000E+00         0.00000E+00        -0.55881E+08
 
   -0.55994E+08         0.23896E+07         0.00000E+00
    0.23896E+07        -0.49991E+08         0.00000E+00
    0.00000E+00         0.00000E+00        -0.55881E+08
 
   -0.55988E+08         0.24679E+07         0.00000E+00
    0.24679E+07        -0.49991E+08         0.00000E+00
    0.00000E+00         0.00000E+00        -0.55882E+08
 
   -0.55982E+08         0.25462E+07         0.00000E+00
    0.25462E+07        -0.49991E+08         0.00000E+00
    0.00000E+00         0.00000E+00        -0.55882E+08
 
   -0.55977E+08         0.26246E+07         0.00000E+00
    0.26246E+07        -0.49992E+08         0.00000E+00
    0.00000E+00         0.00000E+00        -0.55882E+08
 
   -0.55971E+08         0.27031E+07         0.00000E+00
    0.27031E+07        -0.49992E+08         0.00000E+00
    0.00000E+00         0.00000E+00        -0.55883E+08
 
   -0.55966E+08         0.27817E+07         0.00000E+00
    0.27817E+07        -0.49992E+08         0.00000E+00
    0.00000E+00         0.00000E+00        -0.55883E+08
 
   -0.55960E+08         0.28603E+07         0.00000E+00
    0.28603E+07        -0.49993E+08         0.00000E+00
    0.00000E+00         0.00000E+00        -0.55883E+08
 
   -0.55955E+08         0.29389E+07         0.00000E+00
    0.29389E+07        -0.49994E+08         0.00000E+00
    0.00000E+00         0.00000E+00        -0.55884E+08
 
   -0.55950E+08         0.30177E+07         0.00000E+00
    0.30177E+07        -0.49995E+08         0.00000E+00
    0.00000E+00         0.00000E+00        -0.55884E+08
 
   -0.55944E+08         0.30965E+07         0.00000E+00
    0.30965E+07        -0.49996E+08         0.00000E+00
    0.00000E+00         0.00000E+00        -0.55884E+08
 
   -0.55939E+08         0.31754E+07         0.00000E+00
    0.31754E+07        -0.49997E+08         0.00000E+00
    0.00000E+00         0.00000E+00        -0.55885E+08
 
   -0.55934E+08         0.32543E+07         0.00000E+00
    0.32543E+07        -0.49998E+08         0.00000E+00
    0.00000E+00         0.00000E+00        -0.55885E+08
 
   -0.55928E+08         0.33334E+07         0.00000E+00
    0.33334E+07        -0.49999E+08         0.00000E+00
    0.00000E+00         0.00000E+00        -0.55885E+08
 
   -0.55923E+08         0.34125E+07         0.00000E+00
    0.34125E+07        -0.50001E+08         0.00000E+00
    0.00000E+00         0.00000E+00        -0.55885E+08
 
   -0.55917E+08         0.34917E+07         0.00000E+00
    0.34917E+07        -0.50003E+08         0.00000E+00
    0.00000E+00         0.00000E+00        -0.55886E+08
 
   -0.55912E+08         0.35710E+07         0.00000E+00
    0.35710E+07        -0.50005E+08         0.00000E+00
    0.00000E+00         0.00000E+00        -0.55886E+08
 
   -0.55906E+08         0.36503E+07         0.00000E+00
    0.36503E+07        -0.50007E+08         0.00000E+00
    0.00000E+00         0.00000E+00        -0.55886E+08
 
   -0.55901E+08         0.37298E+07         0.00000E+00
    0.37298E+07        -0.50009E+08         0.00000E+00
    0.00000E+00         0.00000E+00        -0.55886E+08
 
   -0.55895E+08         0.38093E+07         0.00000E+00
    0.38093E+07        -0.50012E+08         0.00000E+00
    0.00000E+00         0.00000E+00        -0.55886E+08
 
   -0.55889E+08         0.38890E+07         0.00000E+00
    0.38890E+07        -0.50015E+08         0.00000E+00
    0.00000E+00         0.00000E+00        -0.55886E+08
 
   -0.55868E+08         0.39906E+05         0.00000E+00
    0.39906E+05        -0.50000E+08         0.00000E+00
    0.00000E+00         0.00000E+00        -0.55475E+08
 
   -0.55855E+08         0.11933E+06         0.00000E+00
    0.11933E+06        -0.50000E+08         0.00000E+00
    0.00000E+00         0.00000E+00        -0.55476E+08
 
   -0.55843E+08         0.19861E+06         0.00000E+00
    0.19861E+06        -0.50000E+08         0.00000E+00
    0.00000E+00         0.00000E+00        -0.55476E+08
 
   -0.55831E+08         0.27777E+06         0.00000E+00
    0.27777E+06        -0.50000E+08         0.00000E+00
    0.00000E+00         0.00000E+00        -0.55476E+08
 
   -0.55819E+08         0.35681E+06         0.00000E+00
    0.35681E+06        -0.50000E+08         0.00000E+00
    0.00000E+00         0.00000E+00        -0.55476E+08
 
   -0.55808E+08         0.43573E+06         0.00000E+00
    0.43573E+06        -0.49999E+08         0.00000E+00
    0.00000E+00         0.00000E+00        -0.55476E+08
 
   -0.55797E+08         0.51454E+06         0.00000E+00
    0.51454E+06        -0.49999E+08         0.00000E+00
    0.00000E+00         0.00000E+00        -0.55476E+08
 
   -0.55786E+08         0.59325E+06         0.00000E+00
    0.59325E+06        -0.49999E+08         0.00000E+00
    0.00000E+00         0.00000E+00        -0.55476E+08
 
   -0.55776E+08         0.67187E+06         0.00000E+00
    0.67187E+06        -0.49999E+08         0.00000E+00
    0.00000E+00         0.00000E+00        -0.55477E+08
 
   -0.55765E+08         0.75040E+06         0.00000E+00
    0.75040E+06        -0.49999E+08         0.00000E+00
    0.00000E+00         0.00000E+00        -0.55477E+08
 
   -0.55756E+08         0.82884E+06         0.00000E+00
    0.82884E+06        -0.49998E+08         0.00000E+00
    0.00000E+00         0.00000E+00        -0.55477E+08
 
   -0.55746E+08         0.90721E+06         0.00000E+00
    0.90721E+06        -0.49998E+08         0.00000E+00
    0.00000E+00         0.00000E+00        -0.55478E+08
 
   -0.55736E+08         0.98550E+06         0.00000E+00
    0.98550E+06        -0.49998E+08         0.00000E+00
    0.00000E+00         0.00000E+00        -0.55478E+08
 
   -0.55727E+08         0.10637E+07         0.00000E+00
    0.10637E+07        -0.49997E+08         0.00000E+00
    0.00000E+00         0.00000E+00        -0.55478E+08
 
   -0.55718E+08         0.11419E+07         0.00000E+00
    0.11419E+07        -0.49997E+08         0.00000E+00
    0.00000E+00         0.00000E+00        -0.55479E+08
 
   -0.55710E+08         0.12200E+07         0.00000E+00
    0.12200E+07        -0.49997E+08         0.00000E+00
    0.00000E+00         0.00000E+00        -0.55479E+08
 
   -0.55701E+08         0.12981E+07         0.00000E+00
    0.12981E+07        -0.49996E+08         0.00000E+00
    0.00000E+00         0.00000E+00        -0.55479E+08
 
   -0.55693E+08         0.13761E+07         0.00000E+00
    0.13761E+07        -0.49996E+08         0.00000E+00
    0.00000E+00         0.00000E+00        -0.55480E+08
 
   -0.55685E+08         0.14541E+07         0.00000E+00
    0.14541E+07        -0.49996E+08         0.00000E+00
    0.00000E+00         0.00000E+00        -0.55480E+08
 
   -0.55678E+08         0.15320E+07         0.00000E+00
    0.15320E+07        -0.49996E+08         0.00000E+00
    0.00000E+00         0.00000E+00        -0.55481E+08
 
   -0.55670E+08         0.16100E+07         0.00000E+00
    0.16100E+07        -0.49995E+08         0.00000E+00
    0.00000E+00         0.00000E+00        -0.55481E+08
 
   -0.55663E+08         0.16879E+07         0.00000E+00
    0.16879E+07        -0.49995E+08         0.00000E+00
    0.00000E+00         0.00000E+00        -0.55482E+08
 
   -0.55655E+08         0.17657E+07         0.00000E+00
    0.17657E+07        -0.49995E+08         0.00000E+00
    0.00000E+00         0.00000E+00        -0.55482E+08
 
   -0.55648E+08         0.18436E+07         0.00000E+00
    0.18436E+07        -0.49995E+08         0.00000E+00
    0.00000E+00         0.00000E+00        -0.55482E+08
 
   -0.55642E+08         0.19214E+07         0.00000E+00
    0.19214E+07        -0.49995E+08         0.00000E+00
    0.00000E+00         0.00000E+00        -0.55483E+08
 
   -0.55635E+08         0.19993E+07         0.00000E+00
    0.19993E+07        -0.49995E+08         0.00000E+00
    0.00000E+00         0.00000E+00        -0.55483E+08
 
   -0.55628E+08         0.20771E+07         0.00000E+00
    0.20771E+07        -0.49995E+08         0.00000E+00
    0.00000E+00         0.00000E+00        -0.55484E+08
 
   -0.55622E+08         0.21550E+07         0.00000E+00
    0.21550E+07        -0.49995E+08         0.00000E+00
    0.00000E+00         0.00000E+00        -0.55484E+08
 
   -0.55616E+08         0.22328E+07         0.00000E+00
    0.22328E+07        -0.49995E+08         0.00000E+00
    0.00000E+00         0.00000E+00        -0.55485E+08
 
   -0.55610E+08         0.23107E+07         0.00000E+00
    0.23107E+07        -0.49995E+08         0.00000E+00
    0.00000E+00         0.00000E+00        -0.55485E+08
 
   -0.55603E+08         0.23886E+07         0.00000E+00
    0.23886E+07        -0.49995E+08         0.00000E+00
    0.00000E+00         0.00000E+00        -0.55485E+08
 
   -0.55598E+08         0.24665E+07         0.00000E+00
    0.24665E+07        -0.49996E+08         0.00000E+00
    0.00000E+00         0.00000E+00        -0.55486E+08
 
   -0.55592E+08         0.25444E+07         0.00000E+00
    0.25444E+07        -0.49996E+08         0.00000E+00
    0.00000E+00         0.00000E+00        -0.55486E+08
 
   -0.55586E+08         0.26223E+07         0.00000E+00
    0.26223E+07        -0.49997E+08         0.00000E+00
    0.00000E+00         0.00000E+00        -0.55487E+08
 
   -0.55580E+08         0.27003E+07         0.00000E+00
    0.27003E+07        -0.49997E+08         0.00000E+00
    0.00000E+00         0.00000E+00        -0.55487E+08
 
   -0.55574E+08         0.27783E+07         0.00000E+00
    0.27783E+07        -0.49998E+08         0.00000E+00
    0.00000E+00         0.00000E+00        -0.55487E+08
 
   -0.55569E+08         0.28563E+07         0.00000E+00
    0.28563E+07        -0.49999E+08         0.00000E+00
    0.00000E+00         0.00000E+00        -0.55488E+08
 
   -0.55563E+08         0.29343E+07         0.00000E+00
    0.29343E+07        -0.50000E+08         0.00000E+00
    0.00000E+00         0.00000E+00        -0.55488E+08
 
   -0.55557E+08         0.30124E+07         0.00000E+00
    0.30124E+07        -0.50001E+08         0.00000E+00
    0.00000E+00         0.00000E+00        -0.55488E+08
 
   -0.55552E+08         0.30905E+07         0.00000E+00
    0.30905E+07        -0.50002E+08         0.00000E+00
    0.00000E+00         0.00000E+00        -0.55489E+08
 
   -0.55546E+08         0.31687E+07         0.00000E+00
    0.31687E+07        -0.50004E+08         0.00000E+00
    0.00000E+00         0.00000E+00        -0.55489E+08
 
   -0.55541E+08         0.32469E+07         0.00000E+00
    0.32469E+07        -0.50005E+08         0.00000E+00
    0.00000E+00         0.00000E+00        -0.55489E+08
 
   -0.55535E+08         0.33251E+07         0.00000E+00
    0.33251E+07        -0.50007E+08         0.00000E+00
    0.00000E+00         0.00000E+00        -0.55489E+08
 
   -0.55529E+08         0.34034E+07         0.00000E+00
    0.34034E+07        -0.50009E+08         0.00000E+00
    0.00000E+00         0.00000E+00        -0.55490E+08
 
   -0.55524E+08         0.34817E+07         0.00000E+00
    0.34817E+07        -0.50011E+08         0.00000E+00
    0.00000E+00         0.00000E+00        -0.55490E+08
 
   -0.55518E+08         0.35601E+07         0.00000E+00
    0.35601E+07        -0.50013E+08         0.00000E+00
    0.00000E+00         0.00000E+00        -0.55490E+08
 
   -0.55512E+08         0.36385E+07         0.00000E+00
    0.36385E+07        -0.50015E+08         0.00000E+00
    0.00000E+00         0.00000E+00        -0.55490E+08
 
   -0.55506E+08         0.37170E+07         0.00000E+00
    0.37170E+07        -0.50018E+08         0.00000E+00
    0.00000E+00         0.00000E+00        -0.55490E+08
 
   -0.55500E+08         0.37955E+07         0.00000E+00
    0.37955E+07        -0.50021E+08         0.00000E+00
    0.00000E+00         0.00000E+00        -0.55490E+08
 
   -0.55493E+08         0.38740E+07         0.00000E+00
    0.38740E+07        -0.50023E+08         0.00000E+00
    0.00000E+00         0.00000E+00        -0.55490E+08
 
   -0.55470E+08         0.39994E+05         0.00000E+00
    0.39994E+05        -0.50000E+08         0.00000E+00
    0.00000E+00         0.00000E+00        -0.55086E+08
 
   -0.55458E+08         0.11957E+06         0.00000E+00
    0.11957E+06        -0.50000E+08         0.00000E+00
    0.00000E+00         0.00000E+00        -0.55086E+08
 
   -0.55447E+08         0.19900E+06         0.00000E+00
    0.19900E+06        -0.50000E+08         0.00000E+00
    0.00000E+00         0.00000E+00        -0.55086E+08
 
   -0.55435E+08         0.27830E+06         0.00000E+00
    0.27830E+06        -0.50000E+08         0.00000E+00
    0.00000E+00         0.00000E+00        -0.55086E+08
 
   -0.55424E+08         0.35746E+06         0.00000E+00
    0.35746E+06        -0.50000E+08         0.00000E+00
    0.00000E+00         0.00000E+00        -0.55086E+08
 
   -0.55413E+08         0.43650E+06         0.00000E+00
    0.43650E+06        -0.50000E+08         0.00000E+00
    0.00000E+00         0.00000E+00        -0.55086E+08
 
   -0.55403E+08         0.51542E+06         0.00000E+00
    0.51542E+06        -0.49999E+08         0.00000E+00
    0.00000E+00         0.00000E+00        -0.55086E+08
 
   -0.55393E+08         0.59422E+06         0.00000E+00
    0.59422E+06        -0.49999E+08         0.00000E+00
    0.00000E+00         0.00000E+00        -0.55087E+08
 
   -0.55383E+08         0.67292E+06         0.00000E+00
    0.67292E+06        -0.49999E+08         0.00000E+00
    0.00000E+00         0.00000E+00        -0.55087E+08
 
   -0.55373E+08         0.75151E+06         0.00000E+00
    0.75151E+06        -0.49999E+08         0.00000E+00
    0.00000E+00         0.00000E+00        -0.55087E+08
 
   -0.55363E+08         0.83001E+06         0.00000E+00
    0.83001E+06        -0.49999E+08         0.00000E+00
    0.00000E+00         0.00000E+00        -0.55087E+08
 
   -0.55354E+08         0.90841E+06         0.00000E+00
    0.90841E+06        -0.49999E+08         0.00000E+00
    0.00000E+00         0.00000E+00        -0.55088E+08
 
   -0.55345E+08         0.98672E+06         0.00000E+00
    0.98672E+06        -0.49998E+08         0.00000E+00
    0.00000E+00         0.00000E+00        -0.55088E+08
 
   -0.55336E+08         0.10650E+07         0.00000E+00
    0.10650E+07        -0.49998E+08         0.00000E+00
    0.00000E+00         0.00000E+00        -0.55088E+08
 
   -0.55328E+08         0.11431E+07         0.00000E+00
    0.11431E+07        -0.49998E+08         0.00000E+00
    0.00000E+00         0.00000E+00        -0.55089E+08
 
   -0.55319E+08         0.12212E+07         0.00000E+00
    0.12212E+07        -0.49998E+08         0.00000E+00
    0.00000E+00         0.00000E+00        -0.55089E+08
 
   -0.55311E+08         0.12992E+07         0.00000E+00
    0.12992E+07        -0.49998E+08         0.00000E+00
    0.00000E+00         0.00000E+00        -0.55089E+08
 
   -0.55303E+08         0.13772E+07         0.00000E+00
    0.13772E+07        -0.49998E+08         0.00000E+00
    0.00000E+00         0.00000E+00        -0.55090E+08
 
   -0.55296E+08         0.14550E+07         0.00000E+00
    0.14550E+07        -0.49997E+08         0.00000E+00
    0.00000E+00         0.00000E+00        -0.55090E+08
 
   -0.55288E+08         0.15329E+07         0.00000E+00
    0.15329E+07        -0.49997E+08         0.00000E+00
    0.00000E+00         0.00000E+00        -0.55091E+08
 
   -0.55281E+08         0.16107E+07         0.00000E+00
    0.16107E+07        -0.49997E+08         0.00000E+00
    0.00000E+00         0.00000E+00        -0.55091E+08
 
   -0.55274E+08         0.16884E+07         0.00000E+00
    0.16884E+07        -0.49997E+08         0.00000E+00
    0.00000E+00         0.00000E+00        -0.55092E+08
 
   -0.55267E+08         0.17661E+07         0.00000E+00
    0.17661E+07        -0.49997E+08         0.00000E+00
    0.00000E+00         0.00000E+00        -0.55092E+08
 
   -0.55260E+08         0.18437E+07         0.00000E+00
    0.18437E+07        -0.49997E+08         0.00000E+00
    0.00000E+00         0.00000E+00        -0.55092E+08
 
   -0.55253E+08         0.19214E+07         0.00000E+00
    0.19214E+07        -0.49997E+08         0.00000E+00
    0.00000E+00         0.00000E+00        -0.55093E+08
 
   -0.55246E+08         0.19990E+07         0.00000E+00
    0.19990E+07        -0.49997E+08         0.00000E+00
    0.00000E+00         0.00000E+00        -0.55093E+08
 
   -0.55240E+08         0.20765E+07         0.00000E+00
    0.20765E+07        -0.49997E+08         0.00000E+00
    0.00000E+00         0.00000E+00        -0.55094E+08
 
   -0.55234E+08         0.21541E+07         0.00000E+00
    0.21541E+07        -0.49998E+08         0.00000E+00
    0.00000E+00         0.00000E+00        -0.55094E+08
 
   -0.55227E+08         0.22316E+07         0.00000E+00
    0.22316E+07        -0.49998E+08         0.00000E+00
    0.00000E+00         0.00000E+00        -0.55094E+08
 
   -0.55221E+08         0.23091E+07         0.00000E+00
    0.23091E+07        -0.49998E+08         0.00000E+00
    0.00000E+00         0.00000E+00        -0.55095E+08
 
   -0.55215E+08         0.23866E+07         0.00000E+00
    0.23866E+07        -0.49999E+08         0.00000E+00
    0.00000E+00         0.00000E+00        -0.55095E+08
 
   -0.55209E+08         0.24640E+07         0.00000E+00
    0.24640E+07        -0.49999E+08         0.00000E+00
    0.00000E+00         0.00000E+00        -0.55096E+08
 
   -0.55203E+08         0.25415E+07         0.00000E+00
    0.25415E+07        -0.50000E+08         0.00000E+00
    0.00000E+00         0.00000E+00        -0.55096E+08
 
   -0.55197E+08         0.26189E+07         0.00000E+00
    0.26189E+07        -0.50001E+08         0.00000E+00
    0.00000E+00         0.00000E+00        -0.55096E+08
 
   -0.55192E+08         0.26964E+07         0.00000E+00
    0.26964E+07        -0.50001E+08         0.00000E+00
    0.00000E+00         0.00000E+00        -0.55097E+08
 
   -0.55186E+08         0.27738E+07         0.00000E+00
    0.27738E+07        -0.50002E+08         0.00000E+00
    0.00000E+00         0.00000E+00        -0.55097E+08
 
   -0.55180E+08         0.28513E+07         0.00000E+00
    0.28513E+07        -0.50003E+08         0.00000E+00
    0.00000E+00         0.00000E+00        -0.55098E+08
 
   -0.55174E+08         0.29287E+07         0.00000E+00
    0.29287E+07        -0.50005E+08         0.00000E+00
    0.00000E+00         0.00000E+00        -0.55098E+08
 
   -0.55169E+08         0.30062E+07         0.00000E+00
    0.30062E+07        -0.50006E+08         0.00000E+00
    0.00000E+00         0.00000E+00        -0.55098E+08
 
   -0.55163E+08         0.30836E+07         0.00000E+00
    0.30836E+07        -0.50007E+08         0.00000E+00
    0.00000E+00         0.00000E+00        -0.55098E+08
 
   -0.55157E+08         0.31611E+07         0.00000E+00
    0.31611E+07        -0.50009E+08         0.00000E+00
    0.00000E+00         0.00000E+00        -0.55099E+08
 
   -0.55151E+08         0.32385E+07         0.00000E+00
    0.32385E+07        -0.50010E+08         0.00000E+00
    0.00000E+00         0.00000E+00        -0.55099E+08
 
   -0.55146E+08         0.33160E+07         0.00000E+00
    0.33160E+07        -0.50012E+08         0.00000E+00
    0.00000E+00         0.00000E+00        -0.55099E+08
 
   -0.55140E+08         0.33935E+07         0.00000E+00
    0.33935E+07        -0.50014E+08         0.00000E+00
    0.00000E+00         0.00000E+00        -0.55099E+08
 
   -0.55134E+08         0.34710E+07         0.00000E+00
    0.34710E+07        -0.50016E+08         0.00000E+00
    0.00000E+00         0.00000E+00        -0.55100E+08
 
   -0.55128E+08         0.35485E+07         0.00000E+00
    0.35485E+07        -0.50019E+08         0.00000E+00
    0.00000E+00         0.00000E+00        -0.55100E+08
 
   -0.55122E+08         0.36260E+07         0.00000E+00
    0.36260E+07        -0.50021E+08         0.00000E+00
    0.00000E+00         0.00000E+00        -0.55100E+08
 
   -0.55116E+08         0.37035E+07         0.00000E+00
    0.37035E+07        -0.50024E+08         0.00000E+00
    0.00000E+00         0.00000E+00        -0.55100E+08
 
   -0.55110E+08         0.37810E+07         0.00000E+00
    0.37810E+07        -0.50026E+08         0.00000E+00
    0.00000E+00         0.00000E+00        -0.55100E+08
 
   -0.55103E+08         0.38585E+07         0.00000E+00
    0.38585E+07        -0.50029E+08         0.00000E+00
    0.00000E+00         0.00000E+00        -0.55100E+08
 
   -0.55072E+08         0.40061E+05         0.00000E+00
    0.40061E+05        -0.50000E+08         0.00000E+00
    0.00000E+00         0.00000E+00        -0.54701E+08
 
   -0.55060E+08         0.11975E+06         0.00000E+00
    0.11975E+06        -0.50000E+08         0.00000E+00
    0.00000E+00         0.00000E+00        -0.54701E+08
 
   -0.55049E+08         0.19929E+06         0.00000E+00
    0.19929E+06        -0.50000E+08         0.00000E+00
    0.00000E+00         0.00000E+00        -0.54701E+08
 
   -0.55039E+08         0.27868E+06         0.00000E+00
    0.27868E+06        -0.50000E+08         0.00000E+00
    0.00000E+00         0.00000E+00        -0.54701E+08
 
   -0.55028E+08         0.35794E+06         0.00000E+00
    0.35794E+06        -0.50000E+08         0.00000E+00
    0.00000E+00         0.00000E+00        -0.54702E+08
 
   -0.55018E+08         0.43706E+06         0.00000E+00
    0.43706E+06        -0.50000E+08         0.00000E+00
    0.00000E+00         0.00000E+00        -0.54702E+08
 
   -0.55008E+08         0.51604E+06         0.00000E+00
    0.51604E+06        -0.50000E+08         0.00000E+00
    0.00000E+00         0.00000E+00        -0.54702E+08
 
   -0.54999E+08         0.59491E+06         0.00000E+00
    0.59491E+06        -0.49999E+08         0.00000E+00
    0.00000E+00         0.00000E+00        -0.54702E+08
 
   -0.54989E+08         0.67365E+06         0.00000E+00
    0.67365E+06        -0.49999E+08         0.00000E+00
    0.00000E+00         0.00000E+00        -0.54702E+08
 
   -0.54980E+08         0.75227E+06         0.00000E+00
    0.75227E+06        -0.49999E+08         0.00000E+00
    0.00000E+00         0.00000E+00        -0.54703E+08
 
   -0.54971E+08         0.83079E+06         0.00000E+00
    0.83079E+06        -0.49999E+08         0.00000E+00
    0.00000E+00         0.00000E+00        -0.54703E+08
 
   -0.54962E+08         0.90919E+06         0.00000E+00
    0.90919E+06        -0.49999E+08         0.00000E+00
    0.00000E+00         0.00000E+00        -0.54703E+08
 
   -0.54954E+08         0.98750E+06         0.00000E+00
    0.98750E+06        -0.49999E+08         0.00000E+00
    0.00000E+00         0.00000E+00        -0.54703E+08
 
   -0.54945E+08         0.10657E+07         0.00000E+00
    0.10657E+07        -0.49999E+08         0.00000E+00
    0.00000E+00         0.00000E+00        -0.54704E+08
 
   -0.54937E+08         0.11438E+07         0.00000E+00
    0.11438E+07        -0.49999E+08         0.00000E+00
    0.00000E+00         0.00000E+00        -0.54704E+08
 
   -0.54929E+08         0.12218E+07         0.00000E+00
    0.12218E+07        -0.49999E+08         0.00000E+00
    0.00000E+00         0.00000E+00        -0.54704E+08
 
   -0.54922E+08         0.12998E+07         0.00000E+00
    0.12998E+07        -0.49998E+08         0.00000E+00
    0.00000E+00         0.00000E+00        -0.54705E+08
 
   -0.54914E+08         0.13776E+07         0.00000E+00
    0.13776E+07        -0.49998E+08         0.00000E+00
    0.00000E+00         0.00000E+00        -0.54705E+08
 
   -0.54907E+08         0.14554E+07         0.00000E+00
    0.14554E+07        -0.49998E+08         0.00000E+00
    0.00000E+00         0.00000E+00        -0.54706E+08
 
   -0.54899E+08         0.15331E+07         0.00000E+00
    0.15331E+07        -0.49998E+08         0.00000E+00
    0.00000E+00         0.00000E+00        -0.54706E+08
 
   -0.54892E+08         0.16107E+07         0.00000E+00
    0.16107E+07        -0.49998E+08         0.00000E+00
    0.00000E+00         0.00000E+00        -0.54706E+08
 
   -0.54885E+08         0.16883E+07         0.00000E+00
    0.16883E+07        -0.49998E+08         0.00000E+00
    0.00000E+00         0.00000E+00        -0.54707E+08
 
   -0.54879E+08         0.17658E+07         0.00000E+00
    0.17658E+07        -0.49999E+08         0.00000E+00
    0.00000E+00         0.00000E+00        -0.54707E+08
 
   -0.54872E+08         0.18432E+07         0.00000E+00
    0.18432E+07        -0.49999E+08         0.00000E+00
    0.00000E+00         0.00000E+00        -0.54708E+08
 
   -0.54866E+08         0.19206E+07         0.00000E+00
    0.19206E+07        -0.49999E+08         0.00000E+00
    0.00000E+00         0.00000E+00        -0.54708E+08
 
   -0.54859E+08         0.19979E+07         0.00000E+00
    0.19979E+07        -0.49999E+08         0.00000E+00
    0.00000E+00         0.00000E+00        -0.54708E+08
 
   -0.54853E+08         0.20752E+07         0.00000E+00
    0.20752E+07        -0.49999E+08         0.00000E+00
    0.00000E+00         0.00000E+00        -0.54709E+08
 
   -0.54847E+08         0.21524E+07         0.00000E+00
    0.21524E+07        -0.50000E+08         0.00000E+00
    0.00000E+00         0.00000E+00        -0.54709E+08
 
   -0.54841E+08         0.22296E+07         0.00000E+00
    0.22296E+07        -0.50000E+08         0.00000E+00
    0.00000E+00         0.00000E+00        -0.54710E+08
 
   -0.54835E+08         0.23068E+07         0.00000E+00
    0.23068E+07        -0.50001E+08         0.00000E+00
    0.00000E+00         0.00000E+00        -0.54710E+08
 
   -0.54829E+08         0.23839E+07         0.00000E+00
    0.23839E+07        -0.50001E+08         0.00000E+00
    0.00000E+00         0.00000E+00        -0.54710E+08
 
   -0.54823E+08         0.24609E+07         0.00000E+00
    0.24609E+07        -0.50002E+08         0.00000E+00
    0.00000E+00         0.00000E+00        -0.54711E+08
 
   -0.54817E+08         0.25379E+07         0.00000E+00
    0.25379E+07        -0.50002E+08         0.00000E+00
    0.00000E+00         0.00000E+00        -0.54711E+08
 
   -0.54811E+08         0.26149E+07         0.00000E+00
    0.26149E+07        -0.50003E+08         0.00000E+00
    0.00000E+00         0.00000E+00        -0.54711E+08
 
   -0.54806E+08         0.26919E+07         0.00000E+00
    0.26919E+07        -0.50004E+08         0.00000E+00
    0.00000E+00         0.00000E+00        -0.54712E+08
 
   -0.54800E+08         0.27688E+07         0.00000E+00
    0.27688E+07        -0.50005E+08         0.00000E+00
    0.00000E+00         0.00000E+00        -0.54712E+08
 
   -0.54794E+08         0.28457E+07         0.00000E+00
    0.28457E+07        -0.50006E+08         0.00000E+00
    0.00000E+00         0.00000E+00        -0.54712E+08
 
   -0.54789E+08         0.29225E+07         0.00000E+00
    0.29225E+07        -0.50008E+08         0.00000E+00
    0.00000E+00         0.00000E+00        -0.54713E+08
 
   -0.54783E+08         0.29994E+07         0.00000E+00
    0.29994E+07        -0.50009E+08         0.00000E+00
    0.00000E+00         0.00000E+00        -0.54713E+08
 
   -0.54777E+08         0.30762E+07         0.00000E+00
    0.30762E+07        -0.50010E+08         0.00000E+00
    0.00000E+00         0.00000E+00        -0.54713E+08
 
   -0.54772E+08         0.31530E+07         0.00000E+00
    0.31530E+07        -0.50012E+08         0.00000E+00
    0.00000E+00         0.00000E+00        -0.54714E+08
 
   -0.54766E+08         0.32297E+07         0.00000E+00
    0.32297E+07        -0.50014E+08         0.00000E+00
    0.00000E+00         0.00000E+00        -0.54714E+08
 
   -0.54760E+08         0.33064E+07         0.00000E+00
    0.33064E+07        -0.50015E+08         0.00000E+00
    0.00000E+00         0.00000E+00        -0.54714E+08
 
   -0.54754E+08         0.33831E+07         0.00000E+00
    0.33831E+07        -0.50017E+08         0.00000E+00
    0.00000E+00         0.00000E+00        -0.54714E+08
 
   -0.54749E+08         0.34598E+07         0.00000E+00
    0.34598E+07        -0.50020E+08         0.00000E+00
    0.00000E+00         0.00000E+00        -0.54714E+08
 
   -0.54743E+08         0.35365E+07         0.00000E+00
    0.35365E+07        -0.50022E+08         0.00000E+00
    0.00000E+00         0.00000E+00        -0.54714E+08
 
   -0.54737E+08         0.36131E+07         0.00000E+00
    0.36131E+07        -0.50024E+08         0.00000E+00
    0.00000E+00         0.00000E+00        -0.54715E+08
 
   -0.54730E+08         0.36897E+07         0.00000E+00
    0.36897E+07        -0.50027E+08         0.00000E+00
    0.00000E+00         0.00000E+00        -0.54715E+08
 
   -0.54724E+08         0.37663E+07         0.00000E+00
    0.37663E+07        -0.50030E+08         0.00000E+00
    0.00000E+00         0.00000E+00        -0.54715E+08
 
   -0.54718E+08         0.38429E+07         0.00000E+00
    0.38429E+07        -0.50033E+08         0.00000E+00
    0.00000E+00         0.00000E+00        -0.54715E+08
 
   -0.54673E+08         0.40113E+05         0.00000E+00
    0.40113E+05        -0.50000E+08         0.00000E+00
    0.00000E+00         0.00000E+00        -0.54322E+08
 
   -0.54662E+08         0.11989E+06         0.00000E+00
    0.11989E+06        -0.50000E+08         0.00000E+00
    0.00000E+00         0.00000E+00        -0.54322E+08
 
   -0.54652E+08         0.19951E+06         0.00000E+00
    0.19951E+06        -0.50000E+08         0.00000E+00
    0.00000E+00         0.00000E+00        -0.54322E+08
 
   -0.54642E+08         0.27898E+06         0.00000E+00
    0.27898E+06        -0.50000E+08         0.00000E+00
    0.00000E+00         0.00000E+00        -0.54322E+08
 
   -0.54632E+08         0.35829E+06         0.00000E+00
    0.35829E+06        -0.50000E+08         0.00000E+00
    0.00000E+00         0.00000E+00        -0.54322E+08
 
   -0.54623E+08         0.43746E+06         0.00000E+00
    0.43746E+06        -0.50000E+08         0.00000E+00
    0.00000E+00         0.00000E+00        -0.54322E+08
 
   -0.54614E+08         0.51650E+06         0.00000E+00
    0.51650E+06        -0.50000E+08         0.00000E+00
    0.00000E+00         0.00000E+00        -0.54322E+08
 
   -0.54605E+08         0.59539E+06         0.00000E+00
    0.59539E+06        -0.50000E+08         0.00000E+00
    0.00000E+00         0.00000E+00        -0.54322E+08
 
   -0.54596E+08         0.67415E+06         0.00000E+00
    0.67415E+06        -0.50000E+08         0.00000E+00
    0.00000E+00         0.00000E+00        -0.54323E+08
 
   -0.54587E+08         0.75279E+06         0.00000E+00
    0.75279E+06        -0.49999E+08         0.00000E+00
    0.00000E+00         0.00000E+00        -0.54323E+08
 
   -0.54579E+08         0.83130E+06         0.00000E+00
    0.83130E+06        -0.49999E+08         0.00000E+00
    0.00000E+00         0.00000E+00        -0.54323E+08
 
   -0.54571E+08         0.90969E+06         0.00000E+00
    0.90969E+06        -0.49999E+08         0.00000E+00
    0.00000E+00         0.00000E+00        -0.54323E+08
 
   -0.54563E+08         0.98796E+06         0.00000E+00
    0.98796E+06        -0.49999E+08         0.00000E+00
    0.00000E+00         0.00000E+00        -0.54324E+08
 
   -0.54555E+08         0.10661E+07         0.00000E+00
    0.10661E+07        -0.49999E+08         0.00000E+00
    0.00000E+00         0.00000E+00        -0.54324E+08
 
   -0.54547E+08         0.11442E+07         0.00000E+00
    0.11442E+07        -0.49999E+08         0.00000E+00
    0.00000E+00         0.00000E+00        -0.54324E+08
 
   -0.54540E+08         0.12221E+07         0.00000E+00
    0.12221E+07        -0.49999E+08         0.00000E+00
    0.00000E+00         0.00000E+00        -0.54325E+08
 
   -0.54532E+08         0.13000E+07         0.00000E+00
    0.13000E+07        -0.49999E+08         0.00000E+00
    0.00000E+00         0.00000E+00        -0.54325E+08
 
   -0.54525E+08         0.13777E+07         0.00000E+00
    0.13777E+07        -0.49999E+08         0.00000E+00
    0.00000E+00         0.00000E+00        -0.54325E+08
 
   -0.54518E+08         0.14554E+07         0.00000E+00
    0.14554E+07        -0.49999E+08         0.00000E+00
    0.00000E+00         0.00000E+00        -0.54326E+08
 
   -0.54511E+08         0.15329E+07         0.00000E+00
    0.15329E+07        -0.49999E+08         0.00000E+00
    0.00000E+00         0.00000E+00        -0.54326E+08
 
   -0.54505E+08         0.16104E+07         0.00000E+00
    0.16104E+07        -0.49999E+08         0.00000E+00
    0.00000E+00         0.00000E+00        -0.54326E+08
 
   -0.54498E+08         0.16878E+07         0.00000E+00
    0.16878E+07        -0.49999E+08         0.00000E+00
    0.00000E+00         0.00000E+00        -0.54327E+08
 
   -0.54492E+08         0.17651E+07         0.00000E+00
    0.17651E+07        -0.49999E+08         0.00000E+00
    0.00000E+00         0.00000E+00        -0.54327E+08
 
   -0.54486E+08         0.18423E+07         0.00000E+00
    0.18423E+07        -0.50000E+08         0.00000E+00
    0.00000E+00         0.00000E+00        -0.54328E+08
 
   -0.54479E+08         0.19194E+07         0.00000E+00
    0.19194E+07        -0.50000E+08         0.00000E+00
    0.00000E+00         0.00000E+00        -0.54328E+08
 
   -0.54473E+08         0.19965E+07         0.00000E+00
    0.19965E+07        -0.50000E+08         0.00000E+00
    0.00000E+00         0.00000E+00        -0.54328E+08
 
   -0.54467E+08         0.20735E+07         0.00000E+00
    0.20735E+07        -0.50000E+08         0.00000E+00
    0.00000E+00         0.00000E+00        -0.54329E+08
 
   -0.54461E+08         0.21504E+07         0.00000E+00
    0.21504E+07        -0.50001E+08         0.00000E+00
    0.00000E+00         0.00000E+00        -0.54329E+08
 
   -0.54456E+08         0.22273E+07         0.00000E+00
    0.22273E+07        -0.50001E+08         0.00000E+00
    0.00000E+00         0.00000E+00        -0.54329E+08
 
   -0.54450E+08         0.23040E+07         0.00000E+00
    0.23040E+07        -0.50002E+08         0.00000E+00
    0.00000E+00         0.00000E+00        -0.54330E+08
 
   -0.54444E+08         0.23808E+07         0.00000E+00
    0.23808E+07        -0.50002E+08         0.00000E+00
    0.00000E+00         0.00000E+00        -0.54330E+08
 
   -0.54439E+08         0.24574E+07         0.00000E+00
    0.24574E+07        -0.50003E+08         0.00000E+00
    0.00000E+00         0.00000E+00        -0.54331E+08
 
   -0.54433E+08         0.25340E+07         0.00000E+00
    0.25340E+07        -0.50004E+08         0.00000E+00
    0.00000E+00         0.00000E+00        -0.54331E+08
 
   -0.54428E+08         0.26105E+07         0.00000E+00
    0.26105E+07        -0.50005E+08         0.00000E+00
    0.00000E+00         0.00000E+00        -0.54331E+08
 
   -0.54422E+08         0.26870E+07         0.00000E+00
    0.26870E+07        -0.50006E+08         0.00000E+00
    0.00000E+00         0.00000E+00        -0.54332E+08
 
   -0.54417E+08         0.27634E+07         0.00000E+00
    0.27634E+07        -0.50007E+08         0.00000E+00
    0.00000E+00         0.00000E+00        -0.54332E+08
 
   -0.54411E+08         0.28398E+07         0.00000E+00
    0.28398E+07        -0.50008E+08         0.00000E+00
    0.00000E+00         0.00000E+00        -0.54332E+08
 
   -0.54406E+08         0.29161E+07         0.00000E+00
    0.29161E+07        -0.50009E+08         0.00000E+00
    0.00000E+00         0.00000E+00        -0.54333E+08
 
   -0.54400E+08         0.29924E+07         0.00000E+00
    0.29924E+07        -0.50010E+08         0.00000E+00
    0.00000E+00         0.00000E+00        -0.54333E+08
 
   -0.54395E+08         0.30686E+07         0.00000E+00
    0.30686E+07        -0.50012E+08         0.00000E+00
    0.00000E+00         0.00000E+00        -0.54333E+08
 
   -0.54389E+08         0.31447E+07         0.00000E+00
    0.31447E+07        -0.50013E+08         0.00000E+00
    0.00000E+00         0.00000E+00        -0.54333E+08
 
   -0.54384E+08         0.32208E+07         0.00000E+00
    0.32208E+07        -0.50015E+08         0.00000E+00
    0.00000E+00         0.00000E+00        -0.54334E+08
 
   -0.54378E+08         0.32968E+07         0.00000E+00
    0.32968E+07        -0.50017E+08         0.00000E+00
    0.00000E+00         0.00000E+00        -0.54334E+08
 
   -0.54373E+08         0.33728E+07         0.00000E+00
    0.33728E+07        -0.50019E+08         0.00000E+00
    0.00000E+00         0.00000E+00        -0.54334E+08
 
   -0.54367E+08         0.34487E+07         0.00000E+00
    0.34487E+07        -0.50021E+08         0.00000E+00
    0.00000E+00         0.00000E+00        -0.54334E+08
 
   -0.54361E+08         0.35246E+07         0.00000E+00
    0.35246E+07        -0.50023E+08         0.00000E+00
    0.00000E+00         0.00000E+00        -0.54334E+08
 
   -0.54356E+08         0.36004E+07         0.00000E+00
    0.36004E+07        -0.50026E+08         0.00000E+00
    0.00000E+00         0.00000E+00        -0.54334E+08
 
   -0.54350E+08         0.36762E+07         0.00000E+00
    0.36762E+07        -0.50028E+08         0.00000E+00
    0.00000E+00         0.00000E+00        -0.54334E+08
 
   -0.54344E+08         0.37519E+07         0.00000E+00
    0.37519E+07        -0.50031E+08         0.00000E+00
    0.00000E+00         0.00000E+00        -0.54334E+08
 
   -0.54338E+08         0.38275E+07         0.00000E+00
    0.38275E+07        -0.50034E+08         0.00000E+00
    0.00000E+00         0.00000E+00        -0.54334E+08
 
   -0.54273E+08         0.40157E+05         0.00000E+00
    0.40157E+05        -0.50000E+08         0.00000E+00
    0.00000E+00         0.00000E+00        -0.53947E+08
 
   -0.54263E+08         0.12000E+06         0.00000E+00
    0.12000E+06        -0.50000E+08         0.00000E+00
    0.00000E+00         0.00000E+00        -0.53947E+08
 
   -0.54254E+08         0.19969E+06         0.00000E+00
    0.19969E+06        -0.50000E+08         0.00000E+00
    0.00000E+00         0.00000E+00        -0.53947E+08
 
   -0.54245E+08         0.27921E+06         0.00000E+00
    0.27921E+06        -0.50000E+08         0.00000E+00
    0.00000E+00         0.00000E+00        -0.53947E+08
 
   -0.54236E+08         0.35857E+06         0.00000E+00
    0.35857E+06        -0.50000E+08         0.00000E+00
    0.00000E+00         0.00000E+00        -0.53947E+08
 
   -0.54227E+08         0.43778E+06         0.00000E+00
    0.43778E+06        -0.50000E+08         0.00000E+00
    0.00000E+00         0.00000E+00        -0.53947E+08
 
   -0.54219E+08         0.51684E+06         0.00000E+00
    0.51684E+06        -0.50000E+08         0.00000E+00
    0.00000E+00         0.00000E+00        -0.53947E+08
 
   -0.54210E+08         0.59575E+06         0.00000E+00
    0.59575E+06        -0.50000E+08         0.00000E+00
    0.00000E+00         0.00000E+00        -0.53947E+08
 
   -0.54202E+08         0.67453E+06         0.00000E+00
    0.67453E+06        -0.50000E+08         0.00000E+00
    0.00000E+00         0.00000E+00        -0.53947E+08
 
   -0.54194E+08         0.75316E+06         0.00000E+00
    0.75316E+06        -0.50000E+08         0.00000E+00
    0.00000E+00         0.00000E+00        -0.53948E+08
 
   -0.54187E+08         0.83165E+06         0.00000E+00
    0.83165E+06        -0.49999E+08         0.00000E+00
    0.00000E+00         0.00000E+00        -0.53948E+08
 
   -0.54179E+08         0.91002E+06         0.00000E+00
    0.91002E+06        -0.49999E+08         0.00000E+00
    0.00000E+00         0.00000E+00        -0.53948E+08
 
   -0.54172E+08         0.98825E+06         0.00000E+00
    0.98825E+06        -0.49999E+08         0.00000E+00
    0.00000E+00         0.00000E+00        -0.53948E+08
 
   -0.54164E+08         0.10664E+07         0.00000E+00
    0.10664E+07        -0.49999E+08         0.00000E+00
    0.00000E+00         0.00000E+00        -0.53949E+08
 
   -0.54157E+08         0.11443E+07         0.00000E+00
    0.11443E+07        -0.49999E+08         0.00000E+00
    0.00000E+00         0.00000E+00        -0.53949E+08
 
   -0.54150E+08         0.12222E+07         0.00000E+00
    0.12222E+07        -0.49999E+08         0.00000E+00
    0.00000E+00         0.00000E+00        -0.53949E+08
 
   -0.54144E+08         0.13000E+07         0.00000E+00
    0.13000E+07        -0.49999E+08         0.00000E+00
    0.00000E+00         0.00000E+00        -0.53950E+08
 
   -0.54137E+08         0.13776E+07         0.00000E+00
    0.13776E+07        -0.49999E+08         0.00000E+00
    0.00000E+00         0.00000E+00        -0.53950E+08
 
   -0.54131E+08         0.14551E+07         0.00000E+00
    0.14551E+07        -0.49999E+08         0.00000E+00
    0.00000E+00         0.00000E+00        -0.53950E+08
 
   -0.54124E+08         0.15325E+07         0.00000E+00
    0.15325E+07        -0.49999E+08         0.00000E+00
    0.00000E+00         0.00000E+00        -0.53951E+08
 
   -0.54118E+08         0.16098E+07         0.00000E+00
    0.16098E+07        -0.50000E+08         0.00000E+00
    0.00000E+00         0.00000E+00        -0.53951E+08
 
   -0.54112E+08         0.16871E+07         0.00000E+00
    0.16871E+07        -0.50000E+08         0.00000E+00
    0.00000E+00         0.00000E+00        -0.53951E+08
 
   -0.54106E+08         0.17642E+07         0.00000E+00
    0.17642E+07        -0.50000E+08         0.00000E+00
    0.00000E+00         0.00000E+00        -0.53952E+08
 
   -0.54100E+08         0.18412E+07         0.00000E+00
    0.18412E+07        -0.50000E+08         0.00000E+00
    0.00000E+00         0.00000E+00        -0.53952E+08
 
   -0.54094E+08         0.19181E+07         0.00000E+00
    0.19181E+07        -0.50000E+08         0.00000E+00
    0.00000E+00         0.00000E+00        -0.53953E+08
 
   -0.54089E+08         0.19949E+07         0.00000E+00
    0.19949E+07        -0.50001E+08         0.00000E+00
    0.00000E+00         0.00000E+00        -0.53953E+08
 
   -0.54083E+08         0.20716E+07         0.00000E+00
    0.20716E+07        -0.50001E+08         0.00000E+00
    0.00000E+00         0.00000E+00        -0.53953E+08
 
   -0.54078E+08         0.21482E+07         0.00000E+00
    0.21482E+07        -0.50001E+08         0.00000E+00
    0.00000E+00         0.00000E+00        -0.53954E+08
 
   -0.54072E+08         0.22248E+07         0.00000E+00
    0.22248E+07        -0.50002E+08         0.00000E+00
    0.00000E+00         0.00000E+00        -0.53954E+08
 
   -0.54067E+08         0.23012E+07         0.00000E+00
    0.23012E+07        -0.50002E+08         0.00000E+00
    0.00000E+00         0.00000E+00        -0.53954E+08
 
   -0.54062E+08         0.23776E+07         0.00000E+00
    0.23776E+07        -0.50003E+08         0.00000E+00
    0.00000E+00         0.00000E+00        -0.53955E+08
 
   -0.54056E+08         0.24539E+07         0.00000E+00
    0.24539E+07        -0.50004E+08         0.00000E+00
    0.00000E+00         0.00000E+00        -0.53955E+08
 
   -0.54051E+08         0.25300E+07         0.00000E+00
    0.25300E+07        -0.50004E+08         0.00000E+00
    0.00000E+00         0.00000E+00        -0.53955E+08
 
   -0.54046E+08         0.26062E+07         0.00000E+00
    0.26062E+07        -0.50005E+08         0.00000E+00
    0.00000E+00         0.00000E+00        -0.53956E+08
 
   -0.54041E+08         0.26822E+07         0.00000E+00
    0.26822E+07        -0.50006E+08         0.00000E+00
    0.00000E+00         0.00000E+00        -0.53956E+08
 
   -0.54036E+08         0.27581E+07         0.00000E+00
    0.27581E+07        -0.50007E+08         0.00000E+00
    0.00000E+00         0.00000E+00        -0.53956E+08
 
   -0.54031E+08         0.28340E+07         0.00000E+00
    0.28340E+07        -0.50008E+08         0.00000E+00
    0.00000E+00         0.00000E+00        -0.53957E+08
 
   -0.54026E+08         0.29098E+07         0.00000E+00
    0.29098E+07        -0.50009E+08         0.00000E+00
    0.00000E+00         0.00000E+00        -0.53957E+08
 
   -0.54021E+08         0.29855E+07         0.00000E+00
    0.29855E+07        -0.50011E+08         0.00000E+00
    0.00000E+00         0.00000E+00        -0.53957E+08
 
   -0.54015E+08         0.30611E+07         0.00000E+00
    0.30611E+07        -0.50012E+08         0.00000E+00
    0.00000E+00         0.00000E+00        -0.53957E+08
 
   -0.54010E+08         0.31366E+07         0.00000E+00
    0.31366E+07        -0.50014E+08         0.00000E+00
    0.00000E+00         0.00000E+00        -0.53958E+08
 
   -0.54005E+08         0.32121E+07         0.00000E+00
    0.32121E+07        -0.50015E+08         0.00000E+00
    0.00000E+00         0.00000E+00        -0.53958E+08
 
   -0.54000E+08         0.32875E+07         0.00000E+00
    0.32875E+07        -0.50017E+08         0.00000E+00
    0.00000E+00         0.00000E+00        -0.53958E+08
 
   -0.53995E+08         0.33628E+07         0.00000E+00
    0.33628E+07        -0.50019E+08         0.00000E+00
    0.00000E+00         0.00000E+00        -0.53958E+08
 
   -0.53989E+08         0.34380E+07         0.00000E+00
    0.34380E+07        -0.50021E+08         0.00000E+00
    0.00000E+00         0.00000E+00        -0.53958E+08
 
   -0.53984E+08         0.35131E+07         0.00000E+00
    0.35131E+07        -0.50023E+08         0.00000E+00
    0.00000E+00         0.00000E+00        -0.53958E+08
 
   -0.53979E+08         0.35882E+07         0.00000E+00
    0.35882E+07        -0.50025E+08         0.00000E+00
    0.00000E+00         0.00000E+00        -0.53959E+08
 
   -0.53973E+08         0.36632E+07         0.00000E+00
    0.36632E+07        -0.50028E+08         0.00000E+00
    0.00000E+00         0.00000E+00        -0.53959E+08
 
   -0.53967E+08         0.37381E+07         0.00000E+00
    0.37381E+07        -0.50030E+08         0.00000E+00
    0.00000E+00         0.00000E+00        -0.53959E+08
 
   -0.53962E+08         0.38129E+07         0.00000E+00
    0.38129E+07        -0.50033E+08         0.00000E+00
    0.00000E+00         0.00000E+00        -0.53959E+08
 
   -0.53873E+08         0.40196E+05         0.00000E+00
    0.40196E+05        -0.50000E+08         0.00000E+00
    0.00000E+00         0.00000E+00        -0.53576E+08
 
   -0.53864E+08         0.12010E+06         0.00000E+00
    0.12010E+06        -0.50000E+08         0.00000E+00
    0.00000E+00         0.00000E+00        -0.53576E+08
 
   -0.53856E+08         0.19984E+06         0.00000E+00
    0.19984E+06        -0.50000E+08         0.00000E+00
    0.00000E+00         0.00000E+00        -0.53576E+08
 
   -0.53848E+08         0.27941E+06         0.00000E+00
    0.27941E+06        -0.50000E+08         0.00000E+00
    0.00000E+00         0.00000E+00        -0.53576E+08
 
   -0.53839E+08         0.35881E+06         0.00000E+00
    0.35881E+06        -0.50000E+08         0.00000E+00
    0.00000E+00         0.00000E+00        -0.53576E+08
 
   -0.53831E+08         0.43805E+06         0.00000E+00
    0.43805E+06        -0.50000E+08         0.00000E+00
    0.00000E+00         0.00000E+00        -0.53576E+08
 
   -0.53824E+08         0.51714E+06         0.00000E+00
    0.51714E+06        -0.50000E+08         0.00000E+00
    0.00000E+00         0.00000E+00        -0.53576E+08
 
   -0.53816E+08         0.59607E+06         0.00000E+00
    0.59607E+06        -0.50000E+08         0.00000E+00
    0.00000E+00         0.00000E+00        -0.53576E+08
 
   -0.53809E+08         0.67484E+06         0.00000E+00
    0.67484E+06        -0.50000E+08         0.00000E+00
    0.00000E+00         0.00000E+00        -0.53577E+08
 
   -0.53802E+08         0.75347E+06         0.00000E+00
    0.75347E+06        -0.50000E+08         0.00000E+00
    0.00000E+00         0.00000E+00        -0.53577E+08
 
   -0.53794E+08         0.83195E+06         0.00000E+00
    0.83195E+06        -0.50000E+08         0.00000E+00
    0.00000E+00         0.00000E+00        -0.53577E+08
 
   -0.53788E+08         0.91028E+06         0.00000E+00
    0.91028E+06        -0.49999E+08         0.00000E+00
    0.00000E+00         0.00000E+00        -0.53577E+08
 
   -0.53781E+08         0.98848E+06         0.00000E+00
    0.98848E+06        -0.49999E+08         0.00000E+00
    0.00000E+00         0.00000E+00        -0.53578E+08
 
   -0.53774E+08         0.10665E+07         0.00000E+00
    0.10665E+07        -0.49999E+08         0.00000E+00
    0.00000E+00         0.00000E+00        -0.53578E+08
 
   -0.53768E+08         0.11445E+07         0.00000E+00
    0.11445E+07        -0.49999E+08         0.00000E+00
    0.00000E+00         0.00000E+00        -0.53578E+08
 
   -0.53762E+08         0.12222E+07         0.00000E+00
    0.12222E+07        -0.49999E+08         0.00000E+00
    0.00000E+00         0.00000E+00        -0.53578E+08
 
   -0.53755E+08         0.12999E+07         0.00000E+00
    0.12999E+07        -0.49999E+08         0.00000E+00
    0.00000E+00         0.00000E+00        -0.53579E+08
 
   -0.53749E+08         0.13774E+07         0.00000E+00
    0.13774E+07        -0.49999E+08         0.00000E+00
    0.00000E+00         0.00000E+00        -0.53579E+08
 
   -0.53744E+08         0.14548E+07         0.00000E+00
    0.14548E+07        -0.49999E+08         0.00000E+00
    0.00000E+00         0.00000E+00        -0.53579E+08
 
   -0.53738E+08         0.15321E+07         0.00000E+00
    0.15321E+07        -0.49999E+08         0.00000E+00
    0.00000E+00         0.00000E+00        -0.53580E+08
 
   -0.53732E+08         0.16093E+07         0.00000E+00
    0.16093E+07        -0.50000E+08         0.00000E+00
    0.00000E+00         0.00000E+00        -0.53580E+08
 
   -0.53727E+08         0.16863E+07         0.00000E+00
    0.16863E+07        -0.50000E+08         0.00000E+00
    0.00000E+00         0.00000E+00        -0.53580E+08
 
   -0.53721E+08         0.17632E+07         0.00000E+00
    0.17632E+07        -0.50000E+08         0.00000E+00
    0.00000E+00         0.00000E+00        -0.53581E+08
 
   -0.53716E+08         0.18400E+07         0.00000E+00
    0.18400E+07        -0.50000E+08         0.00000E+00
    0.00000E+00         0.00000E+00        -0.53581E+08
 
   -0.53711E+08         0.19167E+07         0.00000E+00
    0.19167E+07        -0.50000E+08         0.00000E+00
    0.00000E+00         0.00000E+00        -0.53581E+08
 
   -0.53706E+08         0.19933E+07         0.00000E+00
    0.19933E+07        -0.50001E+08         0.00000E+00
    0.00000E+00         0.00000E+00        -0.53582E+08
 
   -0.53701E+08         0.20698E+07         0.00000E+00
    0.20698E+07        -0.50001E+08         0.00000E+00
    0.00000E+00         0.00000E+00        -0.53582E+08
 
   -0.53696E+08         0.21461E+07         0.00000E+00
    0.21461E+07        -0.50001E+08         0.00000E+00
    0.00000E+00         0.00000E+00        -0.53582E+08
 
   -0.53691E+08         0.22224E+07         0.00000E+00
    0.22224E+07        -0.50002E+08         0.00000E+00
    0.00000E+00         0.00000E+00        -0.53583E+08
 
   -0.53686E+08         0.22985E+07         0.00000E+00
    0.22985E+07        -0.50002E+08         0.00000E+00
    0.00000E+00         0.00000E+00        -0.53583E+08
 
   -0.53681E+08         0.23745E+07         0.00000E+00
    0.23745E+07        -0.50003E+08         0.00000E+00
    0.00000E+00         0.00000E+00        -0.53583E+08
 
   -0.53676E+08         0.24505E+07         0.00000E+00
    0.24505E+07        -0.50003E+08         0.00000E+00
    0.00000E+00         0.00000E+00        -0.53584E+08
 
   -0.53671E+08         0.25263E+07         0.00000E+00
    0.25263E+07        -0.50004E+08         0.00000E+00
    0.00000E+00         0.00000E+00        -0.53584E+08
 
   -0.53667E+08         0.26020E+07         0.00000E+00
    0.26020E+07        -0.50005E+08         0.00000E+00
    0.00000E+00         0.00000E+00        -0.53584E+08
 
   -0.53662E+08         0.26776E+07         0.00000E+00
    0.26776E+07        -0.50005E+08         0.00000E+00
    0.00000E+00         0.00000E+00        -0.53585E+08
 
   -0.53657E+08         0.27531E+07         0.00000E+00
    0.27531E+07        -0.50006E+08         0.00000E+00
    0.00000E+00         0.00000E+00        -0.53585E+08
 
   -0.53653E+08         0.28285E+07         0.00000E+00
    0.28285E+07        -0.50007E+08         0.00000E+00
    0.00000E+00         0.00000E+00        -0.53585E+08
 
   -0.53648E+08         0.29038E+07         0.00000E+00
    0.29038E+07        -0.50008E+08         0.00000E+00
    0.00000E+00         0.00000E+00        -0.53585E+08
 
   -0.53644E+08         0.29790E+07         0.00000E+00
    0.29790E+07        -0.50010E+08         0.00000E+00
    0.00000E+00         0.00000E+00        -0.53586E+08
 
   -0.53639E+08         0.30541E+07         0.00000E+00
    0.30541E+07        -0.50011E+08         0.00000E+00
    0.00000E+00         0.00000E+00        -0.53586E+08
 
   -0.53634E+08         0.31291E+07         0.00000E+00
    0.31291E+07        -0.50012E+08         0.00000E+00
    0.00000E+00         0.00000E+00        -0.53586E+08
 
   -0.53630E+08         0.32040E+07         0.00000E+00
    0.32040E+07        -0.50014E+08         0.00000E+00
    0.00000E+00         0.00000E+00        -0.53586E+08
 
   -0.53625E+08         0.32788E+07         0.00000E+00
    0.32788E+07        -0.50015E+08         0.00000E+00
    0.00000E+00         0.00000E+00        -0.53587E+08
 
   -0.53620E+08         0.33535E+07         0.00000E+00
    0.33535E+07        -0.50017E+08         0.00000E+00
    0.00000E+00         0.00000E+00        -0.53587E+08
 
   -0.53615E+08         0.34281E+07         0.00000E+00
    0.34281E+07        -0.50019E+08         0.00000E+00
    0.00000E+00         0.00000E+00        -0.53587E+08
 
   -0.53610E+08         0.35025E+07         0.00000E+00
    0.35025E+07        -0.50021E+08         0.00000E+00
    0.00000E+00         0.00000E+00        -0.53587E+08
 
   -0.53605E+08         0.35769E+07         0.00000E+00
    0.35769E+07        -0.50023E+08         0.00000E+00
    0.00000E+00         0.00000E+00        -0.53587E+08
 
   -0.53600E+08         0.36511E+07         0.00000E+00
    0.36511E+07        -0.50025E+08         0.00000E+00
    0.00000E+00         0.00000E+00        -0.53587E+08
 
   -0.53595E+08         0.37253E+07         0.00000E+00
    0.37253E+07        -0.50028E+08         0.00000E+00
    0.00000E+00         0.00000E+00        -0.53587E+08
 
   -0.53590E+08         0.37993E+07         0.00000E+00
    0.37993E+07        -0.50030E+08         0.00000E+00
    0.00000E+00         0.00000E+00        -0.53587E+08
 
   -0.53473E+08         0.40235E+05         0.00000E+00
    0.40235E+05        -0.50000E+08         0.00000E+00
    0.00000E+00         0.00000E+00        -0.53209E+08
 
   -0.53465E+08         0.12020E+06         0.00000E+00
    0.12020E+06        -0.50000E+08         0.00000E+00
    0.00000E+00         0.00000E+00        -0.53209E+08
 
   -0.53457E+08         0.20000E+06         0.00000E+00
    0.20000E+06        -0.50000E+08         0.00000E+00
    0.00000E+00         0.00000E+00        -0.53209E+08
 
   -0.53450E+08         0.27961E+06         0.00000E+00
    0.27961E+06        -0.50000E+08         0.00000E+00
    0.00000E+00         0.00000E+00        -0.53209E+08
 
   -0.53443E+08         0.35906E+06         0.00000E+00
    0.35906E+06        -0.50000E+08         0.00000E+00
    0.00000E+00         0.00000E+00        -0.53209E+08
 
   -0.53436E+08         0.43834E+06         0.00000E+00
    0.43834E+06        -0.50000E+08         0.00000E+00
    0.00000E+00         0.00000E+00        -0.53209E+08
 
   -0.53429E+08         0.51744E+06         0.00000E+00
    0.51744E+06        -0.50000E+08         0.00000E+00
    0.00000E+00         0.00000E+00        -0.53209E+08
 
   -0.53422E+08         0.59639E+06         0.00000E+00
    0.59639E+06        -0.50000E+08         0.00000E+00
    0.00000E+00         0.00000E+00        -0.53209E+08
 
   -0.53415E+08         0.67517E+06         0.00000E+00
    0.67517E+06        -0.50000E+08         0.00000E+00
    0.00000E+00         0.00000E+00        -0.53210E+08
 
   -0.53409E+08         0.75380E+06         0.00000E+00
    0.75380E+06        -0.50000E+08         0.00000E+00
    0.00000E+00         0.00000E+00        -0.53210E+08
 
   -0.53402E+08         0.83227E+06         0.00000E+00
    0.83227E+06        -0.49999E+08         0.00000E+00
    0.00000E+00         0.00000E+00        -0.53210E+08
 
   -0.53396E+08         0.91058E+06         0.00000E+00
    0.91058E+06        -0.49999E+08         0.00000E+00
    0.00000E+00         0.00000E+00        -0.53210E+08
 
   -0.53390E+08         0.98875E+06         0.00000E+00
    0.98875E+06        -0.49999E+08         0.00000E+00
    0.00000E+00         0.00000E+00        -0.53210E+08
 
   -0.53384E+08         0.10668E+07         0.00000E+00
    0.10668E+07        -0.49999E+08         0.00000E+00
    0.00000E+00         0.00000E+00        -0.53211E+08
 
   -0.53379E+08         0.11446E+07         0.00000E+00
    0.11446E+07        -0.49999E+08         0.00000E+00
    0.00000E+00         0.00000E+00        -0.53211E+08
 
   -0.53373E+08         0.12224E+07         0.00000E+00
    0.12224E+07        -0.49999E+08         0.00000E+00
    0.00000E+00         0.00000E+00        -0.53211E+08
 
   -0.53368E+08         0.12999E+07         0.00000E+00
    0.12999E+07        -0.49999E+08         0.00000E+00
    0.00000E+00         0.00000E+00        -0.53212E+08
 
   -0.53362E+08         0.13774E+07         0.00000E+00
    0.13774E+07        -0.49999E+08         0.00000E+00
    0.00000E+00         0.00000E+00        -0.53212E+08
 
   -0.53357E+08         0.14547E+07         0.00000E+00
    0.14547E+07        -0.49999E+08         0.00000E+00
    0.00000E+00         0.00000E+00        -0.53212E+08
 
   -0.53352E+08         0.15318E+07         0.00000E+00
    0.15318E+07        -0.49999E+08         0.00000E+00
    0.00000E+00         0.00000E+00        -0.53212E+08
 
   -0.53347E+08         0.16089E+07         0.00000E+00
    0.16089E+07        -0.49999E+08         0.00000E+00
    0.00000E+00         0.00000E+00        -0.53213E+08
 
   -0.53342E+08         0.16857E+07         0.00000E+00
    0.16857E+07        -0.49999E+08         0.00000E+00
    0.00000E+00         0.00000E+00        -0.53213E+08
 
   -0.53337E+08         0.17625E+07         0.00000E+00
    0.17625E+07        -0.49999E+08         0.00000E+00
    0.00000E+00         0.00000E+00        -0.53213E+08
 
   -0.53333E+08         0.18391E+07         0.00000E+00
    0.18391E+07        -0.50000E+08         0.00000E+00
    0.00000E+00         0.00000E+00        -0.53214E+08
 
   -0.53328E+08         0.19156E+07         0.00000E+00
    0.19156E+07        -0.50000E+08         0.00000E+00
    0.00000E+00         0.00000E+00        -0.53214E+08
 
   -0.53324E+08         0.19920E+07         0.00000E+00
    0.19920E+07        -0.50000E+08         0.00000E+00
    0.00000E+00         0.00000E+00        -0.53214E+08
 
   -0.53319E+08         0.20682E+07         0.00000E+00
    0.20682E+07        -0.50000E+08         0.00000E+00
    0.00000E+00         0.00000E+00        -0.53215E+08
 
   -0.53315E+08         0.21443E+07         0.00000E+00
    0.21443E+07        -0.50000E+08         0.00000E+00
    0.00000E+00         0.00000E+00        -0.53215E+08
 
   -0.53310E+08         0.22203E+07         0.00000E+00
    0.22203E+07        -0.50001E+08         0.00000E+00
    0.00000E+00         0.00000E+00        -0.53215E+08
 
   -0.53306E+08         0.22962E+07         0.00000E+00
    0.22962E+07        -0.50001E+08         0.00000E+00
    0.00000E+00         0.00000E+00        -0.53216E+08
 
   -0.53302E+08         0.23719E+07         0.00000E+00
    0.23719E+07        -0.50002E+08         0.00000E+00
    0.00000E+00         0.00000E+00        -0.53216E+08
 
   -0.53298E+08         0.24475E+07         0.00000E+00
    0.24475E+07        -0.50002E+08         0.00000E+00
    0.00000E+00         0.00000E+00        -0.53216E+08
 
   -0.53293E+08         0.25230E+07         0.00000E+00
    0.25230E+07        -0.50003E+08         0.00000E+00
    0.00000E+00         0.00000E+00        -0.53217E+08
 
   -0.53289E+08         0.25984E+07         0.00000E+00
    0.25984E+07        -0.50003E+08         0.00000E+00
    0.00000E+00         0.00000E+00        -0.53217E+08
 
   -0.53285E+08         0.26736E+07         0.00000E+00
    0.26736E+07        -0.50004E+08         0.00000E+00
    0.00000E+00         0.00000E+00        -0.53217E+08
 
   -0.53281E+08         0.27487E+07         0.00000E+00
    0.27487E+07        -0.50005E+08         0.00000E+00
    0.00000E+00         0.00000E+00        -0.53217E+08
 
   -0.53277E+08         0.28237E+07         0.00000E+00
    0.28237E+07        -0.50006E+08         0.00000E+00
    0.00000E+00         0.00000E+00        -0.53218E+08
 
   -0.53273E+08         0.28986E+07         0.00000E+00
    0.28986E+07        -0.50007E+08         0.00000E+00
    0.00000E+00         0.00000E+00        -0.53218E+08
 
   -0.53269E+08         0.29733E+07         0.00000E+00
    0.29733E+07        -0.50008E+08         0.00000E+00
    0.00000E+00         0.00000E+00        -0.53218E+08
 
   -0.53265E+08         0.30480E+07         0.00000E+00
    0.30480E+07        -0.50009E+08         0.00000E+00
    0.00000E+00         0.00000E+00        -0.53218E+08
 
   -0.53261E+08         0.31225E+07         0.00000E+00
    0.31225E+07        -0.50010E+08         0.00000E+00
    0.00000E+00         0.00000E+00        -0.53219E+08
 
   -0.53257E+08         0.31968E+07         0.00000E+00
    0.31968E+07        -0.50011E+08         0.00000E+00
    0.00000E+00         0.00000E+00        -0.53219E+08
 
   -0.53253E+08         0.32711E+07         0.00000E+00
    0.32711E+07        -0.50012E+08         0.00000E+00
    0.00000E+00         0.00000E+00        -0.53219E+08
 
   -0.53248E+08         0.33452E+07         0.00000E+00
    0.33452E+07        -0.50014E+08         0.00000E+00
    0.00000E+00         0.00000E+00        -0.53219E+08
 
   -0.53244E+08         0.34192E+07         0.00000E+00
    0.34192E+07        -0.50016E+08         0.00000E+00
    0.00000E+00         0.00000E+00        -0.53219E+08
 
   -0.53240E+08         0.34930E+07         0.00000E+00
    0.34930E+07        -0.50017E+08         0.00000E+00
    0.00000E+00         0.00000E+00        -0.53219E+08
 
   -0.53235E+08         0.35667E+07         0.00000E+00
    0.35667E+07        -0.50019E+08         0.00000E+00
    0.00000E+00         0.00000E+00        -0.53219E+08
 
   -0.53231E+08         0.36403E+07         0.00000E+00
    0.36403E+07        -0.50021E+08         0.00000E+00
    0.00000E+00         0.00000E+00        -0.53219E+08
 
   -0.53226E+08         0.37138E+07         0.00000E+00
    0.37138E+07        -0.50023E+08         0.00000E+00
    0.00000E+00         0.00000E+00        -0.53219E+08
 
   -0.53222E+08         0.37871E+07         0.00000E+00
    0.37871E+07        -0.50025E+08         0.00000E+00
    0.00000E+00         0.00000E+00        -0.53220E+08
 
   -0.53073E+08         0.40277E+05         0.00000E+00
    0.40277E+05        -0.50000E+08         0.00000E+00
    0.00000E+00         0.00000E+00        -0.52845E+08
 
   -0.53066E+08         0.12032E+06         0.00000E+00
    0.12032E+06        -0.50000E+08         0.00000E+00
    0.00000E+00         0.00000E+00        -0.52845E+08
 
   -0.53059E+08         0.20017E+06         0.00000E+00
    0.20017E+06        -0.50000E+08         0.00000E+00
    0.00000E+00         0.00000E+00        -0.52845E+08
 
   -0.53052E+08         0.27985E+06         0.00000E+00
    0.27985E+06        -0.50000E+08         0.00000E+00
    0.00000E+00         0.00000E+00        -0.52845E+08
 
   -0.53046E+08         0.35934E+06         0.00000E+00
    0.35934E+06        -0.50000E+08         0.00000E+00
    0.00000E+00         0.00000E+00        -0.52845E+08
 
   -0.53039E+08         0.43866E+06         0.00000E+00
    0.43866E+06        -0.50000E+08         0.00000E+00
    0.00000E+00         0.00000E+00        -0.52846E+08
 
   -0.53033E+08         0.51781E+06         0.00000E+00
    0.51781E+06        -0.50000E+08         0.00000E+00
    0.00000E+00         0.00000E+00        -0.52846E+08
 
   -0.53027E+08         0.59678E+06         0.00000E+00
    0.59678E+06        -0.50000E+08         0.00000E+00
    0.00000E+00         0.00000E+00        -0.52846E+08
 
   -0.53022E+08         0.67559E+06         0.00000E+00
    0.67559E+06        -0.50000E+08         0.00000E+00
    0.00000E+00         0.00000E+00        -0.52846E+08
 
   -0.53016E+08         0.75422E+06         0.00000E+00
    0.75422E+06        -0.49999E+08         0.00000E+00
    0.00000E+00         0.00000E+00        -0.52846E+08
 
   -0.53010E+08         0.83269E+06         0.00000E+00
    0.83269E+06        -0.49999E+08         0.00000E+00
    0.00000E+00         0.00000E+00        -0.52846E+08
 
   -0.53005E+08         0.91100E+06         0.00000E+00
    0.91100E+06        -0.49999E+08         0.00000E+00
    0.00000E+00         0.00000E+00        -0.52847E+08
 
   -0.53000E+08         0.98915E+06         0.00000E+00
    0.98915E+06        -0.49999E+08         0.00000E+00
    0.00000E+00         0.00000E+00        -0.52847E+08
 
   -0.52995E+08         0.10671E+07         0.00000E+00
    0.10671E+07        -0.49999E+08         0.00000E+00
    0.00000E+00         0.00000E+00        -0.52847E+08
 
   -0.52990E+08         0.11450E+07         0.00000E+00
    0.11450E+07        -0.49999E+08         0.00000E+00
    0.00000E+00         0.00000E+00        -0.52847E+08
 
   -0.52985E+08         0.12226E+07         0.00000E+00
    0.12226E+07        -0.49999E+08         0.00000E+00
    0.00000E+00         0.00000E+00        -0.52848E+08
 
   -0.52980E+08         0.13002E+07         0.00000E+00
    0.13002E+07        -0.49999E+08         0.00000E+00
    0.00000E+00         0.00000E+00        -0.52848E+08
 
   -0.52976E+08         0.13775E+07         0.00000E+00
    0.13775E+07        -0.49999E+08         0.00000E+00
    0.00000E+00         0.00000E+00        -0.52848E+08
 
   -0.52971E+08         0.14547E+07         0.00000E+00
    0.14547E+07        -0.49999E+08         0.00000E+00
    0.00000E+00         0.00000E+00        -0.52848E+08
 
   -0.52967E+08         0.15318E+07         0.00000E+00
    0.15318E+07        -0.49999E+08         0.00000E+00
    0.00000E+00         0.00000E+00        -0.52849E+08
 
   -0.52963E+08         0.16087E+07         0.00000E+00
    0.16087E+07        -0.49999E+08         0.00000E+00
    0.00000E+00         0.00000E+00        -0.52849E+08
 
   -0.52958E+08         0.16855E+07         0.00000E+00
    0.16855E+07        -0.49999E+08         0.00000E+00
    0.00000E+00         0.00000E+00        -0.52849E+08
 
   -0.52954E+08         0.17621E+07         0.00000E+00
    0.17621E+07        -0.49999E+08         0.00000E+00
    0.00000E+00         0.00000E+00        -0.52850E+08
 
   -0.52950E+08         0.18386E+07         0.00000E+00
    0.18386E+07        -0.49999E+08         0.00000E+00
    0.00000E+00         0.00000E+00        -0.52850E+08
 
   -0.52946E+08         0.19149E+07         0.00000E+00
    0.19149E+07        -0.49999E+08         0.00000E+00
    0.00000E+00         0.00000E+00        -0.52850E+08
 
   -0.52942E+08         0.19911E+07         0.00000E+00
    0.19911E+07        -0.49999E+08         0.00000E+00
    0.00000E+00         0.00000E+00        -0.52850E+08
 
   -0.52939E+08         0.20671E+07         0.00000E+00
    0.20671E+07        -0.49999E+08         0.00000E+00
    0.00000E+00         0.00000E+00        -0.52851E+08
 
   -0.52935E+08         0.21430E+07         0.00000E+00
    0.21430E+07        -0.49999E+08         0.00000E+00
    0.00000E+00         0.00000E+00        -0.52851E+08
 
   -0.52931E+08         0.22188E+07         0.00000E+00
    0.22188E+07        -0.49999E+08         0.00000E+00
    0.00000E+00         0.00000E+00        -0.52851E+08
 
   -0.52928E+08         0.22944E+07         0.00000E+00
    0.22944E+07        -0.50000E+08         0.00000E+00
    0.00000E+00         0.00000E+00        -0.52852E+08
 
   -0.52924E+08         0.23699E+07         0.00000E+00
    0.23699E+07        -0.50000E+08         0.00000E+00
    0.00000E+00         0.00000E+00        -0.52852E+08
 
   -0.52921E+08         0.24452E+07         0.00000E+00
    0.24452E+07        -0.50000E+08         0.00000E+00
    0.00000E+00         0.00000E+00        -0.52852E+08
 
   -0.52917E+08         0.25204E+07         0.00000E+00
    0.25204E+07        -0.50001E+08         0.00000E+00
    0.00000E+00         0.00000E+00        -0.52853E+08
 
   -0.52914E+08         0.25955E+07         0.00000E+00
    0.25955E+07        -0.50001E+08         0.00000E+00
    0.00000E+00         0.00000E+00        -0.52853E+08
 
   -0.52910E+08         0.26704E+07         0.00000E+00
    0.26704E+07        -0.50002E+08         0.00000E+00
    0.00000E+00         0.00000E+00        -0.52853E+08
 
   -0.52907E+08         0.27452E+07         0.00000E+00
    0.27452E+07        -0.50002E+08         0.00000E+00
    0.00000E+00         0.00000E+00        -0.52853E+08
 
   -0.52903E+08         0.28198E+07         0.00000E+00
    0.28198E+07        -0.50003E+08         0.00000E+00
    0.00000E+00         0.00000E+00        -0.52854E+08
 
   -0.52900E+08         0.28943E+07         0.00000E+00
    0.28943E+07        -0.50004E+08         0.00000E+00
    0.00000E+00         0.00000E+00        -0.52854E+08
 
   -0.52897E+08         0.29686E+07         0.00000E+00
    0.29686E+07        -0.50004E+08         0.00000E+00
    0.00000E+00         0.00000E+00        -0.52854E+08
 
   -0.52893E+08         0.30428E+07         0.00000E+00
    0.30428E+07        -0.50005E+08         0.00000E+00
    0.00000E+00         0.00000E+00        -0.52854E+08
 
   -0.52890E+08         0.31169E+07         0.00000E+00
    0.31169E+07        -0.50006E+08         0.00000E+00
    0.00000E+00         0.00000E+00        -0.52854E+08
 
   -0.52886E+08         0.31908E+07         0.00000E+00
    0.31908E+07        -0.50007E+08         0.00000E+00
    0.00000E+00         0.00000E+00        -0.52855E+08
 
   -0.52883E+08         0.32645E+07         0.00000E+00
    0.32645E+07        -0.50008E+08         0.00000E+00
    0.00000E+00         0.00000E+00        -0.52855E+08
 
   -0.52879E+08         0.33381E+07         0.00000E+00
    0.33381E+07        -0.50010E+08         0.00000E+00
    0.00000E+00         0.00000E+00        -0.52855E+08
 
   -0.52876E+08         0.34116E+07         0.00000E+00
    0.34116E+07        -0.50011E+08         0.00000E+00
    0.00000E+00         0.00000E+00        -0.52855E+08
 
   -0.52872E+08         0.34849E+07         0.00000E+00
    0.34849E+07        -0.50012E+08         0.00000E+00
    0.00000E+00         0.00000E+00        -0.52855E+08
 
   -0.52869E+08         0.35581E+07         0.00000E+00
    0.35581E+07        -0.50014E+08         0.00000E+00
    0.00000E+00         0.00000E+00        -0.52855E+08
 
   -0.52865E+08         0.36311E+07         0.00000E+00
    0.36311E+07        -0.50015E+08         0.00000E+00
    0.00000E+00         0.00000E+00        -0.52855E+08
 
   -0.52861E+08         0.37039E+07         0.00000E+00
    0.37039E+07        -0.50017E+08         0.00000E+00
    0.00000E+00         0.00000E+00        -0.52855E+08
 
   -0.52857E+08         0.37766E+07         0.00000E+00
    0.37766E+07        -0.50019E+08         0.00000E+00
    0.00000E+00         0.00000E+00        -0.52855E+08
 
   -0.52672E+08         0.40326E+05         0.00000E+00
    0.40326E+05        -0.50000E+08         0.00000E+00
    0.00000E+00         0.00000E+00        -0.52485E+08
 
   -0.52666E+08         0.12045E+06         0.00000E+00
    0.12045E+06        -0.50000E+08         0.00000E+00
    0.00000E+00         0.00000E+00        -0.52485E+08
 
   -0.52660E+08         0.20038E+06         0.00000E+00
    0.20038E+06        -0.50000E+08         0.00000E+00
    0.00000E+00         0.00000E+00        -0.52485E+08
 
   -0.52654E+08         0.28013E+06         0.00000E+00
    0.28013E+06        -0.50000E+08         0.00000E+00
    0.00000E+00         0.00000E+00        -0.52485E+08
 
   -0.52649E+08         0.35969E+06         0.00000E+00
    0.35969E+06        -0.50000E+08         0.00000E+00
    0.00000E+00         0.00000E+00        -0.52485E+08
 
   -0.52643E+08         0.43907E+06         0.00000E+00
    0.43907E+06        -0.50000E+08         0.00000E+00
    0.00000E+00         0.00000E+00        -0.52485E+08
 
   -0.52638E+08         0.51827E+06         0.00000E+00
    0.51827E+06        -0.50000E+08         0.00000E+00
    0.00000E+00         0.00000E+00        -0.52485E+08
 
   -0.52633E+08         0.59729E+06         0.00000E+00
    0.59729E+06        -0.50000E+08         0.00000E+00
    0.00000E+00         0.00000E+00        -0.52485E+08
 
   -0.52628E+08         0.67614E+06         0.00000E+00
    0.67614E+06        -0.49999E+08         0.00000E+00
    0.00000E+00         0.00000E+00        -0.52486E+08
 
   -0.52623E+08         0.75480E+06         0.00000E+00
    0.75480E+06        -0.49999E+08         0.00000E+00
    0.00000E+00         0.00000E+00        -0.52486E+08
 
   -0.52618E+08         0.83330E+06         0.00000E+00
    0.83330E+06        -0.49999E+08         0.00000E+00
    0.00000E+00         0.00000E+00        -0.52486E+08
 
   -0.52614E+08         0.91162E+06         0.00000E+00
    0.91162E+06        -0.49999E+08         0.00000E+00
    0.00000E+00         0.00000E+00        -0.52486E+08
 
   -0.52610E+08         0.98977E+06         0.00000E+00
    0.98977E+06        -0.49999E+08         0.00000E+00
    0.00000E+00         0.00000E+00        -0.52486E+08
 
   -0.52605E+08         0.10678E+07         0.00000E+00
    0.10678E+07        -0.49999E+08         0.00000E+00
    0.00000E+00         0.00000E+00        -0.52487E+08
 
   -0.52601E+08         0.11456E+07         0.00000E+00
    0.11456E+07        -0.49999E+08         0.00000E+00
    0.00000E+00         0.00000E+00        -0.52487E+08
 
   -0.52597E+08         0.12232E+07         0.00000E+00
    0.12232E+07        -0.49998E+08         0.00000E+00
    0.00000E+00         0.00000E+00        -0.52487E+08
 
   -0.52593E+08         0.13007E+07         0.00000E+00
    0.13007E+07        -0.49998E+08         0.00000E+00
    0.00000E+00         0.00000E+00        -0.52487E+08
 
   -0.52589E+08         0.13780E+07         0.00000E+00
    0.13780E+07        -0.49998E+08         0.00000E+00
    0.00000E+00         0.00000E+00        -0.52487E+08
 
   -0.52586E+08         0.14552E+07         0.00000E+00
    0.14552E+07        -0.49998E+08         0.00000E+00
    0.00000E+00         0.00000E+00        -0.52488E+08
 
   -0.52582E+08         0.15322E+07         0.00000E+00
    0.15322E+07        -0.49998E+08         0.00000E+00
    0.00000E+00         0.00000E+00        -0.52488E+08
 
   -0.52579E+08         0.16090E+07         0.00000E+00
    0.16090E+07        -0.49998E+08         0.00000E+00
    0.00000E+00         0.00000E+00        -0.52488E+08
 
   -0.52575E+08         0.16857E+07         0.00000E+00
    0.16857E+07        -0.49998E+08         0.00000E+00
    0.00000E+00         0.00000E+00        -0.52489E+08
 
   -0.52572E+08         0.17622E+07         0.00000E+00
    0.17622E+07        -0.49998E+08         0.00000E+00
    0.00000E+00         0.00000E+00        -0.52489E+08
 
   -0.52569E+08         0.18386E+07         0.00000E+00
    0.18386E+07        -0.49997E+08         0.00000E+00
    0.00000E+00         0.00000E+00        -0.52489E+08
 
   -0.52565E+08         0.19148E+07         0.00000E+00
    0.19148E+07        -0.49997E+08         0.00000E+00
    0.00000E+00         0.00000E+00        -0.52489E+08
 
   -0.52562E+08         0.19908E+07         0.00000E+00
    0.19908E+07        -0.49997E+08         0.00000E+00
    0.00000E+00         0.00000E+00        -0.52490E+08
 
   -0.52559E+08         0.20667E+07         0.00000E+00
    0.20667E+07        -0.49997E+08         0.00000E+00
    0.00000E+00         0.00000E+00        -0.52490E+08
 
   -0.52556E+08         0.21424E+07         0.00000E+00
    0.21424E+07        -0.49997E+08         0.00000E+00
    0.00000E+00         0.00000E+00        -0.52490E+08
 
   -0.52553E+08         0.22180E+07         0.00000E+00
    0.22180E+07        -0.49997E+08         0.00000E+00
    0.00000E+00         0.00000E+00        -0.52490E+08
 
   -0.52550E+08         0.22934E+07         0.00000E+00
    0.22934E+07        -0.49998E+08         0.00000E+00
    0.00000E+00         0.00000E+00        -0.52491E+08
 
   -0.52548E+08         0.23687E+07         0.00000E+00
    0.23687E+07        -0.49998E+08         0.00000E+00
    0.00000E+00         0.00000E+00        -0.52491E+08
 
   -0.52545E+08         0.24438E+07         0.00000E+00
    0.24438E+07        -0.49998E+08         0.00000E+00
    0.00000E+00         0.00000E+00        -0.52491E+08
 
   -0.52542E+08         0.25187E+07         0.00000E+00
    0.25187E+07        -0.49998E+08         0.00000E+00
    0.00000E+00         0.00000E+00        -0.52492E+08
 
   -0.52539E+08         0.25935E+07         0.00000E+00
    0.25935E+07        -0.49998E+08         0.00000E+00
    0.00000E+00         0.00000E+00        -0.52492E+08
 
   -0.52537E+08         0.26682E+07         0.00000E+00
    0.26682E+07        -0.49999E+08         0.00000E+00
    0.00000E+00         0.00000E+00        -0.52492E+08
 
   -0.52534E+08         0.27426E+07         0.00000E+00
    0.27426E+07        -0.49999E+08         0.00000E+00
    0.00000E+00         0.00000E+00        -0.52492E+08
 
   -0.52531E+08         0.28170E+07         0.00000E+00
    0.28170E+07        -0.49999E+08         0.00000E+00
    0.00000E+00         0.00000E+00        -0.52492E+08
 
   -0.52529E+08         0.28911E+07         0.00000E+00
    0.28911E+07        -0.50000E+08         0.00000E+00
    0.00000E+00         0.00000E+00        -0.52493E+08
 
   -0.52526E+08         0.29651E+07         0.00000E+00
    0.29651E+07        -0.50000E+08         0.00000E+00
    0.00000E+00         0.00000E+00        -0.52493E+08
 
   -0.52524E+08         0.30389E+07         0.00000E+00
    0.30389E+07        -0.50001E+08         0.00000E+00
    0.00000E+00         0.00000E+00        -0.52493E+08
 
   -0.52521E+08         0.31126E+07         0.00000E+00
    0.31126E+07        -0.50002E+08         0.00000E+00
    0.00000E+00         0.00000E+00        -0.52493E+08
 
   -0.52518E+08         0.31861E+07         0.00000E+00
    0.31861E+07        -0.50002E+08         0.00000E+00
    0.00000E+00         0.00000E+00        -0.52493E+08
 
   -0.52516E+08         0.32595E+07         0.00000E+00
    0.32595E+07        -0.50003E+08         0.00000E+00
    0.00000E+00         0.00000E+00        -0.52494E+08
 
   -0.52513E+08         0.33327E+07         0.00000E+00
    0.33327E+07        -0.50004E+08         0.00000E+00
    0.00000E+00         0.00000E+00        -0.52494E+08
 
   -0.52510E+08         0.34057E+07         0.00000E+00
    0.34057E+07        -0.50005E+08         0.00000E+00
    0.00000E+00         0.00000E+00        -0.52494E+08
 
   -0.52507E+08         0.34785E+07         0.00000E+00
    0.34785E+07        -0.50006E+08         0.00000E+00
    0.00000E+00         0.00000E+00        -0.52494E+08
 
   -0.52504E+08         0.35512E+07         0.00000E+00
    0.35512E+07        -0.50007E+08         0.00000E+00
    0.00000E+00         0.00000E+00        -0.52494E+08
 
   -0.52502E+08         0.36237E+07         0.00000E+00
    0.36237E+07        -0.50009E+08         0.00000E+00
    0.00000E+00         0.00000E+00        -0.52494E+08
 
   -0.52499E+08         0.36960E+07         0.00000E+00
    0.36960E+07        -0.50010E+08         0.00000E+00
    0.00000E+00         0.00000E+00        -0.52494E+08
 
   -0.52496E+08         0.37681E+07         0.00000E+00
    0.37681E+07        -0.50011E+08         0.00000E+00
    0.00000E+00         0.00000E+00        -0.52494E+08
 
   -0.52270E+08         0.40384E+05         0.00000E+00
    0.40384E+05        -0.50000E+08         0.00000E+00
    0.00000E+00         0.00000E+00        -0.52127E+08
 
   -0.52265E+08         0.12061E+06         0.00000E+00
    0.12061E+06        -0.50000E+08         0.00000E+00
    0.00000E+00         0.00000E+00        -0.52127E+08
 
   -0.52260E+08         0.20065E+06         0.00000E+00
    0.20065E+06        -0.50000E+08         0.00000E+00
    0.00000E+00         0.00000E+00        -0.52127E+08
 
   -0.52256E+08         0.28049E+06         0.00000E+00
    0.28049E+06        -0.50000E+08         0.00000E+00
    0.00000E+00         0.00000E+00        -0.52127E+08
 
   -0.52251E+08         0.36014E+06         0.00000E+00
    0.36014E+06        -0.50000E+08         0.00000E+00
    0.00000E+00         0.00000E+00        -0.52127E+08
 
   -0.52247E+08         0.43960E+06         0.00000E+00
    0.43960E+06        -0.50000E+08         0.00000E+00
    0.00000E+00         0.00000E+00        -0.52127E+08
 
   -0.52242E+08         0.51888E+06         0.00000E+00
    0.51888E+06        -0.50000E+08         0.00000E+00
    0.00000E+00         0.00000E+00        -0.52127E+08
 
   -0.52238E+08         0.59797E+06         0.00000E+00
    0.59797E+06        -0.49999E+08         0.00000E+00
    0.00000E+00         0.00000E+00        -0.52128E+08
 
   -0.52234E+08         0.67687E+06         0.00000E+00
    0.67687E+06        -0.49999E+08         0.00000E+00
    0.00000E+00         0.00000E+00        -0.52128E+08
 
   -0.52230E+08         0.75560E+06         0.00000E+00
    0.75560E+06        -0.49999E+08         0.00000E+00
    0.00000E+00         0.00000E+00        -0.52128E+08
 
   -0.52226E+08         0.83414E+06         0.00000E+00
    0.83414E+06        -0.49999E+08         0.00000E+00
    0.00000E+00         0.00000E+00        -0.52128E+08
 
   -0.52223E+08         0.91250E+06         0.00000E+00
    0.91250E+06        -0.49999E+08         0.00000E+00
    0.00000E+00         0.00000E+00        -0.52128E+08
 
   -0.52219E+08         0.99069E+06         0.00000E+00
    0.99069E+06        -0.49998E+08         0.00000E+00
    0.00000E+00         0.00000E+00        -0.52128E+08
 
   -0.52216E+08         0.10687E+07         0.00000E+00
    0.10687E+07        -0.49998E+08         0.00000E+00
    0.00000E+00         0.00000E+00        -0.52129E+08
 
   -0.52212E+08         0.11465E+07         0.00000E+00
    0.11465E+07        -0.49998E+08         0.00000E+00
    0.00000E+00         0.00000E+00        -0.52129E+08
 
   -0.52209E+08         0.12242E+07         0.00000E+00
    0.12242E+07        -0.49998E+08         0.00000E+00
    0.00000E+00         0.00000E+00        -0.52129E+08
 
   -0.52206E+08         0.13017E+07         0.00000E+00
    0.13017E+07        -0.49998E+08         0.00000E+00
    0.00000E+00         0.00000E+00        -0.52129E+08
 
   -0.52203E+08         0.13790E+07         0.00000E+00
    0.13790E+07        -0.49997E+08         0.00000E+00
    0.00000E+00         0.00000E+00        -0.52129E+08
 
   -0.52200E+08         0.14561E+07         0.00000E+00
    0.14561E+07        -0.49997E+08         0.00000E+00
    0.00000E+00         0.00000E+00        -0.52130E+08
 
   -0.52198E+08         0.15331E+07         0.00000E+00
    0.15331E+07        -0.49997E+08         0.00000E+00
    0.00000E+00         0.00000E+00        -0.52130E+08
 
   -0.52195E+08         0.16099E+07         0.00000E+00
    0.16099E+07        -0.49997E+08         0.00000E+00
    0.00000E+00         0.00000E+00        -0.52130E+08
 
   -0.52192E+08         0.16865E+07         0.00000E+00
    0.16865E+07        -0.49996E+08         0.00000E+00
    0.00000E+00         0.00000E+00        -0.52130E+08
 
   -0.52190E+08         0.17629E+07         0.00000E+00
    0.17629E+07        -0.49996E+08         0.00000E+00
    0.00000E+00         0.00000E+00        -0.52131E+08
 
   -0.52187E+08         0.18392E+07         0.00000E+00
    0.18392E+07        -0.49996E+08         0.00000E+00
    0.00000E+00         0.00000E+00        -0.52131E+08
 
   -0.52185E+08         0.19153E+07         0.00000E+00
    0.19153E+07        -0.49996E+08         0.00000E+00
    0.00000E+00         0.00000E+00        -0.52131E+08
 
   -0.52183E+08         0.19913E+07         0.00000E+00
    0.19913E+07        -0.49996E+08         0.00000E+00
    0.00000E+00         0.00000E+00        -0.52131E+08
 
   -0.52180E+08         0.20670E+07         0.00000E+00
    0.20670E+07        -0.49995E+08         0.00000E+00
    0.00000E+00         0.00000E+00        -0.52132E+08
 
   -0.52178E+08         0.21426E+07         0.00000E+00
    0.21426E+07        -0.49995E+08         0.00000E+00
    0.00000E+00         0.00000E+00        -0.52132E+08
 
   -0.52176E+08         0.22181E+07         0.00000E+00
    0.22181E+07        -0.49995E+08         0.00000E+00
    0.00000E+00         0.00000E+00        -0.52132E+08
 
   -0.52174E+08         0.22933E+07         0.00000E+00
    0.22933E+07        -0.49995E+08         0.00000E+00
    0.00000E+00         0.00000E+00        -0.52132E+08
 
   -0.52172E+08         0.23684E+07         0.00000E+00
    0.23684E+07        -0.49995E+08         0.00000E+00
    0.00000E+00         0.00000E+00        -0.52133E+08
 
   -0.52170E+08         0.24434E+07         0.00000E+00
    0.24434E+07        -0.49995E+08         0.00000E+00
    0.00000E+00         0.00000E+00        -0.52133E+08
 
   -0.52168E+08         0.25181E+07         0.00000E+00
    0.25181E+07        -0.49995E+08         0.00000E+00
    0.00000E+00         0.00000E+00        -0.52133E+08
 
   -0.52166E+08         0.25927E+07         0.00000E+00
    0.25927E+07        -0.49995E+08         0.00000E+00
    0.00000E+00         0.00000E+00        -0.52133E+08
 
   -0.52165E+08         0.26671E+07         0.00000E+00
    0.26671E+07        -0.49995E+08         0.00000E+00
    0.00000E+00         0.00000E+00        -0.52134E+08
 
   -0.52163E+08         0.27414E+07         0.00000E+00
    0.27414E+07        -0.49995E+08         0.00000E+00
    0.00000E+00         0.00000E+00        -0.52134E+08
 
   -0.52161E+08         0.28154E+07         0.00000E+00
    0.28154E+07        -0.49995E+08         0.00000E+00
    0.00000E+00         0.00000E+00        -0.52134E+08
 
   -0.52159E+08         0.28893E+07         0.00000E+00
    0.28893E+07        -0.49995E+08         0.00000E+00
    0.00000E+00         0.00000E+00        -0.52134E+08
 
   -0.52157E+08         0.29630E+07         0.00000E+00
    0.29630E+07        -0.49996E+08         0.00000E+00
    0.00000E+00         0.00000E+00        -0.52134E+08
 
   -0.52155E+08         0.30366E+07         0.00000E+00
    0.30366E+07        -0.49996E+08         0.00000E+00
    0.00000E+00         0.00000E+00        -0.52135E+08
 
   -0.52154E+08         0.31099E+07         0.00000E+00
    0.31099E+07        -0.49996E+08         0.00000E+00
    0.00000E+00         0.00000E+00        -0.52135E+08
 
   -0.52152E+08         0.31831E+07         0.00000E+00
    0.31831E+07        -0.49997E+08         0.00000E+00
    0.00000E+00         0.00000E+00        -0.52135E+08
 
   -0.52150E+08         0.32561E+07         0.00000E+00
    0.32561E+07        -0.49997E+08         0.00000E+00
    0.00000E+00         0.00000E+00        -0.52135E+08
 
   -0.52148E+08         0.33289E+07         0.00000E+00
    0.33289E+07        -0.49998E+08         0.00000E+00
    0.00000E+00         0.00000E+00        -0.52135E+08
 
   -0.52146E+08         0.34016E+07         0.00000E+00
    0.34016E+07        -0.49998E+08         0.00000E+00
    0.00000E+00         0.00000E+00        -0.52135E+08
 
   -0.52145E+08         0.34740E+07         0.00000E+00
    0.34740E+07        -0.49999E+08         0.00000E+00
    0.00000E+00         0.00000E+00        -0.52135E+08
 
   -0.52143E+08         0.35463E+07         0.00000E+00
    0.35463E+07        -0.50000E+08         0.00000E+00
    0.00000E+00         0.00000E+00        -0.52135E+08
 
   -0.52141E+08         0.36183E+07         0.00000E+00
    0.36183E+07        -0.50000E+08         0.00000E+00
    0.00000E+00         0.00000E+00        -0.52135E+08
 
   -0.52139E+08         0.36902E+07         0.00000E+00
    0.36902E+07        -0.50001E+08         0.00000E+00
    0.00000E+00         0.00000E+00        -0.52135E+08
 
   -0.52137E+08         0.37619E+07         0.00000E+00
    0.37619E+07        -0.50002E+08         0.00000E+00
    0.00000E+00         0.00000E+00        -0.52135E+08
 
   -0.51868E+08         0.40456E+05         0.00000E+00
    0.40456E+05        -0.50000E+08         0.00000E+00
    0.00000E+00         0.00000E+00        -0.51771E+08
 
   -0.51864E+08         0.12081E+06         0.00000E+00
    0.12081E+06        -0.50000E+08         0.00000E+00
    0.00000E+00         0.00000E+00        -0.51772E+08
 
   -0.51860E+08         0.20097E+06         0.00000E+00
    0.20097E+06        -0.50000E+08         0.00000E+00
    0.00000E+00         0.00000E+00        -0.51772E+08
 
   -0.51857E+08         0.28094E+06         0.00000E+00
    0.28094E+06        -0.50000E+08         0.00000E+00
    0.00000E+00         0.00000E+00        -0.51772E+08
 
   -0.51853E+08         0.36071E+06         0.00000E+00
    0.36071E+06        -0.50000E+08         0.00000E+00
    0.00000E+00         0.00000E+00        -0.51772E+08
 
   -0.51849E+08         0.44028E+06         0.00000E+00
    0.44028E+06        -0.50000E+08         0.00000E+00
    0.00000E+00         0.00000E+00        -0.51772E+08
 
   -0.51846E+08         0.51966E+06         0.00000E+00
    0.51966E+06        -0.49999E+08         0.00000E+00
    0.00000E+00         0.00000E+00        -0.51772E+08
 
   -0.51843E+08         0.59885E+06         0.00000E+00
    0.59885E+06        -0.49999E+08         0.00000E+00
    0.00000E+00         0.00000E+00        -0.51772E+08
 
   -0.51840E+08         0.67785E+06         0.00000E+00
    0.67785E+06        -0.49999E+08         0.00000E+00
    0.00000E+00         0.00000E+00        -0.51772E+08
 
   -0.51837E+08         0.75666E+06         0.00000E+00
    0.75666E+06        -0.49999E+08         0.00000E+00
    0.00000E+00         0.00000E+00        -0.51772E+08
 
   -0.51834E+08         0.83528E+06         0.00000E+00
    0.83528E+06        -0.49999E+08         0.00000E+00
    0.00000E+00         0.00000E+00        -0.51772E+08
 
   -0.51831E+08         0.91371E+06         0.00000E+00
    0.91371E+06        -0.49998E+08         0.00000E+00
    0.00000E+00         0.00000E+00        -0.51773E+08
 
   -0.51829E+08         0.99196E+06         0.00000E+00
    0.99196E+06        -0.49998E+08         0.00000E+00
    0.00000E+00         0.00000E+00        -0.51773E+08
 
   -0.51826E+08         0.10700E+07         0.00000E+00
    0.10700E+07        -0.49998E+08         0.00000E+00
    0.00000E+00         0.00000E+00        -0.51773E+08
 
   -0.51824E+08         0.11479E+07         0.00000E+00
    0.11479E+07        -0.49997E+08         0.00000E+00
    0.00000E+00         0.00000E+00        -0.51773E+08
 
   -0.51821E+08         0.12256E+07         0.00000E+00
    0.12256E+07        -0.49997E+08         0.00000E+00
    0.00000E+00         0.00000E+00        -0.51773E+08
 
   -0.51819E+08         0.13031E+07         0.00000E+00
    0.13031E+07        -0.49997E+08         0.00000E+00
    0.00000E+00         0.00000E+00        -0.51773E+08
 
   -0.51817E+08         0.13804E+07         0.00000E+00
    0.13804E+07        -0.49996E+08         0.00000E+00
    0.00000E+00         0.00000E+00        -0.51774E+08
 
   -0.51815E+08         0.14576E+07         0.00000E+00
    0.14576E+07        -0.49996E+08         0.00000E+00
    0.00000E+00         0.00000E+00        -0.51774E+08
 
   -0.51813E+08         0.15346E+07         0.00000E+00
    0.15346E+07        -0.49996E+08         0.00000E+00
    0.00000E+00         0.00000E+00        -0.51774E+08
 
   -0.51811E+08         0.16113E+07         0.00000E+00
    0.16113E+07        -0.49995E+08         0.00000E+00
    0.00000E+00         0.00000E+00        -0.51774E+08
 
   -0.51810E+08         0.16880E+07         0.00000E+00
    0.16880E+07        -0.49995E+08         0.00000E+00
    0.00000E+00         0.00000E+00        -0.51775E+08
 
   -0.51808E+08         0.17644E+07         0.00000E+00
    0.17644E+07        -0.49994E+08         0.00000E+00
    0.00000E+00         0.00000E+00        -0.51775E+08
 
   -0.51806E+08         0.18406E+07         0.00000E+00
    0.18406E+07        -0.49994E+08         0.00000E+00
    0.00000E+00         0.00000E+00        -0.51775E+08
 
   -0.51805E+08         0.19167E+07         0.00000E+00
    0.19167E+07        -0.49994E+08         0.00000E+00
    0.00000E+00         0.00000E+00        -0.51775E+08
 
   -0.51804E+08         0.19926E+07         0.00000E+00
    0.19926E+07        -0.49993E+08         0.00000E+00
    0.00000E+00         0.00000E+00        -0.51775E+08
 
   -0.51802E+08         0.20683E+07         0.00000E+00
    0.20683E+07        -0.49993E+08         0.00000E+00
    0.00000E+00         0.00000E+00        -0.51776E+08
 
   -0.51801E+08         0.21438E+07         0.00000E+00
    0.21438E+07        -0.49993E+08         0.00000E+00
    0.00000E+00         0.00000E+00        -0.51776E+08
 
   -0.51800E+08         0.22192E+07         0.00000E+00
    0.22192E+07        -0.49992E+08         0.00000E+00
    0.00000E+00         0.00000E+00        -0.51776E+08
 
   -0.51799E+08         0.22943E+07         0.00000E+00
    0.22943E+07        -0.49992E+08         0.00000E+00
    0.00000E+00         0.00000E+00        -0.51776E+08
 
   -0.51797E+08         0.23693E+07         0.00000E+00
    0.23693E+07        -0.49992E+08         0.00000E+00
    0.00000E+00         0.00000E+00        -0.51777E+08
 
   -0.51796E+08         0.24441E+07         0.00000E+00
    0.24441E+07        -0.49991E+08         0.00000E+00
    0.00000E+00         0.00000E+00        -0.51777E+08
 
   -0.51795E+08         0.25187E+07         0.00000E+00
    0.25187E+07        -0.49991E+08         0.00000E+00
    0.00000E+00         0.00000E+00        -0.51777E+08
 
   -0.51794E+08         0.25932E+07         0.00000E+00
    0.25932E+07        -0.49991E+08         0.00000E+00
    0.00000E+00         0.00000E+00        -0.51777E+08
 
   -0.51793E+08         0.26674E+07         0.00000E+00
    0.26674E+07        -0.49991E+08         0.00000E+00
    0.00000E+00         0.00000E+00        -0.51777E+08
 
   -0.51792E+08         0.27415E+07         0.00000E+00
    0.27415E+07        -0.49990E+08         0.00000E+00
    0.00000E+00         0.00000E+00        -0.51778E+08
 
   -0.51791E+08         0.28154E+07         0.00000E+00
    0.28154E+07        -0.49990E+08         0.00000E+00
    0.00000E+00         0.00000E+00        -0.51778E+08
 
   -0.51791E+08         0.28891E+07         0.00000E+00
    0.28891E+07        -0.49990E+08         0.00000E+00
    0.00000E+00         0.00000E+00        -0.51778E+08
 
   -0.51790E+08         0.29626E+07         0.00000E+00
    0.29626E+07        -0.49990E+08         0.00000E+00
    0.00000E+00         0.00000E+00        -0.51778E+08
 
   -0.51789E+08         0.30359E+07         0.00000E+00
    0.30359E+07        -0.49990E+08         0.00000E+00
    0.00000E+00         0.00000E+00        -0.51778E+08
 
   -0.51788E+08         0.31090E+07         0.00000E+00
    0.31090E+07        -0.49990E+08         0.00000E+00
    0.00000E+00         0.00000E+00        -0.51778E+08
 
   -0.51787E+08         0.31819E+07         0.00000E+00
    0.31819E+07        -0.49990E+08         0.00000E+00
    0.00000E+00         0.00000E+00        -0.51779E+08
 
   -0.51786E+08         0.32546E+07         0.00000E+00
    0.32546E+07        -0.49990E+08         0.00000E+00
    0.00000E+00         0.00000E+00        -0.51779E+08
 
   -0.51785E+08         0.33272E+07         0.00000E+00
    0.33272E+07        -0.49990E+08         0.00000E+00
    0.00000E+00         0.00000E+00        -0.51779E+08
 
   -0.51784E+08         0.33995E+07         0.00000E+00
    0.33995E+07        -0.49990E+08         0.00000E+00
    0.00000E+00         0.00000E+00        -0.51779E+08
 
   -0.51784E+08         0.34716E+07         0.00000E+00
    0.34716E+07        -0.49991E+08         0.00000E+00
    0.00000E+00         0.00000E+00        -0.51779E+08
 
   -0.51783E+08         0.35435E+07         0.00000E+00
    0.35435E+07        -0.49991E+08         0.00000E+00
    0.00000E+00         0.00000E+00        -0.51779E+08
 
   -0.51782E+08         0.36153E+07         0.00000E+00
    0.36153E+07        -0.49991E+08         0.00000E+00
    0.00000E+00         0.00000E+00        -0.51779E+08
 
   -0.51781E+08         0.36868E+07         0.00000E+00
    0.36868E+07        -0.49992E+08         0.00000E+00
    0.00000E+00         0.00000E+00        -0.51779E+08
 
   -0.51780E+08         0.37581E+07         0.00000E+00
    0.37581E+07        -0.49992E+08         0.00000E+00
    0.00000E+00         0.00000E+00        -0.51779E+08
 
   -0.51466E+08         0.40542E+05         0.00000E+00
    0.40542E+05        -0.50000E+08         0.00000E+00
    0.00000E+00         0.00000E+00        -0.51418E+08
 
   -0.51463E+08         0.12106E+06         0.00000E+00
    0.12106E+06        -0.50000E+08         0.00000E+00
    0.00000E+00         0.00000E+00        -0.51418E+08
 
   -0.51460E+08         0.20138E+06         0.00000E+00
    0.20138E+06        -0.50000E+08         0.00000E+00
    0.00000E+00         0.00000E+00        -0.51418E+08
 
   -0.51457E+08         0.28150E+06         0.00000E+00
    0.28150E+06        -0.50000E+08         0.00000E+00
    0.00000E+00         0.00000E+00        -0.51418E+08
 
   -0.51454E+08         0.36141E+06         0.00000E+00
    0.36141E+06        -0.50000E+08         0.00000E+00
    0.00000E+00         0.00000E+00        -0.51418E+08
 
   -0.51452E+08         0.44113E+06         0.00000E+00
    0.44113E+06        -0.49999E+08         0.00000E+00
    0.00000E+00         0.00000E+00        -0.51418E+08
 
   -0.51449E+08         0.52065E+06         0.00000E+00
    0.52065E+06        -0.49999E+08         0.00000E+00
    0.00000E+00         0.00000E+00        -0.51418E+08
 
   -0.51447E+08         0.59997E+06         0.00000E+00
    0.59997E+06        -0.49999E+08         0.00000E+00
    0.00000E+00         0.00000E+00        -0.51418E+08
 
   -0.51445E+08         0.67909E+06         0.00000E+00
    0.67909E+06        -0.49999E+08         0.00000E+00
    0.00000E+00         0.00000E+00        -0.51418E+08
 
   -0.51443E+08         0.75802E+06         0.00000E+00
    0.75802E+06        -0.49998E+08         0.00000E+00
    0.00000E+00         0.00000E+00        -0.51418E+08
 
   -0.51441E+08         0.83676E+06         0.00000E+00
    0.83676E+06        -0.49998E+08         0.00000E+00
    0.00000E+00         0.00000E+00        -0.51418E+08
 
   -0.51439E+08         0.91530E+06         0.00000E+00
    0.91530E+06        -0.49998E+08         0.00000E+00
    0.00000E+00         0.00000E+00        -0.51419E+08
 
   -0.51437E+08         0.99365E+06         0.00000E+00
    0.99365E+06        -0.49997E+08         0.00000E+00
    0.00000E+00         0.00000E+00        -0.51419E+08
 
   -0.51436E+08         0.10718E+07         0.00000E+00
    0.10718E+07        -0.49997E+08         0.00000E+00
    0.00000E+00         0.00000E+00        -0.51419E+08
 
   -0.51434E+08         0.11498E+07         0.00000E+00
    0.11498E+07        -0.49997E+08         0.00000E+00
    0.00000E+00         0.00000E+00        -0.51419E+08
 
   -0.51433E+08         0.12276E+07         0.00000E+00
    0.12276E+07        -0.49996E+08         0.00000E+00
    0.00000E+00         0.00000E+00        -0.51419E+08
 
   -0.51432E+08         0.13051E+07         0.00000E+00
    0.13051E+07        -0.49996E+08         0.00000E+00
    0.00000E+00         0.00000E+00        -0.51419E+08
 
   -0.51431E+08         0.13825E+07         0.00000E+00
    0.13825E+07        -0.49995E+08         0.00000E+00
    0.00000E+00         0.00000E+00        -0.51420E+08
 
   -0.51430E+08         0.14597E+07         0.00000E+00
    0.14597E+07        -0.49995E+08         0.00000E+00
    0.00000E+00         0.00000E+00        -0.51420E+08
 
   -0.51429E+08         0.15368E+07         0.00000E+00
    0.15368E+07        -0.49994E+08         0.00000E+00
    0.00000E+00         0.00000E+00        -0.51420E+08
 
   -0.51428E+08         0.16136E+07         0.00000E+00
    0.16136E+07        -0.49994E+08         0.00000E+00
    0.00000E+00         0.00000E+00        -0.51420E+08
 
   -0.51427E+08         0.16902E+07         0.00000E+00
    0.16902E+07        -0.49993E+08         0.00000E+00
    0.00000E+00         0.00000E+00        -0.51420E+08
 
   -0.51426E+08         0.17667E+07         0.00000E+00
    0.17667E+07        -0.49993E+08         0.00000E+00
    0.00000E+00         0.00000E+00        -0.51421E+08
 
   -0.51426E+08         0.18429E+07         0.00000E+00
    0.18429E+07        -0.49992E+08         0.00000E+00
    0.00000E+00         0.00000E+00        -0.51421E+08
 
   -0.51425E+08         0.19190E+07         0.00000E+00
    0.19190E+07        -0.49992E+08         0.00000E+00
    0.00000E+00         0.00000E+00        -0.51421E+08
 
   -0.51425E+08         0.19949E+07         0.00000E+00
    0.19949E+07        -0.49991E+08         0.00000E+00
    0.00000E+00         0.00000E+00        -0.51421E+08
 
   -0.51424E+08         0.20706E+07         0.00000E+00
    0.20706E+07        -0.49990E+08         0.00000E+00
    0.00000E+00         0.00000E+00        -0.51421E+08
 
   -0.51424E+08         0.21461E+07         0.00000E+00
    0.21461E+07        -0.49990E+08         0.00000E+00
    0.00000E+00         0.00000E+00        -0.51422E+08
 
   -0.51424E+08         0.22214E+07         0.00000E+00
    0.22214E+07        -0.49989E+08         0.00000E+00
    0.00000E+00         0.00000E+00        -0.51422E+08
 
   -0.51423E+08         0.22965E+07         0.00000E+00
    0.22965E+07        -0.49989E+08         0.00000E+00
    0.00000E+00         0.00000E+00        -0.51422E+08
 
   -0.51423E+08         0.23715E+07         0.00000E+00
    0.23715E+07        -0.49988E+08         0.00000E+00
    0.00000E+00         0.00000E+00        -0.51422E+08
 
   -0.51423E+08         0.24462E+07         0.00000E+00
    0.24462E+07        -0.49988E+08         0.00000E+00
    0.00000E+00         0.00000E+00        -0.51422E+08
 
   -0.51423E+08         0.25207E+07         0.00000E+00
    0.25207E+07        -0.49987E+08         0.00000E+00
    0.00000E+00         0.00000E+00        -0.51423E+08
 
   -0.51423E+08         0.25951E+07         0.00000E+00
    0.25951E+07        -0.49986E+08         0.00000E+00
    0.00000E+00         0.00000E+00        -0.51423E+08
 
   -0.51423E+08         0.26692E+07         0.00000E+00
    0.26692E+07        -0.49986E+08         0.00000E+00
    0.00000E+00         0.00000E+00        -0.51423E+08
 
   -0.51423E+08         0.27432E+07         0.00000E+00
    0.27432E+07        -0.49985E+08         0.00000E+00
    0.00000E+00         0.00000E+00        -0.51423E+08
 
   -0.51423E+08         0.28170E+07         0.00000E+00
    0.28170E+07        -0.49985E+08         0.00000E+00
    0.00000E+00         0.00000E+00        -0.51423E+08
 
   -0.51423E+08         0.28905E+07         0.00000E+00
    0.28905E+07        -0.49984E+08         0.00000E+00
    0.00000E+00         0.00000E+00        -0.51423E+08
 
   -0.51423E+08         0.29639E+07         0.00000E+00
    0.29639E+07        -0.49984E+08         0.00000E+00
    0.00000E+00         0.00000E+00        -0.51424E+08
 
   -0.51423E+08         0.30370E+07         0.00000E+00
    0.30370E+07        -0.49984E+08         0.00000E+00
    0.00000E+00         0.00000E+00        -0.51424E+08
 
   -0.51423E+08         0.31100E+07         0.00000E+00
    0.31100E+07        -0.49983E+08         0.00000E+00
    0.00000E+00         0.00000E+00        -0.51424E+08
 
   -0.51423E+08         0.31827E+07         0.00000E+00
    0.31827E+07        -0.49983E+08         0.00000E+00
    0.00000E+00         0.00000E+00        -0.51424E+08
 
   -0.51424E+08         0.32552E+07         0.00000E+00
    0.32552E+07        -0.49982E+08         0.00000E+00
    0.00000E+00         0.00000E+00        -0.51424E+08
 
   -0.51424E+08         0.33276E+07         0.00000E+00
    0.33276E+07        -0.49982E+08         0.00000E+00
    0.00000E+00         0.00000E+00        -0.51424E+08
 
   -0.51424E+08         0.33997E+07         0.00000E+00
    0.33997E+07        -0.49982E+08         0.00000E+00
    0.00000E+00         0.00000E+00        -0.51424E+08
 
   -0.51424E+08         0.34716E+07         0.00000E+00
    0.34716E+07        -0.49982E+08         0.00000E+00
    0.00000E+00         0.00000E+00        -0.51424E+08
 
   -0.51424E+08         0.35432E+07         0.00000E+00
    0.35432E+07        -0.49981E+08         0.00000E+00
    0.00000E+00         0.00000E+00        -0.51424E+08
 
   -0.51424E+08         0.36147E+07         0.00000E+00
    0.36147E+07        -0.49981E+08         0.00000E+00
    0.00000E+00         0.00000E+00        -0.51424E+08
 
   -0.51424E+08         0.36859E+07         0.00000E+00
    0.36859E+07        -0.49981E+08         0.00000E+00
    0.00000E+00         0.00000E+00        -0.51424E+08
 
   -0.51424E+08         0.37569E+07         0.00000E+00
    0.37569E+07        -0.49981E+08         0.00000E+00
    0.00000E+00         0.00000E+00        -0.51425E+08
 
   -0.51062E+08         0.40645E+05         0.00000E+00
    0.40645E+05        -0.50000E+08         0.00000E+00
    0.00000E+00         0.00000E+00        -0.51065E+08
 
   -0.51060E+08         0.12136E+06         0.00000E+00
    0.12136E+06        -0.50000E+08         0.00000E+00
    0.00000E+00         0.00000E+00        -0.51065E+08
 
   -0.51058E+08         0.20187E+06         0.00000E+00
    0.20187E+06        -0.50000E+08         0.00000E+00
    0.00000E+00         0.00000E+00        -0.51065E+08
 
   -0.51056E+08         0.28218E+06         0.00000E+00
    0.28218E+06        -0.50000E+08         0.00000E+00
    0.00000E+00         0.00000E+00        -0.51065E+08
 
   -0.51055E+08         0.36228E+06         0.00000E+00
    0.36228E+06        -0.50000E+08         0.00000E+00
    0.00000E+00         0.00000E+00        -0.51065E+08
 
   -0.51053E+08         0.44217E+06         0.00000E+00
    0.44217E+06        -0.49999E+08         0.00000E+00
    0.00000E+00         0.00000E+00        -0.51065E+08
 
   -0.51052E+08         0.52187E+06         0.00000E+00
    0.52187E+06        -0.49999E+08         0.00000E+00
    0.00000E+00         0.00000E+00        -0.51065E+08
 
   -0.51050E+08         0.60136E+06         0.00000E+00
    0.60136E+06        -0.49999E+08         0.00000E+00
    0.00000E+00         0.00000E+00        -0.51066E+08
 
   -0.51049E+08         0.68065E+06         0.00000E+00
    0.68065E+06        -0.49998E+08         0.00000E+00
    0.00000E+00         0.00000E+00        -0.51066E+08
 
   -0.51048E+08         0.75974E+06         0.00000E+00
    0.75974E+06        -0.49998E+08         0.00000E+00
    0.00000E+00         0.00000E+00        -0.51066E+08
 
   -0.51047E+08         0.83863E+06         0.00000E+00
    0.83863E+06        -0.49998E+08         0.00000E+00
    0.00000E+00         0.00000E+00        -0.51066E+08
 
   -0.51047E+08         0.91732E+06         0.00000E+00
    0.91732E+06        -0.49997E+08         0.00000E+00
    0.00000E+00         0.00000E+00        -0.51066E+08
 
   -0.51046E+08         0.99582E+06         0.00000E+00
    0.99582E+06        -0.49997E+08         0.00000E+00
    0.00000E+00         0.00000E+00        -0.51066E+08
 
   -0.51045E+08         0.10741E+07         0.00000E+00
    0.10741E+07        -0.49996E+08         0.00000E+00
    0.00000E+00         0.00000E+00        -0.51066E+08
 
   -0.51045E+08         0.11522E+07         0.00000E+00
    0.11522E+07        -0.49996E+08         0.00000E+00
    0.00000E+00         0.00000E+00        -0.51066E+08
 
   -0.51044E+08         0.12301E+07         0.00000E+00
    0.12301E+07        -0.49995E+08         0.00000E+00
    0.00000E+00         0.00000E+00        -0.51067E+08
 
   -0.51044E+08         0.13078E+07         0.00000E+00
    0.13078E+07        -0.49995E+08         0.00000E+00
    0.00000E+00         0.00000E+00        -0.51067E+08
 
   -0.51044E+08         0.13853E+07         0.00000E+00
    0.13853E+07        -0.49994E+08         0.00000E+00
    0.00000E+00         0.00000E+00        -0.51067E+08
 
   -0.51044E+08         0.14626E+07         0.00000E+00
    0.14626E+07        -0.49993E+08         0.00000E+00
    0.00000E+00         0.00000E+00        -0.51067E+08
 
   -0.51044E+08         0.15398E+07         0.00000E+00
    0.15398E+07        -0.49993E+08         0.00000E+00
    0.00000E+00         0.00000E+00        -0.51067E+08
 
   -0.51044E+08         0.16167E+07         0.00000E+00
    0.16167E+07        -0.49992E+08         0.00000E+00
    0.00000E+00         0.00000E+00        -0.51067E+08
 
   -0.51044E+08         0.16934E+07         0.00000E+00
    0.16934E+07        -0.49991E+08         0.00000E+00
    0.00000E+00         0.00000E+00        -0.51068E+08
 
   -0.51044E+08         0.17699E+07         0.00000E+00
    0.17699E+07        -0.49991E+08         0.00000E+00
    0.00000E+00         0.00000E+00        -0.51068E+08
 
   -0.51045E+08         0.18462E+07         0.00000E+00
    0.18462E+07        -0.49990E+08         0.00000E+00
    0.00000E+00         0.00000E+00        -0.51068E+08
 
   -0.51045E+08         0.19224E+07         0.00000E+00
    0.19224E+07        -0.49989E+08         0.00000E+00
    0.00000E+00         0.00000E+00        -0.51068E+08
 
   -0.51046E+08         0.19983E+07         0.00000E+00
    0.19983E+07        -0.49988E+08         0.00000E+00
    0.00000E+00         0.00000E+00        -0.51068E+08
 
   -0.51046E+08         0.20740E+07         0.00000E+00
    0.20740E+07        -0.49987E+08         0.00000E+00
    0.00000E+00         0.00000E+00        -0.51068E+08
 
   -0.51047E+08         0.21496E+07         0.00000E+00
    0.21496E+07        -0.49987E+08         0.00000E+00
    0.00000E+00         0.00000E+00        -0.51069E+08
 
   -0.51047E+08         0.22249E+07         0.00000E+00
    0.22249E+07        -0.49986E+08         0.00000E+00
    0.00000E+00         0.00000E+00        -0.51069E+08
 
   -0.51048E+08         0.23001E+07         0.00000E+00
    0.23001E+07        -0.49985E+08         0.00000E+00
    0.00000E+00         0.00000E+00        -0.51069E+08
 
   -0.51049E+08         0.23750E+07         0.00000E+00
    0.23750E+07        -0.49984E+08         0.00000E+00
    0.00000E+00         0.00000E+00        -0.51069E+08
 
   -0.51050E+08         0.24497E+07         0.00000E+00
    0.24497E+07        -0.49983E+08         0.00000E+00
    0.00000E+00         0.00000E+00        -0.51069E+08
 
   -0.51051E+08         0.25243E+07         0.00000E+00
    0.25243E+07        -0.49982E+08         0.00000E+00
    0.00000E+00         0.00000E+00        -0.51070E+08
 
   -0.51052E+08         0.25986E+07         0.00000E+00
    0.25986E+07        -0.49982E+08         0.00000E+00
    0.00000E+00         0.00000E+00        -0.51070E+08
 
   -0.51053E+08         0.26727E+07         0.00000E+00
    0.26727E+07        -0.49981E+08         0.00000E+00
    0.00000E+00         0.00000E+00        -0.51070E+08
 
   -0.51054E+08         0.27466E+07         0.00000E+00
    0.27466E+07        -0.49980E+08         0.00000E+00
    0.00000E+00         0.00000E+00        -0.51070E+08
 
   -0.51055E+08         0.28203E+07         0.00000E+00
    0.28203E+07        -0.49979E+08         0.00000E+00
    0.00000E+00         0.00000E+00        -0.51070E+08
 
   -0.51056E+08         0.28938E+07         0.00000E+00
    0.28938E+07        -0.49978E+08         0.00000E+00
    0.00000E+00         0.00000E+00        -0.51070E+08
 
   -0.51057E+08         0.29671E+07         0.00000E+00
    0.29671E+07        -0.49977E+08         0.00000E+00
    0.00000E+00         0.00000E+00        -0.51070E+08
 
   -0.51058E+08         0.30402E+07         0.00000E+00
    0.30402E+07        -0.49976E+08         0.00000E+00
    0.00000E+00         0.00000E+00        -0.51071E+08
 
   -0.51059E+08         0.31130E+07         0.00000E+00
    0.31130E+07        -0.49976E+08         0.00000E+00
    0.00000E+00         0.00000E+00        -0.51071E+08
 
   -0.51061E+08         0.31856E+07         0.00000E+00
    0.31856E+07        -0.49975E+08         0.00000E+00
    0.00000E+00         0.00000E+00        -0.51071E+08
 
   -0.51062E+08         0.32581E+07         0.00000E+00
    0.32581E+07        -0.49974E+08         0.00000E+00
    0.00000E+00         0.00000E+00        -0.51071E+08
 
   -0.51063E+08         0.33303E+07         0.00000E+00
    0.33303E+07        -0.49973E+08         0.00000E+00
    0.00000E+00         0.00000E+00        -0.51071E+08
 
   -0.51064E+08         0.34022E+07         0.00000E+00
    0.34022E+07        -0.49972E+08         0.00000E+00
    0.00000E+00         0.00000E+00        -0.51071E+08
 
   -0.51066E+08         0.34740E+07         0.00000E+00
    0.34740E+07        -0.49972E+08         0.00000E+00
    0.00000E+00         0.00000E+00        -0.51071E+08
 
   -0.51067E+08         0.35455E+07         0.00000E+00
    0.35455E+07        -0.49971E+08         0.00000E+00
    0.00000E+00         0.00000E+00        -0.51071E+08
 
   -0.51068E+08         0.36167E+07         0.00000E+00
    0.36167E+07        -0.49970E+08         0.00000E+00
    0.00000E+00         0.00000E+00        -0.51071E+08
 
   -0.51069E+08         0.36878E+07         0.00000E+00
    0.36878E+07        -0.49970E+08         0.00000E+00
    0.00000E+00         0.00000E+00        -0.51071E+08
 
   -0.51071E+08         0.37586E+07         0.00000E+00
    0.37586E+07        -0.49969E+08         0.00000E+00
    0.00000E+00         0.00000E+00        -0.51071E+08
 
   -0.50657E+08         0.40767E+05         0.00000E+00
    0.40767E+05        -0.50000E+08         0.00000E+00
    0.00000E+00         0.00000E+00        -0.50713E+08
 
   -0.50656E+08         0.12172E+06         0.00000E+00
    0.12172E+06        -0.50000E+08         0.00000E+00
    0.00000E+00         0.00000E+00        -0.50713E+08
 
   -0.50655E+08         0.20246E+06         0.00000E+00
    0.20246E+06        -0.50000E+08         0.00000E+00
    0.00000E+00         0.00000E+00        -0.50714E+08
 
   -0.50655E+08         0.28299E+06         0.00000E+00
    0.28299E+06        -0.50000E+08         0.00000E+00
    0.00000E+00         0.00000E+00        -0.50714E+08
 
   -0.50654E+08         0.36332E+06         0.00000E+00
    0.36332E+06        -0.49999E+08         0.00000E+00
    0.00000E+00         0.00000E+00        -0.50714E+08
 
   -0.50654E+08         0.44343E+06         0.00000E+00
    0.44343E+06        -0.49999E+08         0.00000E+00
    0.00000E+00         0.00000E+00        -0.50714E+08
 
   -0.50653E+08         0.52334E+06         0.00000E+00
    0.52334E+06        -0.49999E+08         0.00000E+00
    0.00000E+00         0.00000E+00        -0.50714E+08
 
   -0.50653E+08         0.60305E+06         0.00000E+00
    0.60305E+06        -0.49999E+08         0.00000E+00
    0.00000E+00         0.00000E+00        -0.50714E+08
 
   -0.50653E+08         0.68255E+06         0.00000E+00
    0.68255E+06        -0.49998E+08         0.00000E+00
    0.00000E+00         0.00000E+00        -0.50714E+08
 
   -0.50653E+08         0.76184E+06         0.00000E+00
    0.76184E+06        -0.49998E+08         0.00000E+00
    0.00000E+00         0.00000E+00        -0.50714E+08
 
   -0.50653E+08         0.84093E+06         0.00000E+00
    0.84093E+06        -0.49997E+08         0.00000E+00
    0.00000E+00         0.00000E+00        -0.50714E+08
 
   -0.50653E+08         0.91981E+06         0.00000E+00
    0.91981E+06        -0.49997E+08         0.00000E+00
    0.00000E+00         0.00000E+00        -0.50714E+08
 
   -0.50653E+08         0.99850E+06         0.00000E+00
    0.99850E+06        -0.49996E+08         0.00000E+00
    0.00000E+00         0.00000E+00        -0.50714E+08
 
   -0.50654E+08         0.10770E+07         0.00000E+00
    0.10770E+07        -0.49996E+08         0.00000E+00
    0.00000E+00         0.00000E+00        -0.50714E+08
 
   -0.50654E+08         0.11553E+07         0.00000E+00
    0.11553E+07        -0.49995E+08         0.00000E+00
    0.00000E+00         0.00000E+00        -0.50715E+08
 
   -0.50655E+08         0.12333E+07         0.00000E+00
    0.12333E+07        -0.49994E+08         0.00000E+00
    0.00000E+00         0.00000E+00        -0.50715E+08
 
   -0.50656E+08         0.13112E+07         0.00000E+00
    0.13112E+07        -0.49993E+08         0.00000E+00
    0.00000E+00         0.00000E+00        -0.50715E+08
 
   -0.50656E+08         0.13889E+07         0.00000E+00
    0.13889E+07        -0.49993E+08         0.00000E+00
    0.00000E+00         0.00000E+00        -0.50715E+08
 
   -0.50657E+08         0.14663E+07         0.00000E+00
    0.14663E+07        -0.49992E+08         0.00000E+00
    0.00000E+00         0.00000E+00        -0.50715E+08
 
   -0.50658E+08         0.15436E+07         0.00000E+00
    0.15436E+07        -0.49991E+08         0.00000E+00
    0.00000E+00         0.00000E+00        -0.50715E+08
 
   -0.50659E+08         0.16207E+07         0.00000E+00
    0.16207E+07        -0.49990E+08         0.00000E+00
    0.00000E+00         0.00000E+00        -0.50715E+08
 
   -0.50661E+08         0.16975E+07         0.00000E+00
    0.16975E+07        -0.49989E+08         0.00000E+00
    0.00000E+00         0.00000E+00        -0.50716E+08
 
   -0.50662E+08         0.17742E+07         0.00000E+00
    0.17742E+07        -0.49988E+08         0.00000E+00
    0.00000E+00         0.00000E+00        -0.50716E+08
 
   -0.50663E+08         0.18506E+07         0.00000E+00
    0.18506E+07        -0.49987E+08         0.00000E+00
    0.00000E+00         0.00000E+00        -0.50716E+08
 
   -0.50665E+08         0.19269E+07         0.00000E+00
    0.19269E+07        -0.49986E+08         0.00000E+00
    0.00000E+00         0.00000E+00        -0.50716E+08
 
   -0.50666E+08         0.20029E+07         0.00000E+00
    0.20029E+07        -0.49985E+08         0.00000E+00
    0.00000E+00         0.00000E+00        -0.50716E+08
 
   -0.50668E+08         0.20787E+07         0.00000E+00
    0.20787E+07        -0.49984E+08         0.00000E+00
    0.00000E+00         0.00000E+00        -0.50716E+08
 
   -0.50669E+08         0.21544E+07         0.00000E+00
    0.21544E+07        -0.49983E+08         0.00000E+00
    0.00000E+00         0.00000E+00        -0.50717E+08
 
   -0.50671E+08         0.22298E+07         0.00000E+00
    0.22298E+07        -0.49982E+08         0.00000E+00
    0.00000E+00         0.00000E+00        -0.50717E+08
 
   -0.50673E+08         0.23050E+07         0.00000E+00
    0.23050E+07        -0.49981E+08         0.00000E+00
    0.00000E+00         0.00000E+00        -0.50717E+08
 
   -0.50675E+08         0.23800E+07         0.00000E+00
    0.23800E+07        -0.49980E+08         0.00000E+00
    0.00000E+00         0.00000E+00        -0.50717E+08
 
   -0.50676E+08         0.24548E+07         0.00000E+00
    0.24548E+07        -0.49979E+08         0.00000E+00
    0.00000E+00         0.00000E+00        -0.50717E+08
 
   -0.50678E+08         0.25294E+07         0.00000E+00
    0.25294E+07        -0.49977E+08         0.00000E+00
    0.00000E+00         0.00000E+00        -0.50717E+08
 
   -0.50680E+08         0.26038E+07         0.00000E+00
    0.26038E+07        -0.49976E+08         0.00000E+00
    0.00000E+00         0.00000E+00        -0.50717E+08
 
   -0.50682E+08         0.26779E+07         0.00000E+00
    0.26779E+07        -0.49975E+08         0.00000E+00
    0.00000E+00         0.00000E+00        -0.50718E+08
 
   -0.50685E+08         0.27519E+07         0.00000E+00
    0.27519E+07        -0.49974E+08         0.00000E+00
    0.00000E+00         0.00000E+00        -0.50718E+08
 
   -0.50687E+08         0.28256E+07         0.00000E+00
    0.28256E+07        -0.49973E+08         0.00000E+00
    0.00000E+00         0.00000E+00        -0.50718E+08
 
   -0.50689E+08         0.28991E+07         0.00000E+00
    0.28991E+07        -0.49971E+08         0.00000E+00
    0.00000E+00         0.00000E+00        -0.50718E+08
 
   -0.50691E+08         0.29724E+07         0.00000E+00
    0.29724E+07        -0.49970E+08         0.00000E+00
    0.00000E+00         0.00000E+00        -0.50718E+08
 
   -0.50693E+08         0.30454E+07         0.00000E+00
    0.30454E+07        -0.49969E+08         0.00000E+00
    0.00000E+00         0.00000E+00        -0.50718E+08
 
   -0.50696E+08         0.31183E+07         0.00000E+00
    0.31183E+07        -0.49968E+08         0.00000E+00
    0.00000E+00         0.00000E+00        -0.50718E+08
 
   -0.50698E+08         0.31909E+07         0.00000E+00
    0.31909E+07        -0.49966E+08         0.00000E+00
    0.00000E+00         0.00000E+00        -0.50718E+08
 
   -0.50700E+08         0.32632E+07         0.00000E+00
    0.32632E+07        -0.49965E+08         0.00000E+00
    0.00000E+00         0.00000E+00        -0.50718E+08
 
   -0.50703E+08         0.33354E+07         0.00000E+00
    0.33354E+07        -0.49964E+08         0.00000E+00
    0.00000E+00         0.00000E+00        -0.50718E+08
 
   -0.50705E+08         0.34073E+07         0.00000E+00
    0.34073E+07        -0.49962E+08         0.00000E+00
    0.00000E+00         0.00000E+00        -0.50718E+08
 
   -0.50708E+08         0.34790E+07         0.00000E+00
    0.34790E+07        -0.49961E+08         0.00000E+00
    0.00000E+00         0.00000E+00        -0.50719E+08
 
   -0.50710E+08         0.35504E+07         0.00000E+00
    0.35504E+07        -0.49960E+08         0.00000E+00
    0.00000E+00         0.00000E+00        -0.50719E+08
 
   -0.50713E+08         0.36216E+07         0.00000E+00
    0.36216E+07        -0.49959E+08         0.00000E+00
    0.00000E+00         0.00000E+00        -0.50719E+08
 
   -0.50715E+08         0.36926E+07         0.00000E+00
    0.36926E+07        -0.49957E+08         0.00000E+00
    0.00000E+00         0.00000E+00        -0.50719E+08
 
   -0.50717E+08         0.37633E+07         0.00000E+00
    0.37633E+07        -0.49956E+08         0.00000E+00
    0.00000E+00         0.00000E+00        -0.50719E+08
 
   -0.50251E+08         0.40909E+05         0.00000E+00
    0.40909E+05        -0.50000E+08         0.00000E+00
    0.00000E+00         0.00000E+00        -0.50362E+08
 
   -0.50251E+08         0.12214E+06         0.00000E+00
    0.12214E+06        -0.50000E+08         0.00000E+00
    0.00000E+00         0.00000E+00        -0.50362E+08
 
   -0.50252E+08         0.20315E+06         0.00000E+00
    0.20315E+06        -0.50000E+08         0.00000E+00
    0.00000E+00         0.00000E+00        -0.50362E+08
 
   -0.50252E+08         0.28395E+06         0.00000E+00
    0.28395E+06        -0.50000E+08         0.00000E+00
    0.00000E+00         0.00000E+00        -0.50362E+08
 
   -0.50252E+08         0.36455E+06         0.00000E+00
    0.36455E+06        -0.49999E+08         0.00000E+00
    0.00000E+00         0.00000E+00        -0.50362E+08
 
   -0.50253E+08         0.44493E+06         0.00000E+00
    0.44493E+06        -0.49999E+08         0.00000E+00
    0.00000E+00         0.00000E+00        -0.50362E+08
 
   -0.50254E+08         0.52510E+06         0.00000E+00
    0.52510E+06        -0.49999E+08         0.00000E+00
    0.00000E+00         0.00000E+00        -0.50362E+08
 
   -0.50254E+08         0.60506E+06         0.00000E+00
    0.60506E+06        -0.49998E+08         0.00000E+00
    0.00000E+00         0.00000E+00        -0.50362E+08
 
   -0.50255E+08         0.68481E+06         0.00000E+00
    0.68481E+06        -0.49998E+08         0.00000E+00
    0.00000E+00         0.00000E+00        -0.50362E+08
 
   -0.50256E+08         0.76435E+06         0.00000E+00
    0.76435E+06        -0.49997E+08         0.00000E+00
    0.00000E+00         0.00000E+00        -0.50363E+08
 
   -0.50257E+08         0.84368E+06         0.00000E+00
    0.84368E+06        -0.49997E+08         0.00000E+00
    0.00000E+00         0.00000E+00        -0.50363E+08
 
   -0.50259E+08         0.92281E+06         0.00000E+00
    0.92281E+06        -0.49996E+08         0.00000E+00
    0.00000E+00         0.00000E+00        -0.50363E+08
 
   -0.50260E+08         0.10017E+07         0.00000E+00
    0.10017E+07        -0.49995E+08         0.00000E+00
    0.00000E+00         0.00000E+00        -0.50363E+08
 
   -0.50261E+08         0.10804E+07         0.00000E+00
    0.10804E+07        -0.49995E+08         0.00000E+00
    0.00000E+00         0.00000E+00        -0.50363E+08
 
   -0.50263E+08         0.11589E+07         0.00000E+00
    0.11589E+07        -0.49994E+08         0.00000E+00
    0.00000E+00         0.00000E+00        -0.50363E+08
 
   -0.50265E+08         0.12372E+07         0.00000E+00
    0.12372E+07        -0.49993E+08         0.00000E+00
    0.00000E+00         0.00000E+00        -0.50363E+08
 
   -0.50266E+08         0.13153E+07         0.00000E+00
    0.13153E+07        -0.49992E+08         0.00000E+00
    0.00000E+00         0.00000E+00        -0.50363E+08
 
   -0.50268E+08         0.13932E+07         0.00000E+00
    0.13932E+07        -0.49991E+08         0.00000E+00
    0.00000E+00         0.00000E+00        -0.50363E+08
 
   -0.50270E+08         0.14709E+07         0.00000E+00
    0.14709E+07        -0.49990E+08         0.00000E+00
    0.00000E+00         0.00000E+00        -0.50364E+08
 
   -0.50272E+08         0.15483E+07         0.00000E+00
    0.15483E+07        -0.49989E+08         0.00000E+00
    0.00000E+00         0.00000E+00        -0.50364E+08
 
   -0.50274E+08         0.16256E+07         0.00000E+00
    0.16256E+07        -0.49988E+08         0.00000E+00
    0.00000E+00         0.00000E+00        -0.50364E+08
 
   -0.50276E+08         0.17026E+07         0.00000E+00
    0.17026E+07        -0.49987E+08         0.00000E+00
    0.00000E+00         0.00000E+00        -0.50364E+08
 
   -0.50279E+08         0.17795E+07         0.00000E+00
    0.17795E+07        -0.49986E+08         0.00000E+00
    0.00000E+00         0.00000E+00        -0.50364E+08
 
   -0.50281E+08         0.18561E+07         0.00000E+00
    0.18561E+07        -0.49985E+08         0.00000E+00
    0.00000E+00         0.00000E+00        -0.50364E+08
 
   -0.50283E+08         0.19325E+07         0.00000E+00
    0.19325E+07        -0.49984E+08         0.00000E+00
    0.00000E+00         0.00000E+00        -0.50364E+08
 
   -0.50286E+08         0.20087E+07         0.00000E+00
    0.20087E+07        -0.49982E+08         0.00000E+00
    0.00000E+00         0.00000E+00        -0.50364E+08
 
   -0.50289E+08         0.20847E+07         0.00000E+00
    0.20847E+07        -0.49981E+08         0.00000E+00
    0.00000E+00         0.00000E+00        -0.50365E+08
 
   -0.50291E+08         0.21605E+07         0.00000E+00
    0.21605E+07        -0.49980E+08         0.00000E+00
    0.00000E+00         0.00000E+00        -0.50365E+08
 
   -0.50294E+08         0.22361E+07         0.00000E+00
    0.22361E+07        -0.49978E+08         0.00000E+00
    0.00000E+00         0.00000E+00        -0.50365E+08
 
   -0.50297E+08         0.23115E+07         0.00000E+00
    0.23115E+07        -0.49977E+08         0.00000E+00
    0.00000E+00         0.00000E+00        -0.50365E+08
 
   -0.50300E+08         0.23866E+07         0.00000E+00
    0.23866E+07        -0.49975E+08         0.00000E+00
    0.00000E+00         0.00000E+00        -0.50365E+08
 
   -0.50303E+08         0.24615E+07         0.00000E+00
    0.24615E+07        -0.49974E+08         0.00000E+00
    0.00000E+00         0.00000E+00        -0.50365E+08
 
   -0.50306E+08         0.25362E+07         0.00000E+00
    0.25362E+07        -0.49972E+08         0.00000E+00
    0.00000E+00         0.00000E+00        -0.50365E+08
 
   -0.50309E+08         0.26107E+07         0.00000E+00
    0.26107E+07        -0.49971E+08         0.00000E+00
    0.00000E+00         0.00000E+00        -0.50365E+08
 
   -0.50312E+08         0.26850E+07         0.00000E+00
    0.26850E+07        -0.49969E+08         0.00000E+00
    0.00000E+00         0.00000E+00        -0.50366E+08
 
   -0.50315E+08         0.27590E+07         0.00000E+00
    0.27590E+07        -0.49968E+08         0.00000E+00
    0.00000E+00         0.00000E+00        -0.50366E+08
 
   -0.50318E+08         0.28328E+07         0.00000E+00
    0.28328E+07        -0.49966E+08         0.00000E+00
    0.00000E+00         0.00000E+00        -0.50366E+08
 
   -0.50322E+08         0.29064E+07         0.00000E+00
    0.29064E+07        -0.49964E+08         0.00000E+00
    0.00000E+00         0.00000E+00        -0.50366E+08
 
   -0.50325E+08         0.29798E+07         0.00000E+00
    0.29798E+07        -0.49963E+08         0.00000E+00
    0.00000E+00         0.00000E+00        -0.50366E+08
 
   -0.50329E+08         0.30529E+07         0.00000E+00
    0.30529E+07        -0.49961E+08         0.00000E+00
    0.00000E+00         0.00000E+00        -0.50366E+08
 
   -0.50332E+08         0.31258E+07         0.00000E+00
    0.31258E+07        -0.49959E+08         0.00000E+00
    0.00000E+00         0.00000E+00        -0.50366E+08
 
   -0.50335E+08         0.31985E+07         0.00000E+00
    0.31985E+07        -0.49957E+08         0.00000E+00
    0.00000E+00         0.00000E+00        -0.50366E+08
 
   -0.50339E+08         0.32709E+07         0.00000E+00
    0.32709E+07        -0.49956E+08         0.00000E+00
    0.00000E+00         0.00000E+00        -0.50366E+08
 
   -0.50343E+08         0.33431E+07         0.00000E+00
    0.33431E+07        -0.49954E+08         0.00000E+00
    0.00000E+00         0.00000E+00        -0.50366E+08
 
   -0.50346E+08         0.34151E+07         0.00000E+00
    0.34151E+07        -0.49952E+08         0.00000E+00
    0.00000E+00         0.00000E+00        -0.50366E+08
 
   -0.50350E+08         0.34868E+07         0.00000E+00
    0.34868E+07        -0.49950E+08         0.00000E+00
    0.00000E+00         0.00000E+00        -0.50366E+08
 
   -0.50353E+08         0.35582E+07         0.00000E+00
    0.35582E+07        -0.49948E+08         0.00000E+00
    0.00000E+00         0.00000E+00        -0.50366E+08
 
   -0.50357E+08         0.36294E+07         0.00000E+00
    0.36294E+07        -0.49946E+08         0.00000E+00
    0.00000E+00         0.00000E+00        -0.50366E+08
 
   -0.50361E+08         0.37004E+07         0.00000E+00
    0.37004E+07        -0.49945E+08         0.00000E+00
    0.00000E+00         0.00000E+00        -0.50366E+08
 
   -0.50365E+08         0.37710E+07         0.00000E+00
    0.37710E+07        -0.49943E+08         0.00000E+00
    0.00000E+00         0.00000E+00        -0.50366E+08
 
   -0.49844E+08         0.41072E+05         0.00000E+00
    0.41072E+05        -0.50000E+08         0.00000E+00
    0.00000E+00         0.00000E+00        -0.50011E+08
 
   -0.49845E+08         0.12262E+06         0.00000E+00
    0.12262E+06        -0.50000E+08         0.00000E+00
    0.00000E+00         0.00000E+00        -0.50011E+08
 
   -0.49846E+08         0.20395E+06         0.00000E+00
    0.20395E+06        -0.50000E+08         0.00000E+00
    0.00000E+00         0.00000E+00        -0.50011E+08
 
   -0.49848E+08         0.28507E+06         0.00000E+00
    0.28507E+06        -0.50000E+08         0.00000E+00
    0.00000E+00         0.00000E+00        -0.50011E+08
 
   -0.49849E+08         0.36598E+06         0.00000E+00
    0.36598E+06        -0.49999E+08         0.00000E+00
    0.00000E+00         0.00000E+00        -0.50011E+08
 
   -0.49851E+08         0.44666E+06         0.00000E+00
    0.44666E+06        -0.49999E+08         0.00000E+00
    0.00000E+00         0.00000E+00        -0.50011E+08
 
   -0.49852E+08         0.52714E+06         0.00000E+00
    0.52714E+06        -0.49999E+08         0.00000E+00
    0.00000E+00         0.00000E+00        -0.50011E+08
 
   -0.49854E+08         0.60740E+06         0.00000E+00
    0.60740E+06        -0.49998E+08         0.00000E+00
    0.00000E+00         0.00000E+00        -0.50011E+08
 
   -0.49856E+08         0.68746E+06         0.00000E+00
    0.68746E+06        -0.49998E+08         0.00000E+00
    0.00000E+00         0.00000E+00        -0.50011E+08
 
   -0.49858E+08         0.76729E+06         0.00000E+00
    0.76729E+06        -0.49997E+08         0.00000E+00
    0.00000E+00         0.00000E+00        -0.50011E+08
 
   -0.49860E+08         0.84692E+06         0.00000E+00
    0.84692E+06        -0.49996E+08         0.00000E+00
    0.00000E+00         0.00000E+00        -0.50011E+08
 
   -0.49863E+08         0.92634E+06         0.00000E+00
    0.92634E+06        -0.49996E+08         0.00000E+00
    0.00000E+00         0.00000E+00        -0.50011E+08
 
   -0.49865E+08         0.10055E+07         0.00000E+00
    0.10055E+07        -0.49995E+08         0.00000E+00
    0.00000E+00         0.00000E+00        -0.50011E+08
 
   -0.49868E+08         0.10845E+07         0.00000E+00
    0.10845E+07        -0.49994E+08         0.00000E+00
    0.00000E+00         0.00000E+00        -0.50011E+08
 
   -0.49870E+08         0.11633E+07         0.00000E+00
    0.11633E+07        -0.49993E+08         0.00000E+00
    0.00000E+00         0.00000E+00        -0.50011E+08
 
   -0.49873E+08         0.12419E+07         0.00000E+00
    0.12419E+07        -0.49992E+08         0.00000E+00
    0.00000E+00         0.00000E+00        -0.50011E+08
 
   -0.49876E+08         0.13202E+07         0.00000E+00
    0.13202E+07        -0.49991E+08         0.00000E+00
    0.00000E+00         0.00000E+00        -0.50012E+08
 
   -0.49879E+08         0.13984E+07         0.00000E+00
    0.13984E+07        -0.49990E+08         0.00000E+00
    0.00000E+00         0.00000E+00        -0.50012E+08
 
   -0.49882E+08         0.14763E+07         0.00000E+00
    0.14763E+07        -0.49989E+08         0.00000E+00
    0.00000E+00         0.00000E+00        -0.50012E+08
 
   -0.49885E+08         0.15540E+07         0.00000E+00
    0.15540E+07        -0.49988E+08         0.00000E+00
    0.00000E+00         0.00000E+00        -0.50012E+08
 
   -0.49888E+08         0.16316E+07         0.00000E+00
    0.16316E+07        -0.49986E+08         0.00000E+00
    0.00000E+00         0.00000E+00        -0.50012E+08
 
   -0.49891E+08         0.17089E+07         0.00000E+00
    0.17089E+07        -0.49985E+08         0.00000E+00
    0.00000E+00         0.00000E+00        -0.50012E+08
 
   -0.49894E+08         0.17859E+07         0.00000E+00
    0.17859E+07        -0.49984E+08         0.00000E+00
    0.00000E+00         0.00000E+00        -0.50012E+08
 
   -0.49898E+08         0.18628E+07         0.00000E+00
    0.18628E+07        -0.49982E+08         0.00000E+00
    0.00000E+00         0.00000E+00        -0.50012E+08
 
   -0.49901E+08         0.19395E+07         0.00000E+00
    0.19395E+07        -0.49981E+08         0.00000E+00
    0.00000E+00         0.00000E+00        -0.50012E+08
 
   -0.49905E+08         0.20159E+07         0.00000E+00
    0.20159E+07        -0.49979E+08         0.00000E+00
    0.00000E+00         0.00000E+00        -0.50012E+08
 
   -0.49909E+08         0.20921E+07         0.00000E+00
    0.20921E+07        -0.49977E+08         0.00000E+00
    0.00000E+00         0.00000E+00        -0.50013E+08
 
   -0.49912E+08         0.21681E+07         0.00000E+00
    0.21681E+07        -0.49976E+08         0.00000E+00
    0.00000E+00         0.00000E+00        -0.50013E+08
 
   -0.49916E+08         0.22439E+07         0.00000E+00
    0.22439E+07        -0.49974E+08         0.00000E+00
    0.00000E+00         0.00000E+00        -0.50013E+08
 
   -0.49920E+08         0.23195E+07         0.00000E+00
    0.23195E+07        -0.49972E+08         0.00000E+00
    0.00000E+00         0.00000E+00        -0.50013E+08
 
   -0.49924E+08         0.23948E+07         0.00000E+00
    0.23948E+07        -0.49971E+08         0.00000E+00
    0.00000E+00         0.00000E+00        -0.50013E+08
 
   -0.49928E+08         0.24700E+07         0.00000E+00
    0.24700E+07        -0.49969E+08         0.00000E+00
    0.00000E+00         0.00000E+00        -0.50013E+08
 
   -0.49932E+08         0.25449E+07         0.00000E+00
    0.25449E+07        -0.49967E+08         0.00000E+00
    0.00000E+00         0.00000E+00        -0.50013E+08
 
   -0.49937E+08         0.26195E+07         0.00000E+00
    0.26195E+07        -0.49965E+08         0.00000E+00
    0.00000E+00         0.00000E+00        -0.50013E+08
 
   -0.49941E+08         0.26940E+07         0.00000E+00
    0.26940E+07        -0.49963E+08         0.00000E+00
    0.00000E+00         0.00000E+00        -0.50013E+08
 
   -0.49945E+08         0.27682E+07         0.00000E+00
    0.27682E+07        -0.49961E+08         0.00000E+00
    0.00000E+00         0.00000E+00        -0.50013E+08
 
   -0.49950E+08         0.28422E+07         0.00000E+00
    0.28422E+07        -0.49959E+08         0.00000E+00
    0.00000E+00         0.00000E+00        -0.50014E+08
 
   -0.49954E+08         0.29159E+07         0.00000E+00
    0.29159E+07        -0.49957E+08         0.00000E+00
    0.00000E+00         0.00000E+00        -0.50014E+08
 
   -0.49958E+08         0.29895E+07         0.00000E+00
    0.29895E+07        -0.49955E+08         0.00000E+00
    0.00000E+00         0.00000E+00        -0.50014E+08
 
   -0.49963E+08         0.30628E+07         0.00000E+00
    0.30628E+07        -0.49952E+08         0.00000E+00
    0.00000E+00         0.00000E+00        -0.50014E+08
 
   -0.49968E+08         0.31358E+07         0.00000E+00
    0.31358E+07        -0.49950E+08         0.00000E+00
    0.00000E+00         0.00000E+00        -0.50014E+08
 
   -0.49972E+08         0.32086E+07         0.00000E+00
    0.32086E+07        -0.49948E+08         0.00000E+00
    0.00000E+00         0.00000E+00        -0.50014E+08
 
   -0.49977E+08         0.32812E+07         0.00000E+00
    0.32812E+07        -0.49946E+08         0.00000E+00
    0.00000E+00         0.00000E+00        -0.50014E+08
 
   -0.49982E+08         0.33535E+07         0.00000E+00
    0.33535E+07        -0.49943E+08         0.00000E+00
    0.00000E+00         0.00000E+00        -0.50014E+08
 
   -0.49987E+08         0.34255E+07         0.00000E+00
    0.34255E+07        -0.49941E+08         0.00000E+00
    0.00000E+00         0.00000E+00        -0.50014E+08
 
   -0.49992E+08         0.34974E+07         0.00000E+00
    0.34974E+07        -0.49939E+08         0.00000E+00
    0.00000E+00         0.00000E+00        -0.50014E+08
 
   -0.49997E+08         0.35689E+07         0.00000E+00
    0.35689E+07        -0.49936E+08         0.00000E+00
    0.00000E+00         0.00000E+00        -0.50014E+08
 
   -0.50002E+08         0.36402E+07         0.00000E+00
    0.36402E+07        -0.49934E+08         0.00000E+00
    0.00000E+00         0.00000E+00        -0.50014E+08
 
   -0.50007E+08         0.37113E+07         0.00000E+00
    0.37113E+07        -0.49931E+08         0.00000E+00
    0.00000E+00         0.00000E+00        -0.50014E+08
 
   -0.50012E+08         0.37820E+07         0.00000E+00
    0.37820E+07        -0.49929E+08         0.00000E+00
    0.00000E+00         0.00000E+00        -0.50014E+08
 
   -0.49435E+08         0.41259E+05         0.00000E+00
    0.41259E+05        -0.50000E+08         0.00000E+00
    0.00000E+00         0.00000E+00        -0.49658E+08
 
   -0.49437E+08         0.12317E+06         0.00000E+00
    0.12317E+06        -0.50000E+08         0.00000E+00
    0.00000E+00         0.00000E+00        -0.49659E+08
 
   -0.49439E+08         0.20487E+06         0.00000E+00
    0.20487E+06        -0.50000E+08         0.00000E+00
    0.00000E+00         0.00000E+00        -0.49659E+08
 
   -0.49442E+08         0.28635E+06         0.00000E+00
    0.28635E+06        -0.50000E+08         0.00000E+00
    0.00000E+00         0.00000E+00        -0.49659E+08
 
   -0.49444E+08         0.36761E+06         0.00000E+00
    0.36761E+06        -0.49999E+08         0.00000E+00
    0.00000E+00         0.00000E+00        -0.49659E+08
 
   -0.49447E+08         0.44866E+06         0.00000E+00
    0.44866E+06        -0.49999E+08         0.00000E+00
    0.00000E+00         0.00000E+00        -0.49659E+08
 
   -0.49450E+08         0.52949E+06         0.00000E+00
    0.52949E+06        -0.49998E+08         0.00000E+00
    0.00000E+00         0.00000E+00        -0.49659E+08
 
   -0.49453E+08         0.61011E+06         0.00000E+00
    0.61011E+06        -0.49998E+08         0.00000E+00
    0.00000E+00         0.00000E+00        -0.49659E+08
 
   -0.49456E+08         0.69051E+06         0.00000E+00
    0.69051E+06        -0.49997E+08         0.00000E+00
    0.00000E+00         0.00000E+00        -0.49659E+08
 
   -0.49459E+08         0.77069E+06         0.00000E+00
    0.77069E+06        -0.49997E+08         0.00000E+00
    0.00000E+00         0.00000E+00        -0.49659E+08
 
   -0.49462E+08         0.85066E+06         0.00000E+00
    0.85066E+06        -0.49996E+08         0.00000E+00
    0.00000E+00         0.00000E+00        -0.49659E+08
 
   -0.49465E+08         0.93042E+06         0.00000E+00
    0.93042E+06        -0.49995E+08         0.00000E+00
    0.00000E+00         0.00000E+00        -0.49659E+08
 
   -0.49469E+08         0.10100E+07         0.00000E+00
    0.10100E+07        -0.49994E+08         0.00000E+00
    0.00000E+00         0.00000E+00        -0.49659E+08
 
   -0.49472E+08         0.10893E+07         0.00000E+00
    0.10893E+07        -0.49993E+08         0.00000E+00
    0.00000E+00         0.00000E+00        -0.49659E+08
 
   -0.49476E+08         0.11684E+07         0.00000E+00
    0.11684E+07        -0.49992E+08         0.00000E+00
    0.00000E+00         0.00000E+00        -0.49659E+08
 
   -0.49480E+08         0.12473E+07         0.00000E+00
    0.12473E+07        -0.49991E+08         0.00000E+00
    0.00000E+00         0.00000E+00        -0.49659E+08
 
   -0.49484E+08         0.13260E+07         0.00000E+00
    0.13260E+07        -0.49990E+08         0.00000E+00
    0.00000E+00         0.00000E+00        -0.49659E+08
 
   -0.49488E+08         0.14045E+07         0.00000E+00
    0.14045E+07        -0.49988E+08         0.00000E+00
    0.00000E+00         0.00000E+00        -0.49659E+08
 
   -0.49492E+08         0.14827E+07         0.00000E+00
    0.14827E+07        -0.49987E+08         0.00000E+00
    0.00000E+00         0.00000E+00        -0.49659E+08
 
   -0.49496E+08         0.15607E+07         0.00000E+00
    0.15607E+07        -0.49986E+08         0.00000E+00
    0.00000E+00         0.00000E+00        -0.49659E+08
 
   -0.49500E+08         0.16386E+07         0.00000E+00
    0.16386E+07        -0.49984E+08         0.00000E+00
    0.00000E+00         0.00000E+00        -0.49659E+08
 
   -0.49504E+08         0.17162E+07         0.00000E+00
    0.17162E+07        -0.49983E+08         0.00000E+00
    0.00000E+00         0.00000E+00        -0.49660E+08
 
   -0.49509E+08         0.17936E+07         0.00000E+00
    0.17936E+07        -0.49981E+08         0.00000E+00
    0.00000E+00         0.00000E+00        -0.49660E+08
 
   -0.49513E+08         0.18707E+07         0.00000E+00
    0.18707E+07        -0.49979E+08         0.00000E+00
    0.00000E+00         0.00000E+00        -0.49660E+08
 
   -0.49518E+08         0.19477E+07         0.00000E+00
    0.19477E+07        -0.49978E+08         0.00000E+00
    0.00000E+00         0.00000E+00        -0.49660E+08
 
   -0.49523E+08         0.20244E+07         0.00000E+00
    0.20244E+07        -0.49976E+08         0.00000E+00
    0.00000E+00         0.00000E+00        -0.49660E+08
 
   -0.49527E+08         0.21009E+07         0.00000E+00
    0.21009E+07        -0.49974E+08         0.00000E+00
    0.00000E+00         0.00000E+00        -0.49660E+08
 
   -0.49532E+08         0.21772E+07         0.00000E+00
    0.21772E+07        -0.49972E+08         0.00000E+00
    0.00000E+00         0.00000E+00        -0.49660E+08
 
   -0.49537E+08         0.22533E+07         0.00000E+00
    0.22533E+07        -0.49970E+08         0.00000E+00
    0.00000E+00         0.00000E+00        -0.49660E+08
 
   -0.49542E+08         0.23292E+07         0.00000E+00
    0.23292E+07        -0.49968E+08         0.00000E+00
    0.00000E+00         0.00000E+00        -0.49660E+08
 
   -0.49547E+08         0.24048E+07         0.00000E+00
    0.24048E+07        -0.49966E+08         0.00000E+00
    0.00000E+00         0.00000E+00        -0.49660E+08
 
   -0.49552E+08         0.24802E+07         0.00000E+00
    0.24802E+07        -0.49964E+08         0.00000E+00
    0.00000E+00         0.00000E+00        -0.49660E+08
 
   -0.49558E+08         0.25553E+07         0.00000E+00
    0.25553E+07        -0.49961E+08         0.00000E+00
    0.00000E+00         0.00000E+00        -0.49660E+08
 
   -0.49563E+08         0.26303E+07         0.00000E+00
    0.26303E+07        -0.49959E+08         0.00000E+00
    0.00000E+00         0.00000E+00        -0.49660E+08
 
   -0.49568E+08         0.27050E+07         0.00000E+00
    0.27050E+07        -0.49957E+08         0.00000E+00
    0.00000E+00         0.00000E+00        -0.49661E+08
 
   -0.49574E+08         0.27795E+07         0.00000E+00
    0.27795E+07        -0.49954E+08         0.00000E+00
    0.00000E+00         0.00000E+00        -0.49661E+08
 
   -0.49580E+08         0.28537E+07         0.00000E+00
    0.28537E+07        -0.49952E+08         0.00000E+00
    0.00000E+00         0.00000E+00        -0.49661E+08
 
   -0.49585E+08         0.29277E+07         0.00000E+00
    0.29277E+07        -0.49949E+08         0.00000E+00
    0.00000E+00         0.00000E+00        -0.49661E+08
 
   -0.49591E+08         0.30015E+07         0.00000E+00
    0.30015E+07        -0.49947E+08         0.00000E+00
    0.00000E+00         0.00000E+00        -0.49661E+08
 
   -0.49597E+08         0.30750E+07         0.00000E+00
    0.30750E+07        -0.49944E+08         0.00000E+00
    0.00000E+00         0.00000E+00        -0.49661E+08
 
   -0.49603E+08         0.31483E+07         0.00000E+00
    0.31483E+07        -0.49941E+08         0.00000E+00
    0.00000E+00         0.00000E+00        -0.49661E+08
 
   -0.49608E+08         0.32213E+07         0.00000E+00
    0.32213E+07        -0.49938E+08         0.00000E+00
    0.00000E+00         0.00000E+00        -0.49661E+08
 
   -0.49614E+08         0.32941E+07         0.00000E+00
    0.32941E+07        -0.49936E+08         0.00000E+00
    0.00000E+00         0.00000E+00        -0.49661E+08
 
   -0.49620E+08         0.33666E+07         0.00000E+00
    0.33666E+07        -0.49933E+08         0.00000E+00
    0.00000E+00         0.00000E+00        -0.49661E+08
 
   -0.49627E+08         0.34389E+07         0.00000E+00
    0.34389E+07        -0.49930E+08         0.00000E+00
    0.00000E+00         0.00000E+00        -0.49661E+08
 
   -0.49633E+08         0.35109E+07         0.00000E+00
    0.35109E+07        -0.49927E+08         0.00000E+00
    0.00000E+00         0.00000E+00        -0.49661E+08
 
   -0.49639E+08         0.35827E+07         0.00000E+00
    0.35827E+07        -0.49924E+08         0.00000E+00
    0.00000E+00         0.00000E+00        -0.49661E+08
 
   -0.49645E+08         0.36542E+07         0.00000E+00
    0.36542E+07        -0.49921E+08         0.00000E+00
    0.00000E+00         0.00000E+00        -0.49661E+08
 
   -0.49652E+08         0.37254E+07         0.00000E+00
    0.37254E+07        -0.49918E+08         0.00000E+00
    0.00000E+00         0.00000E+00        -0.49661E+08
 
   -0.49658E+08         0.37964E+07         0.00000E+00
    0.37964E+07        -0.49914E+08         0.00000E+00
    0.00000E+00         0.00000E+00        -0.49661E+08
 
   -0.49023E+08         0.41468E+05         0.00000E+00
    0.41468E+05        -0.50000E+08         0.00000E+00
    0.00000E+00         0.00000E+00        -0.49305E+08
 
   -0.49027E+08         0.12380E+06         0.00000E+00
    0.12380E+06        -0.50000E+08         0.00000E+00
    0.00000E+00         0.00000E+00        -0.49305E+08
 
   -0.49030E+08         0.20591E+06         0.00000E+00
    0.20591E+06        -0.50000E+08         0.00000E+00
    0.00000E+00         0.00000E+00        -0.49305E+08
 
   -0.49034E+08         0.28779E+06         0.00000E+00
    0.28779E+06        -0.49999E+08         0.00000E+00
    0.00000E+00         0.00000E+00        -0.49305E+08
 
   -0.49037E+08         0.36947E+06         0.00000E+00
    0.36947E+06        -0.49999E+08         0.00000E+00
    0.00000E+00         0.00000E+00        -0.49305E+08
 
   -0.49041E+08         0.45092E+06         0.00000E+00
    0.45092E+06        -0.49999E+08         0.00000E+00
    0.00000E+00         0.00000E+00        -0.49305E+08
 
   -0.49045E+08         0.53215E+06         0.00000E+00
    0.53215E+06        -0.49998E+08         0.00000E+00
    0.00000E+00         0.00000E+00        -0.49305E+08
 
   -0.49049E+08         0.61317E+06         0.00000E+00
    0.61317E+06        -0.49998E+08         0.00000E+00
    0.00000E+00         0.00000E+00        -0.49305E+08
 
   -0.49053E+08         0.69397E+06         0.00000E+00
    0.69397E+06        -0.49997E+08         0.00000E+00
    0.00000E+00         0.00000E+00        -0.49305E+08
 
   -0.49057E+08         0.77455E+06         0.00000E+00
    0.77455E+06        -0.49996E+08         0.00000E+00
    0.00000E+00         0.00000E+00        -0.49305E+08
 
   -0.49062E+08         0.85492E+06         0.00000E+00
    0.85492E+06        -0.49995E+08         0.00000E+00
    0.00000E+00         0.00000E+00        -0.49305E+08
 
   -0.49066E+08         0.93507E+06         0.00000E+00
    0.93507E+06        -0.49994E+08         0.00000E+00
    0.00000E+00         0.00000E+00        -0.49305E+08
 
   -0.49071E+08         0.10150E+07         0.00000E+00
    0.10150E+07        -0.49993E+08         0.00000E+00
    0.00000E+00         0.00000E+00        -0.49306E+08
 
   -0.49075E+08         0.10947E+07         0.00000E+00
    0.10947E+07        -0.49992E+08         0.00000E+00
    0.00000E+00         0.00000E+00        -0.49306E+08
 
   -0.49080E+08         0.11742E+07         0.00000E+00
    0.11742E+07        -0.49991E+08         0.00000E+00
    0.00000E+00         0.00000E+00        -0.49306E+08
 
   -0.49085E+08         0.12535E+07         0.00000E+00
    0.12535E+07        -0.49990E+08         0.00000E+00
    0.00000E+00         0.00000E+00        -0.49306E+08
 
   -0.49090E+08         0.13326E+07         0.00000E+00
    0.13326E+07        -0.49988E+08         0.00000E+00
    0.00000E+00         0.00000E+00        -0.49306E+08
 
   -0.49095E+08         0.14114E+07         0.00000E+00
    0.14114E+07        -0.49987E+08         0.00000E+00
    0.00000E+00         0.00000E+00        -0.49306E+08
 
   -0.49100E+08         0.14901E+07         0.00000E+00
    0.14901E+07        -0.49985E+08         0.00000E+00
    0.00000E+00         0.00000E+00        -0.49306E+08
 
   -0.49105E+08         0.15685E+07         0.00000E+00
    0.15685E+07        -0.49984E+08         0.00000E+00
    0.00000E+00         0.00000E+00        -0.49306E+08
 
   -0.49110E+08         0.16467E+07         0.00000E+00
    0.16467E+07        -0.49982E+08         0.00000E+00
    0.00000E+00         0.00000E+00        -0.49306E+08
 
   -0.49116E+08         0.17246E+07         0.00000E+00
    0.17246E+07        -0.49980E+08         0.00000E+00
    0.00000E+00         0.00000E+00        -0.49306E+08
 
   -0.49121E+08         0.18024E+07         0.00000E+00
    0.18024E+07        -0.49978E+08         0.00000E+00
    0.00000E+00         0.00000E+00        -0.49306E+08
 
   -0.49127E+08         0.18799E+07         0.00000E+00
    0.18799E+07        -0.49976E+08         0.00000E+00
    0.00000E+00         0.00000E+00        -0.49306E+08
 
   -0.49133E+08         0.19573E+07         0.00000E+00
    0.19573E+07        -0.49974E+08         0.00000E+00
    0.00000E+00         0.00000E+00        -0.49306E+08
 
   -0.49139E+08         0.20343E+07         0.00000E+00
    0.20343E+07        -0.49972E+08         0.00000E+00
    0.00000E+00         0.00000E+00        -0.49306E+08
 
   -0.49144E+08         0.21112E+07         0.00000E+00
    0.21112E+07        -0.49970E+08         0.00000E+00
    0.00000E+00         0.00000E+00        -0.49306E+08
 
   -0.49150E+08         0.21879E+07         0.00000E+00
    0.21879E+07        -0.49968E+08         0.00000E+00
    0.00000E+00         0.00000E+00        -0.49306E+08
 
   -0.49156E+08         0.22643E+07         0.00000E+00
    0.22643E+07        -0.49966E+08         0.00000E+00
    0.00000E+00         0.00000E+00        -0.49306E+08
 
   -0.49163E+08         0.23405E+07         0.00000E+00
    0.23405E+07        -0.49963E+08         0.00000E+00
    0.00000E+00         0.00000E+00        -0.49306E+08
 
   -0.49169E+08         0.24165E+07         0.00000E+00
    0.24165E+07        -0.49961E+08         0.00000E+00
    0.00000E+00         0.00000E+00        -0.49306E+08
 
   -0.49175E+08         0.24922E+07         0.00000E+00
    0.24922E+07        -0.49958E+08         0.00000E+00
    0.00000E+00         0.00000E+00        -0.49306E+08
 
   -0.49182E+08         0.25677E+07         0.00000E+00
    0.25677E+07        -0.49956E+08         0.00000E+00
    0.00000E+00         0.00000E+00        -0.49307E+08
 
   -0.49188E+08         0.26430E+07         0.00000E+00
    0.26430E+07        -0.49953E+08         0.00000E+00
    0.00000E+00         0.00000E+00        -0.49307E+08
 
   -0.49195E+08         0.27180E+07         0.00000E+00
    0.27180E+07        -0.49950E+08         0.00000E+00
    0.00000E+00         0.00000E+00        -0.49307E+08
 
   -0.49201E+08         0.27928E+07         0.00000E+00
    0.27928E+07        -0.49947E+08         0.00000E+00
    0.00000E+00         0.00000E+00        -0.49307E+08
 
   -0.49208E+08         0.28674E+07         0.00000E+00
    0.28674E+07        -0.49944E+08         0.00000E+00
    0.00000E+00         0.00000E+00        -0.49307E+08
 
   -0.49215E+08         0.29417E+07         0.00000E+00
    0.29417E+07        -0.49941E+08         0.00000E+00
    0.00000E+00         0.00000E+00        -0.49307E+08
 
   -0.49222E+08         0.30158E+07         0.00000E+00
    0.30158E+07        -0.49938E+08         0.00000E+00
    0.00000E+00         0.00000E+00        -0.49307E+08
 
   -0.49229E+08         0.30896E+07         0.00000E+00
    0.30896E+07        -0.49935E+08         0.00000E+00
    0.00000E+00         0.00000E+00        -0.49307E+08
 
   -0.49236E+08         0.31632E+07         0.00000E+00
    0.31632E+07        -0.49932E+08         0.00000E+00
    0.00000E+00         0.00000E+00        -0.49307E+08
 
   -0.49243E+08         0.32366E+07         0.00000E+00
    0.32366E+07        -0.49929E+08         0.00000E+00
    0.00000E+00         0.00000E+00        -0.49307E+08
 
   -0.49250E+08         0.33097E+07         0.00000E+00
    0.33097E+07        -0.49925E+08         0.00000E+00
    0.00000E+00         0.00000E+00        -0.49307E+08
 
   -0.49258E+08         0.33825E+07         0.00000E+00
    0.33825E+07        -0.49922E+08         0.00000E+00
    0.00000E+00         0.00000E+00        -0.49307E+08
 
   -0.49265E+08         0.34551E+07         0.00000E+00
    0.34551E+07        -0.49918E+08         0.00000E+00
    0.00000E+00         0.00000E+00        -0.49307E+08
 
   -0.49273E+08         0.35274E+07         0.00000E+00
    0.35274E+07        -0.49915E+08         0.00000E+00
    0.00000E+00         0.00000E+00        -0.49307E+08
 
   -0.49280E+08         0.35995E+07         0.00000E+00
    0.35995E+07        -0.49911E+08         0.00000E+00
    0.00000E+00         0.00000E+00        -0.49307E+08
 
   -0.49288E+08         0.36713E+07         0.00000E+00
    0.36713E+07        -0.49907E+08         0.00000E+00
    0.00000E+00         0.00000E+00        -0.49307E+08
 
   -0.49295E+08         0.37428E+07         0.00000E+00
    0.37428E+07        -0.49904E+08         0.00000E+00
    0.00000E+00         0.00000E+00        -0.49307E+08
 
   -0.49303E+08         0.38140E+07         0.00000E+00
    0.38140E+07        -0.49900E+08         0.00000E+00
    0.00000E+00         0.00000E+00        -0.49307E+08
 
   -0.48610E+08         0.41701E+05         0.00000E+00
    0.41701E+05        -0.50000E+08         0.00000E+00
    0.00000E+00         0.00000E+00        -0.48950E+08
 
   -0.48615E+08         0.12449E+06         0.00000E+00
    0.12449E+06        -0.50000E+08         0.00000E+00
    0.00000E+00         0.00000E+00        -0.48950E+08
 
   -0.48619E+08         0.20706E+06         0.00000E+00
    0.20706E+06        -0.50000E+08         0.00000E+00
    0.00000E+00         0.00000E+00        -0.48950E+08
 
   -0.48624E+08         0.28941E+06         0.00000E+00
    0.28941E+06        -0.49999E+08         0.00000E+00
    0.00000E+00         0.00000E+00        -0.48950E+08
 
   -0.48629E+08         0.37154E+06         0.00000E+00
    0.37154E+06        -0.49999E+08         0.00000E+00
    0.00000E+00         0.00000E+00        -0.48950E+08
 
   -0.48633E+08         0.45345E+06         0.00000E+00
    0.45345E+06        -0.49999E+08         0.00000E+00
    0.00000E+00         0.00000E+00        -0.48950E+08
 
   -0.48638E+08         0.53513E+06         0.00000E+00
    0.53513E+06        -0.49998E+08         0.00000E+00
    0.00000E+00         0.00000E+00        -0.48950E+08
 
   -0.48643E+08         0.61660E+06         0.00000E+00
    0.61660E+06        -0.49997E+08         0.00000E+00
    0.00000E+00         0.00000E+00        -0.48950E+08
 
   -0.48649E+08         0.69786E+06         0.00000E+00
    0.69786E+06        -0.49996E+08         0.00000E+00
    0.00000E+00         0.00000E+00        -0.48950E+08
 
   -0.48654E+08         0.77889E+06         0.00000E+00
    0.77889E+06        -0.49996E+08         0.00000E+00
    0.00000E+00         0.00000E+00        -0.48950E+08
 
   -0.48659E+08         0.85970E+06         0.00000E+00
    0.85970E+06        -0.49995E+08         0.00000E+00
    0.00000E+00         0.00000E+00        -0.48950E+08
 
   -0.48665E+08         0.94030E+06         0.00000E+00
    0.94030E+06        -0.49994E+08         0.00000E+00
    0.00000E+00         0.00000E+00        -0.48950E+08
 
   -0.48670E+08         0.10207E+07         0.00000E+00
    0.10207E+07        -0.49992E+08         0.00000E+00
    0.00000E+00         0.00000E+00        -0.48950E+08
 
   -0.48676E+08         0.11008E+07         0.00000E+00
    0.11008E+07        -0.49991E+08         0.00000E+00
    0.00000E+00         0.00000E+00        -0.48950E+08
 
   -0.48682E+08         0.11808E+07         0.00000E+00
    0.11808E+07        -0.49990E+08         0.00000E+00
    0.00000E+00         0.00000E+00        -0.48950E+08
 
   -0.48688E+08         0.12605E+07         0.00000E+00
    0.12605E+07        -0.49988E+08         0.00000E+00
    0.00000E+00         0.00000E+00        -0.48950E+08
 
   -0.48694E+08         0.13400E+07         0.00000E+00
    0.13400E+07        -0.49987E+08         0.00000E+00
    0.00000E+00         0.00000E+00        -0.48951E+08
 
   -0.48700E+08         0.14193E+07         0.00000E+00
    0.14193E+07        -0.49985E+08         0.00000E+00
    0.00000E+00         0.00000E+00        -0.48951E+08
 
   -0.48706E+08         0.14984E+07         0.00000E+00
    0.14984E+07        -0.49984E+08         0.00000E+00
    0.00000E+00         0.00000E+00        -0.48951E+08
 
   -0.48713E+08         0.15772E+07         0.00000E+00
    0.15772E+07        -0.49982E+08         0.00000E+00
    0.00000E+00         0.00000E+00        -0.48951E+08
 
   -0.48719E+08         0.16559E+07         0.00000E+00
    0.16559E+07        -0.49980E+08         0.00000E+00
    0.00000E+00         0.00000E+00        -0.48951E+08
 
   -0.48725E+08         0.17343E+07         0.00000E+00
    0.17343E+07        -0.49978E+08         0.00000E+00
    0.00000E+00         0.00000E+00        -0.48951E+08
 
   -0.48732E+08         0.18125E+07         0.00000E+00
    0.18125E+07        -0.49976E+08         0.00000E+00
    0.00000E+00         0.00000E+00        -0.48951E+08
 
   -0.48739E+08         0.18904E+07         0.00000E+00
    0.18904E+07        -0.49974E+08         0.00000E+00
    0.00000E+00         0.00000E+00        -0.48951E+08
 
   -0.48746E+08         0.19682E+07         0.00000E+00
    0.19682E+07        -0.49971E+08         0.00000E+00
    0.00000E+00         0.00000E+00        -0.48951E+08
 
   -0.48753E+08         0.20457E+07         0.00000E+00
    0.20457E+07        -0.49969E+08         0.00000E+00
    0.00000E+00         0.00000E+00        -0.48951E+08
 
   -0.48760E+08         0.21230E+07         0.00000E+00
    0.21230E+07        -0.49966E+08         0.00000E+00
    0.00000E+00         0.00000E+00        -0.48951E+08
 
   -0.48767E+08         0.22001E+07         0.00000E+00
    0.22001E+07        -0.49964E+08         0.00000E+00
    0.00000E+00         0.00000E+00        -0.48951E+08
 
   -0.48774E+08         0.22769E+07         0.00000E+00
    0.22769E+07        -0.49961E+08         0.00000E+00
    0.00000E+00         0.00000E+00        -0.48951E+08
 
   -0.48781E+08         0.23535E+07         0.00000E+00
    0.23535E+07        -0.49959E+08         0.00000E+00
    0.00000E+00         0.00000E+00        -0.48951E+08
 
   -0.48789E+08         0.24299E+07         0.00000E+00
    0.24299E+07        -0.49956E+08         0.00000E+00
    0.00000E+00         0.00000E+00        -0.48951E+08
 
   -0.48796E+08         0.25061E+07         0.00000E+00
    0.25061E+07        -0.49953E+08         0.00000E+00
    0.00000E+00         0.00000E+00        -0.48951E+08
 
   -0.48804E+08         0.25820E+07         0.00000E+00
    0.25820E+07        -0.49950E+08         0.00000E+00
    0.00000E+00         0.00000E+00        -0.48951E+08
 
   -0.48811E+08         0.26577E+07         0.00000E+00
    0.26577E+07        -0.49947E+08         0.00000E+00
    0.00000E+00         0.00000E+00        -0.48951E+08
 
   -0.48819E+08         0.27331E+07         0.00000E+00
    0.27331E+07        -0.49944E+08         0.00000E+00
    0.00000E+00         0.00000E+00        -0.48951E+08
 
   -0.48827E+08         0.28083E+07         0.00000E+00
    0.28083E+07        -0.49940E+08         0.00000E+00
    0.00000E+00         0.00000E+00        -0.48951E+08
 
   -0.48835E+08         0.28833E+07         0.00000E+00
    0.28833E+07        -0.49937E+08         0.00000E+00
    0.00000E+00         0.00000E+00        -0.48951E+08
 
   -0.48843E+08         0.29581E+07         0.00000E+00
    0.29581E+07        -0.49933E+08         0.00000E+00
    0.00000E+00         0.00000E+00        -0.48951E+08
 
   -0.48851E+08         0.30326E+07         0.00000E+00
    0.30326E+07        -0.49930E+08         0.00000E+00
    0.00000E+00         0.00000E+00        -0.48951E+08
 
   -0.48859E+08         0.31068E+07         0.00000E+00
    0.31068E+07        -0.49926E+08         0.00000E+00
    0.00000E+00         0.00000E+00        -0.48951E+08
 
   -0.48868E+08         0.31808E+07         0.00000E+00
    0.31808E+07        -0.49923E+08         0.00000E+00
    0.00000E+00         0.00000E+00        -0.48951E+08
 
   -0.48876E+08         0.32545E+07         0.00000E+00
    0.32545E+07        -0.49919E+08         0.00000E+00
    0.00000E+00         0.00000E+00        -0.48951E+08
 
   -0.48885E+08         0.33280E+07         0.00000E+00
    0.33280E+07        -0.49915E+08         0.00000E+00
    0.00000E+00         0.00000E+00        -0.48951E+08
 
   -0.48893E+08         0.34013E+07         0.00000E+00
    0.34013E+07        -0.49911E+08         0.00000E+00
    0.00000E+00         0.00000E+00        -0.48951E+08
 
   -0.48902E+08         0.34742E+07         0.00000E+00
    0.34742E+07        -0.49907E+08         0.00000E+00
    0.00000E+00         0.00000E+00        -0.48951E+08
 
   -0.48911E+08         0.35470E+07         0.00000E+00
    0.35470E+07        -0.49903E+08         0.00000E+00
    0.00000E+00         0.00000E+00        -0.48951E+08
 
   -0.48919E+08         0.36194E+07         0.00000E+00
    0.36194E+07        -0.49898E+08         0.00000E+00
    0.00000E+00         0.00000E+00        -0.48951E+08
 
   -0.48928E+08         0.36916E+07         0.00000E+00
    0.36916E+07        -0.49894E+08         0.00000E+00
    0.00000E+00         0.00000E+00        -0.48951E+08
 
   -0.48937E+08         0.37635E+07         0.00000E+00
    0.37635E+07        -0.49890E+08         0.00000E+00
    0.00000E+00         0.00000E+00        -0.48951E+08
 
   -0.48947E+08         0.38351E+07         0.00000E+00
    0.38351E+07        -0.49885E+08         0.00000E+00
    0.00000E+00         0.00000E+00        -0.48951E+08
 
   -0.48194E+08         0.41957E+05         0.00000E+00
    0.41957E+05        -0.50000E+08         0.00000E+00
    0.00000E+00         0.00000E+00        -0.48593E+08
 
   -0.48200E+08         0.12526E+06         0.00000E+00
    0.12526E+06        -0.50000E+08         0.00000E+00
    0.00000E+00         0.00000E+00        -0.48593E+08
 
   -0.48206E+08         0.20834E+06         0.00000E+00
    0.20834E+06        -0.50000E+08         0.00000E+00
    0.00000E+00         0.00000E+00        -0.48593E+08
 
   -0.48211E+08         0.29119E+06         0.00000E+00
    0.29119E+06        -0.49999E+08         0.00000E+00
    0.00000E+00         0.00000E+00        -0.48593E+08
 
   -0.48217E+08         0.37383E+06         0.00000E+00
    0.37383E+06        -0.49999E+08         0.00000E+00
    0.00000E+00         0.00000E+00        -0.48593E+08
 
   -0.48223E+08         0.45624E+06         0.00000E+00
    0.45624E+06        -0.49998E+08         0.00000E+00
    0.00000E+00         0.00000E+00        -0.48593E+08
 
   -0.48229E+08         0.53844E+06         0.00000E+00
    0.53844E+06        -0.49998E+08         0.00000E+00
    0.00000E+00         0.00000E+00        -0.48593E+08
 
   -0.48235E+08         0.62041E+06         0.00000E+00
    0.62041E+06        -0.49997E+08         0.00000E+00
    0.00000E+00         0.00000E+00        -0.48593E+08
 
   -0.48242E+08         0.70217E+06         0.00000E+00
    0.70217E+06        -0.49996E+08         0.00000E+00
    0.00000E+00         0.00000E+00        -0.48593E+08
 
   -0.48248E+08         0.78370E+06         0.00000E+00
    0.78370E+06        -0.49995E+08         0.00000E+00
    0.00000E+00         0.00000E+00        -0.48593E+08
 
   -0.48255E+08         0.86502E+06         0.00000E+00
    0.86502E+06        -0.49994E+08         0.00000E+00
    0.00000E+00         0.00000E+00        -0.48593E+08
 
   -0.48261E+08         0.94612E+06         0.00000E+00
    0.94612E+06        -0.49993E+08         0.00000E+00
    0.00000E+00         0.00000E+00        -0.48593E+08
 
   -0.48268E+08         0.10270E+07         0.00000E+00
    0.10270E+07        -0.49992E+08         0.00000E+00
    0.00000E+00         0.00000E+00        -0.48593E+08
 
   -0.48275E+08         0.11077E+07         0.00000E+00
    0.11077E+07        -0.49990E+08         0.00000E+00
    0.00000E+00         0.00000E+00        -0.48593E+08
 
   -0.48282E+08         0.11881E+07         0.00000E+00
    0.11881E+07        -0.49989E+08         0.00000E+00
    0.00000E+00         0.00000E+00        -0.48593E+08
 
   -0.48289E+08         0.12683E+07         0.00000E+00
    0.12683E+07        -0.49987E+08         0.00000E+00
    0.00000E+00         0.00000E+00        -0.48593E+08
 
   -0.48296E+08         0.13483E+07         0.00000E+00
    0.13483E+07        -0.49986E+08         0.00000E+00
    0.00000E+00         0.00000E+00        -0.48593E+08
 
   -0.48303E+08         0.14281E+07         0.00000E+00
    0.14281E+07        -0.49984E+08         0.00000E+00
    0.00000E+00         0.00000E+00        -0.48593E+08
 
   -0.48310E+08         0.15077E+07         0.00000E+00
    0.15077E+07        -0.49982E+08         0.00000E+00
    0.00000E+00         0.00000E+00        -0.48593E+08
 
   -0.48318E+08         0.15870E+07         0.00000E+00
    0.15870E+07        -0.49980E+08         0.00000E+00
    0.00000E+00         0.00000E+00        -0.48593E+08
 
   -0.48325E+08         0.16662E+07         0.00000E+00
    0.16662E+07        -0.49978E+08         0.00000E+00
    0.00000E+00         0.00000E+00        -0.48593E+08
 
   -0.48333E+08         0.17451E+07         0.00000E+00
    0.17451E+07        -0.49975E+08         0.00000E+00
    0.00000E+00         0.00000E+00        -0.48593E+08
 
   -0.48340E+08         0.18237E+07         0.00000E+00
    0.18237E+07        -0.49973E+08         0.00000E+00
    0.00000E+00         0.00000E+00        -0.48593E+08
 
   -0.48348E+08         0.19022E+07         0.00000E+00
    0.19022E+07        -0.49971E+08         0.00000E+00
    0.00000E+00         0.00000E+00        -0.48593E+08
 
   -0.48356E+08         0.19804E+07         0.00000E+00
    0.19804E+07        -0.49968E+08         0.00000E+00
    0.00000E+00         0.00000E+00        -0.48593E+08
 
   -0.48364E+08         0.20585E+07         0.00000E+00
    0.20585E+07        -0.49966E+08         0.00000E+00
    0.00000E+00         0.00000E+00        -0.48593E+08
 
   -0.48372E+08         0.21363E+07         0.00000E+00
    0.21363E+07        -0.49963E+08         0.00000E+00
    0.00000E+00         0.00000E+00        -0.48593E+08
 
   -0.48381E+08         0.22138E+07         0.00000E+00
    0.22138E+07        -0.49960E+08         0.00000E+00
    0.00000E+00         0.00000E+00        -0.48593E+08
 
   -0.48389E+08         0.22912E+07         0.00000E+00
    0.22912E+07        -0.49957E+08         0.00000E+00
    0.00000E+00         0.00000E+00        -0.48593E+08
 
   -0.48397E+08         0.23683E+07         0.00000E+00
    0.23683E+07        -0.49954E+08         0.00000E+00
    0.00000E+00         0.00000E+00        -0.48593E+08
 
   -0.48406E+08         0.24451E+07         0.00000E+00
    0.24451E+07        -0.49951E+08         0.00000E+00
    0.00000E+00         0.00000E+00        -0.48593E+08
 
   -0.48415E+08         0.25218E+07         0.00000E+00
    0.25218E+07        -0.49947E+08         0.00000E+00
    0.00000E+00         0.00000E+00        -0.48593E+08
 
   -0.48423E+08         0.25982E+07         0.00000E+00
    0.25982E+07        -0.49944E+08         0.00000E+00
    0.00000E+00         0.00000E+00        -0.48593E+08
 
   -0.48432E+08         0.26744E+07         0.00000E+00
    0.26744E+07        -0.49941E+08         0.00000E+00
    0.00000E+00         0.00000E+00        -0.48593E+08
 
   -0.48441E+08         0.27503E+07         0.00000E+00
    0.27503E+07        -0.49937E+08         0.00000E+00
    0.00000E+00         0.00000E+00        -0.48593E+08
 
   -0.48450E+08         0.28260E+07         0.00000E+00
    0.28260E+07        -0.49933E+08         0.00000E+00
    0.00000E+00         0.00000E+00        -0.48593E+08
 
   -0.48459E+08         0.29015E+07         0.00000E+00
    0.29015E+07        -0.49929E+08         0.00000E+00
    0.00000E+00         0.00000E+00        -0.48593E+08
 
   -0.48469E+08         0.29767E+07         0.00000E+00
    0.29767E+07        -0.49926E+08         0.00000E+00
    0.00000E+00         0.00000E+00        -0.48593E+08
 
   -0.48478E+08         0.30517E+07         0.00000E+00
    0.30517E+07        -0.49922E+08         0.00000E+00
    0.00000E+00         0.00000E+00        -0.48593E+08
 
   -0.48487E+08         0.31265E+07         0.00000E+00
    0.31265E+07        -0.49917E+08         0.00000E+00
    0.00000E+00         0.00000E+00        -0.48593E+08
 
   -0.48497E+08         0.32009E+07         0.00000E+00
    0.32009E+07        -0.49913E+08         0.00000E+00
    0.00000E+00         0.00000E+00        -0.48593E+08
 
   -0.48507E+08         0.32752E+07         0.00000E+00
    0.32752E+07        -0.49909E+08         0.00000E+00
    0.00000E+00         0.00000E+00        -0.48593E+08
 
   -0.48517E+08         0.33492E+07         0.00000E+00
    0.33492E+07        -0.49904E+08         0.00000E+00
    0.00000E+00         0.00000E+00        -0.48593E+08
 
   -0.48526E+08         0.34229E+07         0.00000E+00
    0.34229E+07        -0.49900E+08         0.00000E+00
    0.00000E+00         0.00000E+00        -0.48593E+08
 
   -0.48536E+08         0.34963E+07         0.00000E+00
    0.34963E+07        -0.49895E+08         0.00000E+00
    0.00000E+00         0.00000E+00        -0.48593E+08
 
   -0.48546E+08         0.35696E+07         0.00000E+00
    0.35696E+07        -0.49890E+08         0.00000E+00
    0.00000E+00         0.00000E+00        -0.48593E+08
 
   -0.48557E+08         0.36425E+07         0.00000E+00
    0.36425E+07        -0.49885E+08         0.00000E+00
    0.00000E+00         0.00000E+00        -0.48593E+08
 
   -0.48567E+08         0.37152E+07         0.00000E+00
    0.37152E+07        -0.49881E+08         0.00000E+00
    0.00000E+00         0.00000E+00        -0.48593E+08
 
   -0.48577E+08         0.37876E+07         0.00000E+00
    0.37876E+07        -0.49875E+08         0.00000E+00
    0.00000E+00         0.00000E+00        -0.48593E+08
 
   -0.48588E+08         0.38597E+07         0.00000E+00
    0.38597E+07        -0.49870E+08         0.00000E+00
    0.00000E+00         0.00000E+00        -0.48593E+08
 
   -0.47776E+08         0.42238E+05         0.00000E+00
    0.42238E+05        -0.50000E+08         0.00000E+00
    0.00000E+00         0.00000E+00        -0.48233E+08
 
   -0.47783E+08         0.12610E+06         0.00000E+00
    0.12610E+06        -0.50000E+08         0.00000E+00
    0.00000E+00         0.00000E+00        -0.48233E+08
 
   -0.47789E+08         0.20973E+06         0.00000E+00
    0.20973E+06        -0.50000E+08         0.00000E+00
    0.00000E+00         0.00000E+00        -0.48233E+08
 
   -0.47796E+08         0.29315E+06         0.00000E+00
    0.29315E+06        -0.49999E+08         0.00000E+00
    0.00000E+00         0.00000E+00        -0.48233E+08
 
   -0.47803E+08         0.37634E+06         0.00000E+00
    0.37634E+06        -0.49999E+08         0.00000E+00
    0.00000E+00         0.00000E+00        -0.48233E+08
 
   -0.47810E+08         0.45931E+06         0.00000E+00
    0.45931E+06        -0.49998E+08         0.00000E+00
    0.00000E+00         0.00000E+00        -0.48233E+08
 
   -0.47817E+08         0.54206E+06         0.00000E+00
    0.54206E+06        -0.49998E+08         0.00000E+00
    0.00000E+00         0.00000E+00        -0.48233E+08
 
   -0.47825E+08         0.62459E+06         0.00000E+00
    0.62459E+06        -0.49997E+08         0.00000E+00
    0.00000E+00         0.00000E+00        -0.48233E+08
 
   -0.47832E+08         0.70690E+06         0.00000E+00
    0.70690E+06        -0.49996E+08         0.00000E+00
    0.00000E+00         0.00000E+00        -0.48233E+08
 
   -0.47840E+08         0.78899E+06         0.00000E+00
    0.78899E+06        -0.49995E+08         0.00000E+00
    0.00000E+00         0.00000E+00        -0.48233E+08
 
   -0.47847E+08         0.87086E+06         0.00000E+00
    0.87086E+06        -0.49994E+08         0.00000E+00
    0.00000E+00         0.00000E+00        -0.48233E+08
 
   -0.47855E+08         0.95251E+06         0.00000E+00
    0.95251E+06        -0.49992E+08         0.00000E+00
    0.00000E+00         0.00000E+00        -0.48233E+08
 
   -0.47863E+08         0.10339E+07         0.00000E+00
    0.10339E+07        -0.49991E+08         0.00000E+00
    0.00000E+00         0.00000E+00        -0.48233E+08
 
   -0.47870E+08         0.11152E+07         0.00000E+00
    0.11152E+07        -0.49989E+08         0.00000E+00
    0.00000E+00         0.00000E+00        -0.48233E+08
 
   -0.47878E+08         0.11962E+07         0.00000E+00
    0.11962E+07        -0.49988E+08         0.00000E+00
    0.00000E+00         0.00000E+00        -0.48233E+08
 
   -0.47887E+08         0.12769E+07         0.00000E+00
    0.12769E+07        -0.49986E+08         0.00000E+00
    0.00000E+00         0.00000E+00        -0.48233E+08
 
   -0.47895E+08         0.13575E+07         0.00000E+00
    0.13575E+07        -0.49984E+08         0.00000E+00
    0.00000E+00         0.00000E+00        -0.48233E+08
 
   -0.47903E+08         0.14378E+07         0.00000E+00
    0.14378E+07        -0.49982E+08         0.00000E+00
    0.00000E+00         0.00000E+00        -0.48233E+08
 
   -0.47912E+08         0.15180E+07         0.00000E+00
    0.15180E+07        -0.49980E+08         0.00000E+00
    0.00000E+00         0.00000E+00        -0.48233E+08
 
   -0.47920E+08         0.15979E+07         0.00000E+00
    0.15979E+07        -0.49978E+08         0.00000E+00
    0.00000E+00         0.00000E+00        -0.48233E+08
 
   -0.47929E+08         0.16776E+07         0.00000E+00
    0.16776E+07        -0.49976E+08         0.00000E+00
    0.00000E+00         0.00000E+00        -0.48233E+08
 
   -0.47937E+08         0.17570E+07         0.00000E+00
    0.17570E+07        -0.49973E+08         0.00000E+00
    0.00000E+00         0.00000E+00        -0.48233E+08
 
   -0.47946E+08         0.18363E+07         0.00000E+00
    0.18363E+07        -0.49971E+08         0.00000E+00
    0.00000E+00         0.00000E+00        -0.48233E+08
 
   -0.47955E+08         0.19153E+07         0.00000E+00
    0.19153E+07        -0.49968E+08         0.00000E+00
    0.00000E+00         0.00000E+00        -0.48233E+08
 
   -0.47964E+08         0.19941E+07         0.00000E+00
    0.19941E+07        -0.49965E+08         0.00000E+00
    0.00000E+00         0.00000E+00        -0.48233E+08
 
   -0.47973E+08         0.20727E+07         0.00000E+00
    0.20727E+07        -0.49962E+08         0.00000E+00
    0.00000E+00         0.00000E+00        -0.48233E+08
 
   -0.47983E+08         0.21510E+07         0.00000E+00
    0.21510E+07        -0.49959E+08         0.00000E+00
    0.00000E+00         0.00000E+00        -0.48233E+08
 
   -0.47992E+08         0.22291E+07         0.00000E+00
    0.22291E+07        -0.49956E+08         0.00000E+00
    0.00000E+00         0.00000E+00        -0.48233E+08
 
   -0.48001E+08         0.23070E+07         0.00000E+00
    0.23070E+07        -0.49953E+08         0.00000E+00
    0.00000E+00         0.00000E+00        -0.48233E+08
 
   -0.48011E+08         0.23847E+07         0.00000E+00
    0.23847E+07        -0.49949E+08         0.00000E+00
    0.00000E+00         0.00000E+00        -0.48233E+08
 
   -0.48021E+08         0.24622E+07         0.00000E+00
    0.24622E+07        -0.49946E+08         0.00000E+00
    0.00000E+00         0.00000E+00        -0.48233E+08
 
   -0.48031E+08         0.25394E+07         0.00000E+00
    0.25394E+07        -0.49942E+08         0.00000E+00
    0.00000E+00         0.00000E+00        -0.48233E+08
 
   -0.48040E+08         0.26164E+07         0.00000E+00
    0.26164E+07        -0.49938E+08         0.00000E+00
    0.00000E+00         0.00000E+00        -0.48233E+08
 
   -0.48050E+08         0.26931E+07         0.00000E+00
    0.26931E+07        -0.49934E+08         0.00000E+00
    0.00000E+00         0.00000E+00        -0.48233E+08
 
   -0.48061E+08         0.27696E+07         0.00000E+00
    0.27696E+07        -0.49930E+08         0.00000E+00
    0.00000E+00         0.00000E+00        -0.48233E+08
 
   -0.48071E+08         0.28459E+07         0.00000E+00
    0.28459E+07        -0.49926E+08         0.00000E+00
    0.00000E+00         0.00000E+00        -0.48233E+08
 
   -0.48081E+08         0.29219E+07         0.00000E+00
    0.29219E+07        -0.49922E+08         0.00000E+00
    0.00000E+00         0.00000E+00        -0.48233E+08
 
   -0.48092E+08         0.29977E+07         0.00000E+00
    0.29977E+07        -0.49918E+08         0.00000E+00
    0.00000E+00         0.00000E+00        -0.48233E+08
 
   -0.48102E+08         0.30733E+07         0.00000E+00
    0.30733E+07        -0.49913E+08         0.00000E+00
    0.00000E+00         0.00000E+00        -0.48233E+08
 
   -0.48113E+08         0.31486E+07         0.00000E+00
    0.31486E+07        -0.49909E+08         0.00000E+00
    0.00000E+00         0.00000E+00        -0.48233E+08
 
   -0.48124E+08         0.32237E+07         0.00000E+00
    0.32237E+07        -0.49904E+08         0.00000E+00
    0.00000E+00         0.00000E+00        -0.48233E+08
 
   -0.48135E+08         0.32985E+07         0.00000E+00
    0.32985E+07        -0.49899E+08         0.00000E+00
    0.00000E+00         0.00000E+00        -0.48233E+08
 
   -0.48146E+08         0.33731E+07         0.00000E+00
    0.33731E+07        -0.49894E+08         0.00000E+00
    0.00000E+00         0.00000E+00        -0.48233E+08
 
   -0.48157E+08         0.34474E+07         0.00000E+00
    0.34474E+07        -0.49889E+08         0.00000E+00
    0.00000E+00         0.00000E+00        -0.48233E+08
 
   -0.48168E+08         0.35214E+07         0.00000E+00
    0.35214E+07        -0.49884E+08         0.00000E+00
    0.00000E+00         0.00000E+00        -0.48233E+08
 
   -0.48180E+08         0.35952E+07         0.00000E+00
    0.35952E+07        -0.49878E+08         0.00000E+00
    0.00000E+00         0.00000E+00        -0.48232E+08
 
   -0.48191E+08         0.36687E+07         0.00000E+00
    0.36687E+07        -0.49873E+08         0.00000E+00
    0.00000E+00         0.00000E+00        -0.48232E+08
 
   -0.48203E+08         0.37420E+07         0.00000E+00
    0.37420E+07        -0.49867E+08         0.00000E+00
    0.00000E+00         0.00000E+00        -0.48232E+08
 
   -0.48215E+08         0.38150E+07         0.00000E+00
    0.38150E+07        -0.49861E+08         0.00000E+00
    0.00000E+00         0.00000E+00        -0.48232E+08
 
   -0.48226E+08         0.38877E+07         0.00000E+00
    0.38877E+07        -0.49855E+08         0.00000E+00
    0.00000E+00         0.00000E+00        -0.48232E+08
 
   -0.47355E+08         0.42541E+05         0.00000E+00
    0.42541E+05        -0.50000E+08         0.00000E+00
    0.00000E+00         0.00000E+00        -0.47870E+08
 
   -0.47362E+08         0.12701E+06         0.00000E+00
    0.12701E+06        -0.50000E+08         0.00000E+00
    0.00000E+00         0.00000E+00        -0.47870E+08
 
   -0.47370E+08         0.21125E+06         0.00000E+00
    0.21125E+06        -0.50000E+08         0.00000E+00
    0.00000E+00         0.00000E+00        -0.47870E+08
 
   -0.47378E+08         0.29527E+06         0.00000E+00
    0.29527E+06        -0.49999E+08         0.00000E+00
    0.00000E+00         0.00000E+00        -0.47870E+08
 
   -0.47386E+08         0.37906E+06         0.00000E+00
    0.37906E+06        -0.49999E+08         0.00000E+00
    0.00000E+00         0.00000E+00        -0.47870E+08
 
   -0.47394E+08         0.46264E+06         0.00000E+00
    0.46264E+06        -0.49998E+08         0.00000E+00
    0.00000E+00         0.00000E+00        -0.47870E+08
 
   -0.47403E+08         0.54599E+06         0.00000E+00
    0.54599E+06        -0.49997E+08         0.00000E+00
    0.00000E+00         0.00000E+00        -0.47870E+08
 
   -0.47411E+08         0.62913E+06         0.00000E+00
    0.62913E+06        -0.49996E+08         0.00000E+00
    0.00000E+00         0.00000E+00        -0.47870E+08
 
   -0.47420E+08         0.71205E+06         0.00000E+00
    0.71205E+06        -0.49995E+08         0.00000E+00
    0.00000E+00         0.00000E+00        -0.47870E+08
 
   -0.47428E+08         0.79474E+06         0.00000E+00
    0.79474E+06        -0.49994E+08         0.00000E+00
    0.00000E+00         0.00000E+00        -0.47870E+08
 
   -0.47437E+08         0.87722E+06         0.00000E+00
    0.87722E+06        -0.49993E+08         0.00000E+00
    0.00000E+00         0.00000E+00        -0.47870E+08
 
   -0.47446E+08         0.95948E+06         0.00000E+00
    0.95948E+06        -0.49992E+08         0.00000E+00
    0.00000E+00         0.00000E+00        -0.47870E+08
 
   -0.47454E+08         0.10415E+07         0.00000E+00
    0.10415E+07        -0.49990E+08         0.00000E+00
    0.00000E+00         0.00000E+00        -0.47870E+08
 
   -0.47463E+08         0.11234E+07         0.00000E+00
    0.11234E+07        -0.49989E+08         0.00000E+00
    0.00000E+00         0.00000E+00        -0.47870E+08
 
   -0.47473E+08         0.12050E+07         0.00000E+00
    0.12050E+07        -0.49987E+08         0.00000E+00
    0.00000E+00         0.00000E+00        -0.47870E+08
 
   -0.47482E+08         0.12864E+07         0.00000E+00
    0.12864E+07        -0.49985E+08         0.00000E+00
    0.00000E+00         0.00000E+00        -0.47870E+08
 
   -0.47491E+08         0.13675E+07         0.00000E+00
    0.13675E+07        -0.49983E+08         0.00000E+00
    0.00000E+00         0.00000E+00        -0.47870E+08
 
   -0.47500E+08         0.14485E+07         0.00000E+00
    0.14485E+07        -0.49981E+08         0.00000E+00
    0.00000E+00         0.00000E+00        -0.47870E+08
 
   -0.47510E+08         0.15292E+07         0.00000E+00
    0.15292E+07        -0.49978E+08         0.00000E+00
    0.00000E+00         0.00000E+00        -0.47870E+08
 
   -0.47520E+08         0.16097E+07         0.00000E+00
    0.16097E+07        -0.49976E+08         0.00000E+00
    0.00000E+00         0.00000E+00        -0.47870E+08
 
   -0.47529E+08         0.16900E+07         0.00000E+00
    0.16900E+07        -0.49973E+08         0.00000E+00
    0.00000E+00         0.00000E+00        -0.47870E+08
 
   -0.47539E+08         0.17701E+07         0.00000E+00
    0.17701E+07        -0.49971E+08         0.00000E+00
    0.00000E+00         0.00000E+00        -0.47870E+08
 
   -0.47549E+08         0.18500E+07         0.00000E+00
    0.18500E+07        -0.49968E+08         0.00000E+00
    0.00000E+00         0.00000E+00        -0.47870E+08
 
   -0.47559E+08         0.19296E+07         0.00000E+00
    0.19296E+07        -0.49965E+08         0.00000E+00
    0.00000E+00         0.00000E+00        -0.47870E+08
 
   -0.47569E+08         0.20091E+07         0.00000E+00
    0.20091E+07        -0.49962E+08         0.00000E+00
    0.00000E+00         0.00000E+00        -0.47870E+08
 
   -0.47579E+08         0.20883E+07         0.00000E+00
    0.20883E+07        -0.49959E+08         0.00000E+00
    0.00000E+00         0.00000E+00        -0.47869E+08
 
   -0.47590E+08         0.21673E+07         0.00000E+00
    0.21673E+07        -0.49955E+08         0.00000E+00
    0.00000E+00         0.00000E+00        -0.47869E+08
 
   -0.47600E+08         0.22460E+07         0.00000E+00
    0.22460E+07        -0.49952E+08         0.00000E+00
    0.00000E+00         0.00000E+00        -0.47869E+08
 
   -0.47611E+08         0.23245E+07         0.00000E+00
    0.23245E+07        -0.49948E+08         0.00000E+00
    0.00000E+00         0.00000E+00        -0.47869E+08
 
   -0.47622E+08         0.24029E+07         0.00000E+00
    0.24029E+07        -0.49945E+08         0.00000E+00
    0.00000E+00         0.00000E+00        -0.47869E+08
 
   -0.47632E+08         0.24809E+07         0.00000E+00
    0.24809E+07        -0.49941E+08         0.00000E+00
    0.00000E+00         0.00000E+00        -0.47869E+08
 
   -0.47643E+08         0.25588E+07         0.00000E+00
    0.25588E+07        -0.49937E+08         0.00000E+00
    0.00000E+00         0.00000E+00        -0.47869E+08
 
   -0.47655E+08         0.26364E+07         0.00000E+00
    0.26364E+07        -0.49933E+08         0.00000E+00
    0.00000E+00         0.00000E+00        -0.47869E+08
 
   -0.47666E+08         0.27138E+07         0.00000E+00
    0.27138E+07        -0.49928E+08         0.00000E+00
    0.00000E+00         0.00000E+00        -0.47869E+08
 
   -0.47677E+08         0.27910E+07         0.00000E+00
    0.27910E+07        -0.49924E+08         0.00000E+00
    0.00000E+00         0.00000E+00        -0.47869E+08
 
   -0.47688E+08         0.28679E+07         0.00000E+00
    0.28679E+07        -0.49919E+08         0.00000E+00
    0.00000E+00         0.00000E+00        -0.47869E+08
 
   -0.47700E+08         0.29446E+07         0.00000E+00
    0.29446E+07        -0.49915E+08         0.00000E+00
    0.00000E+00         0.00000E+00        -0.47869E+08
 
   -0.47712E+08         0.30211E+07         0.00000E+00
    0.30211E+07        -0.49910E+08         0.00000E+00
    0.00000E+00         0.00000E+00        -0.47869E+08
 
   -0.47723E+08         0.30973E+07         0.00000E+00
    0.30973E+07        -0.49905E+08         0.00000E+00
    0.00000E+00         0.00000E+00        -0.47869E+08
 
   -0.47735E+08         0.31733E+07         0.00000E+00
    0.31733E+07        -0.49900E+08         0.00000E+00
    0.00000E+00         0.00000E+00        -0.47869E+08
 
   -0.47747E+08         0.32490E+07         0.00000E+00
    0.32490E+07        -0.49895E+08         0.00000E+00
    0.00000E+00         0.00000E+00        -0.47869E+08
 
   -0.47760E+08         0.33245E+07         0.00000E+00
    0.33245E+07        -0.49889E+08         0.00000E+00
    0.00000E+00         0.00000E+00        -0.47869E+08
 
   -0.47772E+08         0.33997E+07         0.00000E+00
    0.33997E+07        -0.49884E+08         0.00000E+00
    0.00000E+00         0.00000E+00        -0.47869E+08
 
   -0.47784E+08         0.34747E+07         0.00000E+00
    0.34747E+07        -0.49878E+08         0.00000E+00
    0.00000E+00         0.00000E+00        -0.47869E+08
 
   -0.47797E+08         0.35494E+07         0.00000E+00
    0.35494E+07        -0.49872E+08         0.00000E+00
    0.00000E+00         0.00000E+00        -0.47869E+08
 
   -0.47810E+08         0.36239E+07         0.00000E+00
    0.36239E+07        -0.49866E+08         0.00000E+00
    0.00000E+00         0.00000E+00        -0.47869E+08
 
   -0.47823E+08         0.36981E+07         0.00000E+00
    0.36981E+07        -0.49860E+08         0.00000E+00
    0.00000E+00         0.00000E+00        -0.47869E+08
 
   -0.47836E+08         0.37720E+07         0.00000E+00
    0.37720E+07        -0.49854E+08         0.00000E+00
    0.00000E+00         0.00000E+00        -0.47869E+08
 
   -0.47849E+08         0.38457E+07         0.00000E+00
    0.38457E+07        -0.49847E+08         0.00000E+00
    0.00000E+00         0.00000E+00        -0.47869E+08
 
   -0.47862E+08         0.39191E+07         0.00000E+00
    0.39191E+07        -0.49841E+08         0.00000E+00
    0.00000E+00         0.00000E+00        -0.47869E+08
 
   -0.46930E+08         0.42867E+05         0.00000E+00
    0.42867E+05        -0.50000E+08         0.00000E+00
    0.00000E+00         0.00000E+00        -0.47504E+08
 
   -0.46939E+08         0.12798E+06         0.00000E+00
    0.12798E+06        -0.50000E+08         0.00000E+00
    0.00000E+00         0.00000E+00        -0.47504E+08
 
   -0.46948E+08         0.21288E+06         0.00000E+00
    0.21288E+06        -0.50000E+08         0.00000E+00
    0.00000E+00         0.00000E+00        -0.47504E+08
 
   -0.46957E+08         0.29755E+06         0.00000E+00
    0.29755E+06        -0.49999E+08         0.00000E+00
    0.00000E+00         0.00000E+00        -0.47504E+08
 
   -0.46966E+08         0.38200E+06         0.00000E+00
    0.38200E+06        -0.49999E+08         0.00000E+00
    0.00000E+00         0.00000E+00        -0.47504E+08
 
   -0.46975E+08         0.46623E+06         0.00000E+00
    0.46623E+06        -0.49998E+08         0.00000E+00
    0.00000E+00         0.00000E+00        -0.47504E+08
 
   -0.46985E+08         0.55024E+06         0.00000E+00
    0.55024E+06        -0.49997E+08         0.00000E+00
    0.00000E+00         0.00000E+00        -0.47504E+08
 
   -0.46994E+08         0.63403E+06         0.00000E+00
    0.63403E+06        -0.49996E+08         0.00000E+00
    0.00000E+00         0.00000E+00        -0.47503E+08
 
   -0.47004E+08         0.71760E+06         0.00000E+00
    0.71760E+06        -0.49995E+08         0.00000E+00
    0.00000E+00         0.00000E+00        -0.47503E+08
 
   -0.47014E+08         0.80095E+06         0.00000E+00
    0.80095E+06        -0.49994E+08         0.00000E+00
    0.00000E+00         0.00000E+00        -0.47503E+08
 
   -0.47023E+08         0.88409E+06         0.00000E+00
    0.88409E+06        -0.49993E+08         0.00000E+00
    0.00000E+00         0.00000E+00        -0.47503E+08
 
   -0.47033E+08         0.96701E+06         0.00000E+00
    0.96701E+06        -0.49991E+08         0.00000E+00
    0.00000E+00         0.00000E+00        -0.47503E+08
 
   -0.47043E+08         0.10497E+07         0.00000E+00
    0.10497E+07        -0.49989E+08         0.00000E+00
    0.00000E+00         0.00000E+00        -0.47503E+08
 
   -0.47053E+08         0.11322E+07         0.00000E+00
    0.11322E+07        -0.49988E+08         0.00000E+00
    0.00000E+00         0.00000E+00        -0.47503E+08
 
   -0.47063E+08         0.12145E+07         0.00000E+00
    0.12145E+07        -0.49986E+08         0.00000E+00
    0.00000E+00         0.00000E+00        -0.47503E+08
 
   -0.47074E+08         0.12965E+07         0.00000E+00
    0.12965E+07        -0.49984E+08         0.00000E+00
    0.00000E+00         0.00000E+00        -0.47503E+08
 
   -0.47084E+08         0.13784E+07         0.00000E+00
    0.13784E+07        -0.49982E+08         0.00000E+00
    0.00000E+00         0.00000E+00        -0.47503E+08
 
   -0.47094E+08         0.14600E+07         0.00000E+00
    0.14600E+07        -0.49979E+08         0.00000E+00
    0.00000E+00         0.00000E+00        -0.47503E+08
 
   -0.47105E+08         0.15414E+07         0.00000E+00
    0.15414E+07        -0.49977E+08         0.00000E+00
    0.00000E+00         0.00000E+00        -0.47503E+08
 
   -0.47116E+08         0.16226E+07         0.00000E+00
    0.16226E+07        -0.49974E+08         0.00000E+00
    0.00000E+00         0.00000E+00        -0.47503E+08
 
   -0.47127E+08         0.17036E+07         0.00000E+00
    0.17036E+07        -0.49971E+08         0.00000E+00
    0.00000E+00         0.00000E+00        -0.47503E+08
 
   -0.47137E+08         0.17844E+07         0.00000E+00
    0.17844E+07        -0.49968E+08         0.00000E+00
    0.00000E+00         0.00000E+00        -0.47503E+08
 
   -0.47149E+08         0.18649E+07         0.00000E+00
    0.18649E+07        -0.49965E+08         0.00000E+00
    0.00000E+00         0.00000E+00        -0.47503E+08
 
   -0.47160E+08         0.19453E+07         0.00000E+00
    0.19453E+07        -0.49962E+08         0.00000E+00
    0.00000E+00         0.00000E+00        -0.47502E+08
 
   -0.47171E+08         0.20254E+07         0.00000E+00
    0.20254E+07        -0.49959E+08         0.00000E+00
    0.00000E+00         0.00000E+00        -0.47502E+08
 
   -0.47182E+08         0.21053E+07         0.00000E+00
    0.21053E+07        -0.49956E+08         0.00000E+00
    0.00000E+00         0.00000E+00        -0.47502E+08
 
   -0.47194E+08         0.21849E+07         0.00000E+00
    0.21849E+07        -0.49952E+08         0.00000E+00
    0.00000E+00         0.00000E+00        -0.47502E+08
 
   -0.47205E+08         0.22644E+07         0.00000E+00
    0.22644E+07        -0.49948E+08         0.00000E+00
    0.00000E+00         0.00000E+00        -0.47502E+08
 
   -0.47217E+08         0.23436E+07         0.00000E+00
    0.23436E+07        -0.49944E+08         0.00000E+00
    0.00000E+00         0.00000E+00        -0.47502E+08
 
   -0.47229E+08         0.24227E+07         0.00000E+00
    0.24227E+07        -0.49940E+08         0.00000E+00
    0.00000E+00         0.00000E+00        -0.47502E+08
 
   -0.47241E+08         0.25015E+07         0.00000E+00
    0.25015E+07        -0.49936E+08         0.00000E+00
    0.00000E+00         0.00000E+00        -0.47502E+08
 
   -0.47253E+08         0.25800E+07         0.00000E+00
    0.25800E+07        -0.49932E+08         0.00000E+00
    0.00000E+00         0.00000E+00        -0.47502E+08
 
   -0.47265E+08         0.26584E+07         0.00000E+00
    0.26584E+07        -0.49927E+08         0.00000E+00
    0.00000E+00         0.00000E+00        -0.47502E+08
 
   -0.47277E+08         0.27365E+07         0.00000E+00
    0.27365E+07        -0.49923E+08         0.00000E+00
    0.00000E+00         0.00000E+00        -0.47502E+08
 
   -0.47290E+08         0.28144E+07         0.00000E+00
    0.28144E+07        -0.49918E+08         0.00000E+00
    0.00000E+00         0.00000E+00        -0.47502E+08
 
   -0.47303E+08         0.28920E+07         0.00000E+00
    0.28920E+07        -0.49913E+08         0.00000E+00
    0.00000E+00         0.00000E+00        -0.47501E+08
 
   -0.47315E+08         0.29695E+07         0.00000E+00
    0.29695E+07        -0.49908E+08         0.00000E+00
    0.00000E+00         0.00000E+00        -0.47501E+08
 
   -0.47328E+08         0.30467E+07         0.00000E+00
    0.30467E+07        -0.49902E+08         0.00000E+00
    0.00000E+00         0.00000E+00        -0.47501E+08
 
   -0.47341E+08         0.31236E+07         0.00000E+00
    0.31236E+07        -0.49897E+08         0.00000E+00
    0.00000E+00         0.00000E+00        -0.47501E+08
 
   -0.47354E+08         0.32003E+07         0.00000E+00
    0.32003E+07        -0.49891E+08         0.00000E+00
    0.00000E+00         0.00000E+00        -0.47501E+08
 
   -0.47368E+08         0.32768E+07         0.00000E+00
    0.32768E+07        -0.49886E+08         0.00000E+00
    0.00000E+00         0.00000E+00        -0.47501E+08
 
   -0.47381E+08         0.33531E+07         0.00000E+00
    0.33531E+07        -0.49880E+08         0.00000E+00
    0.00000E+00         0.00000E+00        -0.47501E+08
 
   -0.47395E+08         0.34291E+07         0.00000E+00
    0.34291E+07        -0.49874E+08         0.00000E+00
    0.00000E+00         0.00000E+00        -0.47501E+08
 
   -0.47408E+08         0.35048E+07         0.00000E+00
    0.35048E+07        -0.49867E+08         0.00000E+00
    0.00000E+00         0.00000E+00        -0.47501E+08
 
   -0.47422E+08         0.35803E+07         0.00000E+00
    0.35803E+07        -0.49861E+08         0.00000E+00
    0.00000E+00         0.00000E+00        -0.47501E+08
 
   -0.47436E+08         0.36555E+07         0.00000E+00
    0.36555E+07        -0.49855E+08         0.00000E+00
    0.00000E+00         0.00000E+00        -0.47501E+08
 
   -0.47450E+08         0.37305E+07         0.00000E+00
    0.37305E+07        -0.49848E+08         0.00000E+00
    0.00000E+00         0.00000E+00        -0.47501E+08
 
   -0.47465E+08         0.38053E+07         0.00000E+00
    0.38053E+07        -0.49841E+08         0.00000E+00
    0.00000E+00         0.00000E+00        -0.47501E+08
 
   -0.47479E+08         0.38797E+07         0.00000E+00
    0.38797E+07        -0.49834E+08         0.00000E+00
    0.00000E+00         0.00000E+00        -0.47501E+08
 
   -0.47494E+08         0.39539E+07         0.00000E+00
    0.39539E+07        -0.49827E+08         0.00000E+00
    0.00000E+00         0.00000E+00        -0.47501E+08
 
   -0.46502E+08         0.43215E+05         0.00000E+00
    0.43215E+05        -0.50000E+08         0.00000E+00
    0.00000E+00         0.00000E+00        -0.47133E+08
 
   -0.46512E+08         0.12903E+06         0.00000E+00
    0.12903E+06        -0.50000E+08         0.00000E+00
    0.00000E+00         0.00000E+00        -0.47133E+08
 
   -0.46522E+08         0.21462E+06         0.00000E+00
    0.21462E+06        -0.50000E+08         0.00000E+00
    0.00000E+00         0.00000E+00        -0.47133E+08
 
   -0.46532E+08         0.29999E+06         0.00000E+00
    0.29999E+06        -0.49999E+08         0.00000E+00
    0.00000E+00         0.00000E+00        -0.47133E+08
 
   -0.46543E+08         0.38513E+06         0.00000E+00
    0.38513E+06        -0.49999E+08         0.00000E+00
    0.00000E+00         0.00000E+00        -0.47133E+08
 
   -0.46553E+08         0.47006E+06         0.00000E+00
    0.47006E+06        -0.49998E+08         0.00000E+00
    0.00000E+00         0.00000E+00        -0.47133E+08
 
   -0.46564E+08         0.55477E+06         0.00000E+00
    0.55477E+06        -0.49997E+08         0.00000E+00
    0.00000E+00         0.00000E+00        -0.47133E+08
 
   -0.46574E+08         0.63927E+06         0.00000E+00
    0.63927E+06        -0.49996E+08         0.00000E+00
    0.00000E+00         0.00000E+00        -0.47132E+08
 
   -0.46585E+08         0.72354E+06         0.00000E+00
    0.72354E+06        -0.49995E+08         0.00000E+00
    0.00000E+00         0.00000E+00        -0.47132E+08
 
   -0.46596E+08         0.80760E+06         0.00000E+00
    0.80760E+06        -0.49993E+08         0.00000E+00
    0.00000E+00         0.00000E+00        -0.47132E+08
 
   -0.46606E+08         0.89145E+06         0.00000E+00
    0.89145E+06        -0.49992E+08         0.00000E+00
    0.00000E+00         0.00000E+00        -0.47132E+08
 
   -0.46617E+08         0.97508E+06         0.00000E+00
    0.97508E+06        -0.49990E+08         0.00000E+00
    0.00000E+00         0.00000E+00        -0.47132E+08
 
   -0.46628E+08         0.10585E+07         0.00000E+00
    0.10585E+07        -0.49989E+08         0.00000E+00
    0.00000E+00         0.00000E+00        -0.47132E+08
 
   -0.46639E+08         0.11417E+07         0.00000E+00
    0.11417E+07        -0.49987E+08         0.00000E+00
    0.00000E+00         0.00000E+00        -0.47132E+08
 
   -0.46651E+08         0.12247E+07         0.00000E+00
    0.12247E+07        -0.49985E+08         0.00000E+00
    0.00000E+00         0.00000E+00        -0.47132E+08
 
   -0.46662E+08         0.13075E+07         0.00000E+00
    0.13075E+07        -0.49983E+08         0.00000E+00
    0.00000E+00         0.00000E+00        -0.47132E+08
 
   -0.46674E+08         0.13900E+07         0.00000E+00
    0.13900E+07        -0.49980E+08         0.00000E+00
    0.00000E+00         0.00000E+00        -0.47132E+08
 
   -0.46685E+08         0.14724E+07         0.00000E+00
    0.14724E+07        -0.49978E+08         0.00000E+00
    0.00000E+00         0.00000E+00        -0.47132E+08
 
   -0.46697E+08         0.15545E+07         0.00000E+00
    0.15545E+07        -0.49975E+08         0.00000E+00
    0.00000E+00         0.00000E+00        -0.47132E+08
 
   -0.46708E+08         0.16365E+07         0.00000E+00
    0.16365E+07        -0.49972E+08         0.00000E+00
    0.00000E+00         0.00000E+00        -0.47131E+08
 
   -0.46720E+08         0.17182E+07         0.00000E+00
    0.17182E+07        -0.49969E+08         0.00000E+00
    0.00000E+00         0.00000E+00        -0.47131E+08
 
   -0.46732E+08         0.17997E+07         0.00000E+00
    0.17997E+07        -0.49966E+08         0.00000E+00
    0.00000E+00         0.00000E+00        -0.47131E+08
 
   -0.46744E+08         0.18810E+07         0.00000E+00
    0.18810E+07        -0.49963E+08         0.00000E+00
    0.00000E+00         0.00000E+00        -0.47131E+08
 
   -0.46757E+08         0.19621E+07         0.00000E+00
    0.19621E+07        -0.49960E+08         0.00000E+00
    0.00000E+00         0.00000E+00        -0.47131E+08
 
   -0.46769E+08         0.20429E+07         0.00000E+00
    0.20429E+07        -0.49956E+08         0.00000E+00
    0.00000E+00         0.00000E+00        -0.47131E+08
 
   -0.46781E+08         0.21236E+07         0.00000E+00
    0.21236E+07        -0.49952E+08         0.00000E+00
    0.00000E+00         0.00000E+00        -0.47131E+08
 
   -0.46794E+08         0.22040E+07         0.00000E+00
    0.22040E+07        -0.49949E+08         0.00000E+00
    0.00000E+00         0.00000E+00        -0.47131E+08
 
   -0.46807E+08         0.22843E+07         0.00000E+00
    0.22843E+07        -0.49944E+08         0.00000E+00
    0.00000E+00         0.00000E+00        -0.47131E+08
 
   -0.46819E+08         0.23643E+07         0.00000E+00
    0.23643E+07        -0.49940E+08         0.00000E+00
    0.00000E+00         0.00000E+00        -0.47131E+08
 
   -0.46832E+08         0.24441E+07         0.00000E+00
    0.24441E+07        -0.49936E+08         0.00000E+00
    0.00000E+00         0.00000E+00        -0.47130E+08
 
   -0.46845E+08         0.25237E+07         0.00000E+00
    0.25237E+07        -0.49931E+08         0.00000E+00
    0.00000E+00         0.00000E+00        -0.47130E+08
 
   -0.46859E+08         0.26030E+07         0.00000E+00
    0.26030E+07        -0.49927E+08         0.00000E+00
    0.00000E+00         0.00000E+00        -0.47130E+08
 
   -0.46872E+08         0.26821E+07         0.00000E+00
    0.26821E+07        -0.49922E+08         0.00000E+00
    0.00000E+00         0.00000E+00        -0.47130E+08
 
   -0.46885E+08         0.27611E+07         0.00000E+00
    0.27611E+07        -0.49917E+08         0.00000E+00
    0.00000E+00         0.00000E+00        -0.47130E+08
 
   -0.46899E+08         0.28398E+07         0.00000E+00
    0.28398E+07        -0.49912E+08         0.00000E+00
    0.00000E+00         0.00000E+00        -0.47130E+08
 
   -0.46913E+08         0.29182E+07         0.00000E+00
    0.29182E+07        -0.49906E+08         0.00000E+00
    0.00000E+00         0.00000E+00        -0.47130E+08
 
   -0.46927E+08         0.29965E+07         0.00000E+00
    0.29965E+07        -0.49901E+08         0.00000E+00
    0.00000E+00         0.00000E+00        -0.47130E+08
 
   -0.46941E+08         0.30745E+07         0.00000E+00
    0.30745E+07        -0.49895E+08         0.00000E+00
    0.00000E+00         0.00000E+00        -0.47130E+08
 
   -0.46955E+08         0.31523E+07         0.00000E+00
    0.31523E+07        -0.49889E+08         0.00000E+00
    0.00000E+00         0.00000E+00        -0.47130E+08
 
   -0.46969E+08         0.32298E+07         0.00000E+00
    0.32298E+07        -0.49883E+08         0.00000E+00
    0.00000E+00         0.00000E+00        -0.47129E+08
 
   -0.46984E+08         0.33071E+07         0.00000E+00
    0.33071E+07        -0.49877E+08         0.00000E+00
    0.00000E+00         0.00000E+00        -0.47129E+08
 
   -0.46998E+08         0.33842E+07         0.00000E+00
    0.33842E+07        -0.49871E+08         0.00000E+00
    0.00000E+00         0.00000E+00        -0.47129E+08
 
   -0.47013E+08         0.34611E+07         0.00000E+00
    0.34611E+07        -0.49864E+08         0.00000E+00
    0.00000E+00         0.00000E+00        -0.47129E+08
 
   -0.47028E+08         0.35377E+07         0.00000E+00
    0.35377E+07        -0.49857E+08         0.00000E+00
    0.00000E+00         0.00000E+00        -0.47129E+08
 
   -0.47043E+08         0.36140E+07         0.00000E+00
    0.36140E+07        -0.49850E+08         0.00000E+00
    0.00000E+00         0.00000E+00        -0.47129E+08
 
   -0.47058E+08         0.36901E+07         0.00000E+00
    0.36901E+07        -0.49843E+08         0.00000E+00
    0.00000E+00         0.00000E+00        -0.47129E+08
 
   -0.47074E+08         0.37660E+07         0.00000E+00
    0.37660E+07        -0.49836E+08         0.00000E+00
    0.00000E+00         0.00000E+00        -0.47129E+08
 
   -0.47089E+08         0.38416E+07         0.00000E+00
    0.38416E+07        -0.49828E+08         0.00000E+00
    0.00000E+00         0.00000E+00        -0.47129E+08
 
   -0.47105E+08         0.39170E+07         0.00000E+00
    0.39170E+07        -0.49821E+08         0.00000E+00
    0.00000E+00         0.00000E+00        -0.47129E+08
 
   -0.47121E+08         0.39921E+07         0.00000E+00
    0.39921E+07        -0.49813E+08         0.00000E+00
    0.00000E+00         0.00000E+00        -0.47129E+08
 
   -0.46071E+08         0.43582E+05         0.00000E+00
    0.43582E+05        -0.50000E+08         0.00000E+00
    0.00000E+00         0.00000E+00        -0.46757E+08
 
   -0.46082E+08         0.13013E+06         0.00000E+00
    0.13013E+06        -0.50000E+08         0.00000E+00
    0.00000E+00         0.00000E+00        -0.46757E+08
 
   -0.46093E+08         0.21646E+06         0.00000E+00
    0.21646E+06        -0.50000E+08         0.00000E+00
    0.00000E+00         0.00000E+00        -0.46757E+08
 
   -0.46104E+08         0.30257E+06         0.00000E+00
    0.30257E+06        -0.49999E+08         0.00000E+00
    0.00000E+00         0.00000E+00        -0.46757E+08
 
   -0.46116E+08         0.38846E+06         0.00000E+00
    0.38846E+06        -0.49998E+08         0.00000E+00
    0.00000E+00         0.00000E+00        -0.46757E+08
 
   -0.46127E+08         0.47413E+06         0.00000E+00
    0.47413E+06        -0.49998E+08         0.00000E+00
    0.00000E+00         0.00000E+00        -0.46757E+08
 
   -0.46139E+08         0.55959E+06         0.00000E+00
    0.55959E+06        -0.49997E+08         0.00000E+00
    0.00000E+00         0.00000E+00        -0.46757E+08
 
   -0.46150E+08         0.64483E+06         0.00000E+00
    0.64483E+06        -0.49996E+08         0.00000E+00
    0.00000E+00         0.00000E+00        -0.46757E+08
 
   -0.46162E+08         0.72985E+06         0.00000E+00
    0.72985E+06        -0.49994E+08         0.00000E+00
    0.00000E+00         0.00000E+00        -0.46757E+08
 
   -0.46174E+08         0.81467E+06         0.00000E+00
    0.81467E+06        -0.49993E+08         0.00000E+00
    0.00000E+00         0.00000E+00        -0.46757E+08
 
   -0.46186E+08         0.89927E+06         0.00000E+00
    0.89927E+06        -0.49992E+08         0.00000E+00
    0.00000E+00         0.00000E+00        -0.46756E+08
 
   -0.46198E+08         0.98366E+06         0.00000E+00
    0.98366E+06        -0.49990E+08         0.00000E+00
    0.00000E+00         0.00000E+00        -0.46756E+08
 
   -0.46210E+08         0.10678E+07         0.00000E+00
    0.10678E+07        -0.49988E+08         0.00000E+00
    0.00000E+00         0.00000E+00        -0.46756E+08
 
   -0.46222E+08         0.11518E+07         0.00000E+00
    0.11518E+07        -0.49986E+08         0.00000E+00
    0.00000E+00         0.00000E+00        -0.46756E+08
 
   -0.46234E+08         0.12356E+07         0.00000E+00
    0.12356E+07        -0.49984E+08         0.00000E+00
    0.00000E+00         0.00000E+00        -0.46756E+08
 
   -0.46247E+08         0.13191E+07         0.00000E+00
    0.13191E+07        -0.49982E+08         0.00000E+00
    0.00000E+00         0.00000E+00        -0.46756E+08
 
   -0.46259E+08         0.14025E+07         0.00000E+00
    0.14025E+07        -0.49979E+08         0.00000E+00
    0.00000E+00         0.00000E+00        -0.46756E+08
 
   -0.46272E+08         0.14856E+07         0.00000E+00
    0.14856E+07        -0.49976E+08         0.00000E+00
    0.00000E+00         0.00000E+00        -0.46756E+08
 
   -0.46285E+08         0.15685E+07         0.00000E+00
    0.15685E+07        -0.49974E+08         0.00000E+00
    0.00000E+00         0.00000E+00        -0.46756E+08
 
   -0.46297E+08         0.16512E+07         0.00000E+00
    0.16512E+07        -0.49971E+08         0.00000E+00
    0.00000E+00         0.00000E+00        -0.46755E+08
 
   -0.46310E+08         0.17338E+07         0.00000E+00
    0.17338E+07        -0.49968E+08         0.00000E+00
    0.00000E+00         0.00000E+00        -0.46755E+08
 
   -0.46323E+08         0.18161E+07         0.00000E+00
    0.18161E+07        -0.49964E+08         0.00000E+00
    0.00000E+00         0.00000E+00        -0.46755E+08
 
   -0.46336E+08         0.18982E+07         0.00000E+00
    0.18982E+07        -0.49961E+08         0.00000E+00
    0.00000E+00         0.00000E+00        -0.46755E+08
 
   -0.46350E+08         0.19801E+07         0.00000E+00
    0.19801E+07        -0.49957E+08         0.00000E+00
    0.00000E+00         0.00000E+00        -0.46755E+08
 
   -0.46363E+08         0.20617E+07         0.00000E+00
    0.20617E+07        -0.49953E+08         0.00000E+00
    0.00000E+00         0.00000E+00        -0.46755E+08
 
   -0.46377E+08         0.21432E+07         0.00000E+00
    0.21432E+07        -0.49949E+08         0.00000E+00
    0.00000E+00         0.00000E+00        -0.46755E+08
 
   -0.46390E+08         0.22245E+07         0.00000E+00
    0.22245E+07        -0.49945E+08         0.00000E+00
    0.00000E+00         0.00000E+00        -0.46754E+08
 
   -0.46404E+08         0.23056E+07         0.00000E+00
    0.23056E+07        -0.49941E+08         0.00000E+00
    0.00000E+00         0.00000E+00        -0.46754E+08
 
   -0.46418E+08         0.23864E+07         0.00000E+00
    0.23864E+07        -0.49937E+08         0.00000E+00
    0.00000E+00         0.00000E+00        -0.46754E+08
 
   -0.46432E+08         0.24670E+07         0.00000E+00
    0.24670E+07        -0.49932E+08         0.00000E+00
    0.00000E+00         0.00000E+00        -0.46754E+08
 
   -0.46446E+08         0.25475E+07         0.00000E+00
    0.25475E+07        -0.49927E+08         0.00000E+00
    0.00000E+00         0.00000E+00        -0.46754E+08
 
   -0.46460E+08         0.26277E+07         0.00000E+00
    0.26277E+07        -0.49922E+08         0.00000E+00
    0.00000E+00         0.00000E+00        -0.46754E+08
 
   -0.46475E+08         0.27077E+07         0.00000E+00
    0.27077E+07        -0.49917E+08         0.00000E+00
    0.00000E+00         0.00000E+00        -0.46754E+08
 
   -0.46489E+08         0.27875E+07         0.00000E+00
    0.27875E+07        -0.49911E+08         0.00000E+00
    0.00000E+00         0.00000E+00        -0.46754E+08
 
   -0.46504E+08         0.28671E+07         0.00000E+00
    0.28671E+07        -0.49906E+08         0.00000E+00
    0.00000E+00         0.00000E+00        -0.46753E+08
 
   -0.46519E+08         0.29464E+07         0.00000E+00
    0.29464E+07        -0.49900E+08         0.00000E+00
    0.00000E+00         0.00000E+00        -0.46753E+08
 
   -0.46534E+08         0.30255E+07         0.00000E+00
    0.30255E+07        -0.49894E+08         0.00000E+00
    0.00000E+00         0.00000E+00        -0.46753E+08
 
   -0.46549E+08         0.31045E+07         0.00000E+00
    0.31045E+07        -0.49888E+08         0.00000E+00
    0.00000E+00         0.00000E+00        -0.46753E+08
 
   -0.46564E+08         0.31831E+07         0.00000E+00
    0.31831E+07        -0.49882E+08         0.00000E+00
    0.00000E+00         0.00000E+00        -0.46753E+08
 
   -0.46580E+08         0.32616E+07         0.00000E+00
    0.32616E+07        -0.49875E+08         0.00000E+00
    0.00000E+00         0.00000E+00        -0.46753E+08
 
   -0.46595E+08         0.33399E+07         0.00000E+00
    0.33399E+07        -0.49869E+08         0.00000E+00
    0.00000E+00         0.00000E+00        -0.46753E+08
 
   -0.46611E+08         0.34179E+07         0.00000E+00
    0.34179E+07        -0.49862E+08         0.00000E+00
    0.00000E+00         0.00000E+00        -0.46753E+08
 
   -0.46627E+08         0.34957E+07         0.00000E+00
    0.34957E+07        -0.49855E+08         0.00000E+00
    0.00000E+00         0.00000E+00        -0.46753E+08
 
   -0.46643E+08         0.35732E+07         0.00000E+00
    0.35732E+07        -0.49847E+08         0.00000E+00
    0.00000E+00         0.00000E+00        -0.46753E+08
 
   -0.46660E+08         0.36505E+07         0.00000E+00
    0.36505E+07        -0.49840E+08         0.00000E+00
    0.00000E+00         0.00000E+00        -0.46753E+08
 
   -0.46676E+08         0.37276E+07         0.00000E+00
    0.37276E+07        -0.49832E+08         0.00000E+00
    0.00000E+00         0.00000E+00        -0.46752E+08
 
   -0.46693E+08         0.38044E+07         0.00000E+00
    0.38044E+07        -0.49824E+08         0.00000E+00
    0.00000E+00         0.00000E+00        -0.46752E+08
 
   -0.46709E+08         0.38810E+07         0.00000E+00
    0.38810E+07        -0.49816E+08         0.00000E+00
    0.00000E+00         0.00000E+00        -0.46752E+08
 
   -0.46727E+08         0.39574E+07         0.00000E+00
    0.39574E+07        -0.49808E+08         0.00000E+00
    0.00000E+00         0.00000E+00        -0.46752E+08
 
   -0.46744E+08         0.40334E+07         0.00000E+00
    0.40334E+07        -0.49800E+08         0.00000E+00
    0.00000E+00         0.00000E+00        -0.46752E+08
 
   -0.45635E+08         0.43969E+05         0.00000E+00
    0.43969E+05        -0.50000E+08         0.00000E+00
    0.00000E+00         0.00000E+00        -0.46376E+08
 
   -0.45648E+08         0.13129E+06         0.00000E+00
    0.13129E+06        -0.50000E+08         0.00000E+00
    0.00000E+00         0.00000E+00        -0.46376E+08
 
   -0.45660E+08         0.21840E+06         0.00000E+00
    0.21840E+06        -0.49999E+08         0.00000E+00
    0.00000E+00         0.00000E+00        -0.46376E+08
 
   -0.45672E+08         0.30529E+06         0.00000E+00
    0.30529E+06        -0.49999E+08         0.00000E+00
    0.00000E+00         0.00000E+00        -0.46376E+08
 
   -0.45685E+08         0.39196E+06         0.00000E+00
    0.39196E+06        -0.49998E+08         0.00000E+00
    0.00000E+00         0.00000E+00        -0.46376E+08
 
   -0.45697E+08         0.47842E+06         0.00000E+00
    0.47842E+06        -0.49998E+08         0.00000E+00
    0.00000E+00         0.00000E+00        -0.46376E+08
 
   -0.45710E+08         0.56466E+06         0.00000E+00
    0.56466E+06        -0.49997E+08         0.00000E+00
    0.00000E+00         0.00000E+00        -0.46376E+08
 
   -0.45723E+08         0.65069E+06         0.00000E+00
    0.65069E+06        -0.49996E+08         0.00000E+00
    0.00000E+00         0.00000E+00        -0.46376E+08
 
   -0.45735E+08         0.73651E+06         0.00000E+00
    0.73651E+06        -0.49994E+08         0.00000E+00
    0.00000E+00         0.00000E+00        -0.46376E+08
 
   -0.45748E+08         0.82212E+06         0.00000E+00
    0.82212E+06        -0.49993E+08         0.00000E+00
    0.00000E+00         0.00000E+00        -0.46376E+08
 
   -0.45761E+08         0.90752E+06         0.00000E+00
    0.90752E+06        -0.49991E+08         0.00000E+00
    0.00000E+00         0.00000E+00        -0.46375E+08
 
   -0.45774E+08         0.99271E+06         0.00000E+00
    0.99271E+06        -0.49989E+08         0.00000E+00
    0.00000E+00         0.00000E+00        -0.46375E+08
 
   -0.45787E+08         0.10777E+07         0.00000E+00
    0.10777E+07        -0.49987E+08         0.00000E+00
    0.00000E+00         0.00000E+00        -0.46375E+08
 
   -0.45801E+08         0.11625E+07         0.00000E+00
    0.11625E+07        -0.49985E+08         0.00000E+00
    0.00000E+00         0.00000E+00        -0.46375E+08
 
   -0.45814E+08         0.12471E+07         0.00000E+00
    0.12471E+07        -0.49983E+08         0.00000E+00
    0.00000E+00         0.00000E+00        -0.46375E+08
 
   -0.45827E+08         0.13314E+07         0.00000E+00
    0.13314E+07        -0.49981E+08         0.00000E+00
    0.00000E+00         0.00000E+00        -0.46375E+08
 
   -0.45841E+08         0.14156E+07         0.00000E+00
    0.14156E+07        -0.49978E+08         0.00000E+00
    0.00000E+00         0.00000E+00        -0.46375E+08
 
   -0.45855E+08         0.14996E+07         0.00000E+00
    0.14996E+07        -0.49975E+08         0.00000E+00
    0.00000E+00         0.00000E+00        -0.46374E+08
 
   -0.45868E+08         0.15833E+07         0.00000E+00
    0.15833E+07        -0.49972E+08         0.00000E+00
    0.00000E+00         0.00000E+00        -0.46374E+08
 
   -0.45882E+08         0.16669E+07         0.00000E+00
    0.16669E+07        -0.49969E+08         0.00000E+00
    0.00000E+00         0.00000E+00        -0.46374E+08
 
   -0.45896E+08         0.17503E+07         0.00000E+00
    0.17503E+07        -0.49966E+08         0.00000E+00
    0.00000E+00         0.00000E+00        -0.46374E+08
 
   -0.45910E+08         0.18334E+07         0.00000E+00
    0.18334E+07        -0.49962E+08         0.00000E+00
    0.00000E+00         0.00000E+00        -0.46374E+08
 
   -0.45924E+08         0.19164E+07         0.00000E+00
    0.19164E+07        -0.49959E+08         0.00000E+00
    0.00000E+00         0.00000E+00        -0.46374E+08
 
   -0.45939E+08         0.19991E+07         0.00000E+00
    0.19991E+07        -0.49955E+08         0.00000E+00
    0.00000E+00         0.00000E+00        -0.46374E+08
 
   -0.45953E+08         0.20817E+07         0.00000E+00
    0.20817E+07        -0.49951E+08         0.00000E+00
    0.00000E+00         0.00000E+00        -0.46373E+08
 
   -0.45968E+08         0.21641E+07         0.00000E+00
    0.21641E+07        -0.49947E+08         0.00000E+00
    0.00000E+00         0.00000E+00        -0.46373E+08
 
   -0.45982E+08         0.22462E+07         0.00000E+00
    0.22462E+07        -0.49942E+08         0.00000E+00
    0.00000E+00         0.00000E+00        -0.46373E+08
 
   -0.45997E+08         0.23282E+07         0.00000E+00
    0.23282E+07        -0.49938E+08         0.00000E+00
    0.00000E+00         0.00000E+00        -0.46373E+08
 
   -0.46012E+08         0.24099E+07         0.00000E+00
    0.24099E+07        -0.49933E+08         0.00000E+00
    0.00000E+00         0.00000E+00        -0.46373E+08
 
   -0.46027E+08         0.24915E+07         0.00000E+00
    0.24915E+07        -0.49928E+08         0.00000E+00
    0.00000E+00         0.00000E+00        -0.46372E+08
 
   -0.46042E+08         0.25728E+07         0.00000E+00
    0.25728E+07        -0.49923E+08         0.00000E+00
    0.00000E+00         0.00000E+00        -0.46372E+08
 
   -0.46057E+08         0.26540E+07         0.00000E+00
    0.26540E+07        -0.49918E+08         0.00000E+00
    0.00000E+00         0.00000E+00        -0.46372E+08
 
   -0.46073E+08         0.27349E+07         0.00000E+00
    0.27349E+07        -0.49912E+08         0.00000E+00
    0.00000E+00         0.00000E+00        -0.46372E+08
 
   -0.46089E+08         0.28156E+07         0.00000E+00
    0.28156E+07        -0.49906E+08         0.00000E+00
    0.00000E+00         0.00000E+00        -0.46372E+08
 
   -0.46104E+08         0.28962E+07         0.00000E+00
    0.28962E+07        -0.49901E+08         0.00000E+00
    0.00000E+00         0.00000E+00        -0.46372E+08
 
   -0.46120E+08         0.29765E+07         0.00000E+00
    0.29765E+07        -0.49894E+08         0.00000E+00
    0.00000E+00         0.00000E+00        -0.46372E+08
 
   -0.46136E+08         0.30566E+07         0.00000E+00
    0.30566E+07        -0.49888E+08         0.00000E+00
    0.00000E+00         0.00000E+00        -0.46371E+08
 
   -0.46152E+08         0.31365E+07         0.00000E+00
    0.31365E+07        -0.49882E+08         0.00000E+00
    0.00000E+00         0.00000E+00        -0.46371E+08
 
   -0.46169E+08         0.32162E+07         0.00000E+00
    0.32162E+07        -0.49875E+08         0.00000E+00
    0.00000E+00         0.00000E+00        -0.46371E+08
 
   -0.46185E+08         0.32956E+07         0.00000E+00
    0.32956E+07        -0.49868E+08         0.00000E+00
    0.00000E+00         0.00000E+00        -0.46371E+08
 
   -0.46202E+08         0.33749E+07         0.00000E+00
    0.33749E+07        -0.49861E+08         0.00000E+00
    0.00000E+00         0.00000E+00        -0.46371E+08
 
   -0.46219E+08         0.34539E+07         0.00000E+00
    0.34539E+07        -0.49854E+08         0.00000E+00
    0.00000E+00         0.00000E+00        -0.46371E+08
 
   -0.46236E+08         0.35327E+07         0.00000E+00
    0.35327E+07        -0.49846E+08         0.00000E+00
    0.00000E+00         0.00000E+00        -0.46371E+08
 
   -0.46253E+08         0.36113E+07         0.00000E+00
    0.36113E+07        -0.49838E+08         0.00000E+00
    0.00000E+00         0.00000E+00        -0.46371E+08
 
   -0.46271E+08         0.36897E+07         0.00000E+00
    0.36897E+07        -0.49830E+08         0.00000E+00
    0.00000E+00         0.00000E+00        -0.46371E+08
 
   -0.46289E+08         0.37678E+07         0.00000E+00
    0.37678E+07        -0.49822E+08         0.00000E+00
    0.00000E+00         0.00000E+00        -0.46371E+08
 
   -0.46306E+08         0.38457E+07         0.00000E+00
    0.38457E+07        -0.49814E+08         0.00000E+00
    0.00000E+00         0.00000E+00        -0.46371E+08
 
   -0.46324E+08         0.39234E+07         0.00000E+00
    0.39234E+07        -0.49805E+08         0.00000E+00
    0.00000E+00         0.00000E+00        -0.46370E+08
 
   -0.46343E+08         0.40008E+07         0.00000E+00
    0.40008E+07        -0.49796E+08         0.00000E+00
    0.00000E+00         0.00000E+00        -0.46370E+08
 
   -0.46361E+08         0.40780E+07         0.00000E+00
    0.40780E+07        -0.49787E+08         0.00000E+00
    0.00000E+00         0.00000E+00        -0.46370E+08
 
   -0.45196E+08         0.44372E+05         0.00000E+00
    0.44372E+05        -0.50000E+08         0.00000E+00
    0.00000E+00         0.00000E+00        -0.45989E+08
 
   -0.45210E+08         0.13251E+06         0.00000E+00
    0.13251E+06        -0.50000E+08         0.00000E+00
    0.00000E+00         0.00000E+00        -0.45989E+08
 
   -0.45223E+08         0.22043E+06         0.00000E+00
    0.22043E+06        -0.49999E+08         0.00000E+00
    0.00000E+00         0.00000E+00        -0.45989E+08
 
   -0.45236E+08         0.30813E+06         0.00000E+00
    0.30813E+06        -0.49999E+08         0.00000E+00
    0.00000E+00         0.00000E+00        -0.45989E+08
 
   -0.45250E+08         0.39562E+06         0.00000E+00
    0.39562E+06        -0.49998E+08         0.00000E+00
    0.00000E+00         0.00000E+00        -0.45989E+08
 
   -0.45264E+08         0.48290E+06         0.00000E+00
    0.48290E+06        -0.49997E+08         0.00000E+00
    0.00000E+00         0.00000E+00        -0.45989E+08
 
   -0.45277E+08         0.56997E+06         0.00000E+00
    0.56997E+06        -0.49996E+08         0.00000E+00
    0.00000E+00         0.00000E+00        -0.45989E+08
 
   -0.45291E+08         0.65682E+06         0.00000E+00
    0.65682E+06        -0.49995E+08         0.00000E+00
    0.00000E+00         0.00000E+00        -0.45989E+08
 
   -0.45305E+08         0.74347E+06         0.00000E+00
    0.74347E+06        -0.49994E+08         0.00000E+00
    0.00000E+00         0.00000E+00        -0.45989E+08
 
   -0.45319E+08         0.82992E+06         0.00000E+00
    0.82992E+06        -0.49992E+08         0.00000E+00
    0.00000E+00         0.00000E+00        -0.45989E+08
 
   -0.45333E+08         0.91616E+06         0.00000E+00
    0.91616E+06        -0.49991E+08         0.00000E+00
    0.00000E+00         0.00000E+00        -0.45989E+08
 
   -0.45347E+08         0.10022E+07         0.00000E+00
    0.10022E+07        -0.49989E+08         0.00000E+00
    0.00000E+00         0.00000E+00        -0.45988E+08
 
   -0.45361E+08         0.10880E+07         0.00000E+00
    0.10880E+07        -0.49987E+08         0.00000E+00
    0.00000E+00         0.00000E+00        -0.45988E+08
 
   -0.45375E+08         0.11737E+07         0.00000E+00
    0.11737E+07        -0.49985E+08         0.00000E+00
    0.00000E+00         0.00000E+00        -0.45988E+08
 
   -0.45389E+08         0.12591E+07         0.00000E+00
    0.12591E+07        -0.49982E+08         0.00000E+00
    0.00000E+00         0.00000E+00        -0.45988E+08
 
   -0.45404E+08         0.13444E+07         0.00000E+00
    0.13444E+07        -0.49980E+08         0.00000E+00
    0.00000E+00         0.00000E+00        -0.45988E+08
 
   -0.45418E+08         0.14294E+07         0.00000E+00
    0.14294E+07        -0.49977E+08         0.00000E+00
    0.00000E+00         0.00000E+00        -0.45988E+08
 
   -0.45433E+08         0.15142E+07         0.00000E+00
    0.15142E+07        -0.49974E+08         0.00000E+00
    0.00000E+00         0.00000E+00        -0.45987E+08
 
   -0.45448E+08         0.15989E+07         0.00000E+00
    0.15989E+07        -0.49971E+08         0.00000E+00
    0.00000E+00         0.00000E+00        -0.45987E+08
 
   -0.45463E+08         0.16834E+07         0.00000E+00
    0.16834E+07        -0.49968E+08         0.00000E+00
    0.00000E+00         0.00000E+00        -0.45987E+08
 
   -0.45478E+08         0.17676E+07         0.00000E+00
    0.17676E+07        -0.49964E+08         0.00000E+00
    0.00000E+00         0.00000E+00        -0.45987E+08
 
   -0.45493E+08         0.18517E+07         0.00000E+00
    0.18517E+07        -0.49961E+08         0.00000E+00
    0.00000E+00         0.00000E+00        -0.45987E+08
 
   -0.45508E+08         0.19356E+07         0.00000E+00
    0.19356E+07        -0.49957E+08         0.00000E+00
    0.00000E+00         0.00000E+00        -0.45987E+08
 
   -0.45523E+08         0.20192E+07         0.00000E+00
    0.20192E+07        -0.49953E+08         0.00000E+00
    0.00000E+00         0.00000E+00        -0.45986E+08
 
   -0.45538E+08         0.21027E+07         0.00000E+00
    0.21027E+07        -0.49949E+08         0.00000E+00
    0.00000E+00         0.00000E+00        -0.45986E+08
 
   -0.45554E+08         0.21860E+07         0.00000E+00
    0.21860E+07        -0.49944E+08         0.00000E+00
    0.00000E+00         0.00000E+00        -0.45986E+08
 
   -0.45570E+08         0.22691E+07         0.00000E+00
    0.22691E+07        -0.49940E+08         0.00000E+00
    0.00000E+00         0.00000E+00        -0.45986E+08
 
   -0.45585E+08         0.23521E+07         0.00000E+00
    0.23521E+07        -0.49935E+08         0.00000E+00
    0.00000E+00         0.00000E+00        -0.45986E+08
 
   -0.45601E+08         0.24348E+07         0.00000E+00
    0.24348E+07        -0.49930E+08         0.00000E+00
    0.00000E+00         0.00000E+00        -0.45985E+08
 
   -0.45617E+08         0.25173E+07         0.00000E+00
    0.25173E+07        -0.49925E+08         0.00000E+00
    0.00000E+00         0.00000E+00        -0.45985E+08
 
   -0.45633E+08         0.25996E+07         0.00000E+00
    0.25996E+07        -0.49919E+08         0.00000E+00
    0.00000E+00         0.00000E+00        -0.45985E+08
 
   -0.45650E+08         0.26818E+07         0.00000E+00
    0.26818E+07        -0.49914E+08         0.00000E+00
    0.00000E+00         0.00000E+00        -0.45985E+08
 
   -0.45666E+08         0.27637E+07         0.00000E+00
    0.27637E+07        -0.49908E+08         0.00000E+00
    0.00000E+00         0.00000E+00        -0.45985E+08
 
   -0.45683E+08         0.28455E+07         0.00000E+00
    0.28455E+07        -0.49902E+08         0.00000E+00
    0.00000E+00         0.00000E+00        -0.45984E+08
 
   -0.45700E+08         0.29270E+07         0.00000E+00
    0.29270E+07        -0.49896E+08         0.00000E+00
    0.00000E+00         0.00000E+00        -0.45984E+08
 
   -0.45717E+08         0.30084E+07         0.00000E+00
    0.30084E+07        -0.49889E+08         0.00000E+00
    0.00000E+00         0.00000E+00        -0.45984E+08
 
   -0.45734E+08         0.30895E+07         0.00000E+00
    0.30895E+07        -0.49882E+08         0.00000E+00
    0.00000E+00         0.00000E+00        -0.45984E+08
 
   -0.45751E+08         0.31705E+07         0.00000E+00
    0.31705E+07        -0.49876E+08         0.00000E+00
    0.00000E+00         0.00000E+00        -0.45984E+08
 
   -0.45768E+08         0.32512E+07         0.00000E+00
    0.32512E+07        -0.49869E+08         0.00000E+00
    0.00000E+00         0.00000E+00        -0.45984E+08
 
   -0.45786E+08         0.33317E+07         0.00000E+00
    0.33317E+07        -0.49861E+08         0.00000E+00
    0.00000E+00         0.00000E+00        -0.45983E+08
 
   -0.45804E+08         0.34121E+07         0.00000E+00
    0.34121E+07        -0.49854E+08         0.00000E+00
    0.00000E+00         0.00000E+00        -0.45983E+08
 
   -0.45822E+08         0.34922E+07         0.00000E+00
    0.34922E+07        -0.49846E+08         0.00000E+00
    0.00000E+00         0.00000E+00        -0.45983E+08
 
   -0.45840E+08         0.35721E+07         0.00000E+00
    0.35721E+07        -0.49838E+08         0.00000E+00
    0.00000E+00         0.00000E+00        -0.45983E+08
 
   -0.45858E+08         0.36518E+07         0.00000E+00
    0.36518E+07        -0.49830E+08         0.00000E+00
    0.00000E+00         0.00000E+00        -0.45983E+08
 
   -0.45877E+08         0.37313E+07         0.00000E+00
    0.37313E+07        -0.49821E+08         0.00000E+00
    0.00000E+00         0.00000E+00        -0.45983E+08
 
   -0.45896E+08         0.38106E+07         0.00000E+00
    0.38106E+07        -0.49813E+08         0.00000E+00
    0.00000E+00         0.00000E+00        -0.45983E+08
 
   -0.45915E+08         0.38897E+07         0.00000E+00
    0.38897E+07        -0.49804E+08         0.00000E+00
    0.00000E+00         0.00000E+00        -0.45983E+08
 
   -0.45934E+08         0.39685E+07         0.00000E+00
    0.39685E+07        -0.49794E+08         0.00000E+00
    0.00000E+00         0.00000E+00        -0.45983E+08
 
   -0.45953E+08         0.40471E+07         0.00000E+00
    0.40471E+07        -0.49785E+08         0.00000E+00
    0.00000E+00         0.00000E+00        -0.45983E+08
 
   -0.45973E+08         0.41255E+07         0.00000E+00
    0.41255E+07        -0.49775E+08         0.00000E+00
    0.00000E+00         0.00000E+00        -0.45983E+08
 
   -0.44753E+08         0.44790E+05         0.00000E+00
    0.44790E+05        -0.50000E+08         0.00000E+00
    0.00000E+00         0.00000E+00        -0.45596E+08
 
   -0.44767E+08         0.13377E+06         0.00000E+00
    0.13377E+06        -0.50000E+08         0.00000E+00
    0.00000E+00         0.00000E+00        -0.45596E+08
 
   -0.44782E+08         0.22253E+06         0.00000E+00
    0.22253E+06        -0.49999E+08         0.00000E+00
    0.00000E+00         0.00000E+00        -0.45596E+08
 
   -0.44796E+08         0.31108E+06         0.00000E+00
    0.31108E+06        -0.49999E+08         0.00000E+00
    0.00000E+00         0.00000E+00        -0.45596E+08
 
   -0.44811E+08         0.39942E+06         0.00000E+00
    0.39942E+06        -0.49998E+08         0.00000E+00
    0.00000E+00         0.00000E+00        -0.45596E+08
 
   -0.44826E+08         0.48755E+06         0.00000E+00
    0.48755E+06        -0.49997E+08         0.00000E+00
    0.00000E+00         0.00000E+00        -0.45596E+08
 
   -0.44840E+08         0.57548E+06         0.00000E+00
    0.57548E+06        -0.49996E+08         0.00000E+00
    0.00000E+00         0.00000E+00        -0.45596E+08
 
   -0.44855E+08         0.66320E+06         0.00000E+00
    0.66320E+06        -0.49995E+08         0.00000E+00
    0.00000E+00         0.00000E+00        -0.45596E+08
 
   -0.44870E+08         0.75072E+06         0.00000E+00
    0.75072E+06        -0.49994E+08         0.00000E+00
    0.00000E+00         0.00000E+00        -0.45596E+08
 
   -0.44885E+08         0.83804E+06         0.00000E+00
    0.83804E+06        -0.49992E+08         0.00000E+00
    0.00000E+00         0.00000E+00        -0.45596E+08
 
   -0.44900E+08         0.92516E+06         0.00000E+00
    0.92516E+06        -0.49990E+08         0.00000E+00
    0.00000E+00         0.00000E+00        -0.45595E+08
 
   -0.44915E+08         0.10121E+07         0.00000E+00
    0.10121E+07        -0.49989E+08         0.00000E+00
    0.00000E+00         0.00000E+00        -0.45595E+08
 
   -0.44930E+08         0.10988E+07         0.00000E+00
    0.10988E+07        -0.49986E+08         0.00000E+00
    0.00000E+00         0.00000E+00        -0.45595E+08
 
   -0.44945E+08         0.11853E+07         0.00000E+00
    0.11853E+07        -0.49984E+08         0.00000E+00
    0.00000E+00         0.00000E+00        -0.45595E+08
 
   -0.44961E+08         0.12717E+07         0.00000E+00
    0.12717E+07        -0.49982E+08         0.00000E+00
    0.00000E+00         0.00000E+00        -0.45595E+08
 
   -0.44976E+08         0.13578E+07         0.00000E+00
    0.13578E+07        -0.49979E+08         0.00000E+00
    0.00000E+00         0.00000E+00        -0.45595E+08
 
   -0.44991E+08         0.14438E+07         0.00000E+00
    0.14438E+07        -0.49976E+08         0.00000E+00
    0.00000E+00         0.00000E+00        -0.45594E+08
 
   -0.45007E+08         0.15296E+07         0.00000E+00
    0.15296E+07        -0.49973E+08         0.00000E+00
    0.00000E+00         0.00000E+00        -0.45594E+08
 
   -0.45023E+08         0.16151E+07         0.00000E+00
    0.16151E+07        -0.49970E+08         0.00000E+00
    0.00000E+00         0.00000E+00        -0.45594E+08
 
   -0.45038E+08         0.17005E+07         0.00000E+00
    0.17005E+07        -0.49967E+08         0.00000E+00
    0.00000E+00         0.00000E+00        -0.45594E+08
 
   -0.45054E+08         0.17858E+07         0.00000E+00
    0.17858E+07        -0.49963E+08         0.00000E+00
    0.00000E+00         0.00000E+00        -0.45593E+08
 
   -0.45070E+08         0.18708E+07         0.00000E+00
    0.18708E+07        -0.49959E+08         0.00000E+00
    0.00000E+00         0.00000E+00        -0.45593E+08
 
   -0.45086E+08         0.19556E+07         0.00000E+00
    0.19556E+07        -0.49955E+08         0.00000E+00
    0.00000E+00         0.00000E+00        -0.45593E+08
 
   -0.45103E+08         0.20403E+07         0.00000E+00
    0.20403E+07        -0.49951E+08         0.00000E+00
    0.00000E+00         0.00000E+00        -0.45593E+08
 
   -0.45119E+08         0.21248E+07         0.00000E+00
    0.21248E+07        -0.49947E+08         0.00000E+00
    0.00000E+00         0.00000E+00        -0.45593E+08
 
   -0.45135E+08         0.22090E+07         0.00000E+00
    0.22090E+07        -0.49942E+08         0.00000E+00
    0.00000E+00         0.00000E+00        -0.45592E+08
 
   -0.45152E+08         0.22932E+07         0.00000E+00
    0.22932E+07        -0.49937E+08         0.00000E+00
    0.00000E+00         0.00000E+00        -0.45592E+08
 
   -0.45169E+08         0.23771E+07         0.00000E+00
    0.23771E+07        -0.49932E+08         0.00000E+00
    0.00000E+00         0.00000E+00        -0.45592E+08
 
   -0.45186E+08         0.24608E+07         0.00000E+00
    0.24608E+07        -0.49927E+08         0.00000E+00
    0.00000E+00         0.00000E+00        -0.45592E+08
 
   -0.45202E+08         0.25444E+07         0.00000E+00
    0.25444E+07        -0.49922E+08         0.00000E+00
    0.00000E+00         0.00000E+00        -0.45591E+08
 
   -0.45220E+08         0.26278E+07         0.00000E+00
    0.26278E+07        -0.49916E+08         0.00000E+00
    0.00000E+00         0.00000E+00        -0.45591E+08
 
   -0.45237E+08         0.27110E+07         0.00000E+00
    0.27110E+07        -0.49910E+08         0.00000E+00
    0.00000E+00         0.00000E+00        -0.45591E+08
 
   -0.45254E+08         0.27940E+07         0.00000E+00
    0.27940E+07        -0.49904E+08         0.00000E+00
    0.00000E+00         0.00000E+00        -0.45591E+08
 
   -0.45272E+08         0.28768E+07         0.00000E+00
    0.28768E+07        -0.49898E+08         0.00000E+00
    0.00000E+00         0.00000E+00        -0.45591E+08
 
   -0.45290E+08         0.29594E+07         0.00000E+00
    0.29594E+07        -0.49891E+08         0.00000E+00
    0.00000E+00         0.00000E+00        -0.45590E+08
 
   -0.45308E+08         0.30419E+07         0.00000E+00
    0.30419E+07        -0.49884E+08         0.00000E+00
    0.00000E+00         0.00000E+00        -0.45590E+08
 
   -0.45326E+08         0.31242E+07         0.00000E+00
    0.31242E+07        -0.49877E+08         0.00000E+00
    0.00000E+00         0.00000E+00        -0.45590E+08
 
   -0.45344E+08         0.32062E+07         0.00000E+00
    0.32062E+07        -0.49870E+08         0.00000E+00
    0.00000E+00         0.00000E+00        -0.45590E+08
 
   -0.45362E+08         0.32881E+07         0.00000E+00
    0.32881E+07        -0.49863E+08         0.00000E+00
    0.00000E+00         0.00000E+00        -0.45590E+08
 
   -0.45381E+08         0.33698E+07         0.00000E+00
    0.33698E+07        -0.49855E+08         0.00000E+00
    0.00000E+00         0.00000E+00        -0.45590E+08
 
   -0.45400E+08         0.34513E+07         0.00000E+00
    0.34513E+07        -0.49847E+08         0.00000E+00
    0.00000E+00         0.00000E+00        -0.45589E+08
 
   -0.45419E+08         0.35326E+07         0.00000E+00
    0.35326E+07        -0.49839E+08         0.00000E+00
    0.00000E+00         0.00000E+00        -0.45589E+08
 
   -0.45438E+08         0.36138E+07         0.00000E+00
    0.36138E+07        -0.49831E+08         0.00000E+00
    0.00000E+00         0.00000E+00        -0.45589E+08
 
   -0.45457E+08         0.36947E+07         0.00000E+00
    0.36947E+07        -0.49822E+08         0.00000E+00
    0.00000E+00         0.00000E+00        -0.45589E+08
 
   -0.45477E+08         0.37754E+07         0.00000E+00
    0.37754E+07        -0.49813E+08         0.00000E+00
    0.00000E+00         0.00000E+00        -0.45589E+08
 
   -0.45497E+08         0.38559E+07         0.00000E+00
    0.38559E+07        -0.49804E+08         0.00000E+00
    0.00000E+00         0.00000E+00        -0.45589E+08
 
   -0.45517E+08         0.39362E+07         0.00000E+00
    0.39362E+07        -0.49794E+08         0.00000E+00
    0.00000E+00         0.00000E+00        -0.45589E+08
 
   -0.45537E+08         0.40163E+07         0.00000E+00
    0.40163E+07        -0.49785E+08         0.00000E+00
    0.00000E+00         0.00000E+00        -0.45589E+08
 
   -0.45558E+08         0.40962E+07         0.00000E+00
    0.40962E+07        -0.49775E+08         0.00000E+00
    0.00000E+00         0.00000E+00        -0.45589E+08
 
   -0.45578E+08         0.41759E+07         0.00000E+00
    0.41759E+07        -0.49765E+08         0.00000E+00
    0.00000E+00         0.00000E+00        -0.45589E+08
 
   -0.44305E+08         0.45219E+05         0.00000E+00
    0.45219E+05        -0.50000E+08         0.00000E+00
    0.00000E+00         0.00000E+00        -0.45197E+08
 
   -0.44321E+08         0.13507E+06         0.00000E+00
    0.13507E+06        -0.50000E+08         0.00000E+00
    0.00000E+00         0.00000E+00        -0.45196E+08
 
   -0.44336E+08         0.22470E+06         0.00000E+00
    0.22470E+06        -0.49999E+08         0.00000E+00
    0.00000E+00         0.00000E+00        -0.45196E+08
 
   -0.44352E+08         0.31412E+06         0.00000E+00
    0.31412E+06        -0.49999E+08         0.00000E+00
    0.00000E+00         0.00000E+00        -0.45196E+08
 
   -0.44367E+08         0.40334E+06         0.00000E+00
    0.40334E+06        -0.49998E+08         0.00000E+00
    0.00000E+00         0.00000E+00        -0.45196E+08
 
   -0.44383E+08         0.49236E+06         0.00000E+00
    0.49236E+06        -0.49997E+08         0.00000E+00
    0.00000E+00         0.00000E+00        -0.45196E+08
 
   -0.44399E+08         0.58117E+06         0.00000E+00
    0.58117E+06        -0.49996E+08         0.00000E+00
    0.00000E+00         0.00000E+00        -0.45196E+08
 
   -0.44415E+08         0.66978E+06         0.00000E+00
    0.66978E+06        -0.49995E+08         0.00000E+00
    0.00000E+00         0.00000E+00        -0.45196E+08
 
   -0.44431E+08         0.75820E+06         0.00000E+00
    0.75820E+06        -0.49994E+08         0.00000E+00
    0.00000E+00         0.00000E+00        -0.45196E+08
 
   -0.44446E+08         0.84642E+06         0.00000E+00
    0.84642E+06        -0.49992E+08         0.00000E+00
    0.00000E+00         0.00000E+00        -0.45196E+08
 
   -0.44462E+08         0.93445E+06         0.00000E+00
    0.93445E+06        -0.49990E+08         0.00000E+00
    0.00000E+00         0.00000E+00        -0.45196E+08
 
   -0.44478E+08         0.10223E+07         0.00000E+00
    0.10223E+07        -0.49988E+08         0.00000E+00
    0.00000E+00         0.00000E+00        -0.45195E+08
 
   -0.44495E+08         0.11099E+07         0.00000E+00
    0.11099E+07        -0.49986E+08         0.00000E+00
    0.00000E+00         0.00000E+00        -0.45195E+08
 
   -0.44511E+08         0.11974E+07         0.00000E+00
    0.11974E+07        -0.49984E+08         0.00000E+00
    0.00000E+00         0.00000E+00        -0.45195E+08
 
   -0.44527E+08         0.12847E+07         0.00000E+00
    0.12847E+07        -0.49981E+08         0.00000E+00
    0.00000E+00         0.00000E+00        -0.45195E+08
 
   -0.44543E+08         0.13718E+07         0.00000E+00
    0.13718E+07        -0.49978E+08         0.00000E+00
    0.00000E+00         0.00000E+00        -0.45195E+08
 
   -0.44560E+08         0.14587E+07         0.00000E+00
    0.14587E+07        -0.49975E+08         0.00000E+00
    0.00000E+00         0.00000E+00        -0.45194E+08
 
   -0.44576E+08         0.15454E+07         0.00000E+00
    0.15454E+07        -0.49972E+08         0.00000E+00
    0.00000E+00         0.00000E+00        -0.45194E+08
 
   -0.44593E+08         0.16320E+07         0.00000E+00
    0.16320E+07        -0.49969E+08         0.00000E+00
    0.00000E+00         0.00000E+00        -0.45194E+08
 
   -0.44609E+08         0.17184E+07         0.00000E+00
    0.17184E+07        -0.49966E+08         0.00000E+00
    0.00000E+00         0.00000E+00        -0.45194E+08
 
   -0.44626E+08         0.18046E+07         0.00000E+00
    0.18046E+07        -0.49962E+08         0.00000E+00
    0.00000E+00         0.00000E+00        -0.45193E+08
 
   -0.44643E+08         0.18906E+07         0.00000E+00
    0.18906E+07        -0.49958E+08         0.00000E+00
    0.00000E+00         0.00000E+00        -0.45193E+08
 
   -0.44660E+08         0.19764E+07         0.00000E+00
    0.19764E+07        -0.49954E+08         0.00000E+00
    0.00000E+00         0.00000E+00        -0.45193E+08
 
   -0.44677E+08         0.20621E+07         0.00000E+00
    0.20621E+07        -0.49949E+08         0.00000E+00
    0.00000E+00         0.00000E+00        -0.45193E+08
 
   -0.44694E+08         0.21476E+07         0.00000E+00
    0.21476E+07        -0.49945E+08         0.00000E+00
    0.00000E+00         0.00000E+00        -0.45192E+08
 
   -0.44712E+08         0.22330E+07         0.00000E+00
    0.22330E+07        -0.49940E+08         0.00000E+00
    0.00000E+00         0.00000E+00        -0.45192E+08
 
   -0.44729E+08         0.23181E+07         0.00000E+00
    0.23181E+07        -0.49935E+08         0.00000E+00
    0.00000E+00         0.00000E+00        -0.45192E+08
 
   -0.44747E+08         0.24031E+07         0.00000E+00
    0.24031E+07        -0.49930E+08         0.00000E+00
    0.00000E+00         0.00000E+00        -0.45192E+08
 
   -0.44765E+08         0.24880E+07         0.00000E+00
    0.24880E+07        -0.49925E+08         0.00000E+00
    0.00000E+00         0.00000E+00        -0.45191E+08
 
   -0.44782E+08         0.25726E+07         0.00000E+00
    0.25726E+07        -0.49919E+08         0.00000E+00
    0.00000E+00         0.00000E+00        -0.45191E+08
 
   -0.44800E+08         0.26571E+07         0.00000E+00
    0.26571E+07        -0.49913E+08         0.00000E+00
    0.00000E+00         0.00000E+00        -0.45191E+08
 
   -0.44819E+08         0.27414E+07         0.00000E+00
    0.27414E+07        -0.49907E+08         0.00000E+00
    0.00000E+00         0.00000E+00        -0.45191E+08
 
   -0.44837E+08         0.28255E+07         0.00000E+00
    0.28255E+07        -0.49901E+08         0.00000E+00
    0.00000E+00         0.00000E+00        -0.45190E+08
 
   -0.44855E+08         0.29095E+07         0.00000E+00
    0.29095E+07        -0.49894E+08         0.00000E+00
    0.00000E+00         0.00000E+00        -0.45190E+08
 
   -0.44874E+08         0.29933E+07         0.00000E+00
    0.29933E+07        -0.49887E+08         0.00000E+00
    0.00000E+00         0.00000E+00        -0.45190E+08
 
   -0.44893E+08         0.30769E+07         0.00000E+00
    0.30769E+07        -0.49880E+08         0.00000E+00
    0.00000E+00         0.00000E+00        -0.45190E+08
 
   -0.44912E+08         0.31604E+07         0.00000E+00
    0.31604E+07        -0.49873E+08         0.00000E+00
    0.00000E+00         0.00000E+00        -0.45189E+08
 
   -0.44931E+08         0.32437E+07         0.00000E+00
    0.32437E+07        -0.49865E+08         0.00000E+00
    0.00000E+00         0.00000E+00        -0.45189E+08
 
   -0.44950E+08         0.33268E+07         0.00000E+00
    0.33268E+07        -0.49858E+08         0.00000E+00
    0.00000E+00         0.00000E+00        -0.45189E+08
 
   -0.44970E+08         0.34097E+07         0.00000E+00
    0.34097E+07        -0.49850E+08         0.00000E+00
    0.00000E+00         0.00000E+00        -0.45189E+08
 
   -0.44990E+08         0.34925E+07         0.00000E+00
    0.34925E+07        -0.49841E+08         0.00000E+00
    0.00000E+00         0.00000E+00        -0.45189E+08
 
   -0.45009E+08         0.35750E+07         0.00000E+00
    0.35750E+07        -0.49833E+08         0.00000E+00
    0.00000E+00         0.00000E+00        -0.45189E+08
 
   -0.45030E+08         0.36574E+07         0.00000E+00
    0.36574E+07        -0.49824E+08         0.00000E+00
    0.00000E+00         0.00000E+00        -0.45188E+08
 
   -0.45050E+08         0.37396E+07         0.00000E+00
    0.37396E+07        -0.49815E+08         0.00000E+00
    0.00000E+00         0.00000E+00        -0.45188E+08
 
   -0.45071E+08         0.38216E+07         0.00000E+00
    0.38216E+07        -0.49806E+08         0.00000E+00
    0.00000E+00         0.00000E+00        -0.45188E+08
 
   -0.45091E+08         0.39035E+07         0.00000E+00
    0.39035E+07        -0.49796E+08         0.00000E+00
    0.00000E+00         0.00000E+00        -0.45188E+08
 
   -0.45112E+08         0.39851E+07         0.00000E+00
    0.39851E+07        -0.49786E+08         0.00000E+00
    0.00000E+00         0.00000E+00        -0.45188E+08
 
   -0.45134E+08         0.40666E+07         0.00000E+00
    0.40666E+07        -0.49776E+08         0.00000E+00
    0.00000E+00         0.00000E+00        -0.45188E+08
 
   -0.45155E+08         0.41479E+07         0.00000E+00
    0.41479E+07        -0.49766E+08         0.00000E+00
    0.00000E+00         0.00000E+00        -0.45188E+08
 
   -0.45177E+08         0.42289E+07         0.00000E+00
    0.42289E+07        -0.49755E+08         0.00000E+00
    0.00000E+00         0.00000E+00        -0.45188E+08
 
   -0.43853E+08         0.45659E+05         0.00000E+00
    0.45659E+05        -0.50000E+08         0.00000E+00
    0.00000E+00         0.00000E+00        -0.44789E+08
 
   -0.43870E+08         0.13639E+06         0.00000E+00
    0.13639E+06        -0.50000E+08         0.00000E+00
    0.00000E+00         0.00000E+00        -0.44789E+08
 
   -0.43886E+08         0.22692E+06         0.00000E+00
    0.22692E+06        -0.49999E+08         0.00000E+00
    0.00000E+00         0.00000E+00        -0.44789E+08
 
   -0.43903E+08         0.31724E+06         0.00000E+00
    0.31724E+06        -0.49999E+08         0.00000E+00
    0.00000E+00         0.00000E+00        -0.44789E+08
 
   -0.43920E+08         0.40735E+06         0.00000E+00
    0.40735E+06        -0.49998E+08         0.00000E+00
    0.00000E+00         0.00000E+00        -0.44789E+08
 
   -0.43936E+08         0.49727E+06         0.00000E+00
    0.49727E+06        -0.49997E+08         0.00000E+00
    0.00000E+00         0.00000E+00        -0.44789E+08
 
   -0.43953E+08         0.58700E+06         0.00000E+00
    0.58700E+06        -0.49996E+08         0.00000E+00
    0.00000E+00         0.00000E+00        -0.44789E+08
 
   -0.43970E+08         0.67652E+06         0.00000E+00
    0.67652E+06        -0.49995E+08         0.00000E+00
    0.00000E+00         0.00000E+00        -0.44789E+08
 
   -0.43987E+08         0.76586E+06         0.00000E+00
    0.76586E+06        -0.49993E+08         0.00000E+00
    0.00000E+00         0.00000E+00        -0.44789E+08
 
   -0.44003E+08         0.85501E+06         0.00000E+00
    0.85501E+06        -0.49992E+08         0.00000E+00
    0.00000E+00         0.00000E+00        -0.44789E+08
 
   -0.44020E+08         0.94398E+06         0.00000E+00
    0.94398E+06        -0.49990E+08         0.00000E+00
    0.00000E+00         0.00000E+00        -0.44788E+08
 
   -0.44037E+08         0.10328E+07         0.00000E+00
    0.10328E+07        -0.49988E+08         0.00000E+00
    0.00000E+00         0.00000E+00        -0.44788E+08
 
   -0.44054E+08         0.11214E+07         0.00000E+00
    0.11214E+07        -0.49986E+08         0.00000E+00
    0.00000E+00         0.00000E+00        -0.44788E+08
 
   -0.44071E+08         0.12098E+07         0.00000E+00
    0.12098E+07        -0.49983E+08         0.00000E+00
    0.00000E+00         0.00000E+00        -0.44788E+08
 
   -0.44089E+08         0.12980E+07         0.00000E+00
    0.12980E+07        -0.49981E+08         0.00000E+00
    0.00000E+00         0.00000E+00        -0.44787E+08
 
   -0.44106E+08         0.13861E+07         0.00000E+00
    0.13861E+07        -0.49978E+08         0.00000E+00
    0.00000E+00         0.00000E+00        -0.44787E+08
 
   -0.44123E+08         0.14740E+07         0.00000E+00
    0.14740E+07        -0.49975E+08         0.00000E+00
    0.00000E+00         0.00000E+00        -0.44787E+08
 
   -0.44140E+08         0.15617E+07         0.00000E+00
    0.15617E+07        -0.49972E+08         0.00000E+00
    0.00000E+00         0.00000E+00        -0.44787E+08
 
   -0.44158E+08         0.16493E+07         0.00000E+00
    0.16493E+07        -0.49968E+08         0.00000E+00
    0.00000E+00         0.00000E+00        -0.44786E+08
 
   -0.44175E+08         0.17367E+07         0.00000E+00
    0.17367E+07        -0.49965E+08         0.00000E+00
    0.00000E+00         0.00000E+00        -0.44786E+08
 
   -0.44193E+08         0.18239E+07         0.00000E+00
    0.18239E+07        -0.49961E+08         0.00000E+00
    0.00000E+00         0.00000E+00        -0.44786E+08
 
   -0.44211E+08         0.19110E+07         0.00000E+00
    0.19110E+07        -0.49957E+08         0.00000E+00
    0.00000E+00         0.00000E+00        -0.44786E+08
 
   -0.44229E+08         0.19979E+07         0.00000E+00
    0.19979E+07        -0.49953E+08         0.00000E+00
    0.00000E+00         0.00000E+00        -0.44785E+08
 
   -0.44247E+08         0.20847E+07         0.00000E+00
    0.20847E+07        -0.49948E+08         0.00000E+00
    0.00000E+00         0.00000E+00        -0.44785E+08
 
   -0.44265E+08         0.21713E+07         0.00000E+00
    0.21713E+07        -0.49943E+08         0.00000E+00
    0.00000E+00         0.00000E+00        -0.44785E+08
 
   -0.44283E+08         0.22577E+07         0.00000E+00
    0.22577E+07        -0.49939E+08         0.00000E+00
    0.00000E+00         0.00000E+00        -0.44784E+08
 
   -0.44301E+08         0.23439E+07         0.00000E+00
    0.23439E+07        -0.49933E+08         0.00000E+00
    0.00000E+00         0.00000E+00        -0.44784E+08
 
   -0.44319E+08         0.24301E+07         0.00000E+00
    0.24301E+07        -0.49928E+08         0.00000E+00
    0.00000E+00         0.00000E+00        -0.44784E+08
 
   -0.44338E+08         0.25160E+07         0.00000E+00
    0.25160E+07        -0.49923E+08         0.00000E+00
    0.00000E+00         0.00000E+00        -0.44784E+08
 
   -0.44357E+08         0.26018E+07         0.00000E+00
    0.26018E+07        -0.49917E+08         0.00000E+00
    0.00000E+00         0.00000E+00        -0.44783E+08
 
   -0.44376E+08         0.26875E+07         0.00000E+00
    0.26875E+07        -0.49911E+08         0.00000E+00
    0.00000E+00         0.00000E+00        -0.44783E+08
 
   -0.44394E+08         0.27729E+07         0.00000E+00
    0.27729E+07        -0.49904E+08         0.00000E+00
    0.00000E+00         0.00000E+00        -0.44783E+08
 
   -0.44414E+08         0.28583E+07         0.00000E+00
    0.28583E+07        -0.49898E+08         0.00000E+00
    0.00000E+00         0.00000E+00        -0.44782E+08
 
   -0.44433E+08         0.29434E+07         0.00000E+00
    0.29434E+07        -0.49891E+08         0.00000E+00
    0.00000E+00         0.00000E+00        -0.44782E+08
 
   -0.44452E+08         0.30285E+07         0.00000E+00
    0.30285E+07        -0.49884E+08         0.00000E+00
    0.00000E+00         0.00000E+00        -0.44782E+08
 
   -0.44472E+08         0.31133E+07         0.00000E+00
    0.31133E+07        -0.49877E+08         0.00000E+00
    0.00000E+00         0.00000E+00        -0.44782E+08
 
   -0.44492E+08         0.31980E+07         0.00000E+00
    0.31980E+07        -0.49869E+08         0.00000E+00
    0.00000E+00         0.00000E+00        -0.44781E+08
 
   -0.44512E+08         0.32826E+07         0.00000E+00
    0.32826E+07        -0.49861E+08         0.00000E+00
    0.00000E+00         0.00000E+00        -0.44781E+08
 
   -0.44532E+08         0.33670E+07         0.00000E+00
    0.33670E+07        -0.49853E+08         0.00000E+00
    0.00000E+00         0.00000E+00        -0.44781E+08
 
   -0.44552E+08         0.34512E+07         0.00000E+00
    0.34512E+07        -0.49845E+08         0.00000E+00
    0.00000E+00         0.00000E+00        -0.44781E+08
 
   -0.44573E+08         0.35353E+07         0.00000E+00
    0.35353E+07        -0.49837E+08         0.00000E+00
    0.00000E+00         0.00000E+00        -0.44781E+08
 
   -0.44594E+08         0.36192E+07         0.00000E+00
    0.36192E+07        -0.49828E+08         0.00000E+00
    0.00000E+00         0.00000E+00        -0.44780E+08
 
   -0.44615E+08         0.37029E+07         0.00000E+00
    0.37029E+07        -0.49819E+08         0.00000E+00
    0.00000E+00         0.00000E+00        -0.44780E+08
 
   -0.44636E+08         0.37865E+07         0.00000E+00
    0.37865E+07        -0.49809E+08         0.00000E+00
    0.00000E+00         0.00000E+00        -0.44780E+08
 
   -0.44657E+08         0.38699E+07         0.00000E+00
    0.38699E+07        -0.49799E+08         0.00000E+00
    0.00000E+00         0.00000E+00        -0.44780E+08
 
   -0.44679E+08         0.39532E+07         0.00000E+00
    0.39532E+07        -0.49789E+08         0.00000E+00
    0.00000E+00         0.00000E+00        -0.44780E+08
 
   -0.44701E+08         0.40362E+07         0.00000E+00
    0.40362E+07        -0.49779E+08         0.00000E+00
    0.00000E+00         0.00000E+00        -0.44780E+08
 
   -0.44723E+08         0.41191E+07         0.00000E+00
    0.41191E+07        -0.49769E+08         0.00000E+00
    0.00000E+00         0.00000E+00        -0.44780E+08
 
   -0.44746E+08         0.42019E+07         0.00000E+00
    0.42019E+07        -0.49758E+08         0.00000E+00
    0.00000E+00         0.00000E+00        -0.44780E+08
 
   -0.44768E+08         0.42844E+07         0.00000E+00
    0.42844E+07        -0.49747E+08         0.00000E+00
    0.00000E+00         0.00000E+00        -0.44780E+08
 
   -0.43397E+08         0.46104E+05         0.00000E+00
    0.46104E+05        -0.50000E+08         0.00000E+00
    0.00000E+00         0.00000E+00        -0.44375E+08
 
   -0.43414E+08         0.13774E+06         0.00000E+00
    0.13774E+06        -0.50000E+08         0.00000E+00
    0.00000E+00         0.00000E+00        -0.44375E+08
 
   -0.43432E+08         0.22917E+06         0.00000E+00
    0.22917E+06        -0.49999E+08         0.00000E+00
    0.00000E+00         0.00000E+00        -0.44375E+08
 
   -0.43450E+08         0.32040E+06         0.00000E+00
    0.32040E+06        -0.49999E+08         0.00000E+00
    0.00000E+00         0.00000E+00        -0.44374E+08
 
   -0.43467E+08         0.41143E+06         0.00000E+00
    0.41143E+06        -0.49998E+08         0.00000E+00
    0.00000E+00         0.00000E+00        -0.44374E+08
 
   -0.43485E+08         0.50227E+06         0.00000E+00
    0.50227E+06        -0.49997E+08         0.00000E+00
    0.00000E+00         0.00000E+00        -0.44374E+08
 
   -0.43503E+08         0.59292E+06         0.00000E+00
    0.59292E+06        -0.49996E+08         0.00000E+00
    0.00000E+00         0.00000E+00        -0.44374E+08
 
   -0.43520E+08         0.68338E+06         0.00000E+00
    0.68338E+06        -0.49995E+08         0.00000E+00
    0.00000E+00         0.00000E+00        -0.44374E+08
 
   -0.43538E+08         0.77366E+06         0.00000E+00
    0.77366E+06        -0.49993E+08         0.00000E+00
    0.00000E+00         0.00000E+00        -0.44374E+08
 
   -0.43556E+08         0.86377E+06         0.00000E+00
    0.86377E+06        -0.49992E+08         0.00000E+00
    0.00000E+00         0.00000E+00        -0.44374E+08
 
   -0.43574E+08         0.95369E+06         0.00000E+00
    0.95369E+06        -0.49990E+08         0.00000E+00
    0.00000E+00         0.00000E+00        -0.44373E+08
 
   -0.43591E+08         0.10434E+07         0.00000E+00
    0.10434E+07        -0.49988E+08         0.00000E+00
    0.00000E+00         0.00000E+00        -0.44373E+08
 
   -0.43609E+08         0.11330E+07         0.00000E+00
    0.11330E+07        -0.49986E+08         0.00000E+00
    0.00000E+00         0.00000E+00        -0.44373E+08
 
   -0.43627E+08         0.12224E+07         0.00000E+00
    0.12224E+07        -0.49983E+08         0.00000E+00
    0.00000E+00         0.00000E+00        -0.44373E+08
 
   -0.43645E+08         0.13117E+07         0.00000E+00
    0.13117E+07        -0.49980E+08         0.00000E+00
    0.00000E+00         0.00000E+00        -0.44372E+08
 
   -0.43663E+08         0.14007E+07         0.00000E+00
    0.14007E+07        -0.49978E+08         0.00000E+00
    0.00000E+00         0.00000E+00        -0.44372E+08
 
   -0.43681E+08         0.14897E+07         0.00000E+00
    0.14897E+07        -0.49975E+08         0.00000E+00
    0.00000E+00         0.00000E+00        -0.44372E+08
 
   -0.43700E+08         0.15784E+07         0.00000E+00
    0.15784E+07        -0.49971E+08         0.00000E+00
    0.00000E+00         0.00000E+00        -0.44372E+08
 
   -0.43718E+08         0.16670E+07         0.00000E+00
    0.16670E+07        -0.49968E+08         0.00000E+00
    0.00000E+00         0.00000E+00        -0.44371E+08
 
   -0.43736E+08         0.17555E+07         0.00000E+00
    0.17555E+07        -0.49964E+08         0.00000E+00
    0.00000E+00         0.00000E+00        -0.44371E+08
 
   -0.43755E+08         0.18438E+07         0.00000E+00
    0.18438E+07        -0.49960E+08         0.00000E+00
    0.00000E+00         0.00000E+00        -0.44371E+08
 
   -0.43773E+08         0.19319E+07         0.00000E+00
    0.19319E+07        -0.49956E+08         0.00000E+00
    0.00000E+00         0.00000E+00        -0.44370E+08
 
   -0.43792E+08         0.20199E+07         0.00000E+00
    0.20199E+07        -0.49952E+08         0.00000E+00
    0.00000E+00         0.00000E+00        -0.44370E+08
 
   -0.43810E+08         0.21078E+07         0.00000E+00
    0.21078E+07        -0.49947E+08         0.00000E+00
    0.00000E+00         0.00000E+00        -0.44370E+08
 
   -0.43829E+08         0.21955E+07         0.00000E+00
    0.21955E+07        -0.49942E+08         0.00000E+00
    0.00000E+00         0.00000E+00        -0.44369E+08
 
   -0.43848E+08         0.22830E+07         0.00000E+00
    0.22830E+07        -0.49937E+08         0.00000E+00
    0.00000E+00         0.00000E+00        -0.44369E+08
 
   -0.43867E+08         0.23704E+07         0.00000E+00
    0.23704E+07        -0.49932E+08         0.00000E+00
    0.00000E+00         0.00000E+00        -0.44369E+08
 
   -0.43886E+08         0.24577E+07         0.00000E+00
    0.24577E+07        -0.49927E+08         0.00000E+00
    0.00000E+00         0.00000E+00        -0.44368E+08
 
   -0.43906E+08         0.25448E+07         0.00000E+00
    0.25448E+07        -0.49921E+08         0.00000E+00
    0.00000E+00         0.00000E+00        -0.44368E+08
 
   -0.43925E+08         0.26318E+07         0.00000E+00
    0.26318E+07        -0.49915E+08         0.00000E+00
    0.00000E+00         0.00000E+00        -0.44368E+08
 
   -0.43945E+08         0.27187E+07         0.00000E+00
    0.27187E+07        -0.49909E+08         0.00000E+00
    0.00000E+00         0.00000E+00        -0.44367E+08
 
   -0.43964E+08         0.28054E+07         0.00000E+00
    0.28054E+07        -0.49902E+08         0.00000E+00
    0.00000E+00         0.00000E+00        -0.44367E+08
 
   -0.43984E+08         0.28920E+07         0.00000E+00
    0.28920E+07        -0.49896E+08         0.00000E+00
    0.00000E+00         0.00000E+00        -0.44367E+08
 
   -0.44004E+08         0.29784E+07         0.00000E+00
    0.29784E+07        -0.49889E+08         0.00000E+00
    0.00000E+00         0.00000E+00        -0.44367E+08
 
   -0.44024E+08         0.30647E+07         0.00000E+00
    0.30647E+07        -0.49882E+08         0.00000E+00
    0.00000E+00         0.00000E+00        -0.44366E+08
 
   -0.44045E+08         0.31509E+07         0.00000E+00
    0.31509E+07        -0.49874E+08         0.00000E+00
    0.00000E+00         0.00000E+00        -0.44366E+08
 
   -0.44065E+08         0.32369E+07         0.00000E+00
    0.32369E+07        -0.49866E+08         0.00000E+00
    0.00000E+00         0.00000E+00        -0.44366E+08
 
   -0.44086E+08         0.33228E+07         0.00000E+00
    0.33228E+07        -0.49858E+08         0.00000E+00
    0.00000E+00         0.00000E+00        -0.44366E+08
 
   -0.44107E+08         0.34085E+07         0.00000E+00
    0.34085E+07        -0.49850E+08         0.00000E+00
    0.00000E+00         0.00000E+00        -0.44365E+08
 
   -0.44128E+08         0.34941E+07         0.00000E+00
    0.34941E+07        -0.49842E+08         0.00000E+00
    0.00000E+00         0.00000E+00        -0.44365E+08
 
   -0.44149E+08         0.35796E+07         0.00000E+00
    0.35796E+07        -0.49833E+08         0.00000E+00
    0.00000E+00         0.00000E+00        -0.44365E+08
 
   -0.44171E+08         0.36649E+07         0.00000E+00
    0.36649E+07        -0.49824E+08         0.00000E+00
    0.00000E+00         0.00000E+00        -0.44365E+08
 
   -0.44193E+08         0.37501E+07         0.00000E+00
    0.37501E+07        -0.49814E+08         0.00000E+00
    0.00000E+00         0.00000E+00        -0.44365E+08
 
   -0.44215E+08         0.38351E+07         0.00000E+00
    0.38351E+07        -0.49804E+08         0.00000E+00
    0.00000E+00         0.00000E+00        -0.44364E+08
 
   -0.44237E+08         0.39200E+07         0.00000E+00
    0.39200E+07        -0.49794E+08         0.00000E+00
    0.00000E+00         0.00000E+00        -0.44364E+08
 
   -0.44260E+08         0.40047E+07         0.00000E+00
    0.40047E+07        -0.49784E+08         0.00000E+00
    0.00000E+00         0.00000E+00        -0.44364E+08
 
   -0.44282E+08         0.40893E+07         0.00000E+00
    0.40893E+07        -0.49773E+08         0.00000E+00
    0.00000E+00         0.00000E+00        -0.44364E+08
 
   -0.44305E+08         0.41737E+07         0.00000E+00
    0.41737E+07        -0.49762E+08         0.00000E+00
    0.00000E+00         0.00000E+00        -0.44364E+08
 
   -0.44329E+08         0.42580E+07         0.00000E+00
    0.42580E+07        -0.49751E+08         0.00000E+00
    0.00000E+00         0.00000E+00        -0.44364E+08
 
   -0.44352E+08         0.43421E+07         0.00000E+00
    0.43421E+07        -0.49740E+08         0.00000E+00
    0.00000E+00         0.00000E+00        -0.44364E+08
 
   -0.42936E+08         0.46551E+05         0.00000E+00
    0.46551E+05        -0.50000E+08         0.00000E+00
    0.00000E+00         0.00000E+00        -0.43952E+08
 
   -0.42954E+08         0.13909E+06         0.00000E+00
    0.13909E+06        -0.50000E+08         0.00000E+00
    0.00000E+00         0.00000E+00        -0.43952E+08
 
   -0.42973E+08         0.23143E+06         0.00000E+00
    0.23143E+06        -0.49999E+08         0.00000E+00
    0.00000E+00         0.00000E+00        -0.43952E+08
 
   -0.42992E+08         0.32358E+06         0.00000E+00
    0.32358E+06        -0.49999E+08         0.00000E+00
    0.00000E+00         0.00000E+00        -0.43951E+08
 
   -0.43010E+08         0.41554E+06         0.00000E+00
    0.41554E+06        -0.49998E+08         0.00000E+00
    0.00000E+00         0.00000E+00        -0.43951E+08
 
   -0.43029E+08         0.50731E+06         0.00000E+00
    0.50731E+06        -0.49997E+08         0.00000E+00
    0.00000E+00         0.00000E+00        -0.43951E+08
 
   -0.43047E+08         0.59890E+06         0.00000E+00
    0.59890E+06        -0.49996E+08         0.00000E+00
    0.00000E+00         0.00000E+00        -0.43951E+08
 
   -0.43066E+08         0.69031E+06         0.00000E+00
    0.69031E+06        -0.49995E+08         0.00000E+00
    0.00000E+00         0.00000E+00        -0.43951E+08
 
   -0.43085E+08         0.78154E+06         0.00000E+00
    0.78154E+06        -0.49993E+08         0.00000E+00
    0.00000E+00         0.00000E+00        -0.43951E+08
 
   -0.43103E+08         0.87260E+06         0.00000E+00
    0.87260E+06        -0.49992E+08         0.00000E+00
    0.00000E+00         0.00000E+00        -0.43950E+08
 
   -0.43122E+08         0.96350E+06         0.00000E+00
    0.96350E+06        -0.49990E+08         0.00000E+00
    0.00000E+00         0.00000E+00        -0.43950E+08
 
   -0.43141E+08         0.10542E+07         0.00000E+00
    0.10542E+07        -0.49988E+08         0.00000E+00
    0.00000E+00         0.00000E+00        -0.43950E+08
 
   -0.43159E+08         0.11448E+07         0.00000E+00
    0.11448E+07        -0.49985E+08         0.00000E+00
    0.00000E+00         0.00000E+00        -0.43950E+08
 
   -0.43178E+08         0.12352E+07         0.00000E+00
    0.12352E+07        -0.49983E+08         0.00000E+00
    0.00000E+00         0.00000E+00        -0.43949E+08
 
   -0.43197E+08         0.13255E+07         0.00000E+00
    0.13255E+07        -0.49980E+08         0.00000E+00
    0.00000E+00         0.00000E+00        -0.43949E+08
 
   -0.43216E+08         0.14156E+07         0.00000E+00
    0.14156E+07        -0.49977E+08         0.00000E+00
    0.00000E+00         0.00000E+00        -0.43949E+08
 
   -0.43235E+08         0.15055E+07         0.00000E+00
    0.15055E+07        -0.49974E+08         0.00000E+00
    0.00000E+00         0.00000E+00        -0.43949E+08
 
   -0.43254E+08         0.15953E+07         0.00000E+00
    0.15953E+07        -0.49971E+08         0.00000E+00
    0.00000E+00         0.00000E+00        -0.43948E+08
 
   -0.43273E+08         0.16850E+07         0.00000E+00
    0.16850E+07        -0.49968E+08         0.00000E+00
    0.00000E+00         0.00000E+00        -0.43948E+08
 
   -0.43292E+08         0.17745E+07         0.00000E+00
    0.17745E+07        -0.49964E+08         0.00000E+00
    0.00000E+00         0.00000E+00        -0.43948E+08
 
   -0.43311E+08         0.18639E+07         0.00000E+00
    0.18639E+07        -0.49960E+08         0.00000E+00
    0.00000E+00         0.00000E+00        -0.43947E+08
 
   -0.43330E+08         0.19532E+07         0.00000E+00
    0.19532E+07        -0.49956E+08         0.00000E+00
    0.00000E+00         0.00000E+00        -0.43947E+08
 
   -0.43349E+08         0.20423E+07         0.00000E+00
    0.20423E+07        -0.49951E+08         0.00000E+00
    0.00000E+00         0.00000E+00        -0.43947E+08
 
   -0.43369E+08         0.21313E+07         0.00000E+00
    0.21313E+07        -0.49947E+08         0.00000E+00
    0.00000E+00         0.00000E+00        -0.43946E+08
 
   -0.43388E+08         0.22201E+07         0.00000E+00
    0.22201E+07        -0.49942E+08         0.00000E+00
    0.00000E+00         0.00000E+00        -0.43946E+08
 
   -0.43408E+08         0.23088E+07         0.00000E+00
    0.23088E+07        -0.49937E+08         0.00000E+00
    0.00000E+00         0.00000E+00        -0.43945E+08
 
   -0.43428E+08         0.23974E+07         0.00000E+00
    0.23974E+07        -0.49932E+08         0.00000E+00
    0.00000E+00         0.00000E+00        -0.43945E+08
 
   -0.43447E+08         0.24859E+07         0.00000E+00
    0.24859E+07        -0.49926E+08         0.00000E+00
    0.00000E+00         0.00000E+00        -0.43945E+08
 
   -0.43467E+08         0.25743E+07         0.00000E+00
    0.25743E+07        -0.49920E+08         0.00000E+00
    0.00000E+00         0.00000E+00        -0.43944E+08
 
   -0.43487E+08         0.26625E+07         0.00000E+00
    0.26625E+07        -0.49914E+08         0.00000E+00
    0.00000E+00         0.00000E+00        -0.43944E+08
 
   -0.43508E+08         0.27506E+07         0.00000E+00
    0.27506E+07        -0.49908E+08         0.00000E+00
    0.00000E+00         0.00000E+00        -0.43944E+08
 
   -0.43528E+08         0.28386E+07         0.00000E+00
    0.28386E+07        -0.49901E+08         0.00000E+00
    0.00000E+00         0.00000E+00        -0.43943E+08
 
   -0.43548E+08         0.29264E+07         0.00000E+00
    0.29264E+07        -0.49894E+08         0.00000E+00
    0.00000E+00         0.00000E+00        -0.43943E+08
 
   -0.43569E+08         0.30142E+07         0.00000E+00
    0.30142E+07        -0.49887E+08         0.00000E+00
    0.00000E+00         0.00000E+00        -0.43943E+08
 
   -0.43590E+08         0.31018E+07         0.00000E+00
    0.31018E+07        -0.49880E+08         0.00000E+00
    0.00000E+00         0.00000E+00        -0.43942E+08
 
   -0.43611E+08         0.31893E+07         0.00000E+00
    0.31893E+07        -0.49872E+08         0.00000E+00
    0.00000E+00         0.00000E+00        -0.43942E+08
 
   -0.43632E+08         0.32767E+07         0.00000E+00
    0.32767E+07        -0.49864E+08         0.00000E+00
    0.00000E+00         0.00000E+00        -0.43942E+08
 
   -0.43654E+08         0.33640E+07         0.00000E+00
    0.33640E+07        -0.49856E+08         0.00000E+00
    0.00000E+00         0.00000E+00        -0.43942E+08
 
   -0.43675E+08         0.34511E+07         0.00000E+00
    0.34511E+07        -0.49848E+08         0.00000E+00
    0.00000E+00         0.00000E+00        -0.43941E+08
 
   -0.43697E+08         0.35382E+07         0.00000E+00
    0.35382E+07        -0.49839E+08         0.00000E+00
    0.00000E+00         0.00000E+00        -0.43941E+08
 
   -0.43719E+08         0.36251E+07         0.00000E+00
    0.36251E+07        -0.49830E+08         0.00000E+00
    0.00000E+00         0.00000E+00        -0.43941E+08
 
   -0.43741E+08         0.37119E+07         0.00000E+00
    0.37119E+07        -0.49821E+08         0.00000E+00
    0.00000E+00         0.00000E+00        -0.43941E+08
 
   -0.43763E+08         0.37986E+07         0.00000E+00
    0.37986E+07        -0.49811E+08         0.00000E+00
    0.00000E+00         0.00000E+00        -0.43941E+08
 
   -0.43786E+08         0.38851E+07         0.00000E+00
    0.38851E+07        -0.49801E+08         0.00000E+00
    0.00000E+00         0.00000E+00        -0.43940E+08
 
   -0.43809E+08         0.39715E+07         0.00000E+00
    0.39715E+07        -0.49791E+08         0.00000E+00
    0.00000E+00         0.00000E+00        -0.43940E+08
 
   -0.43832E+08         0.40578E+07         0.00000E+00
    0.40578E+07        -0.49780E+08         0.00000E+00
    0.00000E+00         0.00000E+00        -0.43940E+08
 
   -0.43856E+08         0.41440E+07         0.00000E+00
    0.41440E+07        -0.49769E+08         0.00000E+00
    0.00000E+00         0.00000E+00        -0.43940E+08
 
   -0.43879E+08         0.42301E+07         0.00000E+00
    0.42301E+07        -0.49758E+08         0.00000E+00
    0.00000E+00         0.00000E+00        -0.43940E+08
 
   -0.43903E+08         0.43160E+07         0.00000E+00
    0.43160E+07        -0.49746E+08         0.00000E+00
    0.00000E+00         0.00000E+00        -0.43940E+08
 
   -0.43928E+08         0.44018E+07         0.00000E+00
    0.44018E+07        -0.49734E+08         0.00000E+00
    0.00000E+00         0.00000E+00        -0.43940E+08
 
   -0.42470E+08         0.46997E+05         0.00000E+00
    0.46997E+05        -0.50000E+08         0.00000E+00
    0.00000E+00         0.00000E+00        -0.43520E+08
 
   -0.42490E+08         0.14044E+06         0.00000E+00
    0.14044E+06        -0.50000E+08         0.00000E+00
    0.00000E+00         0.00000E+00        -0.43520E+08
 
   -0.42510E+08         0.23370E+06         0.00000E+00
    0.23370E+06        -0.49999E+08         0.00000E+00
    0.00000E+00         0.00000E+00        -0.43520E+08
 
   -0.42529E+08         0.32676E+06         0.00000E+00
    0.32676E+06        -0.49999E+08         0.00000E+00
    0.00000E+00         0.00000E+00        -0.43520E+08
 
   -0.42549E+08         0.41964E+06         0.00000E+00
    0.41964E+06        -0.49998E+08         0.00000E+00
    0.00000E+00         0.00000E+00        -0.43520E+08
 
   -0.42568E+08         0.51235E+06         0.00000E+00
    0.51235E+06        -0.49997E+08         0.00000E+00
    0.00000E+00         0.00000E+00        -0.43519E+08
 
   -0.42588E+08         0.60487E+06         0.00000E+00
    0.60487E+06        -0.49996E+08         0.00000E+00
    0.00000E+00         0.00000E+00        -0.43519E+08
 
   -0.42607E+08         0.69723E+06         0.00000E+00
    0.69723E+06        -0.49995E+08         0.00000E+00
    0.00000E+00         0.00000E+00        -0.43519E+08
 
   -0.42626E+08         0.78942E+06         0.00000E+00
    0.78942E+06        -0.49993E+08         0.00000E+00
    0.00000E+00         0.00000E+00        -0.43519E+08
 
   -0.42646E+08         0.88146E+06         0.00000E+00
    0.88146E+06        -0.49992E+08         0.00000E+00
    0.00000E+00         0.00000E+00        -0.43519E+08
 
   -0.42665E+08         0.97333E+06         0.00000E+00
    0.97333E+06        -0.49990E+08         0.00000E+00
    0.00000E+00         0.00000E+00        -0.43518E+08
 
   -0.42685E+08         0.10650E+07         0.00000E+00
    0.10650E+07        -0.49988E+08         0.00000E+00
    0.00000E+00         0.00000E+00        -0.43518E+08
 
   -0.42704E+08         0.11566E+07         0.00000E+00
    0.11566E+07        -0.49986E+08         0.00000E+00
    0.00000E+00         0.00000E+00        -0.43518E+08
 
   -0.42724E+08         0.12480E+07         0.00000E+00
    0.12480E+07        -0.49983E+08         0.00000E+00
    0.00000E+00         0.00000E+00        -0.43518E+08
 
   -0.42743E+08         0.13393E+07         0.00000E+00
    0.13393E+07        -0.49980E+08         0.00000E+00
    0.00000E+00         0.00000E+00        -0.43517E+08
 
   -0.42763E+08         0.14305E+07         0.00000E+00
    0.14305E+07        -0.49978E+08         0.00000E+00
    0.00000E+00         0.00000E+00        -0.43517E+08
 
   -0.42783E+08         0.15215E+07         0.00000E+00
    0.15215E+07        -0.49974E+08         0.00000E+00
    0.00000E+00         0.00000E+00        -0.43517E+08
 
   -0.42802E+08         0.16123E+07         0.00000E+00
    0.16123E+07        -0.49971E+08         0.00000E+00
    0.00000E+00         0.00000E+00        -0.43516E+08
 
   -0.42822E+08         0.17031E+07         0.00000E+00
    0.17031E+07        -0.49968E+08         0.00000E+00
    0.00000E+00         0.00000E+00        -0.43516E+08
 
   -0.42842E+08         0.17937E+07         0.00000E+00
    0.17937E+07        -0.49964E+08         0.00000E+00
    0.00000E+00         0.00000E+00        -0.43516E+08
 
   -0.42861E+08         0.18842E+07         0.00000E+00
    0.18842E+07        -0.49960E+08         0.00000E+00
    0.00000E+00         0.00000E+00        -0.43515E+08
 
   -0.42881E+08         0.19746E+07         0.00000E+00
    0.19746E+07        -0.49956E+08         0.00000E+00
    0.00000E+00         0.00000E+00        -0.43515E+08
 
   -0.42901E+08         0.20648E+07         0.00000E+00
    0.20648E+07        -0.49951E+08         0.00000E+00
    0.00000E+00         0.00000E+00        -0.43514E+08
 
   -0.42921E+08         0.21550E+07         0.00000E+00
    0.21550E+07        -0.49947E+08         0.00000E+00
    0.00000E+00         0.00000E+00        -0.43514E+08
 
   -0.42941E+08         0.22450E+07         0.00000E+00
    0.22450E+07        -0.49942E+08         0.00000E+00
    0.00000E+00         0.00000E+00        -0.43514E+08
 
   -0.42961E+08         0.23349E+07         0.00000E+00
    0.23349E+07        -0.49937E+08         0.00000E+00
    0.00000E+00         0.00000E+00        -0.43513E+08
 
   -0.42982E+08         0.24247E+07         0.00000E+00
    0.24247E+07        -0.49931E+08         0.00000E+00
    0.00000E+00         0.00000E+00        -0.43513E+08
 
   -0.43002E+08         0.25144E+07         0.00000E+00
    0.25144E+07        -0.49926E+08         0.00000E+00
    0.00000E+00         0.00000E+00        -0.43512E+08
 
   -0.43023E+08         0.26041E+07         0.00000E+00
    0.26041E+07        -0.49920E+08         0.00000E+00
    0.00000E+00         0.00000E+00        -0.43512E+08
 
   -0.43043E+08         0.26935E+07         0.00000E+00
    0.26935E+07        -0.49914E+08         0.00000E+00
    0.00000E+00         0.00000E+00        -0.43512E+08
 
   -0.43064E+08         0.27829E+07         0.00000E+00
    0.27829E+07        -0.49907E+08         0.00000E+00
    0.00000E+00         0.00000E+00        -0.43511E+08
 
   -0.43085E+08         0.28722E+07         0.00000E+00
    0.28722E+07        -0.49901E+08         0.00000E+00
    0.00000E+00         0.00000E+00        -0.43511E+08
 
   -0.43106E+08         0.29614E+07         0.00000E+00
    0.29614E+07        -0.49894E+08         0.00000E+00
    0.00000E+00         0.00000E+00        -0.43511E+08
 
   -0.43127E+08         0.30505E+07         0.00000E+00
    0.30505E+07        -0.49887E+08         0.00000E+00
    0.00000E+00         0.00000E+00        -0.43510E+08
 
   -0.43149E+08         0.31395E+07         0.00000E+00
    0.31395E+07        -0.49879E+08         0.00000E+00
    0.00000E+00         0.00000E+00        -0.43510E+08
 
   -0.43170E+08         0.32285E+07         0.00000E+00
    0.32285E+07        -0.49872E+08         0.00000E+00
    0.00000E+00         0.00000E+00        -0.43510E+08
 
   -0.43192E+08         0.33173E+07         0.00000E+00
    0.33173E+07        -0.49864E+08         0.00000E+00
    0.00000E+00         0.00000E+00        -0.43509E+08
 
   -0.43214E+08         0.34060E+07         0.00000E+00
    0.34060E+07        -0.49855E+08         0.00000E+00
    0.00000E+00         0.00000E+00        -0.43509E+08
 
   -0.43236E+08         0.34946E+07         0.00000E+00
    0.34946E+07        -0.49847E+08         0.00000E+00
    0.00000E+00         0.00000E+00        -0.43509E+08
 
   -0.43258E+08         0.35831E+07         0.00000E+00
    0.35831E+07        -0.49838E+08         0.00000E+00
    0.00000E+00         0.00000E+00        -0.43509E+08
 
   -0.43281E+08         0.36716E+07         0.00000E+00
    0.36716E+07        -0.49828E+08         0.00000E+00
    0.00000E+00         0.00000E+00        -0.43508E+08
 
   -0.43303E+08         0.37599E+07         0.00000E+00
    0.37599E+07        -0.49819E+08         0.00000E+00
    0.00000E+00         0.00000E+00        -0.43508E+08
 
   -0.43326E+08         0.38481E+07         0.00000E+00
    0.38481E+07        -0.49809E+08         0.00000E+00
    0.00000E+00         0.00000E+00        -0.43508E+08
 
   -0.43350E+08         0.39363E+07         0.00000E+00
    0.39363E+07        -0.49799E+08         0.00000E+00
    0.00000E+00         0.00000E+00        -0.43508E+08
 
   -0.43373E+08         0.40243E+07         0.00000E+00
    0.40243E+07        -0.49788E+08         0.00000E+00
    0.00000E+00         0.00000E+00        -0.43508E+08
 
   -0.43397E+08         0.41123E+07         0.00000E+00
    0.41123E+07        -0.49778E+08         0.00000E+00
    0.00000E+00         0.00000E+00        -0.43507E+08
 
   -0.43421E+08         0.42001E+07         0.00000E+00
    0.42001E+07        -0.49766E+08         0.00000E+00
    0.00000E+00         0.00000E+00        -0.43507E+08
 
   -0.43445E+08         0.42879E+07         0.00000E+00
    0.42879E+07        -0.49755E+08         0.00000E+00
    0.00000E+00         0.00000E+00        -0.43507E+08
 
   -0.43470E+08         0.43755E+07         0.00000E+00
    0.43755E+07        -0.49743E+08         0.00000E+00
    0.00000E+00         0.00000E+00        -0.43507E+08
 
   -0.43495E+08         0.44631E+07         0.00000E+00
    0.44631E+07        -0.49731E+08         0.00000E+00
    0.00000E+00         0.00000E+00        -0.43507E+08
 
   -0.42000E+08         0.47437E+05         0.00000E+00
    0.47437E+05        -0.50000E+08         0.00000E+00
    0.00000E+00         0.00000E+00        -0.43079E+08
 
   -0.42021E+08         0.14178E+06         0.00000E+00
    0.14178E+06        -0.50000E+08         0.00000E+00
    0.00000E+00         0.00000E+00        -0.43079E+08
 
   -0.42041E+08         0.23593E+06         0.00000E+00
    0.23593E+06        -0.49999E+08         0.00000E+00
    0.00000E+00         0.00000E+00        -0.43079E+08
 
   -0.42062E+08         0.32991E+06         0.00000E+00
    0.32991E+06        -0.49999E+08         0.00000E+00
    0.00000E+00         0.00000E+00        -0.43079E+08
 
   -0.42082E+08         0.42370E+06         0.00000E+00
    0.42370E+06        -0.49998E+08         0.00000E+00
    0.00000E+00         0.00000E+00        -0.43079E+08
 
   -0.42103E+08         0.51733E+06         0.00000E+00
    0.51733E+06        -0.49997E+08         0.00000E+00
    0.00000E+00         0.00000E+00        -0.43079E+08
 
   -0.42123E+08         0.61079E+06         0.00000E+00
    0.61079E+06        -0.49996E+08         0.00000E+00
    0.00000E+00         0.00000E+00        -0.43078E+08
 
   -0.42143E+08         0.70410E+06         0.00000E+00
    0.70410E+06        -0.49995E+08         0.00000E+00
    0.00000E+00         0.00000E+00        -0.43078E+08
 
   -0.42164E+08         0.79724E+06         0.00000E+00
    0.79724E+06        -0.49993E+08         0.00000E+00
    0.00000E+00         0.00000E+00        -0.43078E+08
 
   -0.42184E+08         0.89024E+06         0.00000E+00
    0.89024E+06        -0.49992E+08         0.00000E+00
    0.00000E+00         0.00000E+00        -0.43078E+08
 
   -0.42204E+08         0.98309E+06         0.00000E+00
    0.98309E+06        -0.49990E+08         0.00000E+00
    0.00000E+00         0.00000E+00        -0.43078E+08
 
   -0.42224E+08         0.10758E+07         0.00000E+00
    0.10758E+07        -0.49988E+08         0.00000E+00
    0.00000E+00         0.00000E+00        -0.43077E+08
 
   -0.42244E+08         0.11684E+07         0.00000E+00
    0.11684E+07        -0.49986E+08         0.00000E+00
    0.00000E+00         0.00000E+00        -0.43077E+08
 
   -0.42265E+08         0.12608E+07         0.00000E+00
    0.12608E+07        -0.49983E+08         0.00000E+00
    0.00000E+00         0.00000E+00        -0.43077E+08
 
   -0.42285E+08         0.13531E+07         0.00000E+00
    0.13531E+07        -0.49981E+08         0.00000E+00
    0.00000E+00         0.00000E+00        -0.43076E+08
 
   -0.42305E+08         0.14453E+07         0.00000E+00
    0.14453E+07        -0.49978E+08         0.00000E+00
    0.00000E+00         0.00000E+00        -0.43076E+08
 
   -0.42325E+08         0.15374E+07         0.00000E+00
    0.15374E+07        -0.49975E+08         0.00000E+00
    0.00000E+00         0.00000E+00        -0.43076E+08
 
   -0.42345E+08         0.16293E+07         0.00000E+00
    0.16293E+07        -0.49971E+08         0.00000E+00
    0.00000E+00         0.00000E+00        -0.43075E+08
 
   -0.42366E+08         0.17211E+07         0.00000E+00
    0.17211E+07        -0.49968E+08         0.00000E+00
    0.00000E+00         0.00000E+00        -0.43075E+08
 
   -0.42386E+08         0.18129E+07         0.00000E+00
    0.18129E+07        -0.49964E+08         0.00000E+00
    0.00000E+00         0.00000E+00        -0.43074E+08
 
   -0.42406E+08         0.19045E+07         0.00000E+00
    0.19045E+07        -0.49960E+08         0.00000E+00
    0.00000E+00         0.00000E+00        -0.43074E+08
 
   -0.42427E+08         0.19960E+07         0.00000E+00
    0.19960E+07        -0.49956E+08         0.00000E+00
    0.00000E+00         0.00000E+00        -0.43074E+08
 
   -0.42447E+08         0.20874E+07         0.00000E+00
    0.20874E+07        -0.49952E+08         0.00000E+00
    0.00000E+00         0.00000E+00        -0.43073E+08
 
   -0.42468E+08         0.21787E+07         0.00000E+00
    0.21787E+07        -0.49947E+08         0.00000E+00
    0.00000E+00         0.00000E+00        -0.43073E+08
 
   -0.42488E+08         0.22700E+07         0.00000E+00
    0.22700E+07        -0.49942E+08         0.00000E+00
    0.00000E+00         0.00000E+00        -0.43072E+08
 
   -0.42509E+08         0.23611E+07         0.00000E+00
    0.23611E+07        -0.49937E+08         0.00000E+00
    0.00000E+00         0.00000E+00        -0.43072E+08
 
   -0.42530E+08         0.24521E+07         0.00000E+00
    0.24521E+07        -0.49932E+08         0.00000E+00
    0.00000E+00         0.00000E+00        -0.43071E+08
 
   -0.42551E+08         0.25431E+07         0.00000E+00
    0.25431E+07        -0.49926E+08         0.00000E+00
    0.00000E+00         0.00000E+00        -0.43071E+08
 
   -0.42572E+08         0.26340E+07         0.00000E+00
    0.26340E+07        -0.49920E+08         0.00000E+00
    0.00000E+00         0.00000E+00        -0.43071E+08
 
   -0.42593E+08         0.27248E+07         0.00000E+00
    0.27248E+07        -0.49914E+08         0.00000E+00
    0.00000E+00         0.00000E+00        -0.43070E+08
 
   -0.42614E+08         0.28155E+07         0.00000E+00
    0.28155E+07        -0.49908E+08         0.00000E+00
    0.00000E+00         0.00000E+00        -0.43070E+08
 
   -0.42635E+08         0.29062E+07         0.00000E+00
    0.29062E+07        -0.49901E+08         0.00000E+00
    0.00000E+00         0.00000E+00        -0.43069E+08
 
   -0.42657E+08         0.29967E+07         0.00000E+00
    0.29967E+07        -0.49894E+08         0.00000E+00
    0.00000E+00         0.00000E+00        -0.43069E+08
 
   -0.42678E+08         0.30872E+07         0.00000E+00
    0.30872E+07        -0.49887E+08         0.00000E+00
    0.00000E+00         0.00000E+00        -0.43069E+08
 
   -0.42700E+08         0.31776E+07         0.00000E+00
    0.31776E+07        -0.49880E+08         0.00000E+00
    0.00000E+00         0.00000E+00        -0.43068E+08
 
   -0.42722E+08         0.32680E+07         0.00000E+00
    0.32680E+07        -0.49872E+08         0.00000E+00
    0.00000E+00         0.00000E+00        -0.43068E+08
 
   -0.42744E+08         0.33583E+07         0.00000E+00
    0.33583E+07        -0.49864E+08         0.00000E+00
    0.00000E+00         0.00000E+00        -0.43068E+08
 
   -0.42767E+08         0.34485E+07         0.00000E+00
    0.34485E+07        -0.49855E+08         0.00000E+00
    0.00000E+00         0.00000E+00        -0.43067E+08
 
   -0.42789E+08         0.35386E+07         0.00000E+00
    0.35386E+07        -0.49847E+08         0.00000E+00
    0.00000E+00         0.00000E+00        -0.43067E+08
 
   -0.42812E+08         0.36287E+07         0.00000E+00
    0.36287E+07        -0.49838E+08         0.00000E+00
    0.00000E+00         0.00000E+00        -0.43067E+08
 
   -0.42835E+08         0.37187E+07         0.00000E+00
    0.37187E+07        -0.49828E+08         0.00000E+00
    0.00000E+00         0.00000E+00        -0.43067E+08
 
   -0.42858E+08         0.38086E+07         0.00000E+00
    0.38086E+07        -0.49819E+08         0.00000E+00
    0.00000E+00         0.00000E+00        -0.43066E+08
 
   -0.42881E+08         0.38985E+07         0.00000E+00
    0.38985E+07        -0.49809E+08         0.00000E+00
    0.00000E+00         0.00000E+00        -0.43066E+08
 
   -0.42905E+08         0.39883E+07         0.00000E+00
    0.39883E+07        -0.49799E+08         0.00000E+00
    0.00000E+00         0.00000E+00        -0.43066E+08
 
   -0.42929E+08         0.40780E+07         0.00000E+00
    0.40780E+07        -0.49788E+08         0.00000E+00
    0.00000E+00         0.00000E+00        -0.43066E+08
 
   -0.42953E+08         0.41677E+07         0.00000E+00
    0.41677E+07        -0.49777E+08         0.00000E+00
    0.00000E+00         0.00000E+00        -0.43066E+08
 
   -0.42977E+08         0.42573E+07         0.00000E+00
    0.42573E+07        -0.49766E+08         0.00000E+00
    0.00000E+00         0.00000E+00        -0.43065E+08
 
   -0.43002E+08         0.43468E+07         0.00000E+00
    0.43468E+07        -0.49754E+08         0.00000E+00
    0.00000E+00         0.00000E+00        -0.43065E+08
 
   -0.43027E+08         0.44363E+07         0.00000E+00
    0.44363E+07        -0.49742E+08         0.00000E+00
    0.00000E+00         0.00000E+00        -0.43065E+08
 
   -0.43053E+08         0.45256E+07         0.00000E+00
    0.45256E+07        -0.49729E+08         0.00000E+00
    0.00000E+00         0.00000E+00        -0.43065E+08
 
   -0.41526E+08         0.47865E+05         0.00000E+00
    0.47865E+05        -0.50000E+08         0.00000E+00
    0.00000E+00         0.00000E+00        -0.42629E+08
 
   -0.41547E+08         0.14308E+06         0.00000E+00
    0.14308E+06        -0.50000E+08         0.00000E+00
    0.00000E+00         0.00000E+00        -0.42629E+08
 
   -0.41569E+08         0.23812E+06         0.00000E+00
    0.23812E+06        -0.49999E+08         0.00000E+00
    0.00000E+00         0.00000E+00        -0.42629E+08
 
   -0.41590E+08         0.33298E+06         0.00000E+00
    0.33298E+06        -0.49999E+08         0.00000E+00
    0.00000E+00         0.00000E+00        -0.42629E+08
 
   -0.41611E+08         0.42768E+06         0.00000E+00
    0.42768E+06        -0.49998E+08         0.00000E+00
    0.00000E+00         0.00000E+00        -0.42628E+08
 
   -0.41633E+08         0.52222E+06         0.00000E+00
    0.52222E+06        -0.49997E+08         0.00000E+00
    0.00000E+00         0.00000E+00        -0.42628E+08
 
   -0.41654E+08         0.61660E+06         0.00000E+00
    0.61660E+06        -0.49996E+08         0.00000E+00
    0.00000E+00         0.00000E+00        -0.42628E+08
 
   -0.41675E+08         0.71083E+06         0.00000E+00
    0.71083E+06        -0.49995E+08         0.00000E+00
    0.00000E+00         0.00000E+00        -0.42628E+08
 
   -0.41696E+08         0.80491E+06         0.00000E+00
    0.80491E+06        -0.49994E+08         0.00000E+00
    0.00000E+00         0.00000E+00        -0.42628E+08
 
   -0.41717E+08         0.89886E+06         0.00000E+00
    0.89886E+06        -0.49992E+08         0.00000E+00
    0.00000E+00         0.00000E+00        -0.42627E+08
 
   -0.41738E+08         0.99267E+06         0.00000E+00
    0.99267E+06        -0.49990E+08         0.00000E+00
    0.00000E+00         0.00000E+00        -0.42627E+08
 
   -0.41758E+08         0.10864E+07         0.00000E+00
    0.10864E+07        -0.49988E+08         0.00000E+00
    0.00000E+00         0.00000E+00        -0.42627E+08
 
   -0.41779E+08         0.11799E+07         0.00000E+00
    0.11799E+07        -0.49986E+08         0.00000E+00
    0.00000E+00         0.00000E+00        -0.42626E+08
 
   -0.41800E+08         0.12734E+07         0.00000E+00
    0.12734E+07        -0.49984E+08         0.00000E+00
    0.00000E+00         0.00000E+00        -0.42626E+08
 
   -0.41821E+08         0.13667E+07         0.00000E+00
    0.13667E+07        -0.49981E+08         0.00000E+00
    0.00000E+00         0.00000E+00        -0.42626E+08
 
   -0.41842E+08         0.14599E+07         0.00000E+00
    0.14599E+07        -0.49978E+08         0.00000E+00
    0.00000E+00         0.00000E+00        -0.42625E+08
 
   -0.41862E+08         0.15530E+07         0.00000E+00
    0.15530E+07        -0.49975E+08         0.00000E+00
    0.00000E+00         0.00000E+00        -0.42625E+08
 
   -0.41883E+08         0.16460E+07         0.00000E+00
    0.16460E+07        -0.49972E+08         0.00000E+00
    0.00000E+00         0.00000E+00        -0.42625E+08
 
   -0.41904E+08         0.17390E+07         0.00000E+00
    0.17390E+07        -0.49969E+08         0.00000E+00
    0.00000E+00         0.00000E+00        -0.42624E+08
 
   -0.41925E+08         0.18318E+07         0.00000E+00
    0.18318E+07        -0.49965E+08         0.00000E+00
    0.00000E+00         0.00000E+00        -0.42624E+08
 
   -0.41946E+08         0.19245E+07         0.00000E+00
    0.19245E+07        -0.49961E+08         0.00000E+00
    0.00000E+00         0.00000E+00        -0.42623E+08
 
   -0.41967E+08         0.20172E+07         0.00000E+00
    0.20172E+07        -0.49957E+08         0.00000E+00
    0.00000E+00         0.00000E+00        -0.42623E+08
 
   -0.41987E+08         0.21098E+07         0.00000E+00
    0.21098E+07        -0.49953E+08         0.00000E+00
    0.00000E+00         0.00000E+00        -0.42622E+08
 
   -0.42008E+08         0.22023E+07         0.00000E+00
    0.22023E+07        -0.49948E+08         0.00000E+00
    0.00000E+00         0.00000E+00        -0.42622E+08
 
   -0.42029E+08         0.22947E+07         0.00000E+00
    0.22947E+07        -0.49943E+08         0.00000E+00
    0.00000E+00         0.00000E+00        -0.42621E+08
 
   -0.42050E+08         0.23871E+07         0.00000E+00
    0.23871E+07        -0.49938E+08         0.00000E+00
    0.00000E+00         0.00000E+00        -0.42621E+08
 
   -0.42072E+08         0.24794E+07         0.00000E+00
    0.24794E+07        -0.49933E+08         0.00000E+00
    0.00000E+00         0.00000E+00        -0.42621E+08
 
   -0.42093E+08         0.25716E+07         0.00000E+00
    0.25716E+07        -0.49928E+08         0.00000E+00
    0.00000E+00         0.00000E+00        -0.42620E+08
 
   -0.42114E+08         0.26638E+07         0.00000E+00
    0.26638E+07        -0.49922E+08         0.00000E+00
    0.00000E+00         0.00000E+00        -0.42620E+08
 
   -0.42136E+08         0.27559E+07         0.00000E+00
    0.27559E+07        -0.49916E+08         0.00000E+00
    0.00000E+00         0.00000E+00        -0.42619E+08
 
   -0.42157E+08         0.28480E+07         0.00000E+00
    0.28480E+07        -0.49909E+08         0.00000E+00
    0.00000E+00         0.00000E+00        -0.42619E+08
 
   -0.42179E+08         0.29400E+07         0.00000E+00
    0.29400E+07        -0.49903E+08         0.00000E+00
    0.00000E+00         0.00000E+00        -0.42618E+08
 
   -0.42201E+08         0.30320E+07         0.00000E+00
    0.30320E+07        -0.49896E+08         0.00000E+00
    0.00000E+00         0.00000E+00        -0.42618E+08
 
   -0.42223E+08         0.31239E+07         0.00000E+00
    0.31239E+07        -0.49889E+08         0.00000E+00
    0.00000E+00         0.00000E+00        -0.42618E+08
 
   -0.42245E+08         0.32158E+07         0.00000E+00
    0.32158E+07        -0.49881E+08         0.00000E+00
    0.00000E+00         0.00000E+00        -0.42617E+08
 
   -0.42267E+08         0.33076E+07         0.00000E+00
    0.33076E+07        -0.49873E+08         0.00000E+00
    0.00000E+00         0.00000E+00        -0.42617E+08
 
   -0.42289E+08         0.33994E+07         0.00000E+00
    0.33994E+07        -0.49865E+08         0.00000E+00
    0.00000E+00         0.00000E+00        -0.42617E+08
 
   -0.42312E+08         0.34912E+07         0.00000E+00
    0.34912E+07        -0.49857E+08         0.00000E+00
    0.00000E+00         0.00000E+00        -0.42616E+08
 
   -0.42335E+08         0.35829E+07         0.00000E+00
    0.35829E+07        -0.49848E+08         0.00000E+00
    0.00000E+00         0.00000E+00        -0.42616E+08
 
   -0.42358E+08         0.36745E+07         0.00000E+00
    0.36745E+07        -0.49839E+08         0.00000E+00
    0.00000E+00         0.00000E+00        -0.42616E+08
 
   -0.42381E+08         0.37662E+07         0.00000E+00
    0.37662E+07        -0.49830E+08         0.00000E+00
    0.00000E+00         0.00000E+00        -0.42615E+08
 
   -0.42404E+08         0.38578E+07         0.00000E+00
    0.38578E+07        -0.49820E+08         0.00000E+00
    0.00000E+00         0.00000E+00        -0.42615E+08
 
   -0.42428E+08         0.39493E+07         0.00000E+00
    0.39493E+07        -0.49810E+08         0.00000E+00
    0.00000E+00         0.00000E+00        -0.42615E+08
 
   -0.42452E+08         0.40408E+07         0.00000E+00
    0.40408E+07        -0.49800E+08         0.00000E+00
    0.00000E+00         0.00000E+00        -0.42615E+08
 
   -0.42476E+08         0.41323E+07         0.00000E+00
    0.41323E+07        -0.49789E+08         0.00000E+00
    0.00000E+00         0.00000E+00        -0.42614E+08
 
   -0.42500E+08         0.42238E+07         0.00000E+00
    0.42238E+07        -0.49778E+08         0.00000E+00
    0.00000E+00         0.00000E+00        -0.42614E+08
 
   -0.42525E+08         0.43152E+07         0.00000E+00
    0.43152E+07        -0.49767E+08         0.00000E+00
    0.00000E+00         0.00000E+00        -0.42614E+08
 
   -0.42550E+08         0.44065E+07         0.00000E+00
    0.44065E+07        -0.49755E+08         0.00000E+00
    0.00000E+00         0.00000E+00        -0.42614E+08
 
   -0.42575E+08         0.44978E+07         0.00000E+00
    0.44978E+07        -0.49743E+08         0.00000E+00
    0.00000E+00         0.00000E+00        -0.42614E+08
 
   -0.42601E+08         0.45891E+07         0.00000E+00
    0.45891E+07        -0.49730E+08         0.00000E+00
    0.00000E+00         0.00000E+00        -0.42614E+08
 
   -0.41047E+08         0.48278E+05         0.00000E+00
    0.48278E+05        -0.50000E+08         0.00000E+00
    0.00000E+00         0.00000E+00        -0.42169E+08
 
   -0.41070E+08         0.14434E+06         0.00000E+00
    0.14434E+06        -0.50000E+08         0.00000E+00
    0.00000E+00         0.00000E+00        -0.42169E+08
 
   -0.41092E+08         0.24023E+06         0.00000E+00
    0.24023E+06        -0.49999E+08         0.00000E+00
    0.00000E+00         0.00000E+00        -0.42169E+08
 
   -0.41114E+08         0.33595E+06         0.00000E+00
    0.33595E+06        -0.49999E+08         0.00000E+00
    0.00000E+00         0.00000E+00        -0.42168E+08
 
   -0.41136E+08         0.43152E+06         0.00000E+00
    0.43152E+06        -0.49998E+08         0.00000E+00
    0.00000E+00         0.00000E+00        -0.42168E+08
 
   -0.41158E+08         0.52694E+06         0.00000E+00
    0.52694E+06        -0.49997E+08         0.00000E+00
    0.00000E+00         0.00000E+00        -0.42168E+08
 
   -0.41180E+08         0.62221E+06         0.00000E+00
    0.62221E+06        -0.49996E+08         0.00000E+00
    0.00000E+00         0.00000E+00        -0.42168E+08
 
   -0.41202E+08         0.71734E+06         0.00000E+00
    0.71734E+06        -0.49995E+08         0.00000E+00
    0.00000E+00         0.00000E+00        -0.42168E+08
 
   -0.41223E+08         0.81234E+06         0.00000E+00
    0.81234E+06        -0.49994E+08         0.00000E+00
    0.00000E+00         0.00000E+00        -0.42167E+08
 
   -0.41245E+08         0.90722E+06         0.00000E+00
    0.90722E+06        -0.49992E+08         0.00000E+00
    0.00000E+00         0.00000E+00        -0.42167E+08
 
   -0.41266E+08         0.10020E+07         0.00000E+00
    0.10020E+07        -0.49991E+08         0.00000E+00
    0.00000E+00         0.00000E+00        -0.42167E+08
 
   -0.41288E+08         0.10966E+07         0.00000E+00
    0.10966E+07        -0.49989E+08         0.00000E+00
    0.00000E+00         0.00000E+00        -0.42166E+08
 
   -0.41309E+08         0.11911E+07         0.00000E+00
    0.11911E+07        -0.49987E+08         0.00000E+00
    0.00000E+00         0.00000E+00        -0.42166E+08
 
   -0.41331E+08         0.12856E+07         0.00000E+00
    0.12856E+07        -0.49984E+08         0.00000E+00
    0.00000E+00         0.00000E+00        -0.42166E+08
 
   -0.41352E+08         0.13799E+07         0.00000E+00
    0.13799E+07        -0.49982E+08         0.00000E+00
    0.00000E+00         0.00000E+00        -0.42165E+08
 
   -0.41373E+08         0.14742E+07         0.00000E+00
    0.14742E+07        -0.49979E+08         0.00000E+00
    0.00000E+00         0.00000E+00        -0.42165E+08
 
   -0.41394E+08         0.15683E+07         0.00000E+00
    0.15683E+07        -0.49976E+08         0.00000E+00
    0.00000E+00         0.00000E+00        -0.42164E+08
 
   -0.41416E+08         0.16624E+07         0.00000E+00
    0.16624E+07        -0.49973E+08         0.00000E+00
    0.00000E+00         0.00000E+00        -0.42164E+08
 
   -0.41437E+08         0.17564E+07         0.00000E+00
    0.17564E+07        -0.49970E+08         0.00000E+00
    0.00000E+00         0.00000E+00        -0.42164E+08
 
   -0.41458E+08         0.18503E+07         0.00000E+00
    0.18503E+07        -0.49966E+08         0.00000E+00
    0.00000E+00         0.00000E+00        -0.42163E+08
 
   -0.41479E+08         0.19442E+07         0.00000E+00
    0.19442E+07        -0.49962E+08         0.00000E+00
    0.00000E+00         0.00000E+00        -0.42163E+08
 
   -0.41501E+08         0.20380E+07         0.00000E+00
    0.20380E+07        -0.49958E+08         0.00000E+00
    0.00000E+00         0.00000E+00        -0.42162E+08
 
   -0.41522E+08         0.21317E+07         0.00000E+00
    0.21317E+07        -0.49954E+08         0.00000E+00
    0.00000E+00         0.00000E+00        -0.42162E+08
 
   -0.41543E+08         0.22254E+07         0.00000E+00
    0.22254E+07        -0.49950E+08         0.00000E+00
    0.00000E+00         0.00000E+00        -0.42161E+08
 
   -0.41564E+08         0.23191E+07         0.00000E+00
    0.23191E+07        -0.49945E+08         0.00000E+00
    0.00000E+00         0.00000E+00        -0.42161E+08
 
   -0.41586E+08         0.24127E+07         0.00000E+00
    0.24127E+07        -0.49940E+08         0.00000E+00
    0.00000E+00         0.00000E+00        -0.42160E+08
 
   -0.41607E+08         0.25063E+07         0.00000E+00
    0.25063E+07        -0.49935E+08         0.00000E+00
    0.00000E+00         0.00000E+00        -0.42160E+08
 
   -0.41629E+08         0.25998E+07         0.00000E+00
    0.25998E+07        -0.49930E+08         0.00000E+00
    0.00000E+00         0.00000E+00        -0.42159E+08
 
   -0.41650E+08         0.26933E+07         0.00000E+00
    0.26933E+07        -0.49924E+08         0.00000E+00
    0.00000E+00         0.00000E+00        -0.42159E+08
 
   -0.41672E+08         0.27867E+07         0.00000E+00
    0.27867E+07        -0.49918E+08         0.00000E+00
    0.00000E+00         0.00000E+00        -0.42158E+08
 
   -0.41693E+08         0.28802E+07         0.00000E+00
    0.28802E+07        -0.49912E+08         0.00000E+00
    0.00000E+00         0.00000E+00        -0.42158E+08
 
   -0.41715E+08         0.29736E+07         0.00000E+00
    0.29736E+07        -0.49905E+08         0.00000E+00
    0.00000E+00         0.00000E+00        -0.42157E+08
 
   -0.41737E+08         0.30670E+07         0.00000E+00
    0.30670E+07        -0.49898E+08         0.00000E+00
    0.00000E+00         0.00000E+00        -0.42157E+08
 
   -0.41759E+08         0.31603E+07         0.00000E+00
    0.31603E+07        -0.49891E+08         0.00000E+00
    0.00000E+00         0.00000E+00        -0.42157E+08
 
   -0.41782E+08         0.32537E+07         0.00000E+00
    0.32537E+07        -0.49884E+08         0.00000E+00
    0.00000E+00         0.00000E+00        -0.42156E+08
 
   -0.41804E+08         0.33470E+07         0.00000E+00
    0.33470E+07        -0.49876E+08         0.00000E+00
    0.00000E+00         0.00000E+00        -0.42156E+08
 
   -0.41827E+08         0.34404E+07         0.00000E+00
    0.34404E+07        -0.49868E+08         0.00000E+00
    0.00000E+00         0.00000E+00        -0.42155E+08
 
   -0.41849E+08         0.35337E+07         0.00000E+00
    0.35337E+07        -0.49860E+08         0.00000E+00
    0.00000E+00         0.00000E+00        -0.42155E+08
 
   -0.41872E+08         0.36270E+07         0.00000E+00
    0.36270E+07        -0.49851E+08         0.00000E+00
    0.00000E+00         0.00000E+00        -0.42155E+08
 
   -0.41895E+08         0.37203E+07         0.00000E+00
    0.37203E+07        -0.49842E+08         0.00000E+00
    0.00000E+00         0.00000E+00        -0.42154E+08
 
   -0.41919E+08         0.38136E+07         0.00000E+00
    0.38136E+07        -0.49833E+08         0.00000E+00
    0.00000E+00         0.00000E+00        -0.42154E+08
 
   -0.41942E+08         0.39069E+07         0.00000E+00
    0.39069E+07        -0.49823E+08         0.00000E+00
    0.00000E+00         0.00000E+00        -0.42154E+08
 
   -0.41966E+08         0.40002E+07         0.00000E+00
    0.40002E+07        -0.49813E+08         0.00000E+00
    0.00000E+00         0.00000E+00        -0.42154E+08
 
   -0.41990E+08         0.40935E+07         0.00000E+00
    0.40935E+07        -0.49803E+08         0.00000E+00
    0.00000E+00         0.00000E+00        -0.42153E+08
 
   -0.42014E+08         0.41867E+07         0.00000E+00
    0.41867E+07        -0.49792E+08         0.00000E+00
    0.00000E+00         0.00000E+00        -0.42153E+08
 
   -0.42039E+08         0.42800E+07         0.00000E+00
    0.42800E+07        -0.49781E+08         0.00000E+00
    0.00000E+00         0.00000E+00        -0.42153E+08
 
   -0.42064E+08         0.43733E+07         0.00000E+00
    0.43733E+07        -0.49770E+08         0.00000E+00
    0.00000E+00         0.00000E+00        -0.42153E+08
 
   -0.42089E+08         0.44666E+07         0.00000E+00
    0.44666E+07        -0.49758E+08         0.00000E+00
    0.00000E+00         0.00000E+00        -0.42153E+08
 
   -0.42114E+08         0.45598E+07         0.00000E+00
    0.45598E+07        -0.49746E+08         0.00000E+00
    0.00000E+00         0.00000E+00        -0.42153E+08
 
   -0.42140E+08         0.46531E+07         0.00000E+00
    0.46531E+07        -0.49733E+08         0.00000E+00
    0.00000E+00         0.00000E+00        -0.42153E+08
 
   -0.40565E+08         0.48668E+05         0.00000E+00
    0.48668E+05        -0.50000E+08         0.00000E+00
    0.00000E+00         0.00000E+00        -0.41698E+08
 
   -0.40588E+08         0.14553E+06         0.00000E+00
    0.14553E+06        -0.50000E+08         0.00000E+00
    0.00000E+00         0.00000E+00        -0.41698E+08
 
   -0.40611E+08         0.24223E+06         0.00000E+00
    0.24223E+06        -0.50000E+08         0.00000E+00
    0.00000E+00         0.00000E+00        -0.41698E+08
 
   -0.40634E+08         0.33877E+06         0.00000E+00
    0.33877E+06        -0.49999E+08         0.00000E+00
    0.00000E+00         0.00000E+00        -0.41698E+08
 
   -0.40657E+08         0.43517E+06         0.00000E+00
    0.43517E+06        -0.49998E+08         0.00000E+00
    0.00000E+00         0.00000E+00        -0.41698E+08
 
   -0.40679E+08         0.53143E+06         0.00000E+00
    0.53143E+06        -0.49998E+08         0.00000E+00
    0.00000E+00         0.00000E+00        -0.41698E+08
 
   -0.40702E+08         0.62755E+06         0.00000E+00
    0.62755E+06        -0.49997E+08         0.00000E+00
    0.00000E+00         0.00000E+00        -0.41697E+08
 
   -0.40724E+08         0.72355E+06         0.00000E+00
    0.72355E+06        -0.49996E+08         0.00000E+00
    0.00000E+00         0.00000E+00        -0.41697E+08
 
   -0.40746E+08         0.81943E+06         0.00000E+00
    0.81943E+06        -0.49994E+08         0.00000E+00
    0.00000E+00         0.00000E+00        -0.41697E+08
 
   -0.40769E+08         0.91520E+06         0.00000E+00
    0.91520E+06        -0.49993E+08         0.00000E+00
    0.00000E+00         0.00000E+00        -0.41696E+08
 
   -0.40791E+08         0.10109E+07         0.00000E+00
    0.10109E+07        -0.49991E+08         0.00000E+00
    0.00000E+00         0.00000E+00        -0.41696E+08
 
   -0.40813E+08         0.11064E+07         0.00000E+00
    0.11064E+07        -0.49989E+08         0.00000E+00
    0.00000E+00         0.00000E+00        -0.41696E+08
 
   -0.40835E+08         0.12019E+07         0.00000E+00
    0.12019E+07        -0.49987E+08         0.00000E+00
    0.00000E+00         0.00000E+00        -0.41695E+08
 
   -0.40856E+08         0.12973E+07         0.00000E+00
    0.12973E+07        -0.49985E+08         0.00000E+00
    0.00000E+00         0.00000E+00        -0.41695E+08
 
   -0.40878E+08         0.13926E+07         0.00000E+00
    0.13926E+07        -0.49983E+08         0.00000E+00
    0.00000E+00         0.00000E+00        -0.41695E+08
 
   -0.40900E+08         0.14878E+07         0.00000E+00
    0.14878E+07        -0.49980E+08         0.00000E+00
    0.00000E+00         0.00000E+00        -0.41694E+08
 
   -0.40921E+08         0.15830E+07         0.00000E+00
    0.15830E+07        -0.49977E+08         0.00000E+00
    0.00000E+00         0.00000E+00        -0.41694E+08
 
   -0.40943E+08         0.16781E+07         0.00000E+00
    0.16781E+07        -0.49974E+08         0.00000E+00
    0.00000E+00         0.00000E+00        -0.41693E+08
 
   -0.40964E+08         0.17732E+07         0.00000E+00
    0.17732E+07        -0.49971E+08         0.00000E+00
    0.00000E+00         0.00000E+00        -0.41693E+08
 
   -0.40986E+08         0.18682E+07         0.00000E+00
    0.18682E+07        -0.49968E+08         0.00000E+00
    0.00000E+00         0.00000E+00        -0.41692E+08
 
   -0.41007E+08         0.19632E+07         0.00000E+00
    0.19632E+07        -0.49964E+08         0.00000E+00
    0.00000E+00         0.00000E+00        -0.41692E+08
 
   -0.41029E+08         0.20581E+07         0.00000E+00
    0.20581E+07        -0.49960E+08         0.00000E+00
    0.00000E+00         0.00000E+00        -0.41691E+08
 
   -0.41050E+08         0.21530E+07         0.00000E+00
    0.21530E+07        -0.49956E+08         0.00000E+00
    0.00000E+00         0.00000E+00        -0.41691E+08
 
   -0.41072E+08         0.22479E+07         0.00000E+00
    0.22479E+07        -0.49952E+08         0.00000E+00
    0.00000E+00         0.00000E+00        -0.41690E+08
 
   -0.41093E+08         0.23427E+07         0.00000E+00
    0.23427E+07        -0.49948E+08         0.00000E+00
    0.00000E+00         0.00000E+00        -0.41690E+08
 
   -0.41115E+08         0.24376E+07         0.00000E+00
    0.24376E+07        -0.49943E+08         0.00000E+00
    0.00000E+00         0.00000E+00        -0.41689E+08
 
   -0.41136E+08         0.25324E+07         0.00000E+00
    0.25324E+07        -0.49938E+08         0.00000E+00
    0.00000E+00         0.00000E+00        -0.41689E+08
 
   -0.41158E+08         0.26272E+07         0.00000E+00
    0.26272E+07        -0.49933E+08         0.00000E+00
    0.00000E+00         0.00000E+00        -0.41688E+08
 
   -0.41179E+08         0.27220E+07         0.00000E+00
    0.27220E+07        -0.49927E+08         0.00000E+00
    0.00000E+00         0.00000E+00        -0.41688E+08
 
   -0.41201E+08         0.28168E+07         0.00000E+00
    0.28168E+07        -0.49921E+08         0.00000E+00
    0.00000E+00         0.00000E+00        -0.41687E+08
 
   -0.41223E+08         0.29116E+07         0.00000E+00
    0.29116E+07        -0.49915E+08         0.00000E+00
    0.00000E+00         0.00000E+00        -0.41687E+08
 
   -0.41245E+08         0.30064E+07         0.00000E+00
    0.30064E+07        -0.49909E+08         0.00000E+00
    0.00000E+00         0.00000E+00        -0.41686E+08
 
   -0.41267E+08         0.31013E+07         0.00000E+00
    0.31013E+07        -0.49902E+08         0.00000E+00
    0.00000E+00         0.00000E+00        -0.41686E+08
 
   -0.41289E+08         0.31961E+07         0.00000E+00
    0.31961E+07        -0.49895E+08         0.00000E+00
    0.00000E+00         0.00000E+00        -0.41685E+08
 
   -0.41311E+08         0.32910E+07         0.00000E+00
    0.32910E+07        -0.49888E+08         0.00000E+00
    0.00000E+00         0.00000E+00        -0.41685E+08
 
   -0.41333E+08         0.33858E+07         0.00000E+00
    0.33858E+07        -0.49881E+08         0.00000E+00
    0.00000E+00         0.00000E+00        -0.41685E+08
 
   -0.41356E+08         0.34807E+07         0.00000E+00
    0.34807E+07        -0.49873E+08         0.00000E+00
    0.00000E+00         0.00000E+00        -0.41684E+08
 
   -0.41379E+08         0.35756E+07         0.00000E+00
    0.35756E+07        -0.49865E+08         0.00000E+00
    0.00000E+00         0.00000E+00        -0.41684E+08
 
   -0.41402E+08         0.36706E+07         0.00000E+00
    0.36706E+07        -0.49856E+08         0.00000E+00
    0.00000E+00         0.00000E+00        -0.41683E+08
 
   -0.41425E+08         0.37656E+07         0.00000E+00
    0.37656E+07        -0.49847E+08         0.00000E+00
    0.00000E+00         0.00000E+00        -0.41683E+08
 
   -0.41448E+08         0.38606E+07         0.00000E+00
    0.38606E+07        -0.49838E+08         0.00000E+00
    0.00000E+00         0.00000E+00        -0.41683E+08
 
   -0.41471E+08         0.39556E+07         0.00000E+00
    0.39556E+07        -0.49829E+08         0.00000E+00
    0.00000E+00         0.00000E+00        -0.41682E+08
 
   -0.41495E+08         0.40507E+07         0.00000E+00
    0.40507E+07        -0.49819E+08         0.00000E+00
    0.00000E+00         0.00000E+00        -0.41682E+08
 
   -0.41519E+08         0.41458E+07         0.00000E+00
    0.41458E+07        -0.49809E+08         0.00000E+00
    0.00000E+00         0.00000E+00        -0.41682E+08
 
   -0.41543E+08         0.42409E+07         0.00000E+00
    0.42409E+07        -0.49798E+08         0.00000E+00
    0.00000E+00         0.00000E+00        -0.41682E+08
 
   -0.41568E+08         0.43361E+07         0.00000E+00
    0.43361E+07        -0.49787E+08         0.00000E+00
    0.00000E+00         0.00000E+00        -0.41682E+08
 
   -0.41592E+08         0.44313E+07         0.00000E+00
    0.44313E+07        -0.49776E+08         0.00000E+00
    0.00000E+00         0.00000E+00        -0.41681E+08
 
   -0.41617E+08         0.45265E+07         0.00000E+00
    0.45265E+07        -0.49764E+08         0.00000E+00
    0.00000E+00         0.00000E+00        -0.41681E+08
 
   -0.41643E+08         0.46218E+07         0.00000E+00
    0.46218E+07        -0.49752E+08         0.00000E+00
    0.00000E+00         0.00000E+00        -0.41681E+08
 
   -0.41668E+08         0.47171E+07         0.00000E+00
    0.47171E+07        -0.49739E+08         0.00000E+00
    0.00000E+00         0.00000E+00        -0.41681E+08
 
   -0.40078E+08         0.49030E+05         0.00000E+00
    0.49030E+05        -0.50000E+08         0.00000E+00
    0.00000E+00         0.00000E+00        -0.41217E+08
 
   -0.40102E+08         0.14664E+06         0.00000E+00
    0.14664E+06        -0.50000E+08         0.00000E+00
    0.00000E+00         0.00000E+00        -0.41217E+08
 
   -0.40126E+08         0.24409E+06         0.00000E+00
    0.24409E+06        -0.50000E+08         0.00000E+00
    0.00000E+00         0.00000E+00        -0.41217E+08
 
   -0.40149E+08         0.34140E+06         0.00000E+00
    0.34140E+06        -0.49999E+08         0.00000E+00
    0.00000E+00         0.00000E+00        -0.41217E+08
 
   -0.40173E+08         0.43857E+06         0.00000E+00
    0.43857E+06        -0.49999E+08         0.00000E+00
    0.00000E+00         0.00000E+00        -0.41217E+08
 
   -0.40196E+08         0.53562E+06         0.00000E+00
    0.53562E+06        -0.49998E+08         0.00000E+00
    0.00000E+00         0.00000E+00        -0.41216E+08
 
   -0.40219E+08         0.63254E+06         0.00000E+00
    0.63254E+06        -0.49997E+08         0.00000E+00
    0.00000E+00         0.00000E+00        -0.41216E+08
 
   -0.40242E+08         0.72936E+06         0.00000E+00
    0.72936E+06        -0.49996E+08         0.00000E+00
    0.00000E+00         0.00000E+00        -0.41216E+08
 
   -0.40265E+08         0.82607E+06         0.00000E+00
    0.82607E+06        -0.49995E+08         0.00000E+00
    0.00000E+00         0.00000E+00        -0.41216E+08
 
   -0.40288E+08         0.92268E+06         0.00000E+00
    0.92268E+06        -0.49993E+08         0.00000E+00
    0.00000E+00         0.00000E+00        -0.41215E+08
 
   -0.40310E+08         0.10192E+07         0.00000E+00
    0.10192E+07        -0.49992E+08         0.00000E+00
    0.00000E+00         0.00000E+00        -0.41215E+08
 
   -0.40333E+08         0.11157E+07         0.00000E+00
    0.11157E+07        -0.49990E+08         0.00000E+00
    0.00000E+00         0.00000E+00        -0.41214E+08
 
   -0.40355E+08         0.12120E+07         0.00000E+00
    0.12120E+07        -0.49988E+08         0.00000E+00
    0.00000E+00         0.00000E+00        -0.41214E+08
 
   -0.40377E+08         0.13083E+07         0.00000E+00
    0.13083E+07        -0.49986E+08         0.00000E+00
    0.00000E+00         0.00000E+00        -0.41214E+08
 
   -0.40399E+08         0.14046E+07         0.00000E+00
    0.14046E+07        -0.49984E+08         0.00000E+00
    0.00000E+00         0.00000E+00        -0.41213E+08
 
   -0.40421E+08         0.15008E+07         0.00000E+00
    0.15008E+07        -0.49982E+08         0.00000E+00
    0.00000E+00         0.00000E+00        -0.41213E+08
 
   -0.40443E+08         0.15969E+07         0.00000E+00
    0.15969E+07        -0.49979E+08         0.00000E+00
    0.00000E+00         0.00000E+00        -0.41212E+08
 
   -0.40465E+08         0.16931E+07         0.00000E+00
    0.16931E+07        -0.49976E+08         0.00000E+00
    0.00000E+00         0.00000E+00        -0.41212E+08
 
   -0.40487E+08         0.17892E+07         0.00000E+00
    0.17892E+07        -0.49973E+08         0.00000E+00
    0.00000E+00         0.00000E+00        -0.41211E+08
 
   -0.40508E+08         0.18852E+07         0.00000E+00
    0.18852E+07        -0.49970E+08         0.00000E+00
    0.00000E+00         0.00000E+00        -0.41211E+08
 
   -0.40530E+08         0.19813E+07         0.00000E+00
    0.19813E+07        -0.49967E+08         0.00000E+00
    0.00000E+00         0.00000E+00        -0.41210E+08
 
   -0.40551E+08         0.20773E+07         0.00000E+00
    0.20773E+07        -0.49963E+08         0.00000E+00
    0.00000E+00         0.00000E+00        -0.41210E+08
 
   -0.40573E+08         0.21733E+07         0.00000E+00
    0.21733E+07        -0.49959E+08         0.00000E+00
    0.00000E+00         0.00000E+00        -0.41209E+08
 
   -0.40594E+08         0.22694E+07         0.00000E+00
    0.22694E+07        -0.49955E+08         0.00000E+00
    0.00000E+00         0.00000E+00        -0.41209E+08
 
   -0.40616E+08         0.23654E+07         0.00000E+00
    0.23654E+07        -0.49951E+08         0.00000E+00
    0.00000E+00         0.00000E+00        -0.41208E+08
 
   -0.40637E+08         0.24614E+07         0.00000E+00
    0.24614E+07        -0.49946E+08         0.00000E+00
    0.00000E+00         0.00000E+00        -0.41208E+08
 
   -0.40659E+08         0.25575E+07         0.00000E+00
    0.25575E+07        -0.49942E+08         0.00000E+00
    0.00000E+00         0.00000E+00        -0.41207E+08
 
   -0.40680E+08         0.26536E+07         0.00000E+00
    0.26536E+07        -0.49937E+08         0.00000E+00
    0.00000E+00         0.00000E+00        -0.41206E+08
 
   -0.40702E+08         0.27497E+07         0.00000E+00
    0.27497E+07        -0.49931E+08         0.00000E+00
    0.00000E+00         0.00000E+00        -0.41206E+08
 
   -0.40724E+08         0.28459E+07         0.00000E+00
    0.28459E+07        -0.49926E+08         0.00000E+00
    0.00000E+00         0.00000E+00        -0.41205E+08
 
   -0.40745E+08         0.29420E+07         0.00000E+00
    0.29420E+07        -0.49920E+08         0.00000E+00
    0.00000E+00         0.00000E+00        -0.41205E+08
 
   -0.40767E+08         0.30383E+07         0.00000E+00
    0.30383E+07        -0.49914E+08         0.00000E+00
    0.00000E+00         0.00000E+00        -0.41204E+08
 
   -0.40789E+08         0.31345E+07         0.00000E+00
    0.31345E+07        -0.49907E+08         0.00000E+00
    0.00000E+00         0.00000E+00        -0.41204E+08
 
   -0.40811E+08         0.32308E+07         0.00000E+00
    0.32308E+07        -0.49901E+08         0.00000E+00
    0.00000E+00         0.00000E+00        -0.41203E+08
 
   -0.40833E+08         0.33272E+07         0.00000E+00
    0.33272E+07        -0.49894E+08         0.00000E+00
    0.00000E+00         0.00000E+00        -0.41203E+08
 
   -0.40855E+08         0.34236E+07         0.00000E+00
    0.34236E+07        -0.49887E+08         0.00000E+00
    0.00000E+00         0.00000E+00        -0.41203E+08
 
   -0.40877E+08         0.35201E+07         0.00000E+00
    0.35201E+07        -0.49879E+08         0.00000E+00
    0.00000E+00         0.00000E+00        -0.41202E+08
 
   -0.40900E+08         0.36166E+07         0.00000E+00
    0.36166E+07        -0.49871E+08         0.00000E+00
    0.00000E+00         0.00000E+00        -0.41202E+08
 
   -0.40923E+08         0.37132E+07         0.00000E+00
    0.37132E+07        -0.49863E+08         0.00000E+00
    0.00000E+00         0.00000E+00        -0.41201E+08
 
   -0.40945E+08         0.38099E+07         0.00000E+00
    0.38099E+07        -0.49854E+08         0.00000E+00
    0.00000E+00         0.00000E+00        -0.41201E+08
 
   -0.40968E+08         0.39066E+07         0.00000E+00
    0.39066E+07        -0.49845E+08         0.00000E+00
    0.00000E+00         0.00000E+00        -0.41201E+08
 
   -0.40992E+08         0.40035E+07         0.00000E+00
    0.40035E+07        -0.49836E+08         0.00000E+00
    0.00000E+00         0.00000E+00        -0.41200E+08
 
   -0.41015E+08         0.41003E+07         0.00000E+00
    0.41003E+07        -0.49826E+08         0.00000E+00
    0.00000E+00         0.00000E+00        -0.41200E+08
 
   -0.41039E+08         0.41973E+07         0.00000E+00
    0.41973E+07        -0.49816E+08         0.00000E+00
    0.00000E+00         0.00000E+00        -0.41200E+08
 
   -0.41063E+08         0.42943E+07         0.00000E+00
    0.42943E+07        -0.49806E+08         0.00000E+00
    0.00000E+00         0.00000E+00        -0.41200E+08
 
   -0.41087E+08         0.43914E+07         0.00000E+00
    0.43914E+07        -0.49795E+08         0.00000E+00
    0.00000E+00         0.00000E+00        -0.41199E+08
 
   -0.41111E+08         0.44886E+07         0.00000E+00
    0.44886E+07        -0.49784E+08         0.00000E+00
    0.00000E+00         0.00000E+00        -0.41199E+08
 
   -0.41136E+08         0.45859E+07         0.00000E+00
    0.45859E+07        -0.49773E+08         0.00000E+00
    0.00000E+00         0.00000E+00        -0.41199E+08
 
   -0.41161E+08         0.46832E+07         0.00000E+00
    0.46832E+07        -0.49761E+08         0.00000E+00
    0.00000E+00         0.00000E+00        -0.41199E+08
 
   -0.41186E+08         0.47807E+07         0.00000E+00
    0.47807E+07        -0.49748E+08         0.00000E+00
    0.00000E+00         0.00000E+00        -0.41199E+08
 
   -0.39588E+08         0.49355E+05         0.00000E+00
    0.49355E+05        -0.50000E+08         0.00000E+00
    0.00000E+00         0.00000E+00        -0.40725E+08
 
   -0.39613E+08         0.14764E+06         0.00000E+00
    0.14764E+06        -0.50000E+08         0.00000E+00
    0.00000E+00         0.00000E+00        -0.40725E+08
 
   -0.39637E+08         0.24578E+06         0.00000E+00
    0.24578E+06        -0.50000E+08         0.00000E+00
    0.00000E+00         0.00000E+00        -0.40725E+08
 
   -0.39661E+08         0.34378E+06         0.00000E+00
    0.34378E+06        -0.49999E+08         0.00000E+00
    0.00000E+00         0.00000E+00        -0.40725E+08
 
   -0.39686E+08         0.44166E+06         0.00000E+00
    0.44166E+06        -0.49999E+08         0.00000E+00
    0.00000E+00         0.00000E+00        -0.40724E+08
 
   -0.39709E+08         0.53943E+06         0.00000E+00
    0.53943E+06        -0.49998E+08         0.00000E+00
    0.00000E+00         0.00000E+00        -0.40724E+08
 
   -0.39733E+08         0.63709E+06         0.00000E+00
    0.63709E+06        -0.49997E+08         0.00000E+00
    0.00000E+00         0.00000E+00        -0.40724E+08
 
   -0.39757E+08         0.73465E+06         0.00000E+00
    0.73465E+06        -0.49996E+08         0.00000E+00
    0.00000E+00         0.00000E+00        -0.40724E+08
 
   -0.39780E+08         0.83213E+06         0.00000E+00
    0.83213E+06        -0.49995E+08         0.00000E+00
    0.00000E+00         0.00000E+00        -0.40723E+08
 
   -0.39803E+08         0.92953E+06         0.00000E+00
    0.92953E+06        -0.49994E+08         0.00000E+00
    0.00000E+00         0.00000E+00        -0.40723E+08
 
   -0.39826E+08         0.10269E+07         0.00000E+00
    0.10269E+07        -0.49993E+08         0.00000E+00
    0.00000E+00         0.00000E+00        -0.40723E+08
 
   -0.39849E+08         0.11241E+07         0.00000E+00
    0.11241E+07        -0.49991E+08         0.00000E+00
    0.00000E+00         0.00000E+00        -0.40722E+08
 
   -0.39871E+08         0.12213E+07         0.00000E+00
    0.12213E+07        -0.49989E+08         0.00000E+00
    0.00000E+00         0.00000E+00        -0.40722E+08
 
   -0.39894E+08         0.13185E+07         0.00000E+00
    0.13185E+07        -0.49988E+08         0.00000E+00
    0.00000E+00         0.00000E+00        -0.40721E+08
 
   -0.39916E+08         0.14156E+07         0.00000E+00
    0.14156E+07        -0.49986E+08         0.00000E+00
    0.00000E+00         0.00000E+00        -0.40721E+08
 
   -0.39938E+08         0.15128E+07         0.00000E+00
    0.15128E+07        -0.49983E+08         0.00000E+00
    0.00000E+00         0.00000E+00        -0.40720E+08
 
   -0.39960E+08         0.16098E+07         0.00000E+00
    0.16098E+07        -0.49981E+08         0.00000E+00
    0.00000E+00         0.00000E+00        -0.40720E+08
 
   -0.39982E+08         0.17069E+07         0.00000E+00
    0.17069E+07        -0.49978E+08         0.00000E+00
    0.00000E+00         0.00000E+00        -0.40719E+08
 
   -0.40004E+08         0.18040E+07         0.00000E+00
    0.18040E+07        -0.49976E+08         0.00000E+00
    0.00000E+00         0.00000E+00        -0.40719E+08
 
   -0.40025E+08         0.19011E+07         0.00000E+00
    0.19011E+07        -0.49973E+08         0.00000E+00
    0.00000E+00         0.00000E+00        -0.40718E+08
 
   -0.40047E+08         0.19981E+07         0.00000E+00
    0.19981E+07        -0.49970E+08         0.00000E+00
    0.00000E+00         0.00000E+00        -0.40718E+08
 
   -0.40068E+08         0.20953E+07         0.00000E+00
    0.20953E+07        -0.49966E+08         0.00000E+00
    0.00000E+00         0.00000E+00        -0.40717E+08
 
   -0.40090E+08         0.21924E+07         0.00000E+00
    0.21924E+07        -0.49963E+08         0.00000E+00
    0.00000E+00         0.00000E+00        -0.40717E+08
 
   -0.40111E+08         0.22895E+07         0.00000E+00
    0.22895E+07        -0.49959E+08         0.00000E+00
    0.00000E+00         0.00000E+00        -0.40716E+08
 
   -0.40133E+08         0.23867E+07         0.00000E+00
    0.23867E+07        -0.49955E+08         0.00000E+00
    0.00000E+00         0.00000E+00        -0.40715E+08
 
   -0.40154E+08         0.24840E+07         0.00000E+00
    0.24840E+07        -0.49951E+08         0.00000E+00
    0.00000E+00         0.00000E+00        -0.40715E+08
 
   -0.40175E+08         0.25812E+07         0.00000E+00
    0.25812E+07        -0.49946E+08         0.00000E+00
    0.00000E+00         0.00000E+00        -0.40714E+08
 
   -0.40197E+08         0.26786E+07         0.00000E+00
    0.26786E+07        -0.49942E+08         0.00000E+00
    0.00000E+00         0.00000E+00        -0.40714E+08
 
   -0.40218E+08         0.27760E+07         0.00000E+00
    0.27760E+07        -0.49937E+08         0.00000E+00
    0.00000E+00         0.00000E+00        -0.40713E+08
 
   -0.40239E+08         0.28735E+07         0.00000E+00
    0.28735E+07        -0.49931E+08         0.00000E+00
    0.00000E+00         0.00000E+00        -0.40713E+08
 
   -0.40261E+08         0.29710E+07         0.00000E+00
    0.29710E+07        -0.49926E+08         0.00000E+00
    0.00000E+00         0.00000E+00        -0.40712E+08
 
   -0.40282E+08         0.30686E+07         0.00000E+00
    0.30686E+07        -0.49920E+08         0.00000E+00
    0.00000E+00         0.00000E+00        -0.40712E+08
 
   -0.40304E+08         0.31663E+07         0.00000E+00
    0.31663E+07        -0.49914E+08         0.00000E+00
    0.00000E+00         0.00000E+00        -0.40711E+08
 
   -0.40325E+08         0.32641E+07         0.00000E+00
    0.32641E+07        -0.49908E+08         0.00000E+00
    0.00000E+00         0.00000E+00        -0.40711E+08
 
   -0.40347E+08         0.33620E+07         0.00000E+00
    0.33620E+07        -0.49901E+08         0.00000E+00
    0.00000E+00         0.00000E+00        -0.40710E+08
 
   -0.40369E+08         0.34599E+07         0.00000E+00
    0.34599E+07        -0.49894E+08         0.00000E+00
    0.00000E+00         0.00000E+00        -0.40710E+08
 
   -0.40391E+08         0.35580E+07         0.00000E+00
    0.35580E+07        -0.49887E+08         0.00000E+00
    0.00000E+00         0.00000E+00        -0.40709E+08
 
   -0.40413E+08         0.36562E+07         0.00000E+00
    0.36562E+07        -0.49879E+08         0.00000E+00
    0.00000E+00         0.00000E+00        -0.40709E+08
 
   -0.40435E+08         0.37545E+07         0.00000E+00
    0.37545E+07        -0.49872E+08         0.00000E+00
    0.00000E+00         0.00000E+00        -0.40708E+08
 
   -0.40457E+08         0.38528E+07         0.00000E+00
    0.38528E+07        -0.49863E+08         0.00000E+00
    0.00000E+00         0.00000E+00        -0.40708E+08
 
   -0.40480E+08         0.39513E+07         0.00000E+00
    0.39513E+07        -0.49855E+08         0.00000E+00
    0.00000E+00         0.00000E+00        -0.40708E+08
 
   -0.40503E+08         0.40499E+07         0.00000E+00
    0.40499E+07        -0.49846E+08         0.00000E+00
    0.00000E+00         0.00000E+00        -0.40707E+08
 
   -0.40526E+08         0.41487E+07         0.00000E+00
    0.41487E+07        -0.49836E+08         0.00000E+00
    0.00000E+00         0.00000E+00        -0.40707E+08
 
   -0.40549E+08         0.42475E+07         0.00000E+00
    0.42475E+07        -0.49827E+08         0.00000E+00
    0.00000E+00         0.00000E+00        -0.40707E+08
 
   -0.40572E+08         0.43465E+07         0.00000E+00
    0.43465E+07        -0.49817E+08         0.00000E+00
    0.00000E+00         0.00000E+00        -0.40707E+08
 
   -0.40596E+08         0.44456E+07         0.00000E+00
    0.44456E+07        -0.49806E+08         0.00000E+00
    0.00000E+00         0.00000E+00        -0.40706E+08
 
   -0.40620E+08         0.45448E+07         0.00000E+00
    0.45448E+07        -0.49795E+08         0.00000E+00
    0.00000E+00         0.00000E+00        -0.40706E+08
 
   -0.40644E+08         0.46441E+07         0.00000E+00
    0.46441E+07        -0.49784E+08         0.00000E+00
    0.00000E+00         0.00000E+00        -0.40706E+08
 
   -0.40669E+08         0.47436E+07         0.00000E+00
    0.47436E+07        -0.49772E+08         0.00000E+00
    0.00000E+00         0.00000E+00        -0.40706E+08
 
   -0.40693E+08         0.48432E+07         0.00000E+00
    0.48432E+07        -0.49760E+08         0.00000E+00
    0.00000E+00         0.00000E+00        -0.40706E+08
 
   -0.39094E+08         0.49636E+05         0.00000E+00
    0.49636E+05        -0.50000E+08         0.00000E+00
    0.00000E+00         0.00000E+00        -0.40221E+08
 
   -0.39120E+08         0.14850E+06         0.00000E+00
    0.14850E+06        -0.50000E+08         0.00000E+00
    0.00000E+00         0.00000E+00        -0.40221E+08
 
   -0.39145E+08         0.24724E+06         0.00000E+00
    0.24724E+06        -0.50000E+08         0.00000E+00
    0.00000E+00         0.00000E+00        -0.40221E+08
 
   -0.39170E+08         0.34586E+06         0.00000E+00
    0.34586E+06        -0.49999E+08         0.00000E+00
    0.00000E+00         0.00000E+00        -0.40221E+08
 
   -0.39195E+08         0.44436E+06         0.00000E+00
    0.44436E+06        -0.49999E+08         0.00000E+00
    0.00000E+00         0.00000E+00        -0.40221E+08
 
   -0.39219E+08         0.54276E+06         0.00000E+00
    0.54276E+06        -0.49998E+08         0.00000E+00
    0.00000E+00         0.00000E+00        -0.40221E+08
 
   -0.39243E+08         0.64108E+06         0.00000E+00
    0.64108E+06        -0.49998E+08         0.00000E+00
    0.00000E+00         0.00000E+00        -0.40220E+08
 
   -0.39267E+08         0.73931E+06         0.00000E+00
    0.73931E+06        -0.49997E+08         0.00000E+00
    0.00000E+00         0.00000E+00        -0.40220E+08
 
   -0.39291E+08         0.83748E+06         0.00000E+00
    0.83748E+06        -0.49996E+08         0.00000E+00
    0.00000E+00         0.00000E+00        -0.40220E+08
 
   -0.39314E+08         0.93558E+06         0.00000E+00
    0.93558E+06        -0.49995E+08         0.00000E+00
    0.00000E+00         0.00000E+00        -0.40219E+08
 
   -0.39338E+08         0.10336E+07         0.00000E+00
    0.10336E+07        -0.49994E+08         0.00000E+00
    0.00000E+00         0.00000E+00        -0.40219E+08
 
   -0.39360E+08         0.11317E+07         0.00000E+00
    0.11317E+07        -0.49992E+08         0.00000E+00
    0.00000E+00         0.00000E+00        -0.40219E+08
 
   -0.39383E+08         0.12296E+07         0.00000E+00
    0.12296E+07        -0.49991E+08         0.00000E+00
    0.00000E+00         0.00000E+00        -0.40218E+08
 
   -0.39406E+08         0.13276E+07         0.00000E+00
    0.13276E+07        -0.49989E+08         0.00000E+00
    0.00000E+00         0.00000E+00        -0.40218E+08
 
   -0.39428E+08         0.14256E+07         0.00000E+00
    0.14256E+07        -0.49988E+08         0.00000E+00
    0.00000E+00         0.00000E+00        -0.40217E+08
 
   -0.39450E+08         0.15235E+07         0.00000E+00
    0.15235E+07        -0.49986E+08         0.00000E+00
    0.00000E+00         0.00000E+00        -0.40217E+08
 
   -0.39472E+08         0.16215E+07         0.00000E+00
    0.16215E+07        -0.49984E+08         0.00000E+00
    0.00000E+00         0.00000E+00        -0.40216E+08
 
   -0.39494E+08         0.17194E+07         0.00000E+00
    0.17194E+07        -0.49981E+08         0.00000E+00
    0.00000E+00         0.00000E+00        -0.40216E+08
 
   -0.39516E+08         0.18174E+07         0.00000E+00
    0.18174E+07        -0.49979E+08         0.00000E+00
    0.00000E+00         0.00000E+00        -0.40215E+08
 
   -0.39537E+08         0.19155E+07         0.00000E+00
    0.19155E+07        -0.49976E+08         0.00000E+00
    0.00000E+00         0.00000E+00        -0.40215E+08
 
   -0.39559E+08         0.20135E+07         0.00000E+00
    0.20135E+07        -0.49973E+08         0.00000E+00
    0.00000E+00         0.00000E+00        -0.40214E+08
 
   -0.39580E+08         0.21116E+07         0.00000E+00
    0.21116E+07        -0.49970E+08         0.00000E+00
    0.00000E+00         0.00000E+00        -0.40213E+08
 
   -0.39602E+08         0.22098E+07         0.00000E+00
    0.22098E+07        -0.49967E+08         0.00000E+00
    0.00000E+00         0.00000E+00        -0.40213E+08
 
   -0.39623E+08         0.23080E+07         0.00000E+00
    0.23080E+07        -0.49964E+08         0.00000E+00
    0.00000E+00         0.00000E+00        -0.40212E+08
 
   -0.39644E+08         0.24064E+07         0.00000E+00
    0.24064E+07        -0.49960E+08         0.00000E+00
    0.00000E+00         0.00000E+00        -0.40212E+08
 
   -0.39665E+08         0.25047E+07         0.00000E+00
    0.25047E+07        -0.49956E+08         0.00000E+00
    0.00000E+00         0.00000E+00        -0.40211E+08
 
   -0.39686E+08         0.26032E+07         0.00000E+00
    0.26032E+07        -0.49952E+08         0.00000E+00
    0.00000E+00         0.00000E+00        -0.40210E+08
 
   -0.39707E+08         0.27018E+07         0.00000E+00
    0.27018E+07        -0.49948E+08         0.00000E+00
    0.00000E+00         0.00000E+00        -0.40210E+08
 
   -0.39728E+08         0.28004E+07         0.00000E+00
    0.28004E+07        -0.49943E+08         0.00000E+00
    0.00000E+00         0.00000E+00        -0.40209E+08
 
   -0.39749E+08         0.28992E+07         0.00000E+00
    0.28992E+07        -0.49939E+08         0.00000E+00
    0.00000E+00         0.00000E+00        -0.40209E+08
 
   -0.39770E+08         0.29981E+07         0.00000E+00
    0.29981E+07        -0.49934E+08         0.00000E+00
    0.00000E+00         0.00000E+00        -0.40208E+08
 
   -0.39791E+08         0.30971E+07         0.00000E+00
    0.30971E+07        -0.49928E+08         0.00000E+00
    0.00000E+00         0.00000E+00        -0.40208E+08
 
   -0.39812E+08         0.31962E+07         0.00000E+00
    0.31962E+07        -0.49923E+08         0.00000E+00
    0.00000E+00         0.00000E+00        -0.40207E+08
 
   -0.39833E+08         0.32954E+07         0.00000E+00
    0.32954E+07        -0.49917E+08         0.00000E+00
    0.00000E+00         0.00000E+00        -0.40207E+08
 
   -0.39854E+08         0.33948E+07         0.00000E+00
    0.33948E+07        -0.49910E+08         0.00000E+00
    0.00000E+00         0.00000E+00        -0.40206E+08
 
   -0.39875E+08         0.34943E+07         0.00000E+00
    0.34943E+07        -0.49904E+08         0.00000E+00
    0.00000E+00         0.00000E+00        -0.40206E+08
 
   -0.39896E+08         0.35940E+07         0.00000E+00
    0.35940E+07        -0.49897E+08         0.00000E+00
    0.00000E+00         0.00000E+00        -0.40205E+08
 
   -0.39918E+08         0.36938E+07         0.00000E+00
    0.36938E+07        -0.49890E+08         0.00000E+00
    0.00000E+00         0.00000E+00        -0.40205E+08
 
   -0.39939E+08         0.37937E+07         0.00000E+00
    0.37937E+07        -0.49883E+08         0.00000E+00
    0.00000E+00         0.00000E+00        -0.40204E+08
 
   -0.39961E+08         0.38938E+07         0.00000E+00
    0.38938E+07        -0.49875E+08         0.00000E+00
    0.00000E+00         0.00000E+00        -0.40204E+08
 
   -0.39983E+08         0.39941E+07         0.00000E+00
    0.39941E+07        -0.49867E+08         0.00000E+00
    0.00000E+00         0.00000E+00        -0.40204E+08
 
   -0.40005E+08         0.40945E+07         0.00000E+00
    0.40945E+07        -0.49858E+08         0.00000E+00
    0.00000E+00         0.00000E+00        -0.40203E+08
 
   -0.40027E+08         0.41951E+07         0.00000E+00
    0.41951E+07        -0.49849E+08         0.00000E+00
    0.00000E+00         0.00000E+00        -0.40203E+08
 
   -0.40049E+08         0.42959E+07         0.00000E+00
    0.42959E+07        -0.49840E+08         0.00000E+00
    0.00000E+00         0.00000E+00        -0.40203E+08
 
   -0.40072E+08         0.43968E+07         0.00000E+00
    0.43968E+07        -0.49830E+08         0.00000E+00
    0.00000E+00         0.00000E+00        -0.40202E+08
 
   -0.40095E+08         0.44979E+07         0.00000E+00
    0.44979E+07        -0.49820E+08         0.00000E+00
    0.00000E+00         0.00000E+00        -0.40202E+08
 
   -0.40118E+08         0.45992E+07         0.00000E+00
    0.45992E+07        -0.49810E+08         0.00000E+00
    0.00000E+00         0.00000E+00        -0.40202E+08
 
   -0.40142E+08         0.47006E+07         0.00000E+00
    0.47006E+07        -0.49799E+08         0.00000E+00
    0.00000E+00         0.00000E+00        -0.40202E+08
 
   -0.40166E+08         0.48022E+07         0.00000E+00
    0.48022E+07        -0.49788E+08         0.00000E+00
    0.00000E+00         0.00000E+00        -0.40202E+08
 
   -0.40190E+08         0.49040E+07         0.00000E+00
    0.49040E+07        -0.49776E+08         0.00000E+00
    0.00000E+00         0.00000E+00        -0.40202E+08
 
   -0.38599E+08         0.49863E+05         0.00000E+00
    0.49863E+05        -0.50000E+08         0.00000E+00
    0.00000E+00         0.00000E+00        -0.39706E+08
 
   -0.38625E+08         0.14921E+06         0.00000E+00
    0.14921E+06        -0.50000E+08         0.00000E+00
    0.00000E+00         0.00000E+00        -0.39706E+08
 
   -0.38651E+08         0.24844E+06         0.00000E+00
    0.24844E+06        -0.50000E+08         0.00000E+00
    0.00000E+00         0.00000E+00        -0.39706E+08
 
   -0.38676E+08         0.34757E+06         0.00000E+00
    0.34757E+06        -0.49999E+08         0.00000E+00
    0.00000E+00         0.00000E+00        -0.39706E+08
 
   -0.38701E+08         0.44659E+06         0.00000E+00
    0.44659E+06        -0.49999E+08         0.00000E+00
    0.00000E+00         0.00000E+00        -0.39706E+08
 
   -0.38726E+08         0.54553E+06         0.00000E+00
    0.54553E+06        -0.49999E+08         0.00000E+00
    0.00000E+00         0.00000E+00        -0.39706E+08
 
   -0.38751E+08         0.64440E+06         0.00000E+00
    0.64440E+06        -0.49998E+08         0.00000E+00
    0.00000E+00         0.00000E+00        -0.39705E+08
 
   -0.38775E+08         0.74320E+06         0.00000E+00
    0.74320E+06        -0.49998E+08         0.00000E+00
    0.00000E+00         0.00000E+00        -0.39705E+08
 
   -0.38799E+08         0.84196E+06         0.00000E+00
    0.84196E+06        -0.49997E+08         0.00000E+00
    0.00000E+00         0.00000E+00        -0.39705E+08
 
   -0.38822E+08         0.94067E+06         0.00000E+00
    0.94067E+06        -0.49996E+08         0.00000E+00
    0.00000E+00         0.00000E+00        -0.39704E+08
 
   -0.38846E+08         0.10394E+07         0.00000E+00
    0.10394E+07        -0.49995E+08         0.00000E+00
    0.00000E+00         0.00000E+00        -0.39704E+08
 
   -0.38869E+08         0.11380E+07         0.00000E+00
    0.11380E+07        -0.49994E+08         0.00000E+00
    0.00000E+00         0.00000E+00        -0.39704E+08
 
   -0.38892E+08         0.12367E+07         0.00000E+00
    0.12367E+07        -0.49993E+08         0.00000E+00
    0.00000E+00         0.00000E+00        -0.39703E+08
 
   -0.38914E+08         0.13354E+07         0.00000E+00
    0.13354E+07        -0.49991E+08         0.00000E+00
    0.00000E+00         0.00000E+00        -0.39703E+08
 
   -0.38936E+08         0.14341E+07         0.00000E+00
    0.14341E+07        -0.49990E+08         0.00000E+00
    0.00000E+00         0.00000E+00        -0.39702E+08
 
   -0.38959E+08         0.15328E+07         0.00000E+00
    0.15328E+07        -0.49988E+08         0.00000E+00
    0.00000E+00         0.00000E+00        -0.39702E+08
 
   -0.38980E+08         0.16315E+07         0.00000E+00
    0.16315E+07        -0.49986E+08         0.00000E+00
    0.00000E+00         0.00000E+00        -0.39701E+08
 
   -0.39002E+08         0.17303E+07         0.00000E+00
    0.17303E+07        -0.49985E+08         0.00000E+00
    0.00000E+00         0.00000E+00        -0.39700E+08
 
   -0.39024E+08         0.18291E+07         0.00000E+00
    0.18291E+07        -0.49983E+08         0.00000E+00
    0.00000E+00         0.00000E+00        -0.39700E+08
 
   -0.39045E+08         0.19281E+07         0.00000E+00
    0.19281E+07        -0.49980E+08         0.00000E+00
    0.00000E+00         0.00000E+00        -0.39699E+08
 
   -0.39066E+08         0.20270E+07         0.00000E+00
    0.20270E+07        -0.49978E+08         0.00000E+00
    0.00000E+00         0.00000E+00        -0.39699E+08
 
   -0.39087E+08         0.21261E+07         0.00000E+00
    0.21261E+07        -0.49975E+08         0.00000E+00
    0.00000E+00         0.00000E+00        -0.39698E+08
 
   -0.39108E+08         0.22253E+07         0.00000E+00
    0.22253E+07        -0.49973E+08         0.00000E+00
    0.00000E+00         0.00000E+00        -0.39698E+08
 
   -0.39129E+08         0.23245E+07         0.00000E+00
    0.23245E+07        -0.49970E+08         0.00000E+00
    0.00000E+00         0.00000E+00        -0.39697E+08
 
   -0.39149E+08         0.24239E+07         0.00000E+00
    0.24239E+07        -0.49966E+08         0.00000E+00
    0.00000E+00         0.00000E+00        -0.39696E+08
 
   -0.39170E+08         0.25234E+07         0.00000E+00
    0.25234E+07        -0.49963E+08         0.00000E+00
    0.00000E+00         0.00000E+00        -0.39696E+08
 
   -0.39190E+08         0.26230E+07         0.00000E+00
    0.26230E+07        -0.49959E+08         0.00000E+00
    0.00000E+00         0.00000E+00        -0.39695E+08
 
   -0.39211E+08         0.27227E+07         0.00000E+00
    0.27227E+07        -0.49956E+08         0.00000E+00
    0.00000E+00         0.00000E+00        -0.39694E+08
 
   -0.39231E+08         0.28226E+07         0.00000E+00
    0.28226E+07        -0.49952E+08         0.00000E+00
    0.00000E+00         0.00000E+00        -0.39694E+08
 
   -0.39251E+08         0.29226E+07         0.00000E+00
    0.29226E+07        -0.49947E+08         0.00000E+00
    0.00000E+00         0.00000E+00        -0.39693E+08
 
   -0.39272E+08         0.30228E+07         0.00000E+00
    0.30228E+07        -0.49943E+08         0.00000E+00
    0.00000E+00         0.00000E+00        -0.39693E+08
 
   -0.39292E+08         0.31231E+07         0.00000E+00
    0.31231E+07        -0.49938E+08         0.00000E+00
    0.00000E+00         0.00000E+00        -0.39692E+08
 
   -0.39312E+08         0.32236E+07         0.00000E+00
    0.32236E+07        -0.49933E+08         0.00000E+00
    0.00000E+00         0.00000E+00        -0.39692E+08
 
   -0.39332E+08         0.33243E+07         0.00000E+00
    0.33243E+07        -0.49927E+08         0.00000E+00
    0.00000E+00         0.00000E+00        -0.39691E+08
 
   -0.39353E+08         0.34252E+07         0.00000E+00
    0.34252E+07        -0.49922E+08         0.00000E+00
    0.00000E+00         0.00000E+00        -0.39691E+08
 
   -0.39373E+08         0.35262E+07         0.00000E+00
    0.35262E+07        -0.49916E+08         0.00000E+00
    0.00000E+00         0.00000E+00        -0.39690E+08
 
   -0.39394E+08         0.36274E+07         0.00000E+00
    0.36274E+07        -0.49910E+08         0.00000E+00
    0.00000E+00         0.00000E+00        -0.39690E+08
 
   -0.39414E+08         0.37289E+07         0.00000E+00
    0.37289E+07        -0.49903E+08         0.00000E+00
    0.00000E+00         0.00000E+00        -0.39689E+08
 
   -0.39435E+08         0.38305E+07         0.00000E+00
    0.38305E+07        -0.49896E+08         0.00000E+00
    0.00000E+00         0.00000E+00        -0.39689E+08
 
   -0.39456E+08         0.39323E+07         0.00000E+00
    0.39323E+07        -0.49889E+08         0.00000E+00
    0.00000E+00         0.00000E+00        -0.39688E+08
 
   -0.39477E+08         0.40344E+07         0.00000E+00
    0.40344E+07        -0.49881E+08         0.00000E+00
    0.00000E+00         0.00000E+00        -0.39688E+08
 
   -0.39498E+08         0.41366E+07         0.00000E+00
    0.41366E+07        -0.49873E+08         0.00000E+00
    0.00000E+00         0.00000E+00        -0.39688E+08
 
   -0.39519E+08         0.42391E+07         0.00000E+00
    0.42391E+07        -0.49865E+08         0.00000E+00
    0.00000E+00         0.00000E+00        -0.39687E+08
 
   -0.39540E+08         0.43418E+07         0.00000E+00
    0.43418E+07        -0.49856E+08         0.00000E+00
    0.00000E+00         0.00000E+00        -0.39687E+08
 
   -0.39562E+08         0.44447E+07         0.00000E+00
    0.44447E+07        -0.49847E+08         0.00000E+00
    0.00000E+00         0.00000E+00        -0.39687E+08
 
   -0.39584E+08         0.45478E+07         0.00000E+00
    0.45478E+07        -0.49838E+08         0.00000E+00
    0.00000E+00         0.00000E+00        -0.39686E+08
 
   -0.39606E+08         0.46512E+07         0.00000E+00
    0.46512E+07        -0.49828E+08         0.00000E+00
    0.00000E+00         0.00000E+00        -0.39686E+08
 
   -0.39629E+08         0.47548E+07         0.00000E+00
    0.47548E+07        -0.49818E+08         0.00000E+00
    0.00000E+00         0.00000E+00        -0.39686E+08
 
   -0.39651E+08         0.48586E+07         0.00000E+00
    0.48586E+07        -0.49807E+08         0.00000E+00
    0.00000E+00         0.00000E+00        -0.39686E+08
 
   -0.39674E+08         0.49626E+07         0.00000E+00
    0.49626E+07        -0.49796E+08         0.00000E+00
    0.00000E+00         0.00000E+00        -0.39686E+08
 
   -0.38101E+08         0.50027E+05         0.00000E+00
    0.50027E+05        -0.50000E+08         0.00000E+00
    0.00000E+00         0.00000E+00        -0.39180E+08
 
   -0.38127E+08         0.14973E+06         0.00000E+00
    0.14973E+06        -0.50000E+08         0.00000E+00
    0.00000E+00         0.00000E+00        -0.39180E+08
 
   -0.38154E+08         0.24933E+06         0.00000E+00
    0.24933E+06        -0.50000E+08         0.00000E+00
    0.00000E+00         0.00000E+00        -0.39180E+08
 
   -0.38180E+08         0.34884E+06         0.00000E+00
    0.34884E+06        -0.50000E+08         0.00000E+00
    0.00000E+00         0.00000E+00        -0.39180E+08
 
   -0.38205E+08         0.44826E+06         0.00000E+00
    0.44826E+06        -0.49999E+08         0.00000E+00
    0.00000E+00         0.00000E+00        -0.39179E+08
 
   -0.38230E+08         0.54761E+06         0.00000E+00
    0.54761E+06        -0.49999E+08         0.00000E+00
    0.00000E+00         0.00000E+00        -0.39179E+08
 
   -0.38255E+08         0.64691E+06         0.00000E+00
    0.64691E+06        -0.49999E+08         0.00000E+00
    0.00000E+00         0.00000E+00        -0.39179E+08
 
   -0.38280E+08         0.74617E+06         0.00000E+00
    0.74617E+06        -0.49998E+08         0.00000E+00
    0.00000E+00         0.00000E+00        -0.39178E+08
 
   -0.38304E+08         0.84540E+06         0.00000E+00
    0.84540E+06        -0.49998E+08         0.00000E+00
    0.00000E+00         0.00000E+00        -0.39178E+08
 
   -0.38327E+08         0.94462E+06         0.00000E+00
    0.94462E+06        -0.49997E+08         0.00000E+00
    0.00000E+00         0.00000E+00        -0.39178E+08
 
   -0.38351E+08         0.10438E+07         0.00000E+00
    0.10438E+07        -0.49996E+08         0.00000E+00
    0.00000E+00         0.00000E+00        -0.39177E+08
 
   -0.38374E+08         0.11430E+07         0.00000E+00
    0.11430E+07        -0.49996E+08         0.00000E+00
    0.00000E+00         0.00000E+00        -0.39177E+08
 
   -0.38397E+08         0.12423E+07         0.00000E+00
    0.12423E+07        -0.49995E+08         0.00000E+00
    0.00000E+00         0.00000E+00        -0.39176E+08
 
   -0.38419E+08         0.13416E+07         0.00000E+00
    0.13416E+07        -0.49994E+08         0.00000E+00
    0.00000E+00         0.00000E+00        -0.39176E+08
 
   -0.38441E+08         0.14409E+07         0.00000E+00
    0.14409E+07        -0.49993E+08         0.00000E+00
    0.00000E+00         0.00000E+00        -0.39175E+08
 
   -0.38463E+08         0.15402E+07         0.00000E+00
    0.15402E+07        -0.49991E+08         0.00000E+00
    0.00000E+00         0.00000E+00        -0.39175E+08
 
   -0.38485E+08         0.16397E+07         0.00000E+00
    0.16397E+07        -0.49990E+08         0.00000E+00
    0.00000E+00         0.00000E+00        -0.39174E+08
 
   -0.38506E+08         0.17392E+07         0.00000E+00
    0.17392E+07        -0.49989E+08         0.00000E+00
    0.00000E+00         0.00000E+00        -0.39174E+08
 
   -0.38527E+08         0.18388E+07         0.00000E+00
    0.18388E+07        -0.49987E+08         0.00000E+00
    0.00000E+00         0.00000E+00        -0.39173E+08
 
   -0.38548E+08         0.19385E+07         0.00000E+00
    0.19385E+07        -0.49985E+08         0.00000E+00
    0.00000E+00         0.00000E+00        -0.39172E+08
 
   -0.38569E+08         0.20383E+07         0.00000E+00
    0.20383E+07        -0.49983E+08         0.00000E+00
    0.00000E+00         0.00000E+00        -0.39172E+08
 
   -0.38589E+08         0.21383E+07         0.00000E+00
    0.21383E+07        -0.49981E+08         0.00000E+00
    0.00000E+00         0.00000E+00        -0.39171E+08
 
   -0.38610E+08         0.22383E+07         0.00000E+00
    0.22383E+07        -0.49979E+08         0.00000E+00
    0.00000E+00         0.00000E+00        -0.39171E+08
 
   -0.38630E+08         0.23385E+07         0.00000E+00
    0.23385E+07        -0.49976E+08         0.00000E+00
    0.00000E+00         0.00000E+00        -0.39170E+08
 
   -0.38650E+08         0.24389E+07         0.00000E+00
    0.24389E+07        -0.49974E+08         0.00000E+00
    0.00000E+00         0.00000E+00        -0.39169E+08
 
   -0.38669E+08         0.25394E+07         0.00000E+00
    0.25394E+07        -0.49971E+08         0.00000E+00
    0.00000E+00         0.00000E+00        -0.39169E+08
 
   -0.38689E+08         0.26401E+07         0.00000E+00
    0.26401E+07        -0.49968E+08         0.00000E+00
    0.00000E+00         0.00000E+00        -0.39168E+08
 
   -0.38709E+08         0.27409E+07         0.00000E+00
    0.27409E+07        -0.49965E+08         0.00000E+00
    0.00000E+00         0.00000E+00        -0.39167E+08
 
   -0.38728E+08         0.28420E+07         0.00000E+00
    0.28420E+07        -0.49961E+08         0.00000E+00
    0.00000E+00         0.00000E+00        -0.39167E+08
 
   -0.38748E+08         0.29432E+07         0.00000E+00
    0.29432E+07        -0.49958E+08         0.00000E+00
    0.00000E+00         0.00000E+00        -0.39166E+08
 
   -0.38767E+08         0.30446E+07         0.00000E+00
    0.30446E+07        -0.49954E+08         0.00000E+00
    0.00000E+00         0.00000E+00        -0.39166E+08
 
   -0.38786E+08         0.31463E+07         0.00000E+00
    0.31463E+07        -0.49950E+08         0.00000E+00
    0.00000E+00         0.00000E+00        -0.39165E+08
 
   -0.38806E+08         0.32481E+07         0.00000E+00
    0.32481E+07        -0.49945E+08         0.00000E+00
    0.00000E+00         0.00000E+00        -0.39164E+08
 
   -0.38825E+08         0.33502E+07         0.00000E+00
    0.33502E+07        -0.49940E+08         0.00000E+00
    0.00000E+00         0.00000E+00        -0.39164E+08
 
   -0.38844E+08         0.34525E+07         0.00000E+00
    0.34525E+07        -0.49935E+08         0.00000E+00
    0.00000E+00         0.00000E+00        -0.39163E+08
 
   -0.38864E+08         0.35551E+07         0.00000E+00
    0.35551E+07        -0.49930E+08         0.00000E+00
    0.00000E+00         0.00000E+00        -0.39163E+08
 
   -0.38883E+08         0.36578E+07         0.00000E+00
    0.36578E+07        -0.49925E+08         0.00000E+00
    0.00000E+00         0.00000E+00        -0.39162E+08
 
   -0.38902E+08         0.37609E+07         0.00000E+00
    0.37609E+07        -0.49919E+08         0.00000E+00
    0.00000E+00         0.00000E+00        -0.39162E+08
 
   -0.38922E+08         0.38641E+07         0.00000E+00
    0.38641E+07        -0.49913E+08         0.00000E+00
    0.00000E+00         0.00000E+00        -0.39161E+08
 
   -0.38942E+08         0.39677E+07         0.00000E+00
    0.39677E+07        -0.49906E+08         0.00000E+00
    0.00000E+00         0.00000E+00        -0.39161E+08
 
   -0.38961E+08         0.40715E+07         0.00000E+00
    0.40715E+07        -0.49899E+08         0.00000E+00
    0.00000E+00         0.00000E+00        -0.39161E+08
 
   -0.38981E+08         0.41756E+07         0.00000E+00
    0.41756E+07        -0.49892E+08         0.00000E+00
    0.00000E+00         0.00000E+00        -0.39160E+08
 
   -0.39001E+08         0.42799E+07         0.00000E+00
    0.42799E+07        -0.49884E+08         0.00000E+00
    0.00000E+00         0.00000E+00        -0.39160E+08
 
   -0.39021E+08         0.43845E+07         0.00000E+00
    0.43845E+07        -0.49876E+08         0.00000E+00
    0.00000E+00         0.00000E+00        -0.39160E+08
 
   -0.39042E+08         0.44894E+07         0.00000E+00
    0.44894E+07        -0.49868E+08         0.00000E+00
    0.00000E+00         0.00000E+00        -0.39159E+08
 
   -0.39063E+08         0.45946E+07         0.00000E+00
    0.45946E+07        -0.49859E+08         0.00000E+00
    0.00000E+00         0.00000E+00        -0.39159E+08
 
   -0.39083E+08         0.47001E+07         0.00000E+00
    0.47001E+07        -0.49850E+08         0.00000E+00
    0.00000E+00         0.00000E+00        -0.39159E+08
 
   -0.39105E+08         0.48058E+07         0.00000E+00
    0.48058E+07        -0.49840E+08         0.00000E+00
    0.00000E+00         0.00000E+00        -0.39159E+08
 
   -0.39126E+08         0.49119E+07         0.00000E+00
    0.49119E+07        -0.49830E+08         0.00000E+00
    0.00000E+00         0.00000E+00        -0.39159E+08
 
   -0.39148E+08         0.50182E+07         0.00000E+00
    0.50182E+07        -0.49820E+08         0.00000E+00
    0.00000E+00         0.00000E+00        -0.39159E+08
 
   -0.37601E+08         0.50115E+05         0.00000E+00
    0.50115E+05        -0.50000E+08         0.00000E+00
    0.00000E+00         0.00000E+00        -0.38641E+08
 
   -0.37628E+08         0.15003E+06         0.00000E+00
    0.15003E+06        -0.50000E+08         0.00000E+00
    0.00000E+00         0.00000E+00        -0.38641E+08
 
   -0.37655E+08         0.24985E+06         0.00000E+00
    0.24985E+06        -0.50000E+08         0.00000E+00
    0.00000E+00         0.00000E+00        -0.38641E+08
 
   -0.37682E+08         0.34959E+06         0.00000E+00
    0.34959E+06        -0.50000E+08         0.00000E+00
    0.00000E+00         0.00000E+00        -0.38641E+08
 
   -0.37708E+08         0.44926E+06         0.00000E+00
    0.44926E+06        -0.50000E+08         0.00000E+00
    0.00000E+00         0.00000E+00        -0.38641E+08
 
   -0.37733E+08         0.54889E+06         0.00000E+00
    0.54889E+06        -0.50000E+08         0.00000E+00
    0.00000E+00         0.00000E+00        -0.38640E+08
 
   -0.37758E+08         0.64848E+06         0.00000E+00
    0.64848E+06        -0.49999E+08         0.00000E+00
    0.00000E+00         0.00000E+00        -0.38640E+08
 
   -0.37783E+08         0.74805E+06         0.00000E+00
    0.74805E+06        -0.49999E+08         0.00000E+00
    0.00000E+00         0.00000E+00        -0.38640E+08
 
   -0.37807E+08         0.84762E+06         0.00000E+00
    0.84762E+06        -0.49999E+08         0.00000E+00
    0.00000E+00         0.00000E+00        -0.38639E+08
 
   -0.37830E+08         0.94719E+06         0.00000E+00
    0.94719E+06        -0.49999E+08         0.00000E+00
    0.00000E+00         0.00000E+00        -0.38639E+08
 
   -0.37854E+08         0.10468E+07         0.00000E+00
    0.10468E+07        -0.49998E+08         0.00000E+00
    0.00000E+00         0.00000E+00        -0.38639E+08
 
   -0.37877E+08         0.11464E+07         0.00000E+00
    0.11464E+07        -0.49998E+08         0.00000E+00
    0.00000E+00         0.00000E+00        -0.38638E+08
 
   -0.37899E+08         0.12461E+07         0.00000E+00
    0.12461E+07        -0.49997E+08         0.00000E+00
    0.00000E+00         0.00000E+00        -0.38638E+08
 
   -0.37921E+08         0.13459E+07         0.00000E+00
    0.13459E+07        -0.49997E+08         0.00000E+00
    0.00000E+00         0.00000E+00        -0.38637E+08
 
   -0.37943E+08         0.14457E+07         0.00000E+00
    0.14457E+07        -0.49996E+08         0.00000E+00
    0.00000E+00         0.00000E+00        -0.38637E+08
 
   -0.37965E+08         0.15456E+07         0.00000E+00
    0.15456E+07        -0.49995E+08         0.00000E+00
    0.00000E+00         0.00000E+00        -0.38636E+08
 
   -0.37986E+08         0.16456E+07         0.00000E+00
    0.16456E+07        -0.49994E+08         0.00000E+00
    0.00000E+00         0.00000E+00        -0.38635E+08
 
   -0.38007E+08         0.17457E+07         0.00000E+00
    0.17457E+07        -0.49993E+08         0.00000E+00
    0.00000E+00         0.00000E+00        -0.38635E+08
 
   -0.38027E+08         0.18460E+07         0.00000E+00
    0.18460E+07        -0.49992E+08         0.00000E+00
    0.00000E+00         0.00000E+00        -0.38634E+08
 
   -0.38048E+08         0.19464E+07         0.00000E+00
    0.19464E+07        -0.49991E+08         0.00000E+00
    0.00000E+00         0.00000E+00        -0.38634E+08
 
   -0.38068E+08         0.20469E+07         0.00000E+00
    0.20469E+07        -0.49990E+08         0.00000E+00
    0.00000E+00         0.00000E+00        -0.38633E+08
 
   -0.38087E+08         0.21476E+07         0.00000E+00
    0.21476E+07        -0.49988E+08         0.00000E+00
    0.00000E+00         0.00000E+00        -0.38632E+08
 
   -0.38107E+08         0.22485E+07         0.00000E+00
    0.22485E+07        -0.49986E+08         0.00000E+00
    0.00000E+00         0.00000E+00        -0.38632E+08
 
   -0.38126E+08         0.23496E+07         0.00000E+00
    0.23496E+07        -0.49985E+08         0.00000E+00
    0.00000E+00         0.00000E+00        -0.38631E+08
 
   -0.38145E+08         0.24508E+07         0.00000E+00
    0.24508E+07        -0.49983E+08         0.00000E+00
    0.00000E+00         0.00000E+00        -0.38630E+08
 
   -0.38164E+08         0.25523E+07         0.00000E+00
    0.25523E+07        -0.49980E+08         0.00000E+00
    0.00000E+00         0.00000E+00        -0.38630E+08
 
   -0.38183E+08         0.26540E+07         0.00000E+00
    0.26540E+07        -0.49978E+08         0.00000E+00
    0.00000E+00         0.00000E+00        -0.38629E+08
 
   -0.38201E+08         0.27559E+07         0.00000E+00
    0.27559E+07        -0.49976E+08         0.00000E+00
    0.00000E+00         0.00000E+00        -0.38628E+08
 
   -0.38220E+08         0.28580E+07         0.00000E+00
    0.28580E+07        -0.49973E+08         0.00000E+00
    0.00000E+00         0.00000E+00        -0.38628E+08
 
   -0.38238E+08         0.29604E+07         0.00000E+00
    0.29604E+07        -0.49970E+08         0.00000E+00
    0.00000E+00         0.00000E+00        -0.38627E+08
 
   -0.38256E+08         0.30630E+07         0.00000E+00
    0.30630E+07        -0.49967E+08         0.00000E+00
    0.00000E+00         0.00000E+00        -0.38627E+08
 
   -0.38274E+08         0.31659E+07         0.00000E+00
    0.31659E+07        -0.49963E+08         0.00000E+00
    0.00000E+00         0.00000E+00        -0.38626E+08
 
   -0.38292E+08         0.32691E+07         0.00000E+00
    0.32691E+07        -0.49960E+08         0.00000E+00
    0.00000E+00         0.00000E+00        -0.38625E+08
 
   -0.38311E+08         0.33725E+07         0.00000E+00
    0.33725E+07        -0.49956E+08         0.00000E+00
    0.00000E+00         0.00000E+00        -0.38625E+08
 
   -0.38329E+08         0.34762E+07         0.00000E+00
    0.34762E+07        -0.49952E+08         0.00000E+00
    0.00000E+00         0.00000E+00        -0.38624E+08
 
   -0.38347E+08         0.35802E+07         0.00000E+00
    0.35802E+07        -0.49947E+08         0.00000E+00
    0.00000E+00         0.00000E+00        -0.38624E+08
 
   -0.38365E+08         0.36845E+07         0.00000E+00
    0.36845E+07        -0.49942E+08         0.00000E+00
    0.00000E+00         0.00000E+00        -0.38623E+08
 
   -0.38383E+08         0.37891E+07         0.00000E+00
    0.37891E+07        -0.49937E+08         0.00000E+00
    0.00000E+00         0.00000E+00        -0.38623E+08
 
   -0.38401E+08         0.38940E+07         0.00000E+00
    0.38940E+07        -0.49932E+08         0.00000E+00
    0.00000E+00         0.00000E+00        -0.38622E+08
 
   -0.38419E+08         0.39993E+07         0.00000E+00
    0.39993E+07        -0.49926E+08         0.00000E+00
    0.00000E+00         0.00000E+00        -0.38622E+08
 
   -0.38437E+08         0.41048E+07         0.00000E+00
    0.41048E+07        -0.49920E+08         0.00000E+00
    0.00000E+00         0.00000E+00        -0.38621E+08
 
   -0.38456E+08         0.42107E+07         0.00000E+00
    0.42107E+07        -0.49914E+08         0.00000E+00
    0.00000E+00         0.00000E+00        -0.38621E+08
 
   -0.38474E+08         0.43169E+07         0.00000E+00
    0.43169E+07        -0.49907E+08         0.00000E+00
    0.00000E+00         0.00000E+00        -0.38621E+08
 
   -0.38493E+08         0.44235E+07         0.00000E+00
    0.44235E+07        -0.49900E+08         0.00000E+00
    0.00000E+00         0.00000E+00        -0.38620E+08
 
   -0.38512E+08         0.45303E+07         0.00000E+00
    0.45303E+07        -0.49892E+08         0.00000E+00
    0.00000E+00         0.00000E+00        -0.38620E+08
 
   -0.38531E+08         0.46376E+07         0.00000E+00
    0.46376E+07        -0.49884E+08         0.00000E+00
    0.00000E+00         0.00000E+00        -0.38620E+08
 
   -0.38550E+08         0.47452E+07         0.00000E+00
    0.47452E+07        -0.49876E+08         0.00000E+00
    0.00000E+00         0.00000E+00        -0.38620E+08
 
   -0.38569E+08         0.48531E+07         0.00000E+00
    0.48531E+07        -0.49867E+08         0.00000E+00
    0.00000E+00         0.00000E+00        -0.38620E+08
 
   -0.38589E+08         0.49614E+07         0.00000E+00
    0.49614E+07        -0.49858E+08         0.00000E+00
    0.00000E+00         0.00000E+00        -0.38620E+08
 
   -0.38609E+08         0.50701E+07         0.00000E+00
    0.50701E+07        -0.49848E+08         0.00000E+00
    0.00000E+00         0.00000E+00        -0.38619E+08
 
   -0.37101E+08         0.50114E+05         0.00000E+00
    0.50114E+05        -0.50000E+08         0.00000E+00
    0.00000E+00         0.00000E+00        -0.38091E+08
 
   -0.37129E+08         0.15006E+06         0.00000E+00
    0.15006E+06        -0.50000E+08         0.00000E+00
    0.00000E+00         0.00000E+00        -0.38091E+08
 
   -0.37156E+08         0.24993E+06         0.00000E+00
    0.24993E+06        -0.50000E+08         0.00000E+00
    0.00000E+00         0.00000E+00        -0.38090E+08
 
   -0.37183E+08         0.34973E+06         0.00000E+00
    0.34973E+06        -0.50000E+08         0.00000E+00
    0.00000E+00         0.00000E+00        -0.38090E+08
 
   -0.37209E+08         0.44949E+06         0.00000E+00
    0.44949E+06        -0.50000E+08         0.00000E+00
    0.00000E+00         0.00000E+00        -0.38090E+08
 
   -0.37235E+08         0.54922E+06         0.00000E+00
    0.54922E+06        -0.50000E+08         0.00000E+00
    0.00000E+00         0.00000E+00        -0.38090E+08
 
   -0.37260E+08         0.64893E+06         0.00000E+00
    0.64893E+06        -0.50000E+08         0.00000E+00
    0.00000E+00         0.00000E+00        -0.38089E+08
 
   -0.37284E+08         0.74865E+06         0.00000E+00
    0.74865E+06        -0.50000E+08         0.00000E+00
    0.00000E+00         0.00000E+00        -0.38089E+08
 
   -0.37308E+08         0.84839E+06         0.00000E+00
    0.84839E+06        -0.50000E+08         0.00000E+00
    0.00000E+00         0.00000E+00        -0.38089E+08
 
   -0.37332E+08         0.94817E+06         0.00000E+00
    0.94817E+06        -0.50000E+08         0.00000E+00
    0.00000E+00         0.00000E+00        -0.38088E+08
 
   -0.37355E+08         0.10480E+07         0.00000E+00
    0.10480E+07        -0.50000E+08         0.00000E+00
    0.00000E+00         0.00000E+00        -0.38088E+08
 
   -0.37378E+08         0.11479E+07         0.00000E+00
    0.11479E+07        -0.50000E+08         0.00000E+00
    0.00000E+00         0.00000E+00        -0.38087E+08
 
   -0.37400E+08         0.12479E+07         0.00000E+00
    0.12479E+07        -0.50000E+08         0.00000E+00
    0.00000E+00         0.00000E+00        -0.38087E+08
 
   -0.37422E+08         0.13480E+07         0.00000E+00
    0.13480E+07        -0.50000E+08         0.00000E+00
    0.00000E+00         0.00000E+00        -0.38086E+08
 
   -0.37443E+08         0.14481E+07         0.00000E+00
    0.14481E+07        -0.50000E+08         0.00000E+00
    0.00000E+00         0.00000E+00        -0.38086E+08
 
   -0.37464E+08         0.15485E+07         0.00000E+00
    0.15485E+07        -0.49999E+08         0.00000E+00
    0.00000E+00         0.00000E+00        -0.38085E+08
 
   -0.37484E+08         0.16489E+07         0.00000E+00
    0.16489E+07        -0.49999E+08         0.00000E+00
    0.00000E+00         0.00000E+00        -0.38085E+08
 
   -0.37504E+08         0.17495E+07         0.00000E+00
    0.17495E+07        -0.49999E+08         0.00000E+00
    0.00000E+00         0.00000E+00        -0.38084E+08
 
   -0.37524E+08         0.18503E+07         0.00000E+00
    0.18503E+07        -0.49998E+08         0.00000E+00
    0.00000E+00         0.00000E+00        -0.38083E+08
 
   -0.37544E+08         0.19513E+07         0.00000E+00
    0.19513E+07        -0.49998E+08         0.00000E+00
    0.00000E+00         0.00000E+00        -0.38083E+08
 
   -0.37563E+08         0.20524E+07         0.00000E+00
    0.20524E+07        -0.49997E+08         0.00000E+00
    0.00000E+00         0.00000E+00        -0.38082E+08
 
   -0.37582E+08         0.21538E+07         0.00000E+00
    0.21538E+07        -0.49996E+08         0.00000E+00
    0.00000E+00         0.00000E+00        -0.38081E+08
 
   -0.37600E+08         0.22554E+07         0.00000E+00
    0.22554E+07        -0.49995E+08         0.00000E+00
    0.00000E+00         0.00000E+00        -0.38081E+08
 
   -0.37618E+08         0.23572E+07         0.00000E+00
    0.23572E+07        -0.49994E+08         0.00000E+00
    0.00000E+00         0.00000E+00        -0.38080E+08
 
   -0.37636E+08         0.24592E+07         0.00000E+00
    0.24592E+07        -0.49993E+08         0.00000E+00
    0.00000E+00         0.00000E+00        -0.38079E+08
 
   -0.37654E+08         0.25616E+07         0.00000E+00
    0.25616E+07        -0.49992E+08         0.00000E+00
    0.00000E+00         0.00000E+00        -0.38079E+08
 
   -0.37671E+08         0.26641E+07         0.00000E+00
    0.26641E+07        -0.49990E+08         0.00000E+00
    0.00000E+00         0.00000E+00        -0.38078E+08
 
   -0.37689E+08         0.27670E+07         0.00000E+00
    0.27670E+07        -0.49988E+08         0.00000E+00
    0.00000E+00         0.00000E+00        -0.38077E+08
 
   -0.37706E+08         0.28701E+07         0.00000E+00
    0.28701E+07        -0.49986E+08         0.00000E+00
    0.00000E+00         0.00000E+00        -0.38077E+08
 
   -0.37723E+08         0.29736E+07         0.00000E+00
    0.29736E+07        -0.49984E+08         0.00000E+00
    0.00000E+00         0.00000E+00        -0.38076E+08
 
   -0.37740E+08         0.30773E+07         0.00000E+00
    0.30773E+07        -0.49982E+08         0.00000E+00
    0.00000E+00         0.00000E+00        -0.38075E+08
 
   -0.37756E+08         0.31814E+07         0.00000E+00
    0.31814E+07        -0.49979E+08         0.00000E+00
    0.00000E+00         0.00000E+00        -0.38075E+08
 
   -0.37773E+08         0.32858E+07         0.00000E+00
    0.32858E+07        -0.49977E+08         0.00000E+00
    0.00000E+00         0.00000E+00        -0.38074E+08
 
   -0.37789E+08         0.33905E+07         0.00000E+00
    0.33905E+07        -0.49974E+08         0.00000E+00
    0.00000E+00         0.00000E+00        -0.38074E+08
 
   -0.37806E+08         0.34956E+07         0.00000E+00
    0.34956E+07        -0.49970E+08         0.00000E+00
    0.00000E+00         0.00000E+00        -0.38073E+08
 
   -0.37822E+08         0.36010E+07         0.00000E+00
    0.36010E+07        -0.49967E+08         0.00000E+00
    0.00000E+00         0.00000E+00        -0.38073E+08
 
   -0.37838E+08         0.37067E+07         0.00000E+00
    0.37067E+07        -0.49963E+08         0.00000E+00
    0.00000E+00         0.00000E+00        -0.38072E+08
 
   -0.37855E+08         0.38129E+07         0.00000E+00
    0.38129E+07        -0.49959E+08         0.00000E+00
    0.00000E+00         0.00000E+00        -0.38072E+08
 
   -0.37871E+08         0.39194E+07         0.00000E+00
    0.39194E+07        -0.49955E+08         0.00000E+00
    0.00000E+00         0.00000E+00        -0.38071E+08
 
   -0.37888E+08         0.40263E+07         0.00000E+00
    0.40263E+07        -0.49950E+08         0.00000E+00
    0.00000E+00         0.00000E+00        -0.38071E+08
 
   -0.37904E+08         0.41336E+07         0.00000E+00
    0.41336E+07        -0.49945E+08         0.00000E+00
    0.00000E+00         0.00000E+00        -0.38070E+08
 
   -0.37921E+08         0.42412E+07         0.00000E+00
    0.42412E+07        -0.49939E+08         0.00000E+00
    0.00000E+00         0.00000E+00        -0.38070E+08
 
   -0.37937E+08         0.43493E+07         0.00000E+00
    0.43493E+07        -0.49934E+08         0.00000E+00
    0.00000E+00         0.00000E+00        -0.38070E+08
 
   -0.37954E+08         0.44578E+07         0.00000E+00
    0.44578E+07        -0.49927E+08         0.00000E+00
    0.00000E+00         0.00000E+00        -0.38069E+08
 
   -0.37971E+08         0.45667E+07         0.00000E+00
    0.45667E+07        -0.49921E+08         0.00000E+00
    0.00000E+00         0.00000E+00        -0.38069E+08
 
   -0.37988E+08         0.46759E+07         0.00000E+00
    0.46759E+07        -0.49914E+08         0.00000E+00
    0.00000E+00         0.00000E+00        -0.38069E+08
 
   -0.38006E+08         0.47857E+07         0.00000E+00
    0.47857E+07        -0.49907E+08         0.00000E+00
    0.00000E+00         0.00000E+00        -0.38069E+08
 
   -0.38023E+08         0.48958E+07         0.00000E+00
    0.48958E+07        -0.49899E+08         0.00000E+00
    0.00000E+00         0.00000E+00        -0.38068E+08
 
   -0.38041E+08         0.50064E+07         0.00000E+00
    0.50064E+07        -0.49891E+08         0.00000E+00
    0.00000E+00         0.00000E+00        -0.38068E+08
 
   -0.38059E+08         0.51174E+07         0.00000E+00
    0.51174E+07        -0.49882E+08         0.00000E+00
    0.00000E+00         0.00000E+00        -0.38068E+08
 
   -0.36602E+08         0.50009E+05         0.00000E+00
    0.50009E+05        -0.50000E+08         0.00000E+00
    0.00000E+00         0.00000E+00        -0.37528E+08
 
   -0.36630E+08         0.14978E+06         0.00000E+00
    0.14978E+06        -0.50000E+08         0.00000E+00
    0.00000E+00         0.00000E+00        -0.37528E+08
 
   -0.36657E+08         0.24949E+06         0.00000E+00
    0.24949E+06        -0.50000E+08         0.00000E+00
    0.00000E+00         0.00000E+00        -0.37528E+08
 
   -0.36684E+08         0.34916E+06         0.00000E+00
    0.34916E+06        -0.50000E+08         0.00000E+00
    0.00000E+00         0.00000E+00        -0.37527E+08
 
   -0.36710E+08         0.44880E+06         0.00000E+00
    0.44880E+06        -0.50001E+08         0.00000E+00
    0.00000E+00         0.00000E+00        -0.37527E+08
 
   -0.36736E+08         0.54843E+06         0.00000E+00
    0.54843E+06        -0.50001E+08         0.00000E+00
    0.00000E+00         0.00000E+00        -0.37527E+08
 
   -0.36761E+08         0.64808E+06         0.00000E+00
    0.64808E+06        -0.50001E+08         0.00000E+00
    0.00000E+00         0.00000E+00        -0.37527E+08
 
   -0.36786E+08         0.74776E+06         0.00000E+00
    0.74776E+06        -0.50001E+08         0.00000E+00
    0.00000E+00         0.00000E+00        -0.37526E+08
 
   -0.36809E+08         0.84749E+06         0.00000E+00
    0.84749E+06        -0.50002E+08         0.00000E+00
    0.00000E+00         0.00000E+00        -0.37526E+08
 
   -0.36833E+08         0.94728E+06         0.00000E+00
    0.94728E+06        -0.50002E+08         0.00000E+00
    0.00000E+00         0.00000E+00        -0.37525E+08
 
   -0.36855E+08         0.10472E+07         0.00000E+00
    0.10472E+07        -0.50003E+08         0.00000E+00
    0.00000E+00         0.00000E+00        -0.37525E+08
 
   -0.36878E+08         0.11471E+07         0.00000E+00
    0.11471E+07        -0.50003E+08         0.00000E+00
    0.00000E+00         0.00000E+00        -0.37525E+08
 
   -0.36899E+08         0.12472E+07         0.00000E+00
    0.12472E+07        -0.50003E+08         0.00000E+00
    0.00000E+00         0.00000E+00        -0.37524E+08
 
   -0.36920E+08         0.13475E+07         0.00000E+00
    0.13475E+07        -0.50004E+08         0.00000E+00
    0.00000E+00         0.00000E+00        -0.37523E+08
 
   -0.36941E+08         0.14479E+07         0.00000E+00
    0.14479E+07        -0.50004E+08         0.00000E+00
    0.00000E+00         0.00000E+00        -0.37523E+08
 
   -0.36961E+08         0.15484E+07         0.00000E+00
    0.15484E+07        -0.50004E+08         0.00000E+00
    0.00000E+00         0.00000E+00        -0.37522E+08
 
   -0.36981E+08         0.16492E+07         0.00000E+00
    0.16492E+07        -0.50005E+08         0.00000E+00
    0.00000E+00         0.00000E+00        -0.37522E+08
 
   -0.37000E+08         0.17501E+07         0.00000E+00
    0.17501E+07        -0.50005E+08         0.00000E+00
    0.00000E+00         0.00000E+00        -0.37521E+08
 
   -0.37019E+08         0.18513E+07         0.00000E+00
    0.18513E+07        -0.50005E+08         0.00000E+00
    0.00000E+00         0.00000E+00        -0.37520E+08
 
   -0.37037E+08         0.19526E+07         0.00000E+00
    0.19526E+07        -0.50005E+08         0.00000E+00
    0.00000E+00         0.00000E+00        -0.37520E+08
 
   -0.37055E+08         0.20543E+07         0.00000E+00
    0.20543E+07        -0.50005E+08         0.00000E+00
    0.00000E+00         0.00000E+00        -0.37519E+08
 
   -0.37073E+08         0.21562E+07         0.00000E+00
    0.21562E+07        -0.50005E+08         0.00000E+00
    0.00000E+00         0.00000E+00        -0.37518E+08
 
   -0.37090E+08         0.22583E+07         0.00000E+00
    0.22583E+07        -0.50005E+08         0.00000E+00
    0.00000E+00         0.00000E+00        -0.37518E+08
 
   -0.37107E+08         0.23608E+07         0.00000E+00
    0.23608E+07        -0.50005E+08         0.00000E+00
    0.00000E+00         0.00000E+00        -0.37517E+08
 
   -0.37123E+08         0.24635E+07         0.00000E+00
    0.24635E+07        -0.50005E+08         0.00000E+00
    0.00000E+00         0.00000E+00        -0.37516E+08
 
   -0.37140E+08         0.25665E+07         0.00000E+00
    0.25665E+07        -0.50004E+08         0.00000E+00
    0.00000E+00         0.00000E+00        -0.37516E+08
 
   -0.37156E+08         0.26699E+07         0.00000E+00
    0.26699E+07        -0.50004E+08         0.00000E+00
    0.00000E+00         0.00000E+00        -0.37515E+08
 
   -0.37171E+08         0.27736E+07         0.00000E+00
    0.27736E+07        -0.50003E+08         0.00000E+00
    0.00000E+00         0.00000E+00        -0.37514E+08
 
   -0.37187E+08         0.28777E+07         0.00000E+00
    0.28777E+07        -0.50002E+08         0.00000E+00
    0.00000E+00         0.00000E+00        -0.37514E+08
 
   -0.37202E+08         0.29821E+07         0.00000E+00
    0.29821E+07        -0.50001E+08         0.00000E+00
    0.00000E+00         0.00000E+00        -0.37513E+08
 
   -0.37217E+08         0.30869E+07         0.00000E+00
    0.30869E+07        -0.50000E+08         0.00000E+00
    0.00000E+00         0.00000E+00        -0.37512E+08
 
   -0.37232E+08         0.31920E+07         0.00000E+00
    0.31920E+07        -0.49998E+08         0.00000E+00
    0.00000E+00         0.00000E+00        -0.37512E+08
 
   -0.37247E+08         0.32976E+07         0.00000E+00
    0.32976E+07        -0.49996E+08         0.00000E+00
    0.00000E+00         0.00000E+00        -0.37511E+08
 
   -0.37262E+08         0.34035E+07         0.00000E+00
    0.34035E+07        -0.49995E+08         0.00000E+00
    0.00000E+00         0.00000E+00        -0.37511E+08
 
   -0.37276E+08         0.35099E+07         0.00000E+00
    0.35099E+07        -0.49992E+08         0.00000E+00
    0.00000E+00         0.00000E+00        -0.37510E+08
 
   -0.37291E+08         0.36166E+07         0.00000E+00
    0.36166E+07        -0.49990E+08         0.00000E+00
    0.00000E+00         0.00000E+00        -0.37509E+08
 
   -0.37305E+08         0.37238E+07         0.00000E+00
    0.37238E+07        -0.49987E+08         0.00000E+00
    0.00000E+00         0.00000E+00        -0.37509E+08
 
   -0.37319E+08         0.38314E+07         0.00000E+00
    0.38314E+07        -0.49984E+08         0.00000E+00
    0.00000E+00         0.00000E+00        -0.37508E+08
 
   -0.37334E+08         0.39395E+07         0.00000E+00
    0.39395E+07        -0.49981E+08         0.00000E+00
    0.00000E+00         0.00000E+00        -0.37508E+08
 
   -0.37348E+08         0.40480E+07         0.00000E+00
    0.40480E+07        -0.49977E+08         0.00000E+00
    0.00000E+00         0.00000E+00        -0.37508E+08
 
   -0.37362E+08         0.41570E+07         0.00000E+00
    0.41570E+07        -0.49973E+08         0.00000E+00
    0.00000E+00         0.00000E+00        -0.37507E+08
 
   -0.37377E+08         0.42664E+07         0.00000E+00
    0.42664E+07        -0.49969E+08         0.00000E+00
    0.00000E+00         0.00000E+00        -0.37507E+08
 
   -0.37391E+08         0.43763E+07         0.00000E+00
    0.43763E+07        -0.49965E+08         0.00000E+00
    0.00000E+00         0.00000E+00        -0.37506E+08
 
   -0.37406E+08         0.44867E+07         0.00000E+00
    0.44867E+07        -0.49960E+08         0.00000E+00
    0.00000E+00         0.00000E+00        -0.37506E+08
 
   -0.37421E+08         0.45975E+07         0.00000E+00
    0.45975E+07        -0.49954E+08         0.00000E+00
    0.00000E+00         0.00000E+00        -0.37506E+08
 
   -0.37436E+08         0.47088E+07         0.00000E+00
    0.47088E+07        -0.49948E+08         0.00000E+00
    0.00000E+00         0.00000E+00        -0.37506E+08
 
   -0.37451E+08         0.48207E+07         0.00000E+00
    0.48207E+07        -0.49942E+08         0.00000E+00
    0.00000E+00         0.00000E+00        -0.37505E+08
 
   -0.37466E+08         0.49330E+07         0.00000E+00
    0.49330E+07        -0.49936E+08         0.00000E+00
    0.00000E+00         0.00000E+00        -0.37505E+08
 
   -0.37481E+08         0.50458E+07         0.00000E+00
    0.50458E+07        -0.49929E+08         0.00000E+00
    0.00000E+00         0.00000E+00        -0.37505E+08
 
   -0.37497E+08         0.51592E+07         0.00000E+00
    0.51592E+07        -0.49921E+08         0.00000E+00
    0.00000E+00         0.00000E+00        -0.37505E+08
 
   -0.36103E+08         0.49784E+05         0.00000E+00
    0.49784E+05        -0.50000E+08         0.00000E+00
    0.00000E+00         0.00000E+00        -0.36953E+08
 
   -0.36132E+08         0.14915E+06         0.00000E+00
    0.14915E+06        -0.50000E+08         0.00000E+00
    0.00000E+00         0.00000E+00        -0.36953E+08
 
   -0.36160E+08         0.24846E+06         0.00000E+00
    0.24846E+06        -0.50000E+08         0.00000E+00
    0.00000E+00         0.00000E+00        -0.36953E+08
 
   -0.36187E+08         0.34776E+06         0.00000E+00
    0.34776E+06        -0.50001E+08         0.00000E+00
    0.00000E+00         0.00000E+00        -0.36952E+08
 
   -0.36213E+08         0.44705E+06         0.00000E+00
    0.44705E+06        -0.50001E+08         0.00000E+00
    0.00000E+00         0.00000E+00        -0.36952E+08
 
   -0.36239E+08         0.54636E+06         0.00000E+00
    0.54636E+06        -0.50002E+08         0.00000E+00
    0.00000E+00         0.00000E+00        -0.36952E+08
 
   -0.36263E+08         0.64572E+06         0.00000E+00
    0.64572E+06        -0.50002E+08         0.00000E+00
    0.00000E+00         0.00000E+00        -0.36952E+08
 
   -0.36288E+08         0.74513E+06         0.00000E+00
    0.74513E+06        -0.50003E+08         0.00000E+00
    0.00000E+00         0.00000E+00        -0.36951E+08
 
   -0.36311E+08         0.84463E+06         0.00000E+00
    0.84463E+06        -0.50004E+08         0.00000E+00
    0.00000E+00         0.00000E+00        -0.36951E+08
 
   -0.36334E+08         0.94422E+06         0.00000E+00
    0.94422E+06        -0.50004E+08         0.00000E+00
    0.00000E+00         0.00000E+00        -0.36950E+08
 
   -0.36356E+08         0.10439E+07         0.00000E+00
    0.10439E+07        -0.50005E+08         0.00000E+00
    0.00000E+00         0.00000E+00        -0.36950E+08
 
   -0.36378E+08         0.11438E+07         0.00000E+00
    0.11438E+07        -0.50006E+08         0.00000E+00
    0.00000E+00         0.00000E+00        -0.36949E+08
 
   -0.36398E+08         0.12438E+07         0.00000E+00
    0.12438E+07        -0.50007E+08         0.00000E+00
    0.00000E+00         0.00000E+00        -0.36949E+08
 
   -0.36419E+08         0.13440E+07         0.00000E+00
    0.13440E+07        -0.50008E+08         0.00000E+00
    0.00000E+00         0.00000E+00        -0.36948E+08
 
   -0.36438E+08         0.14444E+07         0.00000E+00
    0.14444E+07        -0.50009E+08         0.00000E+00
    0.00000E+00         0.00000E+00        -0.36948E+08
 
   -0.36458E+08         0.15450E+07         0.00000E+00
    0.15450E+07        -0.50010E+08         0.00000E+00
    0.00000E+00         0.00000E+00        -0.36947E+08
 
   -0.36476E+08         0.16459E+07         0.00000E+00
    0.16459E+07        -0.50011E+08         0.00000E+00
    0.00000E+00         0.00000E+00        -0.36947E+08
 
   -0.36494E+08         0.17470E+07         0.00000E+00
    0.17470E+07        -0.50012E+08         0.00000E+00
    0.00000E+00         0.00000E+00        -0.36946E+08
 
   -0.36512E+08         0.18483E+07         0.00000E+00
    0.18483E+07        -0.50013E+08         0.00000E+00
    0.00000E+00         0.00000E+00        -0.36945E+08
 
   -0.36529E+08         0.19500E+07         0.00000E+00
    0.19500E+07        -0.50014E+08         0.00000E+00
    0.00000E+00         0.00000E+00        -0.36945E+08
 
   -0.36545E+08         0.20519E+07         0.00000E+00
    0.20519E+07        -0.50015E+08         0.00000E+00
    0.00000E+00         0.00000E+00        -0.36944E+08
 
   -0.36562E+08         0.21542E+07         0.00000E+00
    0.21542E+07        -0.50016E+08         0.00000E+00
    0.00000E+00         0.00000E+00        -0.36943E+08
 
   -0.36577E+08         0.22567E+07         0.00000E+00
    0.22567E+07        -0.50017E+08         0.00000E+00
    0.00000E+00         0.00000E+00        -0.36943E+08
 
   -0.36593E+08         0.23597E+07         0.00000E+00
    0.23597E+07        -0.50018E+08         0.00000E+00
    0.00000E+00         0.00000E+00        -0.36942E+08
 
   -0.36607E+08         0.24630E+07         0.00000E+00
    0.24630E+07        -0.50019E+08         0.00000E+00
    0.00000E+00         0.00000E+00        -0.36941E+08
 
   -0.36622E+08         0.25666E+07         0.00000E+00
    0.25666E+07        -0.50019E+08         0.00000E+00
    0.00000E+00         0.00000E+00        -0.36941E+08
 
   -0.36636E+08         0.26707E+07         0.00000E+00
    0.26707E+07        -0.50020E+08         0.00000E+00
    0.00000E+00         0.00000E+00        -0.36940E+08
 
   -0.36650E+08         0.27751E+07         0.00000E+00
    0.27751E+07        -0.50020E+08         0.00000E+00
    0.00000E+00         0.00000E+00        -0.36939E+08
 
   -0.36664E+08         0.28799E+07         0.00000E+00
    0.28799E+07        -0.50020E+08         0.00000E+00
    0.00000E+00         0.00000E+00        -0.36938E+08
 
   -0.36677E+08         0.29852E+07         0.00000E+00
    0.29852E+07        -0.50020E+08         0.00000E+00
    0.00000E+00         0.00000E+00        -0.36938E+08
 
   -0.36690E+08         0.30909E+07         0.00000E+00
    0.30909E+07        -0.50020E+08         0.00000E+00
    0.00000E+00         0.00000E+00        -0.36937E+08
 
   -0.36703E+08         0.31971E+07         0.00000E+00
    0.31971E+07        -0.50020E+08         0.00000E+00
    0.00000E+00         0.00000E+00        -0.36937E+08
 
   -0.36716E+08         0.33037E+07         0.00000E+00
    0.33037E+07        -0.50019E+08         0.00000E+00
    0.00000E+00         0.00000E+00        -0.36936E+08
 
   -0.36728E+08         0.34108E+07         0.00000E+00
    0.34108E+07        -0.50019E+08         0.00000E+00
    0.00000E+00         0.00000E+00        -0.36935E+08
 
   -0.36740E+08         0.35183E+07         0.00000E+00
    0.35183E+07        -0.50018E+08         0.00000E+00
    0.00000E+00         0.00000E+00        -0.36935E+08
 
   -0.36752E+08         0.36264E+07         0.00000E+00
    0.36264E+07        -0.50016E+08         0.00000E+00
    0.00000E+00         0.00000E+00        -0.36934E+08
 
   -0.36765E+08         0.37349E+07         0.00000E+00
    0.37349E+07        -0.50015E+08         0.00000E+00
    0.00000E+00         0.00000E+00        -0.36934E+08
 
   -0.36777E+08         0.38439E+07         0.00000E+00
    0.38439E+07        -0.50013E+08         0.00000E+00
    0.00000E+00         0.00000E+00        -0.36933E+08
 
   -0.36788E+08         0.39535E+07         0.00000E+00
    0.39535E+07        -0.50011E+08         0.00000E+00
    0.00000E+00         0.00000E+00        -0.36933E+08
 
   -0.36800E+08         0.40635E+07         0.00000E+00
    0.40635E+07        -0.50009E+08         0.00000E+00
    0.00000E+00         0.00000E+00        -0.36932E+08
 
   -0.36812E+08         0.41742E+07         0.00000E+00
    0.41742E+07        -0.50006E+08         0.00000E+00
    0.00000E+00         0.00000E+00        -0.36932E+08
 
   -0.36824E+08         0.42853E+07         0.00000E+00
    0.42853E+07        -0.50004E+08         0.00000E+00
    0.00000E+00         0.00000E+00        -0.36931E+08
 
   -0.36836E+08         0.43970E+07         0.00000E+00
    0.43970E+07        -0.50000E+08         0.00000E+00
    0.00000E+00         0.00000E+00        -0.36931E+08
 
   -0.36848E+08         0.45092E+07         0.00000E+00
    0.45092E+07        -0.49997E+08         0.00000E+00
    0.00000E+00         0.00000E+00        -0.36931E+08
 
   -0.36860E+08         0.46220E+07         0.00000E+00
    0.46220E+07        -0.49993E+08         0.00000E+00
    0.00000E+00         0.00000E+00        -0.36931E+08
 
   -0.36873E+08         0.47354E+07         0.00000E+00
    0.47354E+07        -0.49988E+08         0.00000E+00
    0.00000E+00         0.00000E+00        -0.36930E+08
 
   -0.36885E+08         0.48493E+07         0.00000E+00
    0.48493E+07        -0.49983E+08         0.00000E+00
    0.00000E+00         0.00000E+00        -0.36930E+08
 
   -0.36897E+08         0.49638E+07         0.00000E+00
    0.49638E+07        -0.49978E+08         0.00000E+00
    0.00000E+00         0.00000E+00        -0.36930E+08
 
   -0.36910E+08         0.50789E+07         0.00000E+00
    0.50789E+07        -0.49973E+08         0.00000E+00
    0.00000E+00         0.00000E+00        -0.36930E+08
 
   -0.36923E+08         0.51945E+07         0.00000E+00
    0.51945E+07        -0.49966E+08         0.00000E+00
    0.00000E+00         0.00000E+00        -0.36930E+08
 
   -0.35608E+08         0.49417E+05         0.00000E+00
    0.49417E+05        -0.50000E+08         0.00000E+00
    0.00000E+00         0.00000E+00        -0.36366E+08
 
   -0.35637E+08         0.14809E+06         0.00000E+00
    0.14809E+06        -0.50000E+08         0.00000E+00
    0.00000E+00         0.00000E+00        -0.36365E+08
 
   -0.35665E+08         0.24675E+06         0.00000E+00
    0.24675E+06        -0.50001E+08         0.00000E+00
    0.00000E+00         0.00000E+00        -0.36365E+08
 
   -0.35692E+08         0.34540E+06         0.00000E+00
    0.34540E+06        -0.50001E+08         0.00000E+00
    0.00000E+00         0.00000E+00        -0.36365E+08
 
   -0.35718E+08         0.44407E+06         0.00000E+00
    0.44407E+06        -0.50002E+08         0.00000E+00
    0.00000E+00         0.00000E+00        -0.36365E+08
 
   -0.35743E+08         0.54280E+06         0.00000E+00
    0.54280E+06        -0.50003E+08         0.00000E+00
    0.00000E+00         0.00000E+00        -0.36365E+08
 
   -0.35768E+08         0.64160E+06         0.00000E+00
    0.64160E+06        -0.50003E+08         0.00000E+00
    0.00000E+00         0.00000E+00        -0.36364E+08
 
   -0.35792E+08         0.74049E+06         0.00000E+00
    0.74049E+06        -0.50005E+08         0.00000E+00
    0.00000E+00         0.00000E+00        -0.36364E+08
 
   -0.35814E+08         0.83951E+06         0.00000E+00
    0.83951E+06        -0.50006E+08         0.00000E+00
    0.00000E+00         0.00000E+00        -0.36364E+08
 
   -0.35837E+08         0.93866E+06         0.00000E+00
    0.93866E+06        -0.50007E+08         0.00000E+00
    0.00000E+00         0.00000E+00        -0.36363E+08
 
   -0.35858E+08         0.10380E+07         0.00000E+00
    0.10380E+07        -0.50009E+08         0.00000E+00
    0.00000E+00         0.00000E+00        -0.36363E+08
 
   -0.35879E+08         0.11375E+07         0.00000E+00
    0.11375E+07        -0.50010E+08         0.00000E+00
    0.00000E+00         0.00000E+00        -0.36362E+08
 
   -0.35899E+08         0.12372E+07         0.00000E+00
    0.12372E+07        -0.50012E+08         0.00000E+00
    0.00000E+00         0.00000E+00        -0.36362E+08
 
   -0.35918E+08         0.13371E+07         0.00000E+00
    0.13371E+07        -0.50013E+08         0.00000E+00
    0.00000E+00         0.00000E+00        -0.36361E+08
 
   -0.35936E+08         0.14373E+07         0.00000E+00
    0.14373E+07        -0.50015E+08         0.00000E+00
    0.00000E+00         0.00000E+00        -0.36361E+08
 
   -0.35954E+08         0.15378E+07         0.00000E+00
    0.15378E+07        -0.50017E+08         0.00000E+00
    0.00000E+00         0.00000E+00        -0.36360E+08
 
   -0.35971E+08         0.16385E+07         0.00000E+00
    0.16385E+07        -0.50019E+08         0.00000E+00
    0.00000E+00         0.00000E+00        -0.36359E+08
 
   -0.35988E+08         0.17396E+07         0.00000E+00
    0.17396E+07        -0.50021E+08         0.00000E+00
    0.00000E+00         0.00000E+00        -0.36359E+08
 
   -0.36004E+08         0.18409E+07         0.00000E+00
    0.18409E+07        -0.50023E+08         0.00000E+00
    0.00000E+00         0.00000E+00        -0.36358E+08
 
   -0.36020E+08         0.19426E+07         0.00000E+00
    0.19426E+07        -0.50025E+08         0.00000E+00
    0.00000E+00         0.00000E+00        -0.36357E+08
 
   -0.36034E+08         0.20447E+07         0.00000E+00
    0.20447E+07        -0.50027E+08         0.00000E+00
    0.00000E+00         0.00000E+00        -0.36357E+08
 
   -0.36049E+08         0.21472E+07         0.00000E+00
    0.21472E+07        -0.50029E+08         0.00000E+00
    0.00000E+00         0.00000E+00        -0.36356E+08
 
   -0.36063E+08         0.22500E+07         0.00000E+00
    0.22500E+07        -0.50031E+08         0.00000E+00
    0.00000E+00         0.00000E+00        -0.36355E+08
 
   -0.36076E+08         0.23532E+07         0.00000E+00
    0.23532E+07        -0.50033E+08         0.00000E+00
    0.00000E+00         0.00000E+00        -0.36355E+08
 
   -0.36089E+08         0.24569E+07         0.00000E+00
    0.24569E+07        -0.50034E+08         0.00000E+00
    0.00000E+00         0.00000E+00        -0.36354E+08
 
   -0.36101E+08         0.25610E+07         0.00000E+00
    0.25610E+07        -0.50036E+08         0.00000E+00
    0.00000E+00         0.00000E+00        -0.36353E+08
 
   -0.36114E+08         0.26656E+07         0.00000E+00
    0.26656E+07        -0.50038E+08         0.00000E+00
    0.00000E+00         0.00000E+00        -0.36353E+08
 
   -0.36125E+08         0.27706E+07         0.00000E+00
    0.27706E+07        -0.50039E+08         0.00000E+00
    0.00000E+00         0.00000E+00        -0.36352E+08
 
   -0.36137E+08         0.28762E+07         0.00000E+00
    0.28762E+07        -0.50041E+08         0.00000E+00
    0.00000E+00         0.00000E+00        -0.36351E+08
 
   -0.36148E+08         0.29822E+07         0.00000E+00
    0.29822E+07        -0.50042E+08         0.00000E+00
    0.00000E+00         0.00000E+00        -0.36351E+08
 
   -0.36158E+08         0.30887E+07         0.00000E+00
    0.30887E+07        -0.50044E+08         0.00000E+00
    0.00000E+00         0.00000E+00        -0.36350E+08
 
   -0.36169E+08         0.31957E+07         0.00000E+00
    0.31957E+07        -0.50045E+08         0.00000E+00
    0.00000E+00         0.00000E+00        -0.36349E+08
 
   -0.36179E+08         0.33033E+07         0.00000E+00
    0.33033E+07        -0.50045E+08         0.00000E+00
    0.00000E+00         0.00000E+00        -0.36349E+08
 
   -0.36189E+08         0.34114E+07         0.00000E+00
    0.34114E+07        -0.50046E+08         0.00000E+00
    0.00000E+00         0.00000E+00        -0.36348E+08
 
   -0.36198E+08         0.35201E+07         0.00000E+00
    0.35201E+07        -0.50047E+08         0.00000E+00
    0.00000E+00         0.00000E+00        -0.36347E+08
 
   -0.36208E+08         0.36293E+07         0.00000E+00
    0.36293E+07        -0.50047E+08         0.00000E+00
    0.00000E+00         0.00000E+00        -0.36347E+08
 
   -0.36217E+08         0.37391E+07         0.00000E+00
    0.37391E+07        -0.50047E+08         0.00000E+00
    0.00000E+00         0.00000E+00        -0.36346E+08
 
   -0.36227E+08         0.38495E+07         0.00000E+00
    0.38495E+07        -0.50047E+08         0.00000E+00
    0.00000E+00         0.00000E+00        -0.36346E+08
 
   -0.36236E+08         0.39605E+07         0.00000E+00
    0.39605E+07        -0.50046E+08         0.00000E+00
    0.00000E+00         0.00000E+00        -0.36345E+08
 
   -0.36245E+08         0.40720E+07         0.00000E+00
    0.40720E+07        -0.50045E+08         0.00000E+00
    0.00000E+00         0.00000E+00        -0.36345E+08
 
   -0.36254E+08         0.41842E+07         0.00000E+00
    0.41842E+07        -0.50044E+08         0.00000E+00
    0.00000E+00         0.00000E+00        -0.36345E+08
 
   -0.36263E+08         0.42970E+07         0.00000E+00
    0.42970E+07        -0.50043E+08         0.00000E+00
    0.00000E+00         0.00000E+00        -0.36344E+08
 
   -0.36272E+08         0.44104E+07         0.00000E+00
    0.44104E+07        -0.50041E+08         0.00000E+00
    0.00000E+00         0.00000E+00        -0.36344E+08
 
   -0.36281E+08         0.45245E+07         0.00000E+00
    0.45245E+07        -0.50039E+08         0.00000E+00
    0.00000E+00         0.00000E+00        -0.36343E+08
 
   -0.36290E+08         0.46392E+07         0.00000E+00
    0.46392E+07        -0.50037E+08         0.00000E+00
    0.00000E+00         0.00000E+00        -0.36343E+08
 
   -0.36299E+08         0.47545E+07         0.00000E+00
    0.47545E+07        -0.50034E+08         0.00000E+00
    0.00000E+00         0.00000E+00        -0.36343E+08
 
   -0.36309E+08         0.48705E+07         0.00000E+00
    0.48705E+07        -0.50031E+08         0.00000E+00
    0.00000E+00         0.00000E+00        -0.36343E+08
 
   -0.36318E+08         0.49872E+07         0.00000E+00
    0.49872E+07        -0.50027E+08         0.00000E+00
    0.00000E+00         0.00000E+00        -0.36343E+08
 
   -0.36328E+08         0.51045E+07         0.00000E+00
    0.51045E+07        -0.50023E+08         0.00000E+00
    0.00000E+00         0.00000E+00        -0.36343E+08
 
   -0.36338E+08         0.52225E+07         0.00000E+00
    0.52225E+07        -0.50018E+08         0.00000E+00
    0.00000E+00         0.00000E+00        -0.36342E+08
 
   -0.35117E+08         0.48887E+05         0.00000E+00
    0.48887E+05        -0.50000E+08         0.00000E+00
    0.00000E+00         0.00000E+00        -0.35766E+08
 
   -0.35146E+08         0.14656E+06         0.00000E+00
    0.14656E+06        -0.50000E+08         0.00000E+00
    0.00000E+00         0.00000E+00        -0.35766E+08
 
   -0.35174E+08         0.24423E+06         0.00000E+00
    0.24423E+06        -0.50001E+08         0.00000E+00
    0.00000E+00         0.00000E+00        -0.35766E+08
 
   -0.35201E+08         0.34192E+06         0.00000E+00
    0.34192E+06        -0.50002E+08         0.00000E+00
    0.00000E+00         0.00000E+00        -0.35766E+08
 
   -0.35227E+08         0.43968E+06         0.00000E+00
    0.43968E+06        -0.50002E+08         0.00000E+00
    0.00000E+00         0.00000E+00        -0.35766E+08
 
   -0.35252E+08         0.53751E+06         0.00000E+00
    0.53751E+06        -0.50004E+08         0.00000E+00
    0.00000E+00         0.00000E+00        -0.35765E+08
 
   -0.35276E+08         0.63546E+06         0.00000E+00
    0.63546E+06        -0.50005E+08         0.00000E+00
    0.00000E+00         0.00000E+00        -0.35765E+08
 
   -0.35299E+08         0.73354E+06         0.00000E+00
    0.73354E+06        -0.50006E+08         0.00000E+00
    0.00000E+00         0.00000E+00        -0.35765E+08
 
   -0.35321E+08         0.83178E+06         0.00000E+00
    0.83178E+06        -0.50008E+08         0.00000E+00
    0.00000E+00         0.00000E+00        -0.35764E+08
 
   -0.35342E+08         0.93021E+06         0.00000E+00
    0.93021E+06        -0.50010E+08         0.00000E+00
    0.00000E+00         0.00000E+00        -0.35764E+08
 
   -0.35362E+08         0.10289E+07         0.00000E+00
    0.10289E+07        -0.50012E+08         0.00000E+00
    0.00000E+00         0.00000E+00        -0.35763E+08
 
   -0.35382E+08         0.11277E+07         0.00000E+00
    0.11277E+07        -0.50014E+08         0.00000E+00
    0.00000E+00         0.00000E+00        -0.35763E+08
 
   -0.35401E+08         0.12269E+07         0.00000E+00
    0.12269E+07        -0.50017E+08         0.00000E+00
    0.00000E+00         0.00000E+00        -0.35762E+08
 
   -0.35419E+08         0.13263E+07         0.00000E+00
    0.13263E+07        -0.50019E+08         0.00000E+00
    0.00000E+00         0.00000E+00        -0.35762E+08
 
   -0.35436E+08         0.14260E+07         0.00000E+00
    0.14260E+07        -0.50022E+08         0.00000E+00
    0.00000E+00         0.00000E+00        -0.35761E+08
 
   -0.35452E+08         0.15261E+07         0.00000E+00
    0.15261E+07        -0.50025E+08         0.00000E+00
    0.00000E+00         0.00000E+00        -0.35761E+08
 
   -0.35468E+08         0.16265E+07         0.00000E+00
    0.16265E+07        -0.50028E+08         0.00000E+00
    0.00000E+00         0.00000E+00        -0.35760E+08
 
   -0.35483E+08         0.17272E+07         0.00000E+00
    0.17272E+07        -0.50031E+08         0.00000E+00
    0.00000E+00         0.00000E+00        -0.35759E+08
 
   -0.35497E+08         0.18284E+07         0.00000E+00
    0.18284E+07        -0.50034E+08         0.00000E+00
    0.00000E+00         0.00000E+00        -0.35759E+08
 
   -0.35510E+08         0.19300E+07         0.00000E+00
    0.19300E+07        -0.50037E+08         0.00000E+00
    0.00000E+00         0.00000E+00        -0.35758E+08
 
   -0.35523E+08         0.20320E+07         0.00000E+00
    0.20320E+07        -0.50040E+08         0.00000E+00
    0.00000E+00         0.00000E+00        -0.35757E+08
 
   -0.35535E+08         0.21344E+07         0.00000E+00
    0.21344E+07        -0.50043E+08         0.00000E+00
    0.00000E+00         0.00000E+00        -0.35757E+08
 
   -0.35547E+08         0.22373E+07         0.00000E+00
    0.22373E+07        -0.50046E+08         0.00000E+00
    0.00000E+00         0.00000E+00        -0.35756E+08
 
   -0.35558E+08         0.23407E+07         0.00000E+00
    0.23407E+07        -0.50049E+08         0.00000E+00
    0.00000E+00         0.00000E+00        -0.35755E+08
 
   -0.35569E+08         0.24446E+07         0.00000E+00
    0.24446E+07        -0.50053E+08         0.00000E+00
    0.00000E+00         0.00000E+00        -0.35754E+08
 
   -0.35579E+08         0.25490E+07         0.00000E+00
    0.25490E+07        -0.50056E+08         0.00000E+00
    0.00000E+00         0.00000E+00        -0.35754E+08
 
   -0.35588E+08         0.26540E+07         0.00000E+00
    0.26540E+07        -0.50059E+08         0.00000E+00
    0.00000E+00         0.00000E+00        -0.35753E+08
 
   -0.35598E+08         0.27595E+07         0.00000E+00
    0.27595E+07        -0.50062E+08         0.00000E+00
    0.00000E+00         0.00000E+00        -0.35752E+08
 
   -0.35606E+08         0.28655E+07         0.00000E+00
    0.28655E+07        -0.50065E+08         0.00000E+00
    0.00000E+00         0.00000E+00        -0.35752E+08
 
   -0.35615E+08         0.29721E+07         0.00000E+00
    0.29721E+07        -0.50067E+08         0.00000E+00
    0.00000E+00         0.00000E+00        -0.35751E+08
 
   -0.35622E+08         0.30793E+07         0.00000E+00
    0.30793E+07        -0.50070E+08         0.00000E+00
    0.00000E+00         0.00000E+00        -0.35750E+08
 
   -0.35630E+08         0.31871E+07         0.00000E+00
    0.31871E+07        -0.50073E+08         0.00000E+00
    0.00000E+00         0.00000E+00        -0.35750E+08
 
   -0.35637E+08         0.32955E+07         0.00000E+00
    0.32955E+07        -0.50075E+08         0.00000E+00
    0.00000E+00         0.00000E+00        -0.35749E+08
 
   -0.35644E+08         0.34046E+07         0.00000E+00
    0.34046E+07        -0.50077E+08         0.00000E+00
    0.00000E+00         0.00000E+00        -0.35749E+08
 
   -0.35651E+08         0.35142E+07         0.00000E+00
    0.35142E+07        -0.50080E+08         0.00000E+00
    0.00000E+00         0.00000E+00        -0.35748E+08
 
   -0.35657E+08         0.36245E+07         0.00000E+00
    0.36245E+07        -0.50081E+08         0.00000E+00
    0.00000E+00         0.00000E+00        -0.35748E+08
 
   -0.35664E+08         0.37355E+07         0.00000E+00
    0.37355E+07        -0.50083E+08         0.00000E+00
    0.00000E+00         0.00000E+00        -0.35747E+08
 
   -0.35670E+08         0.38472E+07         0.00000E+00
    0.38472E+07        -0.50085E+08         0.00000E+00
    0.00000E+00         0.00000E+00        -0.35747E+08
 
   -0.35676E+08         0.39595E+07         0.00000E+00
    0.39595E+07        -0.50086E+08         0.00000E+00
    0.00000E+00         0.00000E+00        -0.35746E+08
 
   -0.35682E+08         0.40725E+07         0.00000E+00
    0.40725E+07        -0.50087E+08         0.00000E+00
    0.00000E+00         0.00000E+00        -0.35746E+08
 
   -0.35687E+08         0.41862E+07         0.00000E+00
    0.41862E+07        -0.50087E+08         0.00000E+00
    0.00000E+00         0.00000E+00        -0.35745E+08
 
   -0.35693E+08         0.43006E+07         0.00000E+00
    0.43006E+07        -0.50088E+08         0.00000E+00
    0.00000E+00         0.00000E+00        -0.35745E+08
 
   -0.35699E+08         0.44157E+07         0.00000E+00
    0.44157E+07        -0.50088E+08         0.00000E+00
    0.00000E+00         0.00000E+00        -0.35744E+08
 
   -0.35704E+08         0.45315E+07         0.00000E+00
    0.45315E+07        -0.50087E+08         0.00000E+00
    0.00000E+00         0.00000E+00        -0.35744E+08
 
   -0.35710E+08         0.46481E+07         0.00000E+00
    0.46481E+07        -0.50087E+08         0.00000E+00
    0.00000E+00         0.00000E+00        -0.35744E+08
 
   -0.35716E+08         0.47654E+07         0.00000E+00
    0.47654E+07        -0.50086E+08         0.00000E+00
    0.00000E+00         0.00000E+00        -0.35744E+08
 
   -0.35722E+08         0.48834E+07         0.00000E+00
    0.48834E+07        -0.50084E+08         0.00000E+00
    0.00000E+00         0.00000E+00        -0.35743E+08
 
   -0.35728E+08         0.50022E+07         0.00000E+00
    0.50022E+07        -0.50082E+08         0.00000E+00
    0.00000E+00         0.00000E+00        -0.35743E+08
 
   -0.35734E+08         0.51217E+07         0.00000E+00
    0.51217E+07        -0.50080E+08         0.00000E+00
    0.00000E+00         0.00000E+00        -0.35743E+08
 
   -0.35740E+08         0.52420E+07         0.00000E+00
    0.52420E+07        -0.50077E+08         0.00000E+00
    0.00000E+00         0.00000E+00        -0.35743E+08
 
   -0.34632E+08         0.48166E+05         0.00000E+00
    0.48166E+05        -0.50000E+08         0.00000E+00
    0.00000E+00         0.00000E+00        -0.35155E+08
 
   -0.34661E+08         0.14446E+06         0.00000E+00
    0.14446E+06        -0.50000E+08         0.00000E+00
    0.00000E+00         0.00000E+00        -0.35155E+08
 
   -0.34689E+08         0.24078E+06         0.00000E+00
    0.24078E+06        -0.50001E+08         0.00000E+00
    0.00000E+00         0.00000E+00        -0.35155E+08
 
   -0.34715E+08         0.33716E+06         0.00000E+00
    0.33716E+06        -0.50002E+08         0.00000E+00
    0.00000E+00         0.00000E+00        -0.35154E+08
 
   -0.34741E+08         0.43364E+06         0.00000E+00
    0.43364E+06        -0.50003E+08         0.00000E+00
    0.00000E+00         0.00000E+00        -0.35154E+08
 
   -0.34765E+08         0.53024E+06         0.00000E+00
    0.53024E+06        -0.50005E+08         0.00000E+00
    0.00000E+00         0.00000E+00        -0.35154E+08
 
   -0.34788E+08         0.62699E+06         0.00000E+00
    0.62699E+06        -0.50007E+08         0.00000E+00
    0.00000E+00         0.00000E+00        -0.35154E+08
 
   -0.34811E+08         0.72393E+06         0.00000E+00
    0.72393E+06        -0.50009E+08         0.00000E+00
    0.00000E+00         0.00000E+00        -0.35153E+08
 
   -0.34832E+08         0.82107E+06         0.00000E+00
    0.82107E+06        -0.50011E+08         0.00000E+00
    0.00000E+00         0.00000E+00        -0.35153E+08
 
   -0.34852E+08         0.91846E+06         0.00000E+00
    0.91846E+06        -0.50014E+08         0.00000E+00
    0.00000E+00         0.00000E+00        -0.35152E+08
 
   -0.34871E+08         0.10161E+07         0.00000E+00
    0.10161E+07        -0.50016E+08         0.00000E+00
    0.00000E+00         0.00000E+00        -0.35152E+08
 
   -0.34889E+08         0.11141E+07         0.00000E+00
    0.11141E+07        -0.50019E+08         0.00000E+00
    0.00000E+00         0.00000E+00        -0.35151E+08
 
   -0.34906E+08         0.12123E+07         0.00000E+00
    0.12123E+07        -0.50023E+08         0.00000E+00
    0.00000E+00         0.00000E+00        -0.35151E+08
 
   -0.34923E+08         0.13110E+07         0.00000E+00
    0.13110E+07        -0.50026E+08         0.00000E+00
    0.00000E+00         0.00000E+00        -0.35150E+08
 
   -0.34938E+08         0.14099E+07         0.00000E+00
    0.14099E+07        -0.50030E+08         0.00000E+00
    0.00000E+00         0.00000E+00        -0.35150E+08
 
   -0.34952E+08         0.15093E+07         0.00000E+00
    0.15093E+07        -0.50034E+08         0.00000E+00
    0.00000E+00         0.00000E+00        -0.35149E+08
 
   -0.34966E+08         0.16091E+07         0.00000E+00
    0.16091E+07        -0.50038E+08         0.00000E+00
    0.00000E+00         0.00000E+00        -0.35148E+08
 
   -0.34979E+08         0.17094E+07         0.00000E+00
    0.17094E+07        -0.50042E+08         0.00000E+00
    0.00000E+00         0.00000E+00        -0.35148E+08
 
   -0.34991E+08         0.18101E+07         0.00000E+00
    0.18101E+07        -0.50046E+08         0.00000E+00
    0.00000E+00         0.00000E+00        -0.35147E+08
 
   -0.35002E+08         0.19113E+07         0.00000E+00
    0.19113E+07        -0.50050E+08         0.00000E+00
    0.00000E+00         0.00000E+00        -0.35147E+08
 
   -0.35013E+08         0.20130E+07         0.00000E+00
    0.20130E+07        -0.50055E+08         0.00000E+00
    0.00000E+00         0.00000E+00        -0.35146E+08
 
   -0.35022E+08         0.21152E+07         0.00000E+00
    0.21152E+07        -0.50059E+08         0.00000E+00
    0.00000E+00         0.00000E+00        -0.35145E+08
 
   -0.35032E+08         0.22180E+07         0.00000E+00
    0.22180E+07        -0.50064E+08         0.00000E+00
    0.00000E+00         0.00000E+00        -0.35145E+08
 
   -0.35040E+08         0.23213E+07         0.00000E+00
    0.23213E+07        -0.50069E+08         0.00000E+00
    0.00000E+00         0.00000E+00        -0.35144E+08
 
   -0.35048E+08         0.24252E+07         0.00000E+00
    0.24252E+07        -0.50073E+08         0.00000E+00
    0.00000E+00         0.00000E+00        -0.35143E+08
 
   -0.35055E+08         0.25297E+07         0.00000E+00
    0.25297E+07        -0.50078E+08         0.00000E+00
    0.00000E+00         0.00000E+00        -0.35142E+08
 
   -0.35062E+08         0.26349E+07         0.00000E+00
    0.26349E+07        -0.50082E+08         0.00000E+00
    0.00000E+00         0.00000E+00        -0.35142E+08
 
   -0.35068E+08         0.27406E+07         0.00000E+00
    0.27406E+07        -0.50087E+08         0.00000E+00
    0.00000E+00         0.00000E+00        -0.35141E+08
 
   -0.35074E+08         0.28470E+07         0.00000E+00
    0.28470E+07        -0.50092E+08         0.00000E+00
    0.00000E+00         0.00000E+00        -0.35140E+08
 
   -0.35079E+08         0.29541E+07         0.00000E+00
    0.29541E+07        -0.50096E+08         0.00000E+00
    0.00000E+00         0.00000E+00        -0.35140E+08
 
   -0.35083E+08         0.30618E+07         0.00000E+00
    0.30618E+07        -0.50100E+08         0.00000E+00
    0.00000E+00         0.00000E+00        -0.35139E+08
 
   -0.35088E+08         0.31703E+07         0.00000E+00
    0.31703E+07        -0.50105E+08         0.00000E+00
    0.00000E+00         0.00000E+00        -0.35139E+08
 
   -0.35092E+08         0.32794E+07         0.00000E+00
    0.32794E+07        -0.50109E+08         0.00000E+00
    0.00000E+00         0.00000E+00        -0.35138E+08
 
   -0.35095E+08         0.33892E+07         0.00000E+00
    0.33892E+07        -0.50113E+08         0.00000E+00
    0.00000E+00         0.00000E+00        -0.35137E+08
 
   -0.35099E+08         0.34998E+07         0.00000E+00
    0.34998E+07        -0.50117E+08         0.00000E+00
    0.00000E+00         0.00000E+00        -0.35137E+08
 
   -0.35102E+08         0.36111E+07         0.00000E+00
    0.36111E+07        -0.50121E+08         0.00000E+00
    0.00000E+00         0.00000E+00        -0.35136E+08
 
   -0.35104E+08         0.37232E+07         0.00000E+00
    0.37232E+07        -0.50124E+08         0.00000E+00
    0.00000E+00         0.00000E+00        -0.35136E+08
 
   -0.35107E+08         0.38360E+07         0.00000E+00
    0.38360E+07        -0.50127E+08         0.00000E+00
    0.00000E+00         0.00000E+00        -0.35135E+08
 
   -0.35109E+08         0.39495E+07         0.00000E+00
    0.39495E+07        -0.50131E+08         0.00000E+00
    0.00000E+00         0.00000E+00        -0.35135E+08
 
   -0.35111E+08         0.40639E+07         0.00000E+00
    0.40639E+07        -0.50133E+08         0.00000E+00
    0.00000E+00         0.00000E+00        -0.35134E+08
 
   -0.35113E+08         0.41790E+07         0.00000E+00
    0.41790E+07        -0.50136E+08         0.00000E+00
    0.00000E+00         0.00000E+00        -0.35134E+08
 
   -0.35115E+08         0.42950E+07         0.00000E+00
    0.42950E+07        -0.50138E+08         0.00000E+00
    0.00000E+00         0.00000E+00        -0.35134E+08
 
   -0.35117E+08         0.44117E+07         0.00000E+00
    0.44117E+07        -0.50140E+08         0.00000E+00
    0.00000E+00         0.00000E+00        -0.35133E+08
 
   -0.35119E+08         0.45292E+07         0.00000E+00
    0.45292E+07        -0.50142E+08         0.00000E+00
    0.00000E+00         0.00000E+00        -0.35133E+08
 
   -0.35121E+08         0.46476E+07         0.00000E+00
    0.46476E+07        -0.50143E+08         0.00000E+00
    0.00000E+00         0.00000E+00        -0.35133E+08
 
   -0.35123E+08         0.47668E+07         0.00000E+00
    0.47668E+07        -0.50144E+08         0.00000E+00
    0.00000E+00         0.00000E+00        -0.35132E+08
 
   -0.35125E+08         0.48868E+07         0.00000E+00
    0.48868E+07        -0.50145E+08         0.00000E+00
    0.00000E+00         0.00000E+00        -0.35132E+08
 
   -0.35127E+08         0.50076E+07         0.00000E+00
    0.50076E+07        -0.50145E+08         0.00000E+00
    0.00000E+00         0.00000E+00        -0.35132E+08
 
   -0.35129E+08         0.51293E+07         0.00000E+00
    0.51293E+07        -0.50144E+08         0.00000E+00
    0.00000E+00         0.00000E+00        -0.35132E+08
 
   -0.35131E+08         0.52519E+07         0.00000E+00
    0.52519E+07        -0.50144E+08         0.00000E+00
    0.00000E+00         0.00000E+00        -0.35132E+08
 
   -0.34155E+08         0.47224E+05         0.00000E+00
    0.47224E+05        -0.50000E+08         0.00000E+00
    0.00000E+00         0.00000E+00        -0.34531E+08
 
   -0.34184E+08         0.14171E+06         0.00000E+00
    0.14171E+06        -0.50001E+08         0.00000E+00
    0.00000E+00         0.00000E+00        -0.34531E+08
 
   -0.34211E+08         0.23627E+06         0.00000E+00
    0.23627E+06        -0.50001E+08         0.00000E+00
    0.00000E+00         0.00000E+00        -0.34531E+08
 
   -0.34237E+08         0.33093E+06         0.00000E+00
    0.33093E+06        -0.50003E+08         0.00000E+00
    0.00000E+00         0.00000E+00        -0.34531E+08
 
   -0.34262E+08         0.42572E+06         0.00000E+00
    0.42572E+06        -0.50004E+08         0.00000E+00
    0.00000E+00         0.00000E+00        -0.34531E+08
 
   -0.34286E+08         0.52068E+06         0.00000E+00
    0.52068E+06        -0.50006E+08         0.00000E+00
    0.00000E+00         0.00000E+00        -0.34531E+08
 
   -0.34308E+08         0.61585E+06         0.00000E+00
    0.61585E+06        -0.50008E+08         0.00000E+00
    0.00000E+00         0.00000E+00        -0.34530E+08
 
   -0.34329E+08         0.71126E+06         0.00000E+00
    0.71126E+06        -0.50011E+08         0.00000E+00
    0.00000E+00         0.00000E+00        -0.34530E+08
 
   -0.34349E+08         0.80694E+06         0.00000E+00
    0.80694E+06        -0.50014E+08         0.00000E+00
    0.00000E+00         0.00000E+00        -0.34529E+08
 
   -0.34368E+08         0.90292E+06         0.00000E+00
    0.90292E+06        -0.50018E+08         0.00000E+00
    0.00000E+00         0.00000E+00        -0.34529E+08
 
   -0.34385E+08         0.99923E+06         0.00000E+00
    0.99923E+06        -0.50021E+08         0.00000E+00
    0.00000E+00         0.00000E+00        -0.34529E+08
 
   -0.34402E+08         0.10959E+07         0.00000E+00
    0.10959E+07        -0.50025E+08         0.00000E+00
    0.00000E+00         0.00000E+00        -0.34528E+08
 
   -0.34417E+08         0.11930E+07         0.00000E+00
    0.11930E+07        -0.50029E+08         0.00000E+00
    0.00000E+00         0.00000E+00        -0.34528E+08
 
   -0.34431E+08         0.12905E+07         0.00000E+00
    0.12905E+07        -0.50034E+08         0.00000E+00
    0.00000E+00         0.00000E+00        -0.34527E+08
 
   -0.34444E+08         0.13884E+07         0.00000E+00
    0.13884E+07        -0.50039E+08         0.00000E+00
    0.00000E+00         0.00000E+00        -0.34526E+08
 
   -0.34457E+08         0.14868E+07         0.00000E+00
    0.14868E+07        -0.50044E+08         0.00000E+00
    0.00000E+00         0.00000E+00        -0.34526E+08
 
   -0.34468E+08         0.15857E+07         0.00000E+00
    0.15857E+07        -0.50049E+08         0.00000E+00
    0.00000E+00         0.00000E+00        -0.34525E+08
 
   -0.34478E+08         0.16852E+07         0.00000E+00
    0.16852E+07        -0.50054E+08         0.00000E+00
    0.00000E+00         0.00000E+00        -0.34525E+08
 
   -0.34488E+08         0.17852E+07         0.00000E+00
    0.17852E+07        -0.50060E+08         0.00000E+00
    0.00000E+00         0.00000E+00        -0.34524E+08
 
   -0.34496E+08         0.18857E+07         0.00000E+00
    0.18857E+07        -0.50066E+08         0.00000E+00
    0.00000E+00         0.00000E+00        -0.34523E+08
 
   -0.34504E+08         0.19869E+07         0.00000E+00
    0.19869E+07        -0.50072E+08         0.00000E+00
    0.00000E+00         0.00000E+00        -0.34523E+08
 
   -0.34511E+08         0.20886E+07         0.00000E+00
    0.20886E+07        -0.50078E+08         0.00000E+00
    0.00000E+00         0.00000E+00        -0.34522E+08
 
   -0.34517E+08         0.21910E+07         0.00000E+00
    0.21910E+07        -0.50084E+08         0.00000E+00
    0.00000E+00         0.00000E+00        -0.34521E+08
 
   -0.34522E+08         0.22941E+07         0.00000E+00
    0.22941E+07        -0.50090E+08         0.00000E+00
    0.00000E+00         0.00000E+00        -0.34521E+08
 
   -0.34527E+08         0.23978E+07         0.00000E+00
    0.23978E+07        -0.50097E+08         0.00000E+00
    0.00000E+00         0.00000E+00        -0.34520E+08
 
   -0.34531E+08         0.25023E+07         0.00000E+00
    0.25023E+07        -0.50103E+08         0.00000E+00
    0.00000E+00         0.00000E+00        -0.34519E+08
 
   -0.34534E+08         0.26074E+07         0.00000E+00
    0.26074E+07        -0.50109E+08         0.00000E+00
    0.00000E+00         0.00000E+00        -0.34519E+08
 
   -0.34537E+08         0.27132E+07         0.00000E+00
    0.27132E+07        -0.50116E+08         0.00000E+00
    0.00000E+00         0.00000E+00        -0.34518E+08
 
   -0.34539E+08         0.28198E+07         0.00000E+00
    0.28198E+07        -0.50122E+08         0.00000E+00
    0.00000E+00         0.00000E+00        -0.34517E+08
 
   -0.34541E+08         0.29272E+07         0.00000E+00
    0.29272E+07        -0.50128E+08         0.00000E+00
    0.00000E+00         0.00000E+00        -0.34517E+08
 
   -0.34542E+08         0.30353E+07         0.00000E+00
    0.30353E+07        -0.50135E+08         0.00000E+00
    0.00000E+00         0.00000E+00        -0.34516E+08
 
   -0.34543E+08         0.31442E+07         0.00000E+00
    0.31442E+07        -0.50141E+08         0.00000E+00
    0.00000E+00         0.00000E+00        -0.34516E+08
 
   -0.34543E+08         0.32539E+07         0.00000E+00
    0.32539E+07        -0.50147E+08         0.00000E+00
    0.00000E+00         0.00000E+00        -0.34515E+08
 
   -0.34542E+08         0.33645E+07         0.00000E+00
    0.33645E+07        -0.50153E+08         0.00000E+00
    0.00000E+00         0.00000E+00        -0.34514E+08
 
   -0.34542E+08         0.34758E+07         0.00000E+00
    0.34758E+07        -0.50159E+08         0.00000E+00
    0.00000E+00         0.00000E+00        -0.34514E+08
 
   -0.34541E+08         0.35880E+07         0.00000E+00
    0.35880E+07        -0.50165E+08         0.00000E+00
    0.00000E+00         0.00000E+00        -0.34513E+08
 
   -0.34540E+08         0.37010E+07         0.00000E+00
    0.37010E+07        -0.50170E+08         0.00000E+00
    0.00000E+00         0.00000E+00        -0.34513E+08
 
   -0.34538E+08         0.38148E+07         0.00000E+00
    0.38148E+07        -0.50176E+08         0.00000E+00
    0.00000E+00         0.00000E+00        -0.34512E+08
 
   -0.34536E+08         0.39296E+07         0.00000E+00
    0.39296E+07        -0.50181E+08         0.00000E+00
    0.00000E+00         0.00000E+00        -0.34512E+08
 
   -0.34534E+08         0.40452E+07         0.00000E+00
    0.40452E+07        -0.50186E+08         0.00000E+00
    0.00000E+00         0.00000E+00        -0.34511E+08
 
   -0.34532E+08         0.41617E+07         0.00000E+00
    0.41617E+07        -0.50191E+08         0.00000E+00
    0.00000E+00         0.00000E+00        -0.34511E+08
 
   -0.34530E+08         0.42791E+07         0.00000E+00
    0.42791E+07        -0.50195E+08         0.00000E+00
    0.00000E+00         0.00000E+00        -0.34511E+08
 
   -0.34528E+08         0.43973E+07         0.00000E+00
    0.43973E+07        -0.50199E+08         0.00000E+00
    0.00000E+00         0.00000E+00        -0.34510E+08
 
   -0.34525E+08         0.45165E+07         0.00000E+00
    0.45165E+07        -0.50203E+08         0.00000E+00
    0.00000E+00         0.00000E+00        -0.34510E+08
 
   -0.34522E+08         0.46366E+07         0.00000E+00
    0.46366E+07        -0.50206E+08         0.00000E+00
    0.00000E+00         0.00000E+00        -0.34510E+08
 
   -0.34520E+08         0.47576E+07         0.00000E+00
    0.47576E+07        -0.50210E+08         0.00000E+00
    0.00000E+00         0.00000E+00        -0.34510E+08
 
   -0.34517E+08         0.48796E+07         0.00000E+00
    0.48796E+07        -0.50212E+08         0.00000E+00
    0.00000E+00         0.00000E+00        -0.34509E+08
 
   -0.34515E+08         0.50025E+07         0.00000E+00
    0.50025E+07        -0.50215E+08         0.00000E+00
    0.00000E+00         0.00000E+00        -0.34509E+08
 
   -0.34513E+08         0.51263E+07         0.00000E+00
    0.51263E+07        -0.50217E+08         0.00000E+00
    0.00000E+00         0.00000E+00        -0.34509E+08
 
   -0.34510E+08         0.52511E+07         0.00000E+00
    0.52511E+07        -0.50218E+08         0.00000E+00
    0.00000E+00         0.00000E+00        -0.34509E+08
 
   -0.33688E+08         0.46026E+05         0.00000E+00
    0.46026E+05        -0.50000E+08         0.00000E+00
    0.00000E+00         0.00000E+00        -0.33896E+08
 
   -0.33716E+08         0.13822E+06         0.00000E+00
    0.13822E+06        -0.50001E+08         0.00000E+00
    0.00000E+00         0.00000E+00        -0.33896E+08
 
   -0.33743E+08         0.23053E+06         0.00000E+00
    0.23053E+06        -0.50002E+08         0.00000E+00
    0.00000E+00         0.00000E+00        -0.33896E+08
 
   -0.33769E+08         0.32299E+06         0.00000E+00
    0.32299E+06        -0.50003E+08         0.00000E+00
    0.00000E+00         0.00000E+00        -0.33896E+08
 
   -0.33793E+08         0.41563E+06         0.00000E+00
    0.41563E+06        -0.50005E+08         0.00000E+00
    0.00000E+00         0.00000E+00        -0.33896E+08
 
   -0.33815E+08         0.50851E+06         0.00000E+00
    0.50851E+06        -0.50008E+08         0.00000E+00
    0.00000E+00         0.00000E+00        -0.33896E+08
 
   -0.33836E+08         0.60166E+06         0.00000E+00
    0.60166E+06        -0.50011E+08         0.00000E+00
    0.00000E+00         0.00000E+00        -0.33895E+08
 
   -0.33856E+08         0.69511E+06         0.00000E+00
    0.69511E+06        -0.50014E+08         0.00000E+00
    0.00000E+00         0.00000E+00        -0.33895E+08
 
   -0.33874E+08         0.78890E+06         0.00000E+00
    0.78890E+06        -0.50018E+08         0.00000E+00
    0.00000E+00         0.00000E+00        -0.33895E+08
 
   -0.33891E+08         0.88307E+06         0.00000E+00
    0.88307E+06        -0.50022E+08         0.00000E+00
    0.00000E+00         0.00000E+00        -0.33894E+08
 
   -0.33907E+08         0.97765E+06         0.00000E+00
    0.97765E+06        -0.50027E+08         0.00000E+00
    0.00000E+00         0.00000E+00        -0.33894E+08
 
   -0.33921E+08         0.10727E+07         0.00000E+00
    0.10727E+07        -0.50032E+08         0.00000E+00
    0.00000E+00         0.00000E+00        -0.33893E+08
 
   -0.33934E+08         0.11682E+07         0.00000E+00
    0.11682E+07        -0.50037E+08         0.00000E+00
    0.00000E+00         0.00000E+00        -0.33893E+08
 
   -0.33946E+08         0.12642E+07         0.00000E+00
    0.12642E+07        -0.50043E+08         0.00000E+00
    0.00000E+00         0.00000E+00        -0.33892E+08
 
   -0.33957E+08         0.13607E+07         0.00000E+00
    0.13607E+07        -0.50049E+08         0.00000E+00
    0.00000E+00         0.00000E+00        -0.33892E+08
 
   -0.33966E+08         0.14578E+07         0.00000E+00
    0.14578E+07        -0.50055E+08         0.00000E+00
    0.00000E+00         0.00000E+00        -0.33891E+08
 
   -0.33975E+08         0.15555E+07         0.00000E+00
    0.15555E+07        -0.50062E+08         0.00000E+00
    0.00000E+00         0.00000E+00        -0.33890E+08
 
   -0.33982E+08         0.16539E+07         0.00000E+00
    0.16539E+07        -0.50069E+08         0.00000E+00
    0.00000E+00         0.00000E+00        -0.33890E+08
 
   -0.33989E+08         0.17528E+07         0.00000E+00
    0.17528E+07        -0.50076E+08         0.00000E+00
    0.00000E+00         0.00000E+00        -0.33889E+08
 
   -0.33994E+08         0.18525E+07         0.00000E+00
    0.18525E+07        -0.50083E+08         0.00000E+00
    0.00000E+00         0.00000E+00        -0.33889E+08
 
   -0.33999E+08         0.19528E+07         0.00000E+00
    0.19528E+07        -0.50091E+08         0.00000E+00
    0.00000E+00         0.00000E+00        -0.33888E+08
 
   -0.34002E+08         0.20538E+07         0.00000E+00
    0.20538E+07        -0.50099E+08         0.00000E+00
    0.00000E+00         0.00000E+00        -0.33887E+08
 
   -0.34005E+08         0.21556E+07         0.00000E+00
    0.21556E+07        -0.50107E+08         0.00000E+00
    0.00000E+00         0.00000E+00        -0.33887E+08
 
   -0.34006E+08         0.22582E+07         0.00000E+00
    0.22582E+07        -0.50115E+08         0.00000E+00
    0.00000E+00         0.00000E+00        -0.33886E+08
 
   -0.34007E+08         0.23615E+07         0.00000E+00
    0.23615E+07        -0.50123E+08         0.00000E+00
    0.00000E+00         0.00000E+00        -0.33885E+08
 
   -0.34008E+08         0.24656E+07         0.00000E+00
    0.24656E+07        -0.50131E+08         0.00000E+00
    0.00000E+00         0.00000E+00        -0.33885E+08
 
   -0.34007E+08         0.25705E+07         0.00000E+00
    0.25705E+07        -0.50140E+08         0.00000E+00
    0.00000E+00         0.00000E+00        -0.33884E+08
 
   -0.34006E+08         0.26763E+07         0.00000E+00
    0.26763E+07        -0.50148E+08         0.00000E+00
    0.00000E+00         0.00000E+00        -0.33883E+08
 
   -0.34004E+08         0.27829E+07         0.00000E+00
    0.27829E+07        -0.50156E+08         0.00000E+00
    0.00000E+00         0.00000E+00        -0.33883E+08
 
   -0.34002E+08         0.28903E+07         0.00000E+00
    0.28903E+07        -0.50165E+08         0.00000E+00
    0.00000E+00         0.00000E+00        -0.33882E+08
 
   -0.33999E+08         0.29987E+07         0.00000E+00
    0.29987E+07        -0.50173E+08         0.00000E+00
    0.00000E+00         0.00000E+00        -0.33882E+08
 
   -0.33995E+08         0.31079E+07         0.00000E+00
    0.31079E+07        -0.50182E+08         0.00000E+00
    0.00000E+00         0.00000E+00        -0.33881E+08
 
   -0.33991E+08         0.32181E+07         0.00000E+00
    0.32181E+07        -0.50190E+08         0.00000E+00
    0.00000E+00         0.00000E+00        -0.33880E+08
 
   -0.33986E+08         0.33291E+07         0.00000E+00
    0.33291E+07        -0.50198E+08         0.00000E+00
    0.00000E+00         0.00000E+00        -0.33880E+08
 
   -0.33981E+08         0.34411E+07         0.00000E+00
    0.34411E+07        -0.50206E+08         0.00000E+00
    0.00000E+00         0.00000E+00        -0.33879E+08
 
   -0.33976E+08         0.35540E+07         0.00000E+00
    0.35540E+07        -0.50214E+08         0.00000E+00
    0.00000E+00         0.00000E+00        -0.33879E+08
 
   -0.33970E+08         0.36679E+07         0.00000E+00
    0.36679E+07        -0.50222E+08         0.00000E+00
    0.00000E+00         0.00000E+00        -0.33878E+08
 
   -0.33964E+08         0.37827E+07         0.00000E+00
    0.37827E+07        -0.50230E+08         0.00000E+00
    0.00000E+00         0.00000E+00        -0.33878E+08
 
   -0.33958E+08         0.38985E+07         0.00000E+00
    0.38985E+07        -0.50237E+08         0.00000E+00
    0.00000E+00         0.00000E+00        -0.33877E+08
 
   -0.33951E+08         0.40153E+07         0.00000E+00
    0.40153E+07        -0.50245E+08         0.00000E+00
    0.00000E+00         0.00000E+00        -0.33877E+08
 
   -0.33944E+08         0.41330E+07         0.00000E+00
    0.41330E+07        -0.50252E+08         0.00000E+00
    0.00000E+00         0.00000E+00        -0.33877E+08
 
   -0.33937E+08         0.42517E+07         0.00000E+00
    0.42517E+07        -0.50259E+08         0.00000E+00
    0.00000E+00         0.00000E+00        -0.33876E+08
 
   -0.33930E+08         0.43715E+07         0.00000E+00
    0.43715E+07        -0.50265E+08         0.00000E+00
    0.00000E+00         0.00000E+00        -0.33876E+08
 
   -0.33923E+08         0.44922E+07         0.00000E+00
    0.44922E+07        -0.50271E+08         0.00000E+00
    0.00000E+00         0.00000E+00        -0.33876E+08
 
   -0.33915E+08         0.46140E+07         0.00000E+00
    0.46140E+07        -0.50277E+08         0.00000E+00
    0.00000E+00         0.00000E+00        -0.33875E+08
 
   -0.33908E+08         0.47368E+07         0.00000E+00
    0.47368E+07        -0.50283E+08         0.00000E+00
    0.00000E+00         0.00000E+00        -0.33875E+08
 
   -0.33901E+08         0.48606E+07         0.00000E+00
    0.48606E+07        -0.50288E+08         0.00000E+00
    0.00000E+00         0.00000E+00        -0.33875E+08
 
   -0.33893E+08         0.49854E+07         0.00000E+00
    0.49854E+07        -0.50293E+08         0.00000E+00
    0.00000E+00         0.00000E+00        -0.33875E+08
 
   -0.33886E+08         0.51113E+07         0.00000E+00
    0.51113E+07        -0.50297E+08         0.00000E+00
    0.00000E+00         0.00000E+00        -0.33875E+08
 
   -0.33878E+08         0.52383E+07         0.00000E+00
    0.52383E+07        -0.50301E+08         0.00000E+00
    0.00000E+00         0.00000E+00        -0.33875E+08
 
   -0.33234E+08         0.44532E+05         0.00000E+00
    0.44532E+05        -0.50000E+08         0.00000E+00
    0.00000E+00         0.00000E+00        -0.33250E+08
 
   -0.33262E+08         0.13387E+06         0.00000E+00
    0.13387E+06        -0.50001E+08         0.00000E+00
    0.00000E+00         0.00000E+00        -0.33250E+08
 
   -0.33288E+08         0.22338E+06         0.00000E+00
    0.22338E+06        -0.50002E+08         0.00000E+00
    0.00000E+00         0.00000E+00        -0.33250E+08
 
   -0.33313E+08         0.31310E+06         0.00000E+00
    0.31310E+06        -0.50004E+08         0.00000E+00
    0.00000E+00         0.00000E+00        -0.33250E+08
 
   -0.33335E+08         0.40307E+06         0.00000E+00
    0.40307E+06        -0.50006E+08         0.00000E+00
    0.00000E+00         0.00000E+00        -0.33249E+08
 
   -0.33356E+08         0.49335E+06         0.00000E+00
    0.49335E+06        -0.50010E+08         0.00000E+00
    0.00000E+00         0.00000E+00        -0.33249E+08
 
   -0.33376E+08         0.58397E+06         0.00000E+00
    0.58397E+06        -0.50013E+08         0.00000E+00
    0.00000E+00         0.00000E+00        -0.33249E+08
 
   -0.33394E+08         0.67498E+06         0.00000E+00
    0.67498E+06        -0.50017E+08         0.00000E+00
    0.00000E+00         0.00000E+00        -0.33249E+08
 
   -0.33410E+08         0.76641E+06         0.00000E+00
    0.76641E+06        -0.50022E+08         0.00000E+00
    0.00000E+00         0.00000E+00        -0.33248E+08
 
   -0.33425E+08         0.85831E+06         0.00000E+00
    0.85831E+06        -0.50027E+08         0.00000E+00
    0.00000E+00         0.00000E+00        -0.33248E+08
 
   -0.33438E+08         0.95072E+06         0.00000E+00
    0.95072E+06        -0.50033E+08         0.00000E+00
    0.00000E+00         0.00000E+00        -0.33247E+08
 
   -0.33450E+08         0.10437E+07         0.00000E+00
    0.10437E+07        -0.50039E+08         0.00000E+00
    0.00000E+00         0.00000E+00        -0.33247E+08
 
   -0.33460E+08         0.11372E+07         0.00000E+00
    0.11372E+07        -0.50046E+08         0.00000E+00
    0.00000E+00         0.00000E+00        -0.33246E+08
 
   -0.33469E+08         0.12313E+07         0.00000E+00
    0.12313E+07        -0.50053E+08         0.00000E+00
    0.00000E+00         0.00000E+00        -0.33246E+08
 
   -0.33477E+08         0.13261E+07         0.00000E+00
    0.13261E+07        -0.50060E+08         0.00000E+00
    0.00000E+00         0.00000E+00        -0.33245E+08
 
   -0.33483E+08         0.14215E+07         0.00000E+00
    0.14215E+07        -0.50068E+08         0.00000E+00
    0.00000E+00         0.00000E+00        -0.33245E+08
 
   -0.33488E+08         0.15176E+07         0.00000E+00
    0.15176E+07        -0.50077E+08         0.00000E+00
    0.00000E+00         0.00000E+00        -0.33244E+08
 
   -0.33492E+08         0.16145E+07         0.00000E+00
    0.16145E+07        -0.50085E+08         0.00000E+00
    0.00000E+00         0.00000E+00        -0.33244E+08
 
   -0.33495E+08         0.17121E+07         0.00000E+00
    0.17121E+07        -0.50094E+08         0.00000E+00
    0.00000E+00         0.00000E+00        -0.33243E+08
 
   -0.33497E+08         0.18105E+07         0.00000E+00
    0.18105E+07        -0.50103E+08         0.00000E+00
    0.00000E+00         0.00000E+00        -0.33242E+08
 
   -0.33498E+08         0.19097E+07         0.00000E+00
    0.19097E+07        -0.50113E+08         0.00000E+00
    0.00000E+00         0.00000E+00        -0.33242E+08
 
   -0.33497E+08         0.20098E+07         0.00000E+00
    0.20098E+07        -0.50122E+08         0.00000E+00
    0.00000E+00         0.00000E+00        -0.33241E+08
 
   -0.33496E+08         0.21107E+07         0.00000E+00
    0.21107E+07        -0.50132E+08         0.00000E+00
    0.00000E+00         0.00000E+00        -0.33241E+08
 
   -0.33494E+08         0.22125E+07         0.00000E+00
    0.22125E+07        -0.50142E+08         0.00000E+00
    0.00000E+00         0.00000E+00        -0.33240E+08
 
   -0.33490E+08         0.23151E+07         0.00000E+00
    0.23151E+07        -0.50153E+08         0.00000E+00
    0.00000E+00         0.00000E+00        -0.33239E+08
 
   -0.33486E+08         0.24187E+07         0.00000E+00
    0.24187E+07        -0.50163E+08         0.00000E+00
    0.00000E+00         0.00000E+00        -0.33239E+08
 
   -0.33481E+08         0.25232E+07         0.00000E+00
    0.25232E+07        -0.50173E+08         0.00000E+00
    0.00000E+00         0.00000E+00        -0.33238E+08
 
   -0.33476E+08         0.26287E+07         0.00000E+00
    0.26287E+07        -0.50184E+08         0.00000E+00
    0.00000E+00         0.00000E+00        -0.33238E+08
 
   -0.33469E+08         0.27351E+07         0.00000E+00
    0.27351E+07        -0.50195E+08         0.00000E+00
    0.00000E+00         0.00000E+00        -0.33237E+08
 
   -0.33462E+08         0.28425E+07         0.00000E+00
    0.28425E+07        -0.50206E+08         0.00000E+00
    0.00000E+00         0.00000E+00        -0.33236E+08
 
   -0.33454E+08         0.29509E+07         0.00000E+00
    0.29509E+07        -0.50216E+08         0.00000E+00
    0.00000E+00         0.00000E+00        -0.33236E+08
 
   -0.33446E+08         0.30603E+07         0.00000E+00
    0.30603E+07        -0.50227E+08         0.00000E+00
    0.00000E+00         0.00000E+00        -0.33235E+08
 
   -0.33437E+08         0.31707E+07         0.00000E+00
    0.31707E+07        -0.50238E+08         0.00000E+00
    0.00000E+00         0.00000E+00        -0.33235E+08
 
   -0.33428E+08         0.32821E+07         0.00000E+00
    0.32821E+07        -0.50248E+08         0.00000E+00
    0.00000E+00         0.00000E+00        -0.33234E+08
 
   -0.33418E+08         0.33946E+07         0.00000E+00
    0.33946E+07        -0.50259E+08         0.00000E+00
    0.00000E+00         0.00000E+00        -0.33234E+08
 
   -0.33407E+08         0.35081E+07         0.00000E+00
    0.35081E+07        -0.50270E+08         0.00000E+00
    0.00000E+00         0.00000E+00        -0.33233E+08
 
   -0.33396E+08         0.36227E+07         0.00000E+00
    0.36227E+07        -0.50280E+08         0.00000E+00
    0.00000E+00         0.00000E+00        -0.33233E+08
 
   -0.33385E+08         0.37384E+07         0.00000E+00
    0.37384E+07        -0.50290E+08         0.00000E+00
    0.00000E+00         0.00000E+00        -0.33232E+08
 
   -0.33374E+08         0.38551E+07         0.00000E+00
    0.38551E+07        -0.50300E+08         0.00000E+00
    0.00000E+00         0.00000E+00        -0.33232E+08
 
   -0.33362E+08         0.39729E+07         0.00000E+00
    0.39729E+07        -0.50310E+08         0.00000E+00
    0.00000E+00         0.00000E+00        -0.33232E+08
 
   -0.33350E+08         0.40919E+07         0.00000E+00
    0.40919E+07        -0.50320E+08         0.00000E+00
    0.00000E+00         0.00000E+00        -0.33231E+08
 
   -0.33338E+08         0.42119E+07         0.00000E+00
    0.42119E+07        -0.50329E+08         0.00000E+00
    0.00000E+00         0.00000E+00        -0.33231E+08
 
   -0.33325E+08         0.43330E+07         0.00000E+00
    0.43330E+07        -0.50338E+08         0.00000E+00
    0.00000E+00         0.00000E+00        -0.33231E+08
 
   -0.33313E+08         0.44552E+07         0.00000E+00
    0.44552E+07        -0.50347E+08         0.00000E+00
    0.00000E+00         0.00000E+00        -0.33230E+08
 
   -0.33300E+08         0.45786E+07         0.00000E+00
    0.45786E+07        -0.50356E+08         0.00000E+00
    0.00000E+00         0.00000E+00        -0.33230E+08
 
   -0.33287E+08         0.47031E+07         0.00000E+00
    0.47031E+07        -0.50364E+08         0.00000E+00
    0.00000E+00         0.00000E+00        -0.33230E+08
 
   -0.33274E+08         0.48287E+07         0.00000E+00
    0.48287E+07        -0.50372E+08         0.00000E+00
    0.00000E+00         0.00000E+00        -0.33230E+08
 
   -0.33261E+08         0.49554E+07         0.00000E+00
    0.49554E+07        -0.50380E+08         0.00000E+00
    0.00000E+00         0.00000E+00        -0.33230E+08
 
   -0.33249E+08         0.50833E+07         0.00000E+00
    0.50833E+07        -0.50387E+08         0.00000E+00
    0.00000E+00         0.00000E+00        -0.33229E+08
 
   -0.33236E+08         0.52123E+07         0.00000E+00
    0.52123E+07        -0.50394E+08         0.00000E+00
    0.00000E+00         0.00000E+00        -0.33229E+08
 
   -0.32796E+08         0.42696E+05         0.00000E+00
    0.42696E+05        -0.50000E+08         0.00000E+00
    0.00000E+00         0.00000E+00        -0.32593E+08
 
   -0.32823E+08         0.12854E+06         0.00000E+00
    0.12854E+06        -0.50001E+08         0.00000E+00
    0.00000E+00         0.00000E+00        -0.32592E+08
 
   -0.32848E+08         0.21462E+06         0.00000E+00
    0.21462E+06        -0.50003E+08         0.00000E+00
    0.00000E+00         0.00000E+00        -0.32592E+08
 
   -0.32871E+08         0.30098E+06         0.00000E+00
    0.30098E+06        -0.50005E+08         0.00000E+00
    0.00000E+00         0.00000E+00        -0.32592E+08
 
   -0.32893E+08         0.38769E+06         0.00000E+00
    0.38769E+06        -0.50008E+08         0.00000E+00
    0.00000E+00         0.00000E+00        -0.32592E+08
 
   -0.32912E+08         0.47479E+06         0.00000E+00
    0.47479E+06        -0.50012E+08         0.00000E+00
    0.00000E+00         0.00000E+00        -0.32592E+08
 
   -0.32929E+08         0.56233E+06         0.00000E+00
    0.56233E+06        -0.50016E+08         0.00000E+00
    0.00000E+00         0.00000E+00        -0.32592E+08
 
   -0.32945E+08         0.65035E+06         0.00000E+00
    0.65035E+06        -0.50021E+08         0.00000E+00
    0.00000E+00         0.00000E+00        -0.32591E+08
 
   -0.32958E+08         0.73890E+06         0.00000E+00
    0.73890E+06        -0.50027E+08         0.00000E+00
    0.00000E+00         0.00000E+00        -0.32591E+08
 
   -0.32970E+08         0.82802E+06         0.00000E+00
    0.82802E+06        -0.50033E+08         0.00000E+00
    0.00000E+00         0.00000E+00        -0.32590E+08
 
   -0.32981E+08         0.91776E+06         0.00000E+00
    0.91776E+06        -0.50040E+08         0.00000E+00
    0.00000E+00         0.00000E+00        -0.32590E+08
 
   -0.32990E+08         0.10082E+07         0.00000E+00
    0.10082E+07        -0.50048E+08         0.00000E+00
    0.00000E+00         0.00000E+00        -0.32590E+08
 
   -0.32997E+08         0.10992E+07         0.00000E+00
    0.10992E+07        -0.50056E+08         0.00000E+00
    0.00000E+00         0.00000E+00        -0.32589E+08
 
   -0.33002E+08         0.11910E+07         0.00000E+00
    0.11910E+07        -0.50064E+08         0.00000E+00
    0.00000E+00         0.00000E+00        -0.32589E+08
 
   -0.33007E+08         0.12836E+07         0.00000E+00
    0.12836E+07        -0.50073E+08         0.00000E+00
    0.00000E+00         0.00000E+00        -0.32588E+08
 
   -0.33009E+08         0.13770E+07         0.00000E+00
    0.13770E+07        -0.50083E+08         0.00000E+00
    0.00000E+00         0.00000E+00        -0.32588E+08
 
   -0.33011E+08         0.14712E+07         0.00000E+00
    0.14712E+07        -0.50093E+08         0.00000E+00
    0.00000E+00         0.00000E+00        -0.32587E+08
 
   -0.33011E+08         0.15662E+07         0.00000E+00
    0.15662E+07        -0.50103E+08         0.00000E+00
    0.00000E+00         0.00000E+00        -0.32587E+08
 
   -0.33009E+08         0.16621E+07         0.00000E+00
    0.16621E+07        -0.50114E+08         0.00000E+00
    0.00000E+00         0.00000E+00        -0.32586E+08
 
   -0.33007E+08         0.17590E+07         0.00000E+00
    0.17590E+07        -0.50125E+08         0.00000E+00
    0.00000E+00         0.00000E+00        -0.32585E+08
 
   -0.33003E+08         0.18568E+07         0.00000E+00
    0.18568E+07        -0.50137E+08         0.00000E+00
    0.00000E+00         0.00000E+00        -0.32585E+08
 
   -0.32998E+08         0.19555E+07         0.00000E+00
    0.19555E+07        -0.50149E+08         0.00000E+00
    0.00000E+00         0.00000E+00        -0.32584E+08
 
   -0.32992E+08         0.20552E+07         0.00000E+00
    0.20552E+07        -0.50161E+08         0.00000E+00
    0.00000E+00         0.00000E+00        -0.32584E+08
 
   -0.32985E+08         0.21560E+07         0.00000E+00
    0.21560E+07        -0.50173E+08         0.00000E+00
    0.00000E+00         0.00000E+00        -0.32583E+08
 
   -0.32977E+08         0.22577E+07         0.00000E+00
    0.22577E+07        -0.50186E+08         0.00000E+00
    0.00000E+00         0.00000E+00        -0.32583E+08
 
   -0.32968E+08         0.23605E+07         0.00000E+00
    0.23605E+07        -0.50198E+08         0.00000E+00
    0.00000E+00         0.00000E+00        -0.32582E+08
 
   -0.32958E+08         0.24644E+07         0.00000E+00
    0.24644E+07        -0.50211E+08         0.00000E+00
    0.00000E+00         0.00000E+00        -0.32581E+08
 
   -0.32947E+08         0.25693E+07         0.00000E+00
    0.25693E+07        -0.50224E+08         0.00000E+00
    0.00000E+00         0.00000E+00        -0.32581E+08
 
   -0.32935E+08         0.26753E+07         0.00000E+00
    0.26753E+07        -0.50238E+08         0.00000E+00
    0.00000E+00         0.00000E+00        -0.32580E+08
 
   -0.32923E+08         0.27825E+07         0.00000E+00
    0.27825E+07        -0.50251E+08         0.00000E+00
    0.00000E+00         0.00000E+00        -0.32580E+08
 
   -0.32910E+08         0.28907E+07         0.00000E+00
    0.28907E+07        -0.50264E+08         0.00000E+00
    0.00000E+00         0.00000E+00        -0.32579E+08
 
   -0.32896E+08         0.30001E+07         0.00000E+00
    0.30001E+07        -0.50278E+08         0.00000E+00
    0.00000E+00         0.00000E+00        -0.32579E+08
 
   -0.32882E+08         0.31106E+07         0.00000E+00
    0.31106E+07        -0.50291E+08         0.00000E+00
    0.00000E+00         0.00000E+00        -0.32578E+08
 
   -0.32867E+08         0.32223E+07         0.00000E+00
    0.32223E+07        -0.50304E+08         0.00000E+00
    0.00000E+00         0.00000E+00        -0.32578E+08
 
   -0.32851E+08         0.33351E+07         0.00000E+00
    0.33351E+07        -0.50317E+08         0.00000E+00
    0.00000E+00         0.00000E+00        -0.32577E+08
 
   -0.32836E+08         0.34492E+07         0.00000E+00
    0.34492E+07        -0.50331E+08         0.00000E+00
    0.00000E+00         0.00000E+00        -0.32577E+08
 
   -0.32819E+08         0.35644E+07         0.00000E+00
    0.35644E+07        -0.50344E+08         0.00000E+00
    0.00000E+00         0.00000E+00        -0.32576E+08
 
   -0.32802E+08         0.36807E+07         0.00000E+00
    0.36807E+07        -0.50357E+08         0.00000E+00
    0.00000E+00         0.00000E+00        -0.32576E+08
 
   -0.32785E+08         0.37983E+07         0.00000E+00
    0.37983E+07        -0.50370E+08         0.00000E+00
    0.00000E+00         0.00000E+00        -0.32576E+08
 
   -0.32768E+08         0.39171E+07         0.00000E+00
    0.39171E+07        -0.50382E+08         0.00000E+00
    0.00000E+00         0.00000E+00        -0.32575E+08
 
   -0.32750E+08         0.40371E+07         0.00000E+00
    0.40371E+07        -0.50395E+08         0.00000E+00
    0.00000E+00         0.00000E+00        -0.32575E+08
 
   -0.32732E+08         0.41583E+07         0.00000E+00
    0.41583E+07        -0.50407E+08         0.00000E+00
    0.00000E+00         0.00000E+00        -0.32575E+08
 
   -0.32713E+08         0.42807E+07         0.00000E+00
    0.42807E+07        -0.50419E+08         0.00000E+00
    0.00000E+00         0.00000E+00        -0.32574E+08
 
   -0.32695E+08         0.44043E+07         0.00000E+00
    0.44043E+07        -0.50431E+08         0.00000E+00
    0.00000E+00         0.00000E+00        -0.32574E+08
 
   -0.32676E+08         0.45292E+07         0.00000E+00
    0.45292E+07        -0.50442E+08         0.00000E+00
    0.00000E+00         0.00000E+00        -0.32574E+08
 
   -0.32658E+08         0.46553E+07         0.00000E+00
    0.46553E+07        -0.50454E+08         0.00000E+00
    0.00000E+00         0.00000E+00        -0.32574E+08
 
   -0.32639E+08         0.47826E+07         0.00000E+00
    0.47826E+07        -0.50465E+08         0.00000E+00
    0.00000E+00         0.00000E+00        -0.32573E+08
 
   -0.32620E+08         0.49112E+07         0.00000E+00
    0.49112E+07        -0.50475E+08         0.00000E+00
    0.00000E+00         0.00000E+00        -0.32573E+08
 
   -0.32601E+08         0.50410E+07         0.00000E+00
    0.50410E+07        -0.50485E+08         0.00000E+00
    0.00000E+00         0.00000E+00        -0.32573E+08
 
   -0.32583E+08         0.51720E+07         0.00000E+00
    0.51720E+07        -0.50495E+08         0.00000E+00
    0.00000E+00         0.00000E+00        -0.32573E+08
 
   -0.32378E+08         0.40466E+05         0.00000E+00
    0.40466E+05        -0.50000E+08         0.00000E+00
    0.00000E+00         0.00000E+00        -0.31924E+08
 
   -0.32404E+08         0.12208E+06         0.00000E+00
    0.12208E+06        -0.50001E+08         0.00000E+00
    0.00000E+00         0.00000E+00        -0.31924E+08
 
   -0.32427E+08         0.20401E+06         0.00000E+00
    0.20401E+06        -0.50003E+08         0.00000E+00
    0.00000E+00         0.00000E+00        -0.31924E+08
 
   -0.32448E+08         0.28634E+06         0.00000E+00
    0.28634E+06        -0.50006E+08         0.00000E+00
    0.00000E+00         0.00000E+00        -0.31924E+08
 
   -0.32467E+08         0.36911E+06         0.00000E+00
    0.36911E+06        -0.50009E+08         0.00000E+00
    0.00000E+00         0.00000E+00        -0.31924E+08
 
   -0.32484E+08         0.45238E+06         0.00000E+00
    0.45238E+06        -0.50014E+08         0.00000E+00
    0.00000E+00         0.00000E+00        -0.31924E+08
 
   -0.32499E+08         0.53621E+06         0.00000E+00
    0.53621E+06        -0.50019E+08         0.00000E+00
    0.00000E+00         0.00000E+00        -0.31924E+08
 
   -0.32512E+08         0.62064E+06         0.00000E+00
    0.62064E+06        -0.50025E+08         0.00000E+00
    0.00000E+00         0.00000E+00        -0.31923E+08
 
   -0.32523E+08         0.70573E+06         0.00000E+00
    0.70573E+06        -0.50032E+08         0.00000E+00
    0.00000E+00         0.00000E+00        -0.31923E+08
 
   -0.32531E+08         0.79152E+06         0.00000E+00
    0.79152E+06        -0.50040E+08         0.00000E+00
    0.00000E+00         0.00000E+00        -0.31923E+08
 
   -0.32538E+08         0.87805E+06         0.00000E+00
    0.87805E+06        -0.50048E+08         0.00000E+00
    0.00000E+00         0.00000E+00        -0.31922E+08
 
   -0.32543E+08         0.96537E+06         0.00000E+00
    0.96537E+06        -0.50057E+08         0.00000E+00
    0.00000E+00         0.00000E+00        -0.31922E+08
 
   -0.32547E+08         0.10535E+07         0.00000E+00
    0.10535E+07        -0.50067E+08         0.00000E+00
    0.00000E+00         0.00000E+00        -0.31921E+08
 
   -0.32548E+08         0.11425E+07         0.00000E+00
    0.11425E+07        -0.50077E+08         0.00000E+00
    0.00000E+00         0.00000E+00        -0.31921E+08
 
   -0.32548E+08         0.12325E+07         0.00000E+00
    0.12325E+07        -0.50088E+08         0.00000E+00
    0.00000E+00         0.00000E+00        -0.31920E+08
 
   -0.32546E+08         0.13233E+07         0.00000E+00
    0.13233E+07        -0.50099E+08         0.00000E+00
    0.00000E+00         0.00000E+00        -0.31920E+08
 
   -0.32543E+08         0.14152E+07         0.00000E+00
    0.14152E+07        -0.50111E+08         0.00000E+00
    0.00000E+00         0.00000E+00        -0.31919E+08
 
   -0.32538E+08         0.15080E+07         0.00000E+00
    0.15080E+07        -0.50124E+08         0.00000E+00
    0.00000E+00         0.00000E+00        -0.31919E+08
 
   -0.32532E+08         0.16019E+07         0.00000E+00
    0.16019E+07        -0.50137E+08         0.00000E+00
    0.00000E+00         0.00000E+00        -0.31918E+08
 
   -0.32525E+08         0.16968E+07         0.00000E+00
    0.16968E+07        -0.50150E+08         0.00000E+00
    0.00000E+00         0.00000E+00        -0.31918E+08
 
   -0.32516E+08         0.17928E+07         0.00000E+00
    0.17928E+07        -0.50164E+08         0.00000E+00
    0.00000E+00         0.00000E+00        -0.31917E+08
 
   -0.32506E+08         0.18899E+07         0.00000E+00
    0.18899E+07        -0.50178E+08         0.00000E+00
    0.00000E+00         0.00000E+00        -0.31917E+08
 
   -0.32494E+08         0.19882E+07         0.00000E+00
    0.19882E+07        -0.50193E+08         0.00000E+00
    0.00000E+00         0.00000E+00        -0.31916E+08
 
   -0.32482E+08         0.20876E+07         0.00000E+00
    0.20876E+07        -0.50207E+08         0.00000E+00
    0.00000E+00         0.00000E+00        -0.31916E+08
 
   -0.32468E+08         0.21881E+07         0.00000E+00
    0.21881E+07        -0.50222E+08         0.00000E+00
    0.00000E+00         0.00000E+00        -0.31915E+08
 
   -0.32453E+08         0.22899E+07         0.00000E+00
    0.22899E+07        -0.50238E+08         0.00000E+00
    0.00000E+00         0.00000E+00        -0.31915E+08
 
   -0.32438E+08         0.23929E+07         0.00000E+00
    0.23929E+07        -0.50253E+08         0.00000E+00
    0.00000E+00         0.00000E+00        -0.31914E+08
 
   -0.32421E+08         0.24971E+07         0.00000E+00
    0.24971E+07        -0.50269E+08         0.00000E+00
    0.00000E+00         0.00000E+00        -0.31914E+08
 
   -0.32404E+08         0.26025E+07         0.00000E+00
    0.26025E+07        -0.50285E+08         0.00000E+00
    0.00000E+00         0.00000E+00        -0.31913E+08
 
   -0.32386E+08         0.27092E+07         0.00000E+00
    0.27092E+07        -0.50301E+08         0.00000E+00
    0.00000E+00         0.00000E+00        -0.31913E+08
 
   -0.32366E+08         0.28171E+07         0.00000E+00
    0.28171E+07        -0.50317E+08         0.00000E+00
    0.00000E+00         0.00000E+00        -0.31912E+08
 
   -0.32347E+08         0.29263E+07         0.00000E+00
    0.29263E+07        -0.50333E+08         0.00000E+00
    0.00000E+00         0.00000E+00        -0.31912E+08
 
   -0.32326E+08         0.30368E+07         0.00000E+00
    0.30368E+07        -0.50349E+08         0.00000E+00
    0.00000E+00         0.00000E+00        -0.31911E+08
 
   -0.32305E+08         0.31485E+07         0.00000E+00
    0.31485E+07        -0.50366E+08         0.00000E+00
    0.00000E+00         0.00000E+00        -0.31911E+08
 
   -0.32284E+08         0.32616E+07         0.00000E+00
    0.32616E+07        -0.50382E+08         0.00000E+00
    0.00000E+00         0.00000E+00        -0.31910E+08
 
   -0.32261E+08         0.33760E+07         0.00000E+00
    0.33760E+07        -0.50398E+08         0.00000E+00
    0.00000E+00         0.00000E+00        -0.31910E+08
 
   -0.32239E+08         0.34916E+07         0.00000E+00
    0.34916E+07        -0.50414E+08         0.00000E+00
    0.00000E+00         0.00000E+00        -0.31909E+08
 
   -0.32216E+08         0.36086E+07         0.00000E+00
    0.36086E+07        -0.50430E+08         0.00000E+00
    0.00000E+00         0.00000E+00        -0.31909E+08
 
   -0.32192E+08         0.37269E+07         0.00000E+00
    0.37269E+07        -0.50446E+08         0.00000E+00
    0.00000E+00         0.00000E+00        -0.31909E+08
 
   -0.32168E+08         0.38466E+07         0.00000E+00
    0.38466E+07        -0.50462E+08         0.00000E+00
    0.00000E+00         0.00000E+00        -0.31908E+08
 
   -0.32144E+08         0.39675E+07         0.00000E+00
    0.39675E+07        -0.50477E+08         0.00000E+00
    0.00000E+00         0.00000E+00        -0.31908E+08
 
   -0.32120E+08         0.40898E+07         0.00000E+00
    0.40898E+07        -0.50493E+08         0.00000E+00
    0.00000E+00         0.00000E+00        -0.31908E+08
 
   -0.32095E+08         0.42134E+07         0.00000E+00
    0.42134E+07        -0.50508E+08         0.00000E+00
    0.00000E+00         0.00000E+00        -0.31908E+08
 
   -0.32070E+08         0.43383E+07         0.00000E+00
    0.43383E+07        -0.50523E+08         0.00000E+00
    0.00000E+00         0.00000E+00        -0.31907E+08
 
   -0.32045E+08         0.44646E+07         0.00000E+00
    0.44646E+07        -0.50537E+08         0.00000E+00
    0.00000E+00         0.00000E+00        -0.31907E+08
 
   -0.32020E+08         0.45922E+07         0.00000E+00
    0.45922E+07        -0.50552E+08         0.00000E+00
    0.00000E+00         0.00000E+00        -0.31907E+08
 
   -0.31995E+08         0.47212E+07         0.00000E+00
    0.47212E+07        -0.50566E+08         0.00000E+00
    0.00000E+00         0.00000E+00        -0.31907E+08
 
   -0.31970E+08         0.48515E+07         0.00000E+00
    0.48515E+07        -0.50579E+08         0.00000E+00
    0.00000E+00         0.00000E+00        -0.31907E+08
 
   -0.31944E+08         0.49831E+07         0.00000E+00
    0.49831E+07        -0.50593E+08         0.00000E+00
    0.00000E+00         0.00000E+00        -0.31907E+08
 
   -0.31919E+08         0.51161E+07         0.00000E+00
    0.51161E+07        -0.50606E+08         0.00000E+00
    0.00000E+00         0.00000E+00        -0.31907E+08
 
   -0.31983E+08         0.37786E+05         0.00000E+00
    0.37786E+05        -0.50000E+08         0.00000E+00
    0.00000E+00         0.00000E+00        -0.31246E+08
 
   -0.32007E+08         0.11433E+06         0.00000E+00
    0.11433E+06        -0.50001E+08         0.00000E+00
    0.00000E+00         0.00000E+00        -0.31246E+08
 
   -0.32029E+08         0.19133E+06         0.00000E+00
    0.19133E+06        -0.50004E+08         0.00000E+00
    0.00000E+00         0.00000E+00        -0.31246E+08
 
   -0.32047E+08         0.26884E+06         0.00000E+00
    0.26884E+06        -0.50007E+08         0.00000E+00
    0.00000E+00         0.00000E+00        -0.31246E+08
 
   -0.32064E+08         0.34693E+06         0.00000E+00
    0.34693E+06        -0.50011E+08         0.00000E+00
    0.00000E+00         0.00000E+00        -0.31246E+08
 
   -0.32078E+08         0.42565E+06         0.00000E+00
    0.42565E+06        -0.50017E+08         0.00000E+00
    0.00000E+00         0.00000E+00        -0.31246E+08
 
   -0.32089E+08         0.50508E+06         0.00000E+00
    0.50508E+06        -0.50023E+08         0.00000E+00
    0.00000E+00         0.00000E+00        -0.31245E+08
 
   -0.32098E+08         0.58525E+06         0.00000E+00
    0.58525E+06        -0.50030E+08         0.00000E+00
    0.00000E+00         0.00000E+00        -0.31245E+08
 
   -0.32105E+08         0.66624E+06         0.00000E+00
    0.66624E+06        -0.50038E+08         0.00000E+00
    0.00000E+00         0.00000E+00        -0.31245E+08
 
   -0.32110E+08         0.74807E+06         0.00000E+00
    0.74807E+06        -0.50047E+08         0.00000E+00
    0.00000E+00         0.00000E+00        -0.31244E+08
 
   -0.32113E+08         0.83082E+06         0.00000E+00
    0.83082E+06        -0.50057E+08         0.00000E+00
    0.00000E+00         0.00000E+00        -0.31244E+08
 
   -0.32113E+08         0.91451E+06         0.00000E+00
    0.91451E+06        -0.50068E+08         0.00000E+00
    0.00000E+00         0.00000E+00        -0.31244E+08
 
   -0.32112E+08         0.99919E+06         0.00000E+00
    0.99919E+06        -0.50079E+08         0.00000E+00
    0.00000E+00         0.00000E+00        -0.31243E+08
 
   -0.32109E+08         0.10849E+07         0.00000E+00
    0.10849E+07        -0.50091E+08         0.00000E+00
    0.00000E+00         0.00000E+00        -0.31243E+08
 
   -0.32104E+08         0.11717E+07         0.00000E+00
    0.11717E+07        -0.50104E+08         0.00000E+00
    0.00000E+00         0.00000E+00        -0.31243E+08
 
   -0.32097E+08         0.12596E+07         0.00000E+00
    0.12596E+07        -0.50118E+08         0.00000E+00
    0.00000E+00         0.00000E+00        -0.31242E+08
 
   -0.32088E+08         0.13486E+07         0.00000E+00
    0.13486E+07        -0.50132E+08         0.00000E+00
    0.00000E+00         0.00000E+00        -0.31242E+08
 
   -0.32078E+08         0.14388E+07         0.00000E+00
    0.14388E+07        -0.50146E+08         0.00000E+00
    0.00000E+00         0.00000E+00        -0.31241E+08
 
   -0.32066E+08         0.15302E+07         0.00000E+00
    0.15302E+07        -0.50162E+08         0.00000E+00
    0.00000E+00         0.00000E+00        -0.31241E+08
 
   -0.32053E+08         0.16229E+07         0.00000E+00
    0.16229E+07        -0.50177E+08         0.00000E+00
    0.00000E+00         0.00000E+00        -0.31240E+08
 
   -0.32038E+08         0.17168E+07         0.00000E+00
    0.17168E+07        -0.50194E+08         0.00000E+00
    0.00000E+00         0.00000E+00        -0.31240E+08
 
   -0.32022E+08         0.18119E+07         0.00000E+00
    0.18119E+07        -0.50210E+08         0.00000E+00
    0.00000E+00         0.00000E+00        -0.31239E+08
 
   -0.32004E+08         0.19084E+07         0.00000E+00
    0.19084E+07        -0.50227E+08         0.00000E+00
    0.00000E+00         0.00000E+00        -0.31239E+08
 
   -0.31985E+08         0.20062E+07         0.00000E+00
    0.20062E+07        -0.50245E+08         0.00000E+00
    0.00000E+00         0.00000E+00        -0.31238E+08
 
   -0.31966E+08         0.21053E+07         0.00000E+00
    0.21053E+07        -0.50263E+08         0.00000E+00
    0.00000E+00         0.00000E+00        -0.31238E+08
 
   -0.31945E+08         0.22058E+07         0.00000E+00
    0.22058E+07        -0.50281E+08         0.00000E+00
    0.00000E+00         0.00000E+00        -0.31237E+08
 
   -0.31922E+08         0.23076E+07         0.00000E+00
    0.23076E+07        -0.50299E+08         0.00000E+00
    0.00000E+00         0.00000E+00        -0.31237E+08
 
   -0.31899E+08         0.24108E+07         0.00000E+00
    0.24108E+07        -0.50318E+08         0.00000E+00
    0.00000E+00         0.00000E+00        -0.31236E+08
 
   -0.31875E+08         0.25155E+07         0.00000E+00
    0.25155E+07        -0.50337E+08         0.00000E+00
    0.00000E+00         0.00000E+00        -0.31236E+08
 
   -0.31850E+08         0.26215E+07         0.00000E+00
    0.26215E+07        -0.50356E+08         0.00000E+00
    0.00000E+00         0.00000E+00        -0.31236E+08
 
   -0.31825E+08         0.27289E+07         0.00000E+00
    0.27289E+07        -0.50375E+08         0.00000E+00
    0.00000E+00         0.00000E+00        -0.31235E+08
 
   -0.31798E+08         0.28377E+07         0.00000E+00
    0.28377E+07        -0.50394E+08         0.00000E+00
    0.00000E+00         0.00000E+00        -0.31235E+08
 
   -0.31771E+08         0.29480E+07         0.00000E+00
    0.29480E+07        -0.50413E+08         0.00000E+00
    0.00000E+00         0.00000E+00        -0.31234E+08
 
   -0.31743E+08         0.30597E+07         0.00000E+00
    0.30597E+07        -0.50433E+08         0.00000E+00
    0.00000E+00         0.00000E+00        -0.31234E+08
 
   -0.31715E+08         0.31728E+07         0.00000E+00
    0.31728E+07        -0.50452E+08         0.00000E+00
    0.00000E+00         0.00000E+00        -0.31233E+08
 
   -0.31686E+08         0.32874E+07         0.00000E+00
    0.32874E+07        -0.50471E+08         0.00000E+00
    0.00000E+00         0.00000E+00        -0.31233E+08
 
   -0.31656E+08         0.34034E+07         0.00000E+00
    0.34034E+07        -0.50491E+08         0.00000E+00
    0.00000E+00         0.00000E+00        -0.31233E+08
 
   -0.31626E+08         0.35209E+07         0.00000E+00
    0.35209E+07        -0.50510E+08         0.00000E+00
    0.00000E+00         0.00000E+00        -0.31232E+08
 
   -0.31596E+08         0.36398E+07         0.00000E+00
    0.36398E+07        -0.50529E+08         0.00000E+00
    0.00000E+00         0.00000E+00        -0.31232E+08
 
   -0.31565E+08         0.37602E+07         0.00000E+00
    0.37602E+07        -0.50548E+08         0.00000E+00
    0.00000E+00         0.00000E+00        -0.31232E+08
 
   -0.31534E+08         0.38820E+07         0.00000E+00
    0.38820E+07        -0.50567E+08         0.00000E+00
    0.00000E+00         0.00000E+00        -0.31232E+08
 
   -0.31502E+08         0.40053E+07         0.00000E+00
    0.40053E+07        -0.50585E+08         0.00000E+00
    0.00000E+00         0.00000E+00        -0.31231E+08
 
   -0.31471E+08         0.41300E+07         0.00000E+00
    0.41300E+07        -0.50604E+08         0.00000E+00
    0.00000E+00         0.00000E+00        -0.31231E+08
 
   -0.31439E+08         0.42561E+07         0.00000E+00
    0.42561E+07        -0.50622E+08         0.00000E+00
    0.00000E+00         0.00000E+00        -0.31231E+08
 
   -0.31407E+08         0.43837E+07         0.00000E+00
    0.43837E+07        -0.50640E+08         0.00000E+00
    0.00000E+00         0.00000E+00        -0.31231E+08
 
   -0.31375E+08         0.45128E+07         0.00000E+00
    0.45128E+07        -0.50658E+08         0.00000E+00
    0.00000E+00         0.00000E+00        -0.31230E+08
 
   -0.31343E+08         0.46433E+07         0.00000E+00
    0.46433E+07        -0.50675E+08         0.00000E+00
    0.00000E+00         0.00000E+00        -0.31230E+08
 
   -0.31311E+08         0.47752E+07         0.00000E+00
    0.47752E+07        -0.50692E+08         0.00000E+00
    0.00000E+00         0.00000E+00        -0.31230E+08
 
   -0.31278E+08         0.49086E+07         0.00000E+00
    0.49086E+07        -0.50709E+08         0.00000E+00
    0.00000E+00         0.00000E+00        -0.31230E+08
 
   -0.31246E+08         0.50434E+07         0.00000E+00
    0.50434E+07        -0.50726E+08         0.00000E+00
    0.00000E+00         0.00000E+00        -0.31230E+08
 
   -0.31616E+08         0.34595E+05         0.00000E+00
    0.34595E+05        -0.50000E+08         0.00000E+00
    0.00000E+00         0.00000E+00        -0.30558E+08
 
   -0.31638E+08         0.10515E+06         0.00000E+00
    0.10515E+06        -0.50002E+08         0.00000E+00
    0.00000E+00         0.00000E+00        -0.30558E+08
 
   -0.31656E+08         0.17631E+06         0.00000E+00
    0.17631E+06        -0.50004E+08         0.00000E+00
    0.00000E+00         0.00000E+00        -0.30558E+08
 
   -0.31672E+08         0.24814E+06         0.00000E+00
    0.24814E+06        -0.50008E+08         0.00000E+00
    0.00000E+00         0.00000E+00        -0.30558E+08
 
   -0.31685E+08         0.32071E+06         0.00000E+00
    0.32071E+06        -0.50013E+08         0.00000E+00
    0.00000E+00         0.00000E+00        -0.30558E+08
 
   -0.31695E+08         0.39410E+06         0.00000E+00
    0.39410E+06        -0.50020E+08         0.00000E+00
    0.00000E+00         0.00000E+00        -0.30558E+08
 
   -0.31702E+08         0.46836E+06         0.00000E+00
    0.46836E+06        -0.50027E+08         0.00000E+00
    0.00000E+00         0.00000E+00        -0.30558E+08
 
   -0.31707E+08         0.54355E+06         0.00000E+00
    0.54355E+06        -0.50035E+08         0.00000E+00
    0.00000E+00         0.00000E+00        -0.30557E+08
 
   -0.31710E+08         0.61974E+06         0.00000E+00
    0.61974E+06        -0.50045E+08         0.00000E+00
    0.00000E+00         0.00000E+00        -0.30557E+08
 
   -0.31710E+08         0.69697E+06         0.00000E+00
    0.69697E+06        -0.50055E+08         0.00000E+00
    0.00000E+00         0.00000E+00        -0.30557E+08
 
   -0.31707E+08         0.77529E+06         0.00000E+00
    0.77529E+06        -0.50067E+08         0.00000E+00
    0.00000E+00         0.00000E+00        -0.30557E+08
 
   -0.31702E+08         0.85475E+06         0.00000E+00
    0.85475E+06        -0.50079E+08         0.00000E+00
    0.00000E+00         0.00000E+00        -0.30556E+08
 
   -0.31696E+08         0.93541E+06         0.00000E+00
    0.93541E+06        -0.50093E+08         0.00000E+00
    0.00000E+00         0.00000E+00        -0.30556E+08
 
   -0.31687E+08         0.10173E+07         0.00000E+00
    0.10173E+07        -0.50107E+08         0.00000E+00
    0.00000E+00         0.00000E+00        -0.30555E+08
 
   -0.31676E+08         0.11004E+07         0.00000E+00
    0.11004E+07        -0.50122E+08         0.00000E+00
    0.00000E+00         0.00000E+00        -0.30555E+08
 
   -0.31663E+08         0.11849E+07         0.00000E+00
    0.11849E+07        -0.50138E+08         0.00000E+00
    0.00000E+00         0.00000E+00        -0.30555E+08
 
   -0.31648E+08         0.12707E+07         0.00000E+00
    0.12707E+07        -0.50154E+08         0.00000E+00
    0.00000E+00         0.00000E+00        -0.30554E+08
 
   -0.31631E+08         0.13578E+07         0.00000E+00
    0.13578E+07        -0.50171E+08         0.00000E+00
    0.00000E+00         0.00000E+00        -0.30554E+08
 
   -0.31613E+08         0.14464E+07         0.00000E+00
    0.14464E+07        -0.50189E+08         0.00000E+00
    0.00000E+00         0.00000E+00        -0.30554E+08
 
   -0.31593E+08         0.15363E+07         0.00000E+00
    0.15363E+07        -0.50207E+08         0.00000E+00
    0.00000E+00         0.00000E+00        -0.30553E+08
 
   -0.31571E+08         0.16277E+07         0.00000E+00
    0.16277E+07        -0.50226E+08         0.00000E+00
    0.00000E+00         0.00000E+00        -0.30553E+08
 
   -0.31548E+08         0.17206E+07         0.00000E+00
    0.17206E+07        -0.50246E+08         0.00000E+00
    0.00000E+00         0.00000E+00        -0.30552E+08
 
   -0.31524E+08         0.18150E+07         0.00000E+00
    0.18150E+07        -0.50266E+08         0.00000E+00
    0.00000E+00         0.00000E+00        -0.30552E+08
 
   -0.31498E+08         0.19108E+07         0.00000E+00
    0.19108E+07        -0.50286E+08         0.00000E+00
    0.00000E+00         0.00000E+00        -0.30551E+08
 
   -0.31471E+08         0.20082E+07         0.00000E+00
    0.20082E+07        -0.50307E+08         0.00000E+00
    0.00000E+00         0.00000E+00        -0.30551E+08
 
   -0.31442E+08         0.21071E+07         0.00000E+00
    0.21071E+07        -0.50328E+08         0.00000E+00
    0.00000E+00         0.00000E+00        -0.30551E+08
 
   -0.31413E+08         0.22076E+07         0.00000E+00
    0.22076E+07        -0.50349E+08         0.00000E+00
    0.00000E+00         0.00000E+00        -0.30550E+08
 
   -0.31383E+08         0.23096E+07         0.00000E+00
    0.23096E+07        -0.50371E+08         0.00000E+00
    0.00000E+00         0.00000E+00        -0.30550E+08
 
   -0.31351E+08         0.24132E+07         0.00000E+00
    0.24132E+07        -0.50393E+08         0.00000E+00
    0.00000E+00         0.00000E+00        -0.30549E+08
 
   -0.31319E+08         0.25183E+07         0.00000E+00
    0.25183E+07        -0.50415E+08         0.00000E+00
    0.00000E+00         0.00000E+00        -0.30549E+08
 
   -0.31286E+08         0.26251E+07         0.00000E+00
    0.26251E+07        -0.50437E+08         0.00000E+00
    0.00000E+00         0.00000E+00        -0.30549E+08
 
   -0.31252E+08         0.27334E+07         0.00000E+00
    0.27334E+07        -0.50460E+08         0.00000E+00
    0.00000E+00         0.00000E+00        -0.30548E+08
 
   -0.31217E+08         0.28433E+07         0.00000E+00
    0.28433E+07        -0.50482E+08         0.00000E+00
    0.00000E+00         0.00000E+00        -0.30548E+08
 
   -0.31181E+08         0.29547E+07         0.00000E+00
    0.29547E+07        -0.50505E+08         0.00000E+00
    0.00000E+00         0.00000E+00        -0.30548E+08
 
   -0.31145E+08         0.30678E+07         0.00000E+00
    0.30678E+07        -0.50527E+08         0.00000E+00
    0.00000E+00         0.00000E+00        -0.30547E+08
 
   -0.31109E+08         0.31825E+07         0.00000E+00
    0.31825E+07        -0.50550E+08         0.00000E+00
    0.00000E+00         0.00000E+00        -0.30547E+08
 
   -0.31072E+08         0.32987E+07         0.00000E+00
    0.32987E+07        -0.50573E+08         0.00000E+00
    0.00000E+00         0.00000E+00        -0.30547E+08
 
   -0.31034E+08         0.34165E+07         0.00000E+00
    0.34165E+07        -0.50596E+08         0.00000E+00
    0.00000E+00         0.00000E+00        -0.30546E+08
 
   -0.30996E+08         0.35359E+07         0.00000E+00
    0.35359E+07        -0.50618E+08         0.00000E+00
    0.00000E+00         0.00000E+00        -0.30546E+08
 
   -0.30958E+08         0.36569E+07         0.00000E+00
    0.36569E+07        -0.50641E+08         0.00000E+00
    0.00000E+00         0.00000E+00        -0.30546E+08
 
   -0.30919E+08         0.37795E+07         0.00000E+00
    0.37795E+07        -0.50663E+08         0.00000E+00
    0.00000E+00         0.00000E+00        -0.30546E+08
 
   -0.30880E+08         0.39036E+07         0.00000E+00
    0.39036E+07        -0.50685E+08         0.00000E+00
    0.00000E+00         0.00000E+00        -0.30545E+08
 
   -0.30841E+08         0.40294E+07         0.00000E+00
    0.40294E+07        -0.50707E+08         0.00000E+00
    0.00000E+00         0.00000E+00        -0.30545E+08
 
   -0.30802E+08         0.41566E+07         0.00000E+00
    0.41566E+07        -0.50729E+08         0.00000E+00
    0.00000E+00         0.00000E+00        -0.30545E+08
 
   -0.30762E+08         0.42855E+07         0.00000E+00
    0.42855E+07        -0.50750E+08         0.00000E+00
    0.00000E+00         0.00000E+00        -0.30545E+08
 
   -0.30723E+08         0.44158E+07         0.00000E+00
    0.44158E+07        -0.50772E+08         0.00000E+00
    0.00000E+00         0.00000E+00        -0.30545E+08
 
   -0.30683E+08         0.45478E+07         0.00000E+00
    0.45478E+07        -0.50793E+08         0.00000E+00
    0.00000E+00         0.00000E+00        -0.30545E+08
 
   -0.30644E+08         0.46812E+07         0.00000E+00
    0.46812E+07        -0.50814E+08         0.00000E+00
    0.00000E+00         0.00000E+00        -0.30545E+08
 
   -0.30604E+08         0.48162E+07         0.00000E+00
    0.48162E+07        -0.50834E+08         0.00000E+00
    0.00000E+00         0.00000E+00        -0.30544E+08
 
   -0.30564E+08         0.49528E+07         0.00000E+00
    0.49528E+07        -0.50854E+08         0.00000E+00
    0.00000E+00         0.00000E+00        -0.30544E+08
 
   -0.31282E+08         0.30826E+05         0.00000E+00
    0.30826E+05        -0.50000E+08         0.00000E+00
    0.00000E+00         0.00000E+00        -0.29862E+08
 
   -0.31300E+08         0.94356E+05         0.00000E+00
    0.94356E+05        -0.50002E+08         0.00000E+00
    0.00000E+00         0.00000E+00        -0.29861E+08
 
   -0.31315E+08         0.15868E+06         0.00000E+00
    0.15868E+06        -0.50005E+08         0.00000E+00
    0.00000E+00         0.00000E+00        -0.29861E+08
 
   -0.31327E+08         0.22389E+06         0.00000E+00
    0.22389E+06        -0.50010E+08         0.00000E+00
    0.00000E+00         0.00000E+00        -0.29861E+08
 
   -0.31335E+08         0.29005E+06         0.00000E+00
    0.29005E+06        -0.50015E+08         0.00000E+00
    0.00000E+00         0.00000E+00        -0.29861E+08
 
   -0.31341E+08         0.35723E+06         0.00000E+00
    0.35723E+06        -0.50023E+08         0.00000E+00
    0.00000E+00         0.00000E+00        -0.29861E+08
 
   -0.31343E+08         0.42551E+06         0.00000E+00
    0.42551E+06        -0.50031E+08         0.00000E+00
    0.00000E+00         0.00000E+00        -0.29861E+08
 
   -0.31343E+08         0.49494E+06         0.00000E+00
    0.49494E+06        -0.50041E+08         0.00000E+00
    0.00000E+00         0.00000E+00        -0.29861E+08
 
   -0.31339E+08         0.56558E+06         0.00000E+00
    0.56558E+06        -0.50052E+08         0.00000E+00
    0.00000E+00         0.00000E+00        -0.29860E+08
 
   -0.31334E+08         0.63750E+06         0.00000E+00
    0.63750E+06        -0.50064E+08         0.00000E+00
    0.00000E+00         0.00000E+00        -0.29860E+08
 
   -0.31325E+08         0.71074E+06         0.00000E+00
    0.71074E+06        -0.50078E+08         0.00000E+00
    0.00000E+00         0.00000E+00        -0.29860E+08
 
   -0.31314E+08         0.78534E+06         0.00000E+00
    0.78534E+06        -0.50092E+08         0.00000E+00
    0.00000E+00         0.00000E+00        -0.29860E+08
 
   -0.31300E+08         0.86136E+06         0.00000E+00
    0.86136E+06        -0.50108E+08         0.00000E+00
    0.00000E+00         0.00000E+00        -0.29859E+08
 
   -0.31285E+08         0.93884E+06         0.00000E+00
    0.93884E+06        -0.50124E+08         0.00000E+00
    0.00000E+00         0.00000E+00        -0.29859E+08
 
   -0.31267E+08         0.10178E+07         0.00000E+00
    0.10178E+07        -0.50141E+08         0.00000E+00
    0.00000E+00         0.00000E+00        -0.29859E+08
 
   -0.31246E+08         0.10983E+07         0.00000E+00
    0.10983E+07        -0.50159E+08         0.00000E+00
    0.00000E+00         0.00000E+00        -0.29858E+08
 
   -0.31224E+08         0.11804E+07         0.00000E+00
    0.11804E+07        -0.50178E+08         0.00000E+00
    0.00000E+00         0.00000E+00        -0.29858E+08
 
   -0.31200E+08         0.12640E+07         0.00000E+00
    0.12640E+07        -0.50198E+08         0.00000E+00
    0.00000E+00         0.00000E+00        -0.29858E+08
 
   -0.31174E+08         0.13493E+07         0.00000E+00
    0.13493E+07        -0.50218E+08         0.00000E+00
    0.00000E+00         0.00000E+00        -0.29857E+08
 
   -0.31146E+08         0.14362E+07         0.00000E+00
    0.14362E+07        -0.50239E+08         0.00000E+00
    0.00000E+00         0.00000E+00        -0.29857E+08
 
   -0.31117E+08         0.15247E+07         0.00000E+00
    0.15247E+07        -0.50261E+08         0.00000E+00
    0.00000E+00         0.00000E+00        -0.29857E+08
 
   -0.31086E+08         0.16150E+07         0.00000E+00
    0.16150E+07        -0.50284E+08         0.00000E+00
    0.00000E+00         0.00000E+00        -0.29856E+08
 
   -0.31054E+08         0.17069E+07         0.00000E+00
    0.17069E+07        -0.50306E+08         0.00000E+00
    0.00000E+00         0.00000E+00        -0.29856E+08
 
   -0.31020E+08         0.18006E+07         0.00000E+00
    0.18006E+07        -0.50330E+08         0.00000E+00
    0.00000E+00         0.00000E+00        -0.29856E+08
 
   -0.30985E+08         0.18959E+07         0.00000E+00
    0.18959E+07        -0.50354E+08         0.00000E+00
    0.00000E+00         0.00000E+00        -0.29855E+08
 
   -0.30948E+08         0.19930E+07         0.00000E+00
    0.19930E+07        -0.50378E+08         0.00000E+00
    0.00000E+00         0.00000E+00        -0.29855E+08
 
   -0.30911E+08         0.20918E+07         0.00000E+00
    0.20918E+07        -0.50402E+08         0.00000E+00
    0.00000E+00         0.00000E+00        -0.29855E+08
 
   -0.30872E+08         0.21924E+07         0.00000E+00
    0.21924E+07        -0.50427E+08         0.00000E+00
    0.00000E+00         0.00000E+00        -0.29854E+08
 
   -0.30832E+08         0.22947E+07         0.00000E+00
    0.22947E+07        -0.50453E+08         0.00000E+00
    0.00000E+00         0.00000E+00        -0.29854E+08
 
   -0.30792E+08         0.23988E+07         0.00000E+00
    0.23988E+07        -0.50478E+08         0.00000E+00
    0.00000E+00         0.00000E+00        -0.29854E+08
 
   -0.30750E+08         0.25047E+07         0.00000E+00
    0.25047E+07        -0.50504E+08         0.00000E+00
    0.00000E+00         0.00000E+00        -0.29853E+08
 
   -0.30708E+08         0.26123E+07         0.00000E+00
    0.26123E+07        -0.50530E+08         0.00000E+00
    0.00000E+00         0.00000E+00        -0.29853E+08
 
   -0.30665E+08         0.27216E+07         0.00000E+00
    0.27216E+07        -0.50556E+08         0.00000E+00
    0.00000E+00         0.00000E+00        -0.29853E+08
 
   -0.30621E+08         0.28327E+07         0.00000E+00
    0.28327E+07        -0.50582E+08         0.00000E+00
    0.00000E+00         0.00000E+00        -0.29852E+08
 
   -0.30576E+08         0.29455E+07         0.00000E+00
    0.29455E+07        -0.50608E+08         0.00000E+00
    0.00000E+00         0.00000E+00        -0.29852E+08
 
   -0.30531E+08         0.30601E+07         0.00000E+00
    0.30601E+07        -0.50634E+08         0.00000E+00
    0.00000E+00         0.00000E+00        -0.29852E+08
 
   -0.30486E+08         0.31765E+07         0.00000E+00
    0.31765E+07        -0.50660E+08         0.00000E+00
    0.00000E+00         0.00000E+00        -0.29852E+08
 
   -0.30440E+08         0.32945E+07         0.00000E+00
    0.32945E+07        -0.50687E+08         0.00000E+00
    0.00000E+00         0.00000E+00        -0.29851E+08
 
   -0.30394E+08         0.34143E+07         0.00000E+00
    0.34143E+07        -0.50713E+08         0.00000E+00
    0.00000E+00         0.00000E+00        -0.29851E+08
 
   -0.30347E+08         0.35358E+07         0.00000E+00
    0.35358E+07        -0.50739E+08         0.00000E+00
    0.00000E+00         0.00000E+00        -0.29851E+08
 
   -0.30301E+08         0.36590E+07         0.00000E+00
    0.36590E+07        -0.50765E+08         0.00000E+00
    0.00000E+00         0.00000E+00        -0.29851E+08
 
   -0.30254E+08         0.37839E+07         0.00000E+00
    0.37839E+07        -0.50791E+08         0.00000E+00
    0.00000E+00         0.00000E+00        -0.29851E+08
 
   -0.30206E+08         0.39105E+07         0.00000E+00
    0.39105E+07        -0.50817E+08         0.00000E+00
    0.00000E+00         0.00000E+00        -0.29851E+08
 
   -0.30159E+08         0.40388E+07         0.00000E+00
    0.40388E+07        -0.50842E+08         0.00000E+00
    0.00000E+00         0.00000E+00        -0.29850E+08
 
   -0.30111E+08         0.41688E+07         0.00000E+00
    0.41688E+07        -0.50867E+08         0.00000E+00
    0.00000E+00         0.00000E+00        -0.29850E+08
 
   -0.30064E+08         0.43004E+07         0.00000E+00
    0.43004E+07        -0.50893E+08         0.00000E+00
    0.00000E+00         0.00000E+00        -0.29850E+08
 
   -0.30016E+08         0.44336E+07         0.00000E+00
    0.44336E+07        -0.50917E+08         0.00000E+00
    0.00000E+00         0.00000E+00        -0.29850E+08
 
   -0.29969E+08         0.45685E+07         0.00000E+00
    0.45685E+07        -0.50942E+08         0.00000E+00
    0.00000E+00         0.00000E+00        -0.29850E+08
 
   -0.29921E+08         0.47051E+07         0.00000E+00
    0.47051E+07        -0.50966E+08         0.00000E+00
    0.00000E+00         0.00000E+00        -0.29850E+08
 
   -0.29874E+08         0.48432E+07         0.00000E+00
    0.48432E+07        -0.50990E+08         0.00000E+00
    0.00000E+00         0.00000E+00        -0.29850E+08
 
   -0.30987E+08         0.26414E+05         0.00000E+00
    0.26414E+05        -0.50000E+08         0.00000E+00
    0.00000E+00         0.00000E+00        -0.29156E+08
 
   -0.31001E+08         0.81785E+05         0.00000E+00
    0.81785E+05        -0.50002E+08         0.00000E+00
    0.00000E+00         0.00000E+00        -0.29156E+08
 
   -0.31011E+08         0.13821E+06         0.00000E+00
    0.13821E+06        -0.50006E+08         0.00000E+00
    0.00000E+00         0.00000E+00        -0.29156E+08
 
   -0.31017E+08         0.19576E+06         0.00000E+00
    0.19576E+06        -0.50011E+08         0.00000E+00
    0.00000E+00         0.00000E+00        -0.29156E+08
 
   -0.31020E+08         0.25453E+06         0.00000E+00
    0.25453E+06        -0.50018E+08         0.00000E+00
    0.00000E+00         0.00000E+00        -0.29156E+08
 
   -0.31019E+08         0.31459E+06         0.00000E+00
    0.31459E+06        -0.50026E+08         0.00000E+00
    0.00000E+00         0.00000E+00        -0.29156E+08
 
   -0.31016E+08         0.37601E+06         0.00000E+00
    0.37601E+06        -0.50036E+08         0.00000E+00
    0.00000E+00         0.00000E+00        -0.29156E+08
 
   -0.31008E+08         0.43885E+06         0.00000E+00
    0.43885E+06        -0.50047E+08         0.00000E+00
    0.00000E+00         0.00000E+00        -0.29156E+08
 
   -0.30998E+08         0.50318E+06         0.00000E+00
    0.50318E+06        -0.50060E+08         0.00000E+00
    0.00000E+00         0.00000E+00        -0.29155E+08
 
   -0.30985E+08         0.56905E+06         0.00000E+00
    0.56905E+06        -0.50074E+08         0.00000E+00
    0.00000E+00         0.00000E+00        -0.29155E+08
 
   -0.30969E+08         0.63651E+06         0.00000E+00
    0.63651E+06        -0.50089E+08         0.00000E+00
    0.00000E+00         0.00000E+00        -0.29155E+08
 
   -0.30951E+08         0.70561E+06         0.00000E+00
    0.70561E+06        -0.50106E+08         0.00000E+00
    0.00000E+00         0.00000E+00        -0.29155E+08
 
   -0.30929E+08         0.77639E+06         0.00000E+00
    0.77639E+06        -0.50123E+08         0.00000E+00
    0.00000E+00         0.00000E+00        -0.29155E+08
 
   -0.30905E+08         0.84889E+06         0.00000E+00
    0.84889E+06        -0.50142E+08         0.00000E+00
    0.00000E+00         0.00000E+00        -0.29154E+08
 
   -0.30879E+08         0.92315E+06         0.00000E+00
    0.92315E+06        -0.50162E+08         0.00000E+00
    0.00000E+00         0.00000E+00        -0.29154E+08
 
   -0.30851E+08         0.99919E+06         0.00000E+00
    0.99919E+06        -0.50182E+08         0.00000E+00
    0.00000E+00         0.00000E+00        -0.29154E+08
 
   -0.30820E+08         0.10771E+07         0.00000E+00
    0.10771E+07        -0.50204E+08         0.00000E+00
    0.00000E+00         0.00000E+00        -0.29154E+08
 
   -0.30787E+08         0.11568E+07         0.00000E+00
    0.11568E+07        -0.50226E+08         0.00000E+00
    0.00000E+00         0.00000E+00        -0.29153E+08
 
   -0.30753E+08         0.12383E+07         0.00000E+00
    0.12383E+07        -0.50249E+08         0.00000E+00
    0.00000E+00         0.00000E+00        -0.29153E+08
 
   -0.30716E+08         0.13218E+07         0.00000E+00
    0.13218E+07        -0.50273E+08         0.00000E+00
    0.00000E+00         0.00000E+00        -0.29153E+08
 
   -0.30678E+08         0.14071E+07         0.00000E+00
    0.14071E+07        -0.50298E+08         0.00000E+00
    0.00000E+00         0.00000E+00        -0.29152E+08
 
   -0.30638E+08         0.14944E+07         0.00000E+00
    0.14944E+07        -0.50323E+08         0.00000E+00
    0.00000E+00         0.00000E+00        -0.29152E+08
 
   -0.30596E+08         0.15836E+07         0.00000E+00
    0.15836E+07        -0.50349E+08         0.00000E+00
    0.00000E+00         0.00000E+00        -0.29152E+08
 
   -0.30553E+08         0.16747E+07         0.00000E+00
    0.16747E+07        -0.50376E+08         0.00000E+00
    0.00000E+00         0.00000E+00        -0.29152E+08
 
   -0.30509E+08         0.17677E+07         0.00000E+00
    0.17677E+07        -0.50403E+08         0.00000E+00
    0.00000E+00         0.00000E+00        -0.29151E+08
 
   -0.30463E+08         0.18627E+07         0.00000E+00
    0.18627E+07        -0.50430E+08         0.00000E+00
    0.00000E+00         0.00000E+00        -0.29151E+08
 
   -0.30417E+08         0.19597E+07         0.00000E+00
    0.19597E+07        -0.50458E+08         0.00000E+00
    0.00000E+00         0.00000E+00        -0.29151E+08
 
   -0.30369E+08         0.20586E+07         0.00000E+00
    0.20586E+07        -0.50487E+08         0.00000E+00
    0.00000E+00         0.00000E+00        -0.29151E+08
 
   -0.30320E+08         0.21594E+07         0.00000E+00
    0.21594E+07        -0.50515E+08         0.00000E+00
    0.00000E+00         0.00000E+00        -0.29150E+08
 
   -0.30270E+08         0.22622E+07         0.00000E+00
    0.22622E+07        -0.50544E+08         0.00000E+00
    0.00000E+00         0.00000E+00        -0.29150E+08
 
   -0.30219E+08         0.23670E+07         0.00000E+00
    0.23670E+07        -0.50573E+08         0.00000E+00
    0.00000E+00         0.00000E+00        -0.29150E+08
 
   -0.30167E+08         0.24737E+07         0.00000E+00
    0.24737E+07        -0.50603E+08         0.00000E+00
    0.00000E+00         0.00000E+00        -0.29150E+08
 
   -0.30115E+08         0.25823E+07         0.00000E+00
    0.25823E+07        -0.50632E+08         0.00000E+00
    0.00000E+00         0.00000E+00        -0.29150E+08
 
   -0.30062E+08         0.26928E+07         0.00000E+00
    0.26928E+07        -0.50662E+08         0.00000E+00
    0.00000E+00         0.00000E+00        -0.29149E+08
 
   -0.30009E+08         0.28053E+07         0.00000E+00
    0.28053E+07        -0.50692E+08         0.00000E+00
    0.00000E+00         0.00000E+00        -0.29149E+08
 
   -0.29955E+08         0.29197E+07         0.00000E+00
    0.29197E+07        -0.50722E+08         0.00000E+00
    0.00000E+00         0.00000E+00        -0.29149E+08
 
   -0.29900E+08         0.30359E+07         0.00000E+00
    0.30359E+07        -0.50752E+08         0.00000E+00
    0.00000E+00         0.00000E+00        -0.29149E+08
 
   -0.29845E+08         0.31541E+07         0.00000E+00
    0.31541E+07        -0.50782E+08         0.00000E+00
    0.00000E+00         0.00000E+00        -0.29149E+08
 
   -0.29790E+08         0.32741E+07         0.00000E+00
    0.32741E+07        -0.50812E+08         0.00000E+00
    0.00000E+00         0.00000E+00        -0.29148E+08
 
   -0.29735E+08         0.33960E+07         0.00000E+00
    0.33960E+07        -0.50842E+08         0.00000E+00
    0.00000E+00         0.00000E+00        -0.29148E+08
 
   -0.29679E+08         0.35197E+07         0.00000E+00
    0.35197E+07        -0.50871E+08         0.00000E+00
    0.00000E+00         0.00000E+00        -0.29148E+08
 
   -0.29623E+08         0.36453E+07         0.00000E+00
    0.36453E+07        -0.50901E+08         0.00000E+00
    0.00000E+00         0.00000E+00        -0.29148E+08
 
   -0.29567E+08         0.37726E+07         0.00000E+00
    0.37726E+07        -0.50931E+08         0.00000E+00
    0.00000E+00         0.00000E+00        -0.29148E+08
 
   -0.29511E+08         0.39018E+07         0.00000E+00
    0.39018E+07        -0.50960E+08         0.00000E+00
    0.00000E+00         0.00000E+00        -0.29148E+08
 
   -0.29455E+08         0.40328E+07         0.00000E+00
    0.40328E+07        -0.50989E+08         0.00000E+00
    0.00000E+00         0.00000E+00        -0.29148E+08
 
   -0.29399E+08         0.41655E+07         0.00000E+00
    0.41655E+07        -0.51019E+08         0.00000E+00
    0.00000E+00         0.00000E+00        -0.29148E+08
 
   -0.29343E+08         0.43000E+07         0.00000E+00
    0.43000E+07        -0.51047E+08         0.00000E+00
    0.00000E+00         0.00000E+00        -0.29148E+08
 
   -0.29287E+08         0.44362E+07         0.00000E+00
    0.44362E+07        -0.51076E+08         0.00000E+00
    0.00000E+00         0.00000E+00        -0.29147E+08
 
   -0.29231E+08         0.45741E+07         0.00000E+00
    0.45741E+07        -0.51104E+08         0.00000E+00
    0.00000E+00         0.00000E+00        -0.29147E+08
 
   -0.29175E+08         0.47137E+07         0.00000E+00
    0.47137E+07        -0.51132E+08         0.00000E+00
    0.00000E+00         0.00000E+00        -0.29147E+08
 
   -0.30736E+08         0.21294E+05         0.00000E+00
    0.21294E+05        -0.50001E+08         0.00000E+00
    0.00000E+00         0.00000E+00        -0.28443E+08
 
   -0.30744E+08         0.67284E+05         0.00000E+00
    0.67284E+05        -0.50003E+08         0.00000E+00
    0.00000E+00         0.00000E+00        -0.28443E+08
 
   -0.30748E+08         0.11464E+06         0.00000E+00
    0.11464E+06        -0.50007E+08         0.00000E+00
    0.00000E+00         0.00000E+00        -0.28443E+08
 
   -0.30747E+08         0.16346E+06         0.00000E+00
    0.16346E+06        -0.50013E+08         0.00000E+00
    0.00000E+00         0.00000E+00        -0.28443E+08
 
   -0.30743E+08         0.21382E+06         0.00000E+00
    0.21382E+06        -0.50020E+08         0.00000E+00
    0.00000E+00         0.00000E+00        -0.28443E+08
 
   -0.30735E+08         0.26579E+06         0.00000E+00
    0.26579E+06        -0.50030E+08         0.00000E+00
    0.00000E+00         0.00000E+00        -0.28443E+08
 
   -0.30724E+08         0.31945E+06         0.00000E+00
    0.31945E+06        -0.50041E+08         0.00000E+00
    0.00000E+00         0.00000E+00        -0.28443E+08
 
   -0.30708E+08         0.37486E+06         0.00000E+00
    0.37486E+06        -0.50054E+08         0.00000E+00
    0.00000E+00         0.00000E+00        -0.28443E+08
 
   -0.30690E+08         0.43208E+06         0.00000E+00
    0.43208E+06        -0.50068E+08         0.00000E+00
    0.00000E+00         0.00000E+00        -0.28443E+08
 
   -0.30668E+08         0.49116E+06         0.00000E+00
    0.49116E+06        -0.50084E+08         0.00000E+00
    0.00000E+00         0.00000E+00        -0.28443E+08
 
   -0.30643E+08         0.55215E+06         0.00000E+00
    0.55215E+06        -0.50101E+08         0.00000E+00
    0.00000E+00         0.00000E+00        -0.28442E+08
 
   -0.30616E+08         0.61509E+06         0.00000E+00
    0.61509E+06        -0.50120E+08         0.00000E+00
    0.00000E+00         0.00000E+00        -0.28442E+08
 
   -0.30585E+08         0.68003E+06         0.00000E+00
    0.68003E+06        -0.50140E+08         0.00000E+00
    0.00000E+00         0.00000E+00        -0.28442E+08
 
   -0.30552E+08         0.74700E+06         0.00000E+00
    0.74700E+06        -0.50161E+08         0.00000E+00
    0.00000E+00         0.00000E+00        -0.28442E+08
 
   -0.30516E+08         0.81602E+06         0.00000E+00
    0.81602E+06        -0.50183E+08         0.00000E+00
    0.00000E+00         0.00000E+00        -0.28442E+08
 
   -0.30478E+08         0.88712E+06         0.00000E+00
    0.88712E+06        -0.50206E+08         0.00000E+00
    0.00000E+00         0.00000E+00        -0.28442E+08
 
   -0.30437E+08         0.96032E+06         0.00000E+00
    0.96032E+06        -0.50230E+08         0.00000E+00
    0.00000E+00         0.00000E+00        -0.28441E+08
 
   -0.30395E+08         0.10357E+07         0.00000E+00
    0.10357E+07        -0.50256E+08         0.00000E+00
    0.00000E+00         0.00000E+00        -0.28441E+08
 
   -0.30350E+08         0.11131E+07         0.00000E+00
    0.11131E+07        -0.50282E+08         0.00000E+00
    0.00000E+00         0.00000E+00        -0.28441E+08
 
   -0.30303E+08         0.11927E+07         0.00000E+00
    0.11927E+07        -0.50308E+08         0.00000E+00
    0.00000E+00         0.00000E+00        -0.28441E+08
 
   -0.30255E+08         0.12745E+07         0.00000E+00
    0.12745E+07        -0.50336E+08         0.00000E+00
    0.00000E+00         0.00000E+00        -0.28441E+08
 
   -0.30205E+08         0.13585E+07         0.00000E+00
    0.13585E+07        -0.50364E+08         0.00000E+00
    0.00000E+00         0.00000E+00        -0.28441E+08
 
   -0.30153E+08         0.14446E+07         0.00000E+00
    0.14446E+07        -0.50393E+08         0.00000E+00
    0.00000E+00         0.00000E+00        -0.28440E+08
 
   -0.30100E+08         0.15329E+07         0.00000E+00
    0.15329E+07        -0.50423E+08         0.00000E+00
    0.00000E+00         0.00000E+00        -0.28440E+08
 
   -0.30045E+08         0.16234E+07         0.00000E+00
    0.16234E+07        -0.50453E+08         0.00000E+00
    0.00000E+00         0.00000E+00        -0.28440E+08
 
   -0.29989E+08         0.17160E+07         0.00000E+00
    0.17160E+07        -0.50484E+08         0.00000E+00
    0.00000E+00         0.00000E+00        -0.28440E+08
 
   -0.29932E+08         0.18108E+07         0.00000E+00
    0.18108E+07        -0.50515E+08         0.00000E+00
    0.00000E+00         0.00000E+00        -0.28440E+08
 
   -0.29874E+08         0.19078E+07         0.00000E+00
    0.19078E+07        -0.50547E+08         0.00000E+00
    0.00000E+00         0.00000E+00        -0.28440E+08
 
   -0.29815E+08         0.20069E+07         0.00000E+00
    0.20069E+07        -0.50579E+08         0.00000E+00
    0.00000E+00         0.00000E+00        -0.28439E+08
 
   -0.29754E+08         0.21082E+07         0.00000E+00
    0.21082E+07        -0.50611E+08         0.00000E+00
    0.00000E+00         0.00000E+00        -0.28439E+08
 
   -0.29693E+08         0.22117E+07         0.00000E+00
    0.22117E+07        -0.50644E+08         0.00000E+00
    0.00000E+00         0.00000E+00        -0.28439E+08
 
   -0.29632E+08         0.23172E+07         0.00000E+00
    0.23172E+07        -0.50677E+08         0.00000E+00
    0.00000E+00         0.00000E+00        -0.28439E+08
 
   -0.29569E+08         0.24249E+07         0.00000E+00
    0.24249E+07        -0.50710E+08         0.00000E+00
    0.00000E+00         0.00000E+00        -0.28439E+08
 
   -0.29506E+08         0.25347E+07         0.00000E+00
    0.25347E+07        -0.50744E+08         0.00000E+00
    0.00000E+00         0.00000E+00        -0.28439E+08
 
   -0.29443E+08         0.26466E+07         0.00000E+00
    0.26466E+07        -0.50777E+08         0.00000E+00
    0.00000E+00         0.00000E+00        -0.28439E+08
 
   -0.29379E+08         0.27605E+07         0.00000E+00
    0.27605E+07        -0.50811E+08         0.00000E+00
    0.00000E+00         0.00000E+00        -0.28438E+08
 
   -0.29315E+08         0.28765E+07         0.00000E+00
    0.28765E+07        -0.50845E+08         0.00000E+00
    0.00000E+00         0.00000E+00        -0.28438E+08
 
   -0.29250E+08         0.29946E+07         0.00000E+00
    0.29946E+07        -0.50878E+08         0.00000E+00
    0.00000E+00         0.00000E+00        -0.28438E+08
 
   -0.29185E+08         0.31147E+07         0.00000E+00
    0.31147E+07        -0.50912E+08         0.00000E+00
    0.00000E+00         0.00000E+00        -0.28438E+08
 
   -0.29120E+08         0.32368E+07         0.00000E+00
    0.32368E+07        -0.50946E+08         0.00000E+00
    0.00000E+00         0.00000E+00        -0.28438E+08
 
   -0.29055E+08         0.33609E+07         0.00000E+00
    0.33609E+07        -0.50980E+08         0.00000E+00
    0.00000E+00         0.00000E+00        -0.28438E+08
 
   -0.28989E+08         0.34869E+07         0.00000E+00
    0.34869E+07        -0.51014E+08         0.00000E+00
    0.00000E+00         0.00000E+00        -0.28438E+08
 
   -0.28924E+08         0.36149E+07         0.00000E+00
    0.36149E+07        -0.51047E+08         0.00000E+00
    0.00000E+00         0.00000E+00        -0.28438E+08
 
   -0.28859E+08         0.37448E+07         0.00000E+00
    0.37448E+07        -0.51081E+08         0.00000E+00
    0.00000E+00         0.00000E+00        -0.28438E+08
 
   -0.28794E+08         0.38767E+07         0.00000E+00
    0.38767E+07        -0.51114E+08         0.00000E+00
    0.00000E+00         0.00000E+00        -0.28438E+08
 
   -0.28728E+08         0.40104E+07         0.00000E+00
    0.40104E+07        -0.51147E+08         0.00000E+00
    0.00000E+00         0.00000E+00        -0.28438E+08
 
   -0.28663E+08         0.41459E+07         0.00000E+00
    0.41459E+07        -0.51180E+08         0.00000E+00
    0.00000E+00         0.00000E+00        -0.28438E+08
 
   -0.28599E+08         0.42833E+07         0.00000E+00
    0.42833E+07        -0.51213E+08         0.00000E+00
    0.00000E+00         0.00000E+00        -0.28438E+08
 
   -0.28534E+08         0.44225E+07         0.00000E+00
    0.44225E+07        -0.51246E+08         0.00000E+00
    0.00000E+00         0.00000E+00        -0.28438E+08
 
   -0.28470E+08         0.45634E+07         0.00000E+00
    0.45634E+07        -0.51278E+08         0.00000E+00
    0.00000E+00         0.00000E+00        -0.28438E+08
 
   -0.30536E+08         0.15411E+05         0.00000E+00
    0.15411E+05        -0.50001E+08         0.00000E+00
    0.00000E+00         0.00000E+00        -0.27724E+08
 
   -0.30536E+08         0.50731E+05         0.00000E+00
    0.50731E+05        -0.50003E+08         0.00000E+00
    0.00000E+00         0.00000E+00        -0.27724E+08
 
   -0.30532E+08         0.87823E+05         0.00000E+00
    0.87823E+05        -0.50008E+08         0.00000E+00
    0.00000E+00         0.00000E+00        -0.27723E+08
 
   -0.30523E+08         0.12678E+06         0.00000E+00
    0.12678E+06        -0.50014E+08         0.00000E+00
    0.00000E+00         0.00000E+00        -0.27723E+08
 
   -0.30510E+08         0.16767E+06         0.00000E+00
    0.16767E+06        -0.50023E+08         0.00000E+00
    0.00000E+00         0.00000E+00        -0.27723E+08
 
   -0.30493E+08         0.21058E+06         0.00000E+00
    0.21058E+06        -0.50034E+08         0.00000E+00
    0.00000E+00         0.00000E+00        -0.27723E+08
 
   -0.30472E+08         0.25558E+06         0.00000E+00
    0.25558E+06        -0.50046E+08         0.00000E+00
    0.00000E+00         0.00000E+00        -0.27723E+08
 
   -0.30447E+08         0.30271E+06         0.00000E+00
    0.30271E+06        -0.50061E+08         0.00000E+00
    0.00000E+00         0.00000E+00        -0.27723E+08
 
   -0.30418E+08         0.35205E+06         0.00000E+00
    0.35205E+06        -0.50077E+08         0.00000E+00
    0.00000E+00         0.00000E+00        -0.27723E+08
 
   -0.30386E+08         0.40363E+06         0.00000E+00
    0.40363E+06        -0.50095E+08         0.00000E+00
    0.00000E+00         0.00000E+00        -0.27723E+08
 
   -0.30351E+08         0.45749E+06         0.00000E+00
    0.45749E+06        -0.50114E+08         0.00000E+00
    0.00000E+00         0.00000E+00        -0.27723E+08
 
   -0.30312E+08         0.51367E+06         0.00000E+00
    0.51367E+06        -0.50134E+08         0.00000E+00
    0.00000E+00         0.00000E+00        -0.27723E+08
 
   -0.30271E+08         0.57220E+06         0.00000E+00
    0.57220E+06        -0.50157E+08         0.00000E+00
    0.00000E+00         0.00000E+00        -0.27723E+08
 
   -0.30227E+08         0.63310E+06         0.00000E+00
    0.63310E+06        -0.50180E+08         0.00000E+00
    0.00000E+00         0.00000E+00        -0.27723E+08
 
   -0.30180E+08         0.69640E+06         0.00000E+00
    0.69640E+06        -0.50204E+08         0.00000E+00
    0.00000E+00         0.00000E+00        -0.27723E+08
 
   -0.30130E+08         0.76211E+06         0.00000E+00
    0.76211E+06        -0.50230E+08         0.00000E+00
    0.00000E+00         0.00000E+00        -0.27723E+08
 
   -0.30078E+08         0.83024E+06         0.00000E+00
    0.83024E+06        -0.50257E+08         0.00000E+00
    0.00000E+00         0.00000E+00        -0.27723E+08
 
   -0.30024E+08         0.90080E+06         0.00000E+00
    0.90080E+06        -0.50285E+08         0.00000E+00
    0.00000E+00         0.00000E+00        -0.27722E+08
 
   -0.29968E+08         0.97381E+06         0.00000E+00
    0.97381E+06        -0.50313E+08         0.00000E+00
    0.00000E+00         0.00000E+00        -0.27722E+08
 
   -0.29910E+08         0.10492E+07         0.00000E+00
    0.10492E+07        -0.50343E+08         0.00000E+00
    0.00000E+00         0.00000E+00        -0.27722E+08
 
   -0.29850E+08         0.11271E+07         0.00000E+00
    0.11271E+07        -0.50374E+08         0.00000E+00
    0.00000E+00         0.00000E+00        -0.27722E+08
 
   -0.29788E+08         0.12074E+07         0.00000E+00
    0.12074E+07        -0.50405E+08         0.00000E+00
    0.00000E+00         0.00000E+00        -0.27722E+08
 
   -0.29725E+08         0.12902E+07         0.00000E+00
    0.12902E+07        -0.50437E+08         0.00000E+00
    0.00000E+00         0.00000E+00        -0.27722E+08
 
   -0.29660E+08         0.13754E+07         0.00000E+00
    0.13754E+07        -0.50470E+08         0.00000E+00
    0.00000E+00         0.00000E+00        -0.27722E+08
 
   -0.29594E+08         0.14630E+07         0.00000E+00
    0.14630E+07        -0.50503E+08         0.00000E+00
    0.00000E+00         0.00000E+00        -0.27722E+08
 
   -0.29527E+08         0.15530E+07         0.00000E+00
    0.15530E+07        -0.50537E+08         0.00000E+00
    0.00000E+00         0.00000E+00        -0.27722E+08
 
   -0.29458E+08         0.16454E+07         0.00000E+00
    0.16454E+07        -0.50571E+08         0.00000E+00
    0.00000E+00         0.00000E+00        -0.27722E+08
 
   -0.29389E+08         0.17402E+07         0.00000E+00
    0.17402E+07        -0.50606E+08         0.00000E+00
    0.00000E+00         0.00000E+00        -0.27722E+08
 
   -0.29318E+08         0.18373E+07         0.00000E+00
    0.18373E+07        -0.50642E+08         0.00000E+00
    0.00000E+00         0.00000E+00        -0.27722E+08
 
   -0.29247E+08         0.19369E+07         0.00000E+00
    0.19369E+07        -0.50677E+08         0.00000E+00
    0.00000E+00         0.00000E+00        -0.27722E+08
 
   -0.29175E+08         0.20387E+07         0.00000E+00
    0.20387E+07        -0.50713E+08         0.00000E+00
    0.00000E+00         0.00000E+00        -0.27722E+08
 
   -0.29102E+08         0.21429E+07         0.00000E+00
    0.21429E+07        -0.50750E+08         0.00000E+00
    0.00000E+00         0.00000E+00        -0.27722E+08
 
   -0.29028E+08         0.22494E+07         0.00000E+00
    0.22494E+07        -0.50787E+08         0.00000E+00
    0.00000E+00         0.00000E+00        -0.27721E+08
 
   -0.28955E+08         0.23582E+07         0.00000E+00
    0.23582E+07        -0.50824E+08         0.00000E+00
    0.00000E+00         0.00000E+00        -0.27721E+08
 
   -0.28880E+08         0.24692E+07         0.00000E+00
    0.24692E+07        -0.50861E+08         0.00000E+00
    0.00000E+00         0.00000E+00        -0.27721E+08
 
   -0.28805E+08         0.25825E+07         0.00000E+00
    0.25825E+07        -0.50898E+08         0.00000E+00
    0.00000E+00         0.00000E+00        -0.27721E+08
 
   -0.28730E+08         0.26981E+07         0.00000E+00
    0.26981E+07        -0.50936E+08         0.00000E+00
    0.00000E+00         0.00000E+00        -0.27721E+08
 
   -0.28655E+08         0.28158E+07         0.00000E+00
    0.28158E+07        -0.50973E+08         0.00000E+00
    0.00000E+00         0.00000E+00        -0.27721E+08
 
   -0.28580E+08         0.29357E+07         0.00000E+00
    0.29357E+07        -0.51011E+08         0.00000E+00
    0.00000E+00         0.00000E+00        -0.27721E+08
 
   -0.28504E+08         0.30578E+07         0.00000E+00
    0.30578E+07        -0.51049E+08         0.00000E+00
    0.00000E+00         0.00000E+00        -0.27721E+08
 
   -0.28429E+08         0.31821E+07         0.00000E+00
    0.31821E+07        -0.51087E+08         0.00000E+00
    0.00000E+00         0.00000E+00        -0.27721E+08
 
   -0.28354E+08         0.33084E+07         0.00000E+00
    0.33084E+07        -0.51125E+08         0.00000E+00
    0.00000E+00         0.00000E+00        -0.27721E+08
 
   -0.28278E+08         0.34368E+07         0.00000E+00
    0.34368E+07        -0.51162E+08         0.00000E+00
    0.00000E+00         0.00000E+00        -0.27721E+08
 
   -0.28203E+08         0.35673E+07         0.00000E+00
    0.35673E+07        -0.51200E+08         0.00000E+00
    0.00000E+00         0.00000E+00        -0.27721E+08
 
   -0.28128E+08         0.36998E+07         0.00000E+00
    0.36998E+07        -0.51238E+08         0.00000E+00
    0.00000E+00         0.00000E+00        -0.27721E+08
 
   -0.28053E+08         0.38343E+07         0.00000E+00
    0.38343E+07        -0.51275E+08         0.00000E+00
    0.00000E+00         0.00000E+00        -0.27721E+08
 
   -0.27979E+08         0.39707E+07         0.00000E+00
    0.39707E+07        -0.51312E+08         0.00000E+00
    0.00000E+00         0.00000E+00        -0.27721E+08
 
   -0.27905E+08         0.41091E+07         0.00000E+00
    0.41091E+07        -0.51349E+08         0.00000E+00
    0.00000E+00         0.00000E+00        -0.27721E+08
 
   -0.27831E+08         0.42493E+07         0.00000E+00
    0.42493E+07        -0.51386E+08         0.00000E+00
    0.00000E+00         0.00000E+00        -0.27721E+08
 
   -0.27758E+08         0.43915E+07         0.00000E+00
    0.43915E+07        -0.51423E+08         0.00000E+00
    0.00000E+00         0.00000E+00        -0.27721E+08
 
   -0.30393E+08         0.87211E+04         0.00000E+00
    0.87211E+04        -0.50001E+08         0.00000E+00
    0.00000E+00         0.00000E+00        -0.26998E+08
 
   -0.30384E+08         0.32051E+05         0.00000E+00
    0.32051E+05        -0.50003E+08         0.00000E+00
    0.00000E+00         0.00000E+00        -0.26998E+08
 
   -0.30369E+08         0.57657E+05         0.00000E+00
    0.57657E+05        -0.50009E+08         0.00000E+00
    0.00000E+00         0.00000E+00        -0.26998E+08
 
   -0.30350E+08         0.85625E+05         0.00000E+00
    0.85625E+05        -0.50016E+08         0.00000E+00
    0.00000E+00         0.00000E+00        -0.26998E+08
 
   -0.30326E+08         0.11603E+06         0.00000E+00
    0.11603E+06        -0.50026E+08         0.00000E+00
    0.00000E+00         0.00000E+00        -0.26998E+08
 
   -0.30297E+08         0.14894E+06         0.00000E+00
    0.14894E+06        -0.50038E+08         0.00000E+00
    0.00000E+00         0.00000E+00        -0.26998E+08
 
   -0.30264E+08         0.18441E+06         0.00000E+00
    0.18441E+06        -0.50052E+08         0.00000E+00
    0.00000E+00         0.00000E+00        -0.26998E+08
 
   -0.30227E+08         0.22250E+06         0.00000E+00
    0.22250E+06        -0.50068E+08         0.00000E+00
    0.00000E+00         0.00000E+00        -0.26998E+08
 
   -0.30187E+08         0.26324E+06         0.00000E+00
    0.26324E+06        -0.50085E+08         0.00000E+00
    0.00000E+00         0.00000E+00        -0.26998E+08
 
   -0.30142E+08         0.30667E+06         0.00000E+00
    0.30667E+06        -0.50105E+08         0.00000E+00
    0.00000E+00         0.00000E+00        -0.26998E+08
 
   -0.30094E+08         0.35282E+06         0.00000E+00
    0.35282E+06        -0.50126E+08         0.00000E+00
    0.00000E+00         0.00000E+00        -0.26998E+08
 
   -0.30043E+08         0.40170E+06         0.00000E+00
    0.40170E+06        -0.50148E+08         0.00000E+00
    0.00000E+00         0.00000E+00        -0.26998E+08
 
   -0.29989E+08         0.45334E+06         0.00000E+00
    0.45334E+06        -0.50173E+08         0.00000E+00
    0.00000E+00         0.00000E+00        -0.26998E+08
 
   -0.29932E+08         0.50775E+06         0.00000E+00
    0.50775E+06        -0.50198E+08         0.00000E+00
    0.00000E+00         0.00000E+00        -0.26998E+08
 
   -0.29872E+08         0.56492E+06         0.00000E+00
    0.56492E+06        -0.50225E+08         0.00000E+00
    0.00000E+00         0.00000E+00        -0.26998E+08
 
   -0.29809E+08         0.62486E+06         0.00000E+00
    0.62486E+06        -0.50253E+08         0.00000E+00
    0.00000E+00         0.00000E+00        -0.26998E+08
 
   -0.29745E+08         0.68757E+06         0.00000E+00
    0.68757E+06        -0.50282E+08         0.00000E+00
    0.00000E+00         0.00000E+00        -0.26998E+08
 
   -0.29678E+08         0.75304E+06         0.00000E+00
    0.75304E+06        -0.50312E+08         0.00000E+00
    0.00000E+00         0.00000E+00        -0.26998E+08
 
   -0.29608E+08         0.82127E+06         0.00000E+00
    0.82127E+06        -0.50343E+08         0.00000E+00
    0.00000E+00         0.00000E+00        -0.26998E+08
 
   -0.29537E+08         0.89223E+06         0.00000E+00
    0.89223E+06        -0.50376E+08         0.00000E+00
    0.00000E+00         0.00000E+00        -0.26998E+08
 
   -0.29465E+08         0.96593E+06         0.00000E+00
    0.96593E+06        -0.50409E+08         0.00000E+00
    0.00000E+00         0.00000E+00        -0.26998E+08
 
   -0.29390E+08         0.10423E+07         0.00000E+00
    0.10423E+07        -0.50443E+08         0.00000E+00
    0.00000E+00         0.00000E+00        -0.26998E+08
 
   -0.29314E+08         0.11214E+07         0.00000E+00
    0.11214E+07        -0.50477E+08         0.00000E+00
    0.00000E+00         0.00000E+00        -0.26998E+08
 
   -0.29237E+08         0.12032E+07         0.00000E+00
    0.12032E+07        -0.50513E+08         0.00000E+00
    0.00000E+00         0.00000E+00        -0.26998E+08
 
   -0.29158E+08         0.12876E+07         0.00000E+00
    0.12876E+07        -0.50549E+08         0.00000E+00
    0.00000E+00         0.00000E+00        -0.26998E+08
 
   -0.29078E+08         0.13747E+07         0.00000E+00
    0.13747E+07        -0.50586E+08         0.00000E+00
    0.00000E+00         0.00000E+00        -0.26998E+08
 
   -0.28997E+08         0.14644E+07         0.00000E+00
    0.14644E+07        -0.50623E+08         0.00000E+00
    0.00000E+00         0.00000E+00        -0.26998E+08
 
   -0.28915E+08         0.15567E+07         0.00000E+00
    0.15567E+07        -0.50661E+08         0.00000E+00
    0.00000E+00         0.00000E+00        -0.26998E+08
 
   -0.28832E+08         0.16515E+07         0.00000E+00
    0.16515E+07        -0.50699E+08         0.00000E+00
    0.00000E+00         0.00000E+00        -0.26998E+08
 
   -0.28748E+08         0.17490E+07         0.00000E+00
    0.17490E+07        -0.50738E+08         0.00000E+00
    0.00000E+00         0.00000E+00        -0.26998E+08
 
   -0.28664E+08         0.18489E+07         0.00000E+00
    0.18489E+07        -0.50777E+08         0.00000E+00
    0.00000E+00         0.00000E+00        -0.26998E+08
 
   -0.28579E+08         0.19514E+07         0.00000E+00
    0.19514E+07        -0.50817E+08         0.00000E+00
    0.00000E+00         0.00000E+00        -0.26998E+08
 
   -0.28494E+08         0.20563E+07         0.00000E+00
    0.20563E+07        -0.50857E+08         0.00000E+00
    0.00000E+00         0.00000E+00        -0.26998E+08
 
   -0.28408E+08         0.21638E+07         0.00000E+00
    0.21638E+07        -0.50898E+08         0.00000E+00
    0.00000E+00         0.00000E+00        -0.26998E+08
 
   -0.28322E+08         0.22736E+07         0.00000E+00
    0.22736E+07        -0.50939E+08         0.00000E+00
    0.00000E+00         0.00000E+00        -0.26998E+08
 
   -0.28236E+08         0.23859E+07         0.00000E+00
    0.23859E+07        -0.50980E+08         0.00000E+00
    0.00000E+00         0.00000E+00        -0.26998E+08
 
   -0.28149E+08         0.25006E+07         0.00000E+00
    0.25006E+07        -0.51021E+08         0.00000E+00
    0.00000E+00         0.00000E+00        -0.26998E+08
 
   -0.28063E+08         0.26177E+07         0.00000E+00
    0.26177E+07        -0.51062E+08         0.00000E+00
    0.00000E+00         0.00000E+00        -0.26999E+08
 
   -0.27976E+08         0.27371E+07         0.00000E+00
    0.27371E+07        -0.51104E+08         0.00000E+00
    0.00000E+00         0.00000E+00        -0.26999E+08
 
   -0.27889E+08         0.28589E+07         0.00000E+00
    0.28589E+07        -0.51146E+08         0.00000E+00
    0.00000E+00         0.00000E+00        -0.26999E+08
 
   -0.27803E+08         0.29829E+07         0.00000E+00
    0.29829E+07        -0.51187E+08         0.00000E+00
    0.00000E+00         0.00000E+00        -0.26999E+08
 
   -0.27717E+08         0.31092E+07         0.00000E+00
    0.31092E+07        -0.51229E+08         0.00000E+00
    0.00000E+00         0.00000E+00        -0.26999E+08
 
   -0.27631E+08         0.32378E+07         0.00000E+00
    0.32378E+07        -0.51271E+08         0.00000E+00
    0.00000E+00         0.00000E+00        -0.26999E+08
 
   -0.27545E+08         0.33685E+07         0.00000E+00
    0.33685E+07        -0.51313E+08         0.00000E+00
    0.00000E+00         0.00000E+00        -0.26999E+08
 
   -0.27460E+08         0.35014E+07         0.00000E+00
    0.35014E+07        -0.51355E+08         0.00000E+00
    0.00000E+00         0.00000E+00        -0.26999E+08
 
   -0.27375E+08         0.36365E+07         0.00000E+00
    0.36365E+07        -0.51397E+08         0.00000E+00
    0.00000E+00         0.00000E+00        -0.26999E+08
 
   -0.27290E+08         0.37736E+07         0.00000E+00
    0.37736E+07        -0.51439E+08         0.00000E+00
    0.00000E+00         0.00000E+00        -0.26999E+08
 
   -0.27206E+08         0.39127E+07         0.00000E+00
    0.39127E+07        -0.51480E+08         0.00000E+00
    0.00000E+00         0.00000E+00        -0.26999E+08
 
   -0.27123E+08         0.40539E+07         0.00000E+00
    0.40539E+07        -0.51522E+08         0.00000E+00
    0.00000E+00         0.00000E+00        -0.26999E+08
 
   -0.27040E+08         0.41970E+07         0.00000E+00
    0.41970E+07        -0.51563E+08         0.00000E+00
    0.00000E+00         0.00000E+00        -0.26999E+08
 
   -0.30316E+08         0.12000E+04         0.00000E+00
    0.12000E+04        -0.50001E+08         0.00000E+00
    0.00000E+00         0.00000E+00        -0.26267E+08
 
   -0.30294E+08         0.11240E+05         0.00000E+00
    0.11240E+05        -0.50004E+08         0.00000E+00
    0.00000E+00         0.00000E+00        -0.26267E+08
 
   -0.30266E+08         0.24185E+05         0.00000E+00
    0.24185E+05        -0.50009E+08         0.00000E+00
    0.00000E+00         0.00000E+00        -0.26267E+08
 
   -0.30233E+08         0.40112E+05         0.00000E+00
    0.40112E+05        -0.50018E+08         0.00000E+00
    0.00000E+00         0.00000E+00        -0.26267E+08
 
   -0.30195E+08         0.59084E+05         0.00000E+00
    0.59084E+05        -0.50028E+08         0.00000E+00
    0.00000E+00         0.00000E+00        -0.26267E+08
 
   -0.30153E+08         0.81154E+05         0.00000E+00
    0.81154E+05        -0.50041E+08         0.00000E+00
    0.00000E+00         0.00000E+00        -0.26267E+08
 
   -0.30105E+08         0.10636E+06         0.00000E+00
    0.10636E+06        -0.50057E+08         0.00000E+00
    0.00000E+00         0.00000E+00        -0.26267E+08
 
   -0.30054E+08         0.13475E+06         0.00000E+00
    0.13475E+06        -0.50074E+08         0.00000E+00
    0.00000E+00         0.00000E+00        -0.26267E+08
 
   -0.29998E+08         0.16632E+06         0.00000E+00
    0.16632E+06        -0.50093E+08         0.00000E+00
    0.00000E+00         0.00000E+00        -0.26267E+08
 
   -0.29939E+08         0.20111E+06         0.00000E+00
    0.20111E+06        -0.50114E+08         0.00000E+00
    0.00000E+00         0.00000E+00        -0.26267E+08
 
   -0.29876E+08         0.23911E+06         0.00000E+00
    0.23911E+06        -0.50137E+08         0.00000E+00
    0.00000E+00         0.00000E+00        -0.26267E+08
 
   -0.29810E+08         0.28032E+06         0.00000E+00
    0.28032E+06        -0.50161E+08         0.00000E+00
    0.00000E+00         0.00000E+00        -0.26267E+08
 
   -0.29741E+08         0.32474E+06         0.00000E+00
    0.32474E+06        -0.50187E+08         0.00000E+00
    0.00000E+00         0.00000E+00        -0.26267E+08
 
   -0.29669E+08         0.37235E+06         0.00000E+00
    0.37235E+06        -0.50214E+08         0.00000E+00
    0.00000E+00         0.00000E+00        -0.26267E+08
 
   -0.29595E+08         0.42313E+06         0.00000E+00
    0.42313E+06        -0.50243E+08         0.00000E+00
    0.00000E+00         0.00000E+00        -0.26268E+08
 
   -0.29517E+08         0.47706E+06         0.00000E+00
    0.47706E+06        -0.50273E+08         0.00000E+00
    0.00000E+00         0.00000E+00        -0.26268E+08
 
   -0.29438E+08         0.53413E+06         0.00000E+00
    0.53413E+06        -0.50304E+08         0.00000E+00
    0.00000E+00         0.00000E+00        -0.26268E+08
 
   -0.29356E+08         0.59429E+06         0.00000E+00
    0.59429E+06        -0.50336E+08         0.00000E+00
    0.00000E+00         0.00000E+00        -0.26268E+08
 
   -0.29273E+08         0.65751E+06         0.00000E+00
    0.65751E+06        -0.50369E+08         0.00000E+00
    0.00000E+00         0.00000E+00        -0.26268E+08
 
   -0.29187E+08         0.72378E+06         0.00000E+00
    0.72378E+06        -0.50403E+08         0.00000E+00
    0.00000E+00         0.00000E+00        -0.26268E+08
 
   -0.29100E+08         0.79304E+06         0.00000E+00
    0.79304E+06        -0.50438E+08         0.00000E+00
    0.00000E+00         0.00000E+00        -0.26268E+08
 
   -0.29012E+08         0.86528E+06         0.00000E+00
    0.86528E+06        -0.50474E+08         0.00000E+00
    0.00000E+00         0.00000E+00        -0.26268E+08
 
   -0.28921E+08         0.94045E+06         0.00000E+00
    0.94045E+06        -0.50511E+08         0.00000E+00
    0.00000E+00         0.00000E+00        -0.26269E+08
 
   -0.28830E+08         0.10185E+07         0.00000E+00
    0.10185E+07        -0.50548E+08         0.00000E+00
    0.00000E+00         0.00000E+00        -0.26269E+08
 
   -0.28738E+08         0.10995E+07         0.00000E+00
    0.10995E+07        -0.50587E+08         0.00000E+00
    0.00000E+00         0.00000E+00        -0.26269E+08
 
   -0.28644E+08         0.11833E+07         0.00000E+00
    0.11833E+07        -0.50626E+08         0.00000E+00
    0.00000E+00         0.00000E+00        -0.26269E+08
 
   -0.28550E+08         0.12699E+07         0.00000E+00
    0.12699E+07        -0.50665E+08         0.00000E+00
    0.00000E+00         0.00000E+00        -0.26269E+08
 
   -0.28454E+08         0.13593E+07         0.00000E+00
    0.13593E+07        -0.50706E+08         0.00000E+00
    0.00000E+00         0.00000E+00        -0.26269E+08
 
   -0.28358E+08         0.14514E+07         0.00000E+00
    0.14514E+07        -0.50747E+08         0.00000E+00
    0.00000E+00         0.00000E+00        -0.26270E+08
 
   -0.28261E+08         0.15463E+07         0.00000E+00
    0.15463E+07        -0.50788E+08         0.00000E+00
    0.00000E+00         0.00000E+00        -0.26270E+08
 
   -0.28164E+08         0.16439E+07         0.00000E+00
    0.16439E+07        -0.50830E+08         0.00000E+00
    0.00000E+00         0.00000E+00        -0.26270E+08
 
   -0.28066E+08         0.17441E+07         0.00000E+00
    0.17441E+07        -0.50873E+08         0.00000E+00
    0.00000E+00         0.00000E+00        -0.26270E+08
 
   -0.27968E+08         0.18471E+07         0.00000E+00
    0.18471E+07        -0.50916E+08         0.00000E+00
    0.00000E+00         0.00000E+00        -0.26270E+08
 
   -0.27870E+08         0.19526E+07         0.00000E+00
    0.19526E+07        -0.50960E+08         0.00000E+00
    0.00000E+00         0.00000E+00        -0.26270E+08
 
   -0.27771E+08         0.20608E+07         0.00000E+00
    0.20608E+07        -0.51004E+08         0.00000E+00
    0.00000E+00         0.00000E+00        -0.26270E+08
 
   -0.27672E+08         0.21715E+07         0.00000E+00
    0.21715E+07        -0.51048E+08         0.00000E+00
    0.00000E+00         0.00000E+00        -0.26271E+08
 
   -0.27573E+08         0.22849E+07         0.00000E+00
    0.22849E+07        -0.51093E+08         0.00000E+00
    0.00000E+00         0.00000E+00        -0.26271E+08
 
   -0.27474E+08         0.24007E+07         0.00000E+00
    0.24007E+07        -0.51138E+08         0.00000E+00
    0.00000E+00         0.00000E+00        -0.26271E+08
 
   -0.27376E+08         0.25191E+07         0.00000E+00
    0.25191E+07        -0.51183E+08         0.00000E+00
    0.00000E+00         0.00000E+00        -0.26271E+08
 
   -0.27277E+08         0.26400E+07         0.00000E+00
    0.26400E+07        -0.51229E+08         0.00000E+00
    0.00000E+00         0.00000E+00        -0.26271E+08
 
   -0.27179E+08         0.27634E+07         0.00000E+00
    0.27634E+07        -0.51275E+08         0.00000E+00
    0.00000E+00         0.00000E+00        -0.26271E+08
 
   -0.27081E+08         0.28892E+07         0.00000E+00
    0.28892E+07        -0.51321E+08         0.00000E+00
    0.00000E+00         0.00000E+00        -0.26271E+08
 
   -0.26983E+08         0.30174E+07         0.00000E+00
    0.30174E+07        -0.51367E+08         0.00000E+00
    0.00000E+00         0.00000E+00        -0.26271E+08
 
   -0.26886E+08         0.31480E+07         0.00000E+00
    0.31480E+07        -0.51413E+08         0.00000E+00
    0.00000E+00         0.00000E+00        -0.26271E+08
 
   -0.26790E+08         0.32809E+07         0.00000E+00
    0.32809E+07        -0.51460E+08         0.00000E+00
    0.00000E+00         0.00000E+00        -0.26271E+08
 
   -0.26694E+08         0.34162E+07         0.00000E+00
    0.34162E+07        -0.51506E+08         0.00000E+00
    0.00000E+00         0.00000E+00        -0.26271E+08
 
   -0.26599E+08         0.35536E+07         0.00000E+00
    0.35536E+07        -0.51552E+08         0.00000E+00
    0.00000E+00         0.00000E+00        -0.26271E+08
 
   -0.26504E+08         0.36933E+07         0.00000E+00
    0.36933E+07        -0.51599E+08         0.00000E+00
    0.00000E+00         0.00000E+00        -0.26272E+08
 
   -0.26410E+08         0.38351E+07         0.00000E+00
    0.38351E+07        -0.51645E+08         0.00000E+00
    0.00000E+00         0.00000E+00        -0.26272E+08
 
   -0.26318E+08         0.39791E+07         0.00000E+00
    0.39791E+07        -0.51691E+08         0.00000E+00
    0.00000E+00         0.00000E+00        -0.26272E+08
 
   -0.30309E+08        -0.71525E+04         0.00000E+00
   -0.71525E+04        -0.50001E+08         0.00000E+00
    0.00000E+00         0.00000E+00        -0.25532E+08
 
   -0.30271E+08        -0.11614E+05         0.00000E+00
   -0.11614E+05        -0.50004E+08         0.00000E+00
    0.00000E+00         0.00000E+00        -0.25532E+08
 
   -0.30227E+08        -0.12385E+05         0.00000E+00
   -0.12385E+05        -0.50010E+08         0.00000E+00
    0.00000E+00         0.00000E+00        -0.25532E+08
 
   -0.30177E+08        -0.94072E+04         0.00000E+00
   -0.94072E+04        -0.50019E+08         0.00000E+00
    0.00000E+00         0.00000E+00        -0.25532E+08
 
   -0.30122E+08        -0.26380E+04         0.00000E+00
   -0.26380E+04        -0.50031E+08         0.00000E+00
    0.00000E+00         0.00000E+00        -0.25532E+08
 
   -0.30062E+08         0.79511E+04         0.00000E+00
    0.79511E+04        -0.50045E+08         0.00000E+00
    0.00000E+00         0.00000E+00        -0.25532E+08
 
   -0.29997E+08         0.22375E+05         0.00000E+00
    0.22375E+05        -0.50061E+08         0.00000E+00
    0.00000E+00         0.00000E+00        -0.25532E+08
 
   -0.29928E+08         0.40635E+05         0.00000E+00
    0.40635E+05        -0.50079E+08         0.00000E+00
    0.00000E+00         0.00000E+00        -0.25532E+08
 
   -0.29856E+08         0.62723E+05         0.00000E+00
    0.62723E+05        -0.50100E+08         0.00000E+00
    0.00000E+00         0.00000E+00        -0.25532E+08
 
   -0.29779E+08         0.88618E+05         0.00000E+00
    0.88618E+05        -0.50122E+08         0.00000E+00
    0.00000E+00         0.00000E+00        -0.25532E+08
 
   -0.29699E+08         0.11829E+06         0.00000E+00
    0.11829E+06        -0.50145E+08         0.00000E+00
    0.00000E+00         0.00000E+00        -0.25533E+08
 
   -0.29615E+08         0.15171E+06         0.00000E+00
    0.15171E+06        -0.50171E+08         0.00000E+00
    0.00000E+00         0.00000E+00        -0.25533E+08
 
   -0.29529E+08         0.18882E+06         0.00000E+00
    0.18882E+06        -0.50198E+08         0.00000E+00
    0.00000E+00         0.00000E+00        -0.25533E+08
 
   -0.29440E+08         0.22958E+06         0.00000E+00
    0.22958E+06        -0.50226E+08         0.00000E+00
    0.00000E+00         0.00000E+00        -0.25533E+08
 
   -0.29349E+08         0.27394E+06         0.00000E+00
    0.27394E+06        -0.50256E+08         0.00000E+00
    0.00000E+00         0.00000E+00        -0.25533E+08
 
   -0.29255E+08         0.32183E+06         0.00000E+00
    0.32183E+06        -0.50287E+08         0.00000E+00
    0.00000E+00         0.00000E+00        -0.25534E+08
 
   -0.29159E+08         0.37320E+06         0.00000E+00
    0.37320E+06        -0.50319E+08         0.00000E+00
    0.00000E+00         0.00000E+00        -0.25534E+08
 
   -0.29061E+08         0.42799E+06         0.00000E+00
    0.42799E+06        -0.50352E+08         0.00000E+00
    0.00000E+00         0.00000E+00        -0.25534E+08
 
   -0.28962E+08         0.48613E+06         0.00000E+00
    0.48613E+06        -0.50386E+08         0.00000E+00
    0.00000E+00         0.00000E+00        -0.25534E+08
 
   -0.28860E+08         0.54757E+06         0.00000E+00
    0.54757E+06        -0.50421E+08         0.00000E+00
    0.00000E+00         0.00000E+00        -0.25535E+08
 
   -0.28758E+08         0.61225E+06         0.00000E+00
    0.61225E+06        -0.50457E+08         0.00000E+00
    0.00000E+00         0.00000E+00        -0.25535E+08
 
   -0.28654E+08         0.68012E+06         0.00000E+00
    0.68012E+06        -0.50495E+08         0.00000E+00
    0.00000E+00         0.00000E+00        -0.25535E+08
 
   -0.28549E+08         0.75111E+06         0.00000E+00
    0.75111E+06        -0.50532E+08         0.00000E+00
    0.00000E+00         0.00000E+00        -0.25535E+08
 
   -0.28443E+08         0.82518E+06         0.00000E+00
    0.82518E+06        -0.50571E+08         0.00000E+00
    0.00000E+00         0.00000E+00        -0.25536E+08
 
   -0.28335E+08         0.90228E+06         0.00000E+00
    0.90228E+06        -0.50611E+08         0.00000E+00
    0.00000E+00         0.00000E+00        -0.25536E+08
 
   -0.28227E+08         0.98236E+06         0.00000E+00
    0.98236E+06        -0.50651E+08         0.00000E+00
    0.00000E+00         0.00000E+00        -0.25536E+08
 
   -0.28118E+08         0.10654E+07         0.00000E+00
    0.10654E+07        -0.50692E+08         0.00000E+00
    0.00000E+00         0.00000E+00        -0.25536E+08
 
   -0.28009E+08         0.11514E+07         0.00000E+00
    0.11514E+07        -0.50734E+08         0.00000E+00
    0.00000E+00         0.00000E+00        -0.25537E+08
 
   -0.27899E+08         0.12402E+07         0.00000E+00
    0.12402E+07        -0.50777E+08         0.00000E+00
    0.00000E+00         0.00000E+00        -0.25537E+08
 
   -0.27788E+08         0.13319E+07         0.00000E+00
    0.13319E+07        -0.50820E+08         0.00000E+00
    0.00000E+00         0.00000E+00        -0.25537E+08
 
   -0.27677E+08         0.14264E+07         0.00000E+00
    0.14264E+07        -0.50865E+08         0.00000E+00
    0.00000E+00         0.00000E+00        -0.25537E+08
 
   -0.27566E+08         0.15237E+07         0.00000E+00
    0.15237E+07        -0.50909E+08         0.00000E+00
    0.00000E+00         0.00000E+00        -0.25538E+08
 
   -0.27454E+08         0.16238E+07         0.00000E+00
    0.16238E+07        -0.50955E+08         0.00000E+00
    0.00000E+00         0.00000E+00        -0.25538E+08
 
   -0.27342E+08         0.17267E+07         0.00000E+00
    0.17267E+07        -0.51001E+08         0.00000E+00
    0.00000E+00         0.00000E+00        -0.25538E+08
 
   -0.27230E+08         0.18323E+07         0.00000E+00
    0.18323E+07        -0.51048E+08         0.00000E+00
    0.00000E+00         0.00000E+00        -0.25538E+08
 
   -0.27118E+08         0.19407E+07         0.00000E+00
    0.19407E+07        -0.51095E+08         0.00000E+00
    0.00000E+00         0.00000E+00        -0.25538E+08
 
   -0.27006E+08         0.20519E+07         0.00000E+00
    0.20519E+07        -0.51143E+08         0.00000E+00
    0.00000E+00         0.00000E+00        -0.25539E+08
 
   -0.26894E+08         0.21657E+07         0.00000E+00
    0.21657E+07        -0.51192E+08         0.00000E+00
    0.00000E+00         0.00000E+00        -0.25539E+08
 
   -0.26782E+08         0.22822E+07         0.00000E+00
    0.22822E+07        -0.51241E+08         0.00000E+00
    0.00000E+00         0.00000E+00        -0.25539E+08
 
   -0.26670E+08         0.24015E+07         0.00000E+00
    0.24015E+07        -0.51290E+08         0.00000E+00
    0.00000E+00         0.00000E+00        -0.25539E+08
 
   -0.26559E+08         0.25234E+07         0.00000E+00
    0.25234E+07        -0.51340E+08         0.00000E+00
    0.00000E+00         0.00000E+00        -0.25539E+08
 
   -0.26449E+08         0.26479E+07         0.00000E+00
    0.26479E+07        -0.51390E+08         0.00000E+00
    0.00000E+00         0.00000E+00        -0.25540E+08
 
   -0.26339E+08         0.27751E+07         0.00000E+00
    0.27751E+07        -0.51441E+08         0.00000E+00
    0.00000E+00         0.00000E+00        -0.25540E+08
 
   -0.26229E+08         0.29049E+07         0.00000E+00
    0.29049E+07        -0.51491E+08         0.00000E+00
    0.00000E+00         0.00000E+00        -0.25540E+08
 
   -0.26121E+08         0.30373E+07         0.00000E+00
    0.30373E+07        -0.51543E+08         0.00000E+00
    0.00000E+00         0.00000E+00        -0.25540E+08
 
   -0.26013E+08         0.31722E+07         0.00000E+00
    0.31722E+07        -0.51594E+08         0.00000E+00
    0.00000E+00         0.00000E+00        -0.25540E+08
 
   -0.25906E+08         0.33095E+07         0.00000E+00
    0.33095E+07        -0.51645E+08         0.00000E+00
    0.00000E+00         0.00000E+00        -0.25540E+08
 
   -0.25800E+08         0.34493E+07         0.00000E+00
    0.34493E+07        -0.51696E+08         0.00000E+00
    0.00000E+00         0.00000E+00        -0.25540E+08
 
   -0.25695E+08         0.35915E+07         0.00000E+00
    0.35915E+07        -0.51748E+08         0.00000E+00
    0.00000E+00         0.00000E+00        -0.25540E+08
 
   -0.25592E+08         0.37360E+07         0.00000E+00
    0.37360E+07        -0.51799E+08         0.00000E+00
    0.00000E+00         0.00000E+00        -0.25540E+08
 
   -0.30381E+08        -0.16312E+05         0.00000E+00
   -0.16312E+05        -0.50001E+08         0.00000E+00
    0.00000E+00         0.00000E+00        -0.24793E+08
 
   -0.30322E+08        -0.36312E+05         0.00000E+00
   -0.36312E+05        -0.50004E+08         0.00000E+00
    0.00000E+00         0.00000E+00        -0.24793E+08
 
   -0.30256E+08        -0.51632E+05         0.00000E+00
   -0.51632E+05        -0.50011E+08         0.00000E+00
    0.00000E+00         0.00000E+00        -0.24793E+08
 
   -0.30186E+08        -0.62242E+05         0.00000E+00
   -0.62242E+05        -0.50021E+08         0.00000E+00
    0.00000E+00         0.00000E+00        -0.24793E+08
 
   -0.30109E+08        -0.68137E+05         0.00000E+00
   -0.68137E+05        -0.50033E+08         0.00000E+00
    0.00000E+00         0.00000E+00        -0.24794E+08
 
   -0.30028E+08        -0.69329E+05         0.00000E+00
   -0.69329E+05        -0.50047E+08         0.00000E+00
    0.00000E+00         0.00000E+00        -0.24794E+08
 
   -0.29942E+08        -0.65845E+05         0.00000E+00
   -0.65845E+05        -0.50064E+08         0.00000E+00
    0.00000E+00         0.00000E+00        -0.24794E+08
 
   -0.29852E+08        -0.57731E+05         0.00000E+00
   -0.57731E+05        -0.50083E+08         0.00000E+00
    0.00000E+00         0.00000E+00        -0.24794E+08
 
   -0.29758E+08        -0.45048E+05         0.00000E+00
   -0.45048E+05        -0.50104E+08         0.00000E+00
    0.00000E+00         0.00000E+00        -0.24794E+08
 
   -0.29661E+08        -0.27871E+05         0.00000E+00
   -0.27871E+05        -0.50126E+08         0.00000E+00
    0.00000E+00         0.00000E+00        -0.24795E+08
 
   -0.29561E+08        -0.62831E+04         0.00000E+00
   -0.62831E+04        -0.50150E+08         0.00000E+00
    0.00000E+00         0.00000E+00        -0.24795E+08
 
   -0.29457E+08         0.19620E+05         0.00000E+00
    0.19620E+05        -0.50176E+08         0.00000E+00
    0.00000E+00         0.00000E+00        -0.24795E+08
 
   -0.29352E+08         0.49739E+05         0.00000E+00
    0.49739E+05        -0.50203E+08         0.00000E+00
    0.00000E+00         0.00000E+00        -0.24795E+08
 
   -0.29243E+08         0.83967E+05         0.00000E+00
    0.83967E+05        -0.50232E+08         0.00000E+00
    0.00000E+00         0.00000E+00        -0.24796E+08
 
   -0.29133E+08         0.12220E+06         0.00000E+00
    0.12220E+06        -0.50261E+08         0.00000E+00
    0.00000E+00         0.00000E+00        -0.24796E+08
 
   -0.29021E+08         0.16432E+06         0.00000E+00
    0.16432E+06        -0.50292E+08         0.00000E+00
    0.00000E+00         0.00000E+00        -0.24796E+08
 
   -0.28907E+08         0.21023E+06         0.00000E+00
    0.21023E+06        -0.50324E+08         0.00000E+00
    0.00000E+00         0.00000E+00        -0.24797E+08
 
   -0.28792E+08         0.25981E+06         0.00000E+00
    0.25981E+06        -0.50356E+08         0.00000E+00
    0.00000E+00         0.00000E+00        -0.24797E+08
 
   -0.28675E+08         0.31296E+06         0.00000E+00
    0.31296E+06        -0.50390E+08         0.00000E+00
    0.00000E+00         0.00000E+00        -0.24797E+08
 
   -0.28557E+08         0.36959E+06         0.00000E+00
    0.36959E+06        -0.50425E+08         0.00000E+00
    0.00000E+00         0.00000E+00        -0.24798E+08
 
   -0.28438E+08         0.42961E+06         0.00000E+00
    0.42961E+06        -0.50461E+08         0.00000E+00
    0.00000E+00         0.00000E+00        -0.24798E+08
 
   -0.28318E+08         0.49292E+06         0.00000E+00
    0.49292E+06        -0.50497E+08         0.00000E+00
    0.00000E+00         0.00000E+00        -0.24798E+08
 
   -0.28197E+08         0.55944E+06         0.00000E+00
    0.55944E+06        -0.50535E+08         0.00000E+00
    0.00000E+00         0.00000E+00        -0.24799E+08
 
   -0.28076E+08         0.62912E+06         0.00000E+00
    0.62912E+06        -0.50573E+08         0.00000E+00
    0.00000E+00         0.00000E+00        -0.24799E+08
 
   -0.27953E+08         0.70188E+06         0.00000E+00
    0.70188E+06        -0.50613E+08         0.00000E+00
    0.00000E+00         0.00000E+00        -0.24799E+08
 
   -0.27830E+08         0.77767E+06         0.00000E+00
    0.77767E+06        -0.50653E+08         0.00000E+00
    0.00000E+00         0.00000E+00        -0.24800E+08
 
   -0.27707E+08         0.85644E+06         0.00000E+00
    0.85644E+06        -0.50694E+08         0.00000E+00
    0.00000E+00         0.00000E+00        -0.24800E+08
 
   -0.27583E+08         0.93816E+06         0.00000E+00
    0.93816E+06        -0.50737E+08         0.00000E+00
    0.00000E+00         0.00000E+00        -0.24801E+08
 
   -0.27458E+08         0.10228E+07         0.00000E+00
    0.10228E+07        -0.50780E+08         0.00000E+00
    0.00000E+00         0.00000E+00        -0.24801E+08
 
   -0.27333E+08         0.11103E+07         0.00000E+00
    0.11103E+07        -0.50824E+08         0.00000E+00
    0.00000E+00         0.00000E+00        -0.24801E+08
 
   -0.27208E+08         0.12007E+07         0.00000E+00
    0.12007E+07        -0.50869E+08         0.00000E+00
    0.00000E+00         0.00000E+00        -0.24802E+08
 
   -0.27082E+08         0.12940E+07         0.00000E+00
    0.12940E+07        -0.50915E+08         0.00000E+00
    0.00000E+00         0.00000E+00        -0.24802E+08
 
   -0.26956E+08         0.13901E+07         0.00000E+00
    0.13901E+07        -0.50962E+08         0.00000E+00
    0.00000E+00         0.00000E+00        -0.24802E+08
 
   -0.26830E+08         0.14891E+07         0.00000E+00
    0.14891E+07        -0.51010E+08         0.00000E+00
    0.00000E+00         0.00000E+00        -0.24803E+08
 
   -0.26704E+08         0.15909E+07         0.00000E+00
    0.15909E+07        -0.51059E+08         0.00000E+00
    0.00000E+00         0.00000E+00        -0.24803E+08
 
   -0.26578E+08         0.16956E+07         0.00000E+00
    0.16956E+07        -0.51109E+08         0.00000E+00
    0.00000E+00         0.00000E+00        -0.24803E+08
 
   -0.26452E+08         0.18032E+07         0.00000E+00
    0.18032E+07        -0.51160E+08         0.00000E+00
    0.00000E+00         0.00000E+00        -0.24804E+08
 
   -0.26326E+08         0.19137E+07         0.00000E+00
    0.19137E+07        -0.51211E+08         0.00000E+00
    0.00000E+00         0.00000E+00        -0.24804E+08
 
   -0.26200E+08         0.20271E+07         0.00000E+00
    0.20271E+07        -0.51264E+08         0.00000E+00
    0.00000E+00         0.00000E+00        -0.24804E+08
 
   -0.26075E+08         0.21435E+07         0.00000E+00
    0.21435E+07        -0.51317E+08         0.00000E+00
    0.00000E+00         0.00000E+00        -0.24804E+08
 
   -0.25950E+08         0.22627E+07         0.00000E+00
    0.22627E+07        -0.51371E+08         0.00000E+00
    0.00000E+00         0.00000E+00        -0.24804E+08
 
   -0.25825E+08         0.23849E+07         0.00000E+00
    0.23849E+07        -0.51425E+08         0.00000E+00
    0.00000E+00         0.00000E+00        -0.24805E+08
 
   -0.25701E+08         0.25099E+07         0.00000E+00
    0.25099E+07        -0.51480E+08         0.00000E+00
    0.00000E+00         0.00000E+00        -0.24805E+08
 
   -0.25578E+08         0.26379E+07         0.00000E+00
    0.26379E+07        -0.51536E+08         0.00000E+00
    0.00000E+00         0.00000E+00        -0.24805E+08
 
   -0.25456E+08         0.27688E+07         0.00000E+00
    0.27688E+07        -0.51592E+08         0.00000E+00
    0.00000E+00         0.00000E+00        -0.24805E+08
 
   -0.25335E+08         0.29025E+07         0.00000E+00
    0.29025E+07        -0.51649E+08         0.00000E+00
    0.00000E+00         0.00000E+00        -0.24805E+08
 
   -0.25215E+08         0.30391E+07         0.00000E+00
    0.30391E+07        -0.51705E+08         0.00000E+00
    0.00000E+00         0.00000E+00        -0.24805E+08
 
   -0.25096E+08         0.31784E+07         0.00000E+00
    0.31784E+07        -0.51762E+08         0.00000E+00
    0.00000E+00         0.00000E+00        -0.24805E+08
 
   -0.24979E+08         0.33205E+07         0.00000E+00
    0.33205E+07        -0.51820E+08         0.00000E+00
    0.00000E+00         0.00000E+00        -0.24806E+08
 
   -0.24863E+08         0.34653E+07         0.00000E+00
    0.34653E+07        -0.51877E+08         0.00000E+00
    0.00000E+00         0.00000E+00        -0.24806E+08
 
   -0.30534E+08        -0.26257E+05         0.00000E+00
   -0.26257E+05        -0.50001E+08         0.00000E+00
    0.00000E+00         0.00000E+00        -0.24053E+08
 
   -0.30449E+08        -0.62534E+05         0.00000E+00
   -0.62534E+05        -0.50005E+08         0.00000E+00
    0.00000E+00         0.00000E+00        -0.24053E+08
 
   -0.30357E+08        -0.92864E+05         0.00000E+00
   -0.92864E+05        -0.50012E+08         0.00000E+00
    0.00000E+00         0.00000E+00        -0.24053E+08
 
   -0.30260E+08        -0.11727E+06         0.00000E+00
   -0.11727E+06        -0.50021E+08         0.00000E+00
    0.00000E+00         0.00000E+00        -0.24053E+08
 
   -0.30157E+08        -0.13579E+06         0.00000E+00
   -0.13579E+06        -0.50034E+08         0.00000E+00
    0.00000E+00         0.00000E+00        -0.24053E+08
 
   -0.30050E+08        -0.14849E+06         0.00000E+00
   -0.14849E+06        -0.50048E+08         0.00000E+00
    0.00000E+00         0.00000E+00        -0.24054E+08
 
   -0.29939E+08        -0.15548E+06         0.00000E+00
   -0.15548E+06        -0.50065E+08         0.00000E+00
    0.00000E+00         0.00000E+00        -0.24054E+08
 
   -0.29823E+08        -0.15689E+06         0.00000E+00
   -0.15689E+06        -0.50084E+08         0.00000E+00
    0.00000E+00         0.00000E+00        -0.24054E+08
 
   -0.29705E+08        -0.15287E+06         0.00000E+00
   -0.15287E+06        -0.50104E+08         0.00000E+00
    0.00000E+00         0.00000E+00        -0.24054E+08
 
   -0.29584E+08        -0.14357E+06         0.00000E+00
   -0.14357E+06        -0.50126E+08         0.00000E+00
    0.00000E+00         0.00000E+00        -0.24055E+08
 
   -0.29460E+08        -0.12918E+06         0.00000E+00
   -0.12918E+06        -0.50149E+08         0.00000E+00
    0.00000E+00         0.00000E+00        -0.24055E+08
 
   -0.29334E+08        -0.10988E+06         0.00000E+00
   -0.10988E+06        -0.50174E+08         0.00000E+00
    0.00000E+00         0.00000E+00        -0.24055E+08
 
   -0.29206E+08        -0.85854E+05         0.00000E+00
   -0.85854E+05        -0.50200E+08         0.00000E+00
    0.00000E+00         0.00000E+00        -0.24056E+08
 
   -0.29077E+08        -0.57301E+05         0.00000E+00
   -0.57301E+05        -0.50226E+08         0.00000E+00
    0.00000E+00         0.00000E+00        -0.24056E+08
 
   -0.28946E+08        -0.24410E+05         0.00000E+00
   -0.24410E+05        -0.50254E+08         0.00000E+00
    0.00000E+00         0.00000E+00        -0.24056E+08
 
   -0.28814E+08         0.12633E+05         0.00000E+00
    0.12633E+05        -0.50282E+08         0.00000E+00
    0.00000E+00         0.00000E+00        -0.24057E+08
 
   -0.28681E+08         0.53647E+05         0.00000E+00
    0.53647E+05        -0.50312E+08         0.00000E+00
    0.00000E+00         0.00000E+00        -0.24057E+08
 
   -0.28547E+08         0.98462E+05         0.00000E+00
    0.98462E+05        -0.50342E+08         0.00000E+00
    0.00000E+00         0.00000E+00        -0.24058E+08
 
   -0.28413E+08         0.14692E+06         0.00000E+00
    0.14692E+06        -0.50373E+08         0.00000E+00
    0.00000E+00         0.00000E+00        -0.24058E+08
 
   -0.28278E+08         0.19887E+06         0.00000E+00
    0.19887E+06        -0.50406E+08         0.00000E+00
    0.00000E+00         0.00000E+00        -0.24059E+08
 
   -0.28142E+08         0.25418E+06         0.00000E+00
    0.25418E+06        -0.50439E+08         0.00000E+00
    0.00000E+00         0.00000E+00        -0.24059E+08
 
   -0.28006E+08         0.31272E+06         0.00000E+00
    0.31272E+06        -0.50473E+08         0.00000E+00
    0.00000E+00         0.00000E+00        -0.24060E+08
 
   -0.27870E+08         0.37441E+06         0.00000E+00
    0.37441E+06        -0.50508E+08         0.00000E+00
    0.00000E+00         0.00000E+00        -0.24060E+08
 
   -0.27732E+08         0.43913E+06         0.00000E+00
    0.43913E+06        -0.50544E+08         0.00000E+00
    0.00000E+00         0.00000E+00        -0.24060E+08
 
   -0.27595E+08         0.50683E+06         0.00000E+00
    0.50683E+06        -0.50581E+08         0.00000E+00
    0.00000E+00         0.00000E+00        -0.24061E+08
 
   -0.27457E+08         0.57742E+06         0.00000E+00
    0.57742E+06        -0.50620E+08         0.00000E+00
    0.00000E+00         0.00000E+00        -0.24061E+08
 
   -0.27319E+08         0.65088E+06         0.00000E+00
    0.65088E+06        -0.50659E+08         0.00000E+00
    0.00000E+00         0.00000E+00        -0.24062E+08
 
   -0.27181E+08         0.72716E+06         0.00000E+00
    0.72716E+06        -0.50700E+08         0.00000E+00
    0.00000E+00         0.00000E+00        -0.24062E+08
 
   -0.27042E+08         0.80625E+06         0.00000E+00
    0.80625E+06        -0.50742E+08         0.00000E+00
    0.00000E+00         0.00000E+00        -0.24063E+08
 
   -0.26902E+08         0.88812E+06         0.00000E+00
    0.88812E+06        -0.50785E+08         0.00000E+00
    0.00000E+00         0.00000E+00        -0.24063E+08
 
   -0.26763E+08         0.97280E+06         0.00000E+00
    0.97280E+06        -0.50830E+08         0.00000E+00
    0.00000E+00         0.00000E+00        -0.24064E+08
 
   -0.26623E+08         0.10603E+07         0.00000E+00
    0.10603E+07        -0.50876E+08         0.00000E+00
    0.00000E+00         0.00000E+00        -0.24064E+08
 
   -0.26483E+08         0.11506E+07         0.00000E+00
    0.11506E+07        -0.50923E+08         0.00000E+00
    0.00000E+00         0.00000E+00        -0.24064E+08
 
   -0.26342E+08         0.12438E+07         0.00000E+00
    0.12438E+07        -0.50972E+08         0.00000E+00
    0.00000E+00         0.00000E+00        -0.24065E+08
 
   -0.26202E+08         0.13399E+07         0.00000E+00
    0.13399E+07        -0.51022E+08         0.00000E+00
    0.00000E+00         0.00000E+00        -0.24065E+08
 
   -0.26061E+08         0.14390E+07         0.00000E+00
    0.14390E+07        -0.51074E+08         0.00000E+00
    0.00000E+00         0.00000E+00        -0.24066E+08
 
   -0.25920E+08         0.15411E+07         0.00000E+00
    0.15411E+07        -0.51127E+08         0.00000E+00
    0.00000E+00         0.00000E+00        -0.24066E+08
 
   -0.25779E+08         0.16462E+07         0.00000E+00
    0.16462E+07        -0.51181E+08         0.00000E+00
    0.00000E+00         0.00000E+00        -0.24066E+08
 
   -0.25638E+08         0.17545E+07         0.00000E+00
    0.17545E+07        -0.51236E+08         0.00000E+00
    0.00000E+00         0.00000E+00        -0.24067E+08
 
   -0.25497E+08         0.18659E+07         0.00000E+00
    0.18659E+07        -0.51293E+08         0.00000E+00
    0.00000E+00         0.00000E+00        -0.24067E+08
 
   -0.25357E+08         0.19806E+07         0.00000E+00
    0.19806E+07        -0.51351E+08         0.00000E+00
    0.00000E+00         0.00000E+00        -0.24067E+08
 
   -0.25217E+08         0.20985E+07         0.00000E+00
    0.20985E+07        -0.51411E+08         0.00000E+00
    0.00000E+00         0.00000E+00        -0.24067E+08
 
   -0.25077E+08         0.22198E+07         0.00000E+00
    0.22198E+07        -0.51471E+08         0.00000E+00
    0.00000E+00         0.00000E+00        -0.24068E+08
 
   -0.24939E+08         0.23444E+07         0.00000E+00
    0.23444E+07        -0.51532E+08         0.00000E+00
    0.00000E+00         0.00000E+00        -0.24068E+08
 
   -0.24801E+08         0.24724E+07         0.00000E+00
    0.24724E+07        -0.51594E+08         0.00000E+00
    0.00000E+00         0.00000E+00        -0.24068E+08
 
   -0.24664E+08         0.26038E+07         0.00000E+00
    0.26038E+07        -0.51657E+08         0.00000E+00
    0.00000E+00         0.00000E+00        -0.24068E+08
 
   -0.24529E+08         0.27385E+07         0.00000E+00
    0.27385E+07        -0.51720E+08         0.00000E+00
    0.00000E+00         0.00000E+00        -0.24068E+08
 
   -0.24395E+08         0.28765E+07         0.00000E+00
    0.28765E+07        -0.51784E+08         0.00000E+00
    0.00000E+00         0.00000E+00        -0.24068E+08
 
   -0.24263E+08         0.30179E+07         0.00000E+00
    0.30179E+07        -0.51848E+08         0.00000E+00
    0.00000E+00         0.00000E+00        -0.24068E+08
 
   -0.24133E+08         0.31625E+07         0.00000E+00
    0.31625E+07        -0.51912E+08         0.00000E+00
    0.00000E+00         0.00000E+00        -0.24068E+08
 
   -0.30774E+08        -0.36943E+05         0.00000E+00
   -0.36943E+05        -0.50001E+08         0.00000E+00
    0.00000E+00         0.00000E+00        -0.23312E+08
 
   -0.30655E+08        -0.89870E+05         0.00000E+00
   -0.89870E+05        -0.50005E+08         0.00000E+00
    0.00000E+00         0.00000E+00        -0.23312E+08
 
   -0.30530E+08        -0.13513E+06         0.00000E+00
   -0.13513E+06        -0.50012E+08         0.00000E+00
    0.00000E+00         0.00000E+00        -0.23312E+08
 
   -0.30399E+08        -0.17277E+06         0.00000E+00
   -0.17277E+06        -0.50022E+08         0.00000E+00
    0.00000E+00         0.00000E+00        -0.23312E+08
 
   -0.30263E+08        -0.20297E+06         0.00000E+00
   -0.20297E+06        -0.50034E+08         0.00000E+00
    0.00000E+00         0.00000E+00        -0.23312E+08
 
   -0.30124E+08        -0.22594E+06         0.00000E+00
   -0.22594E+06        -0.50048E+08         0.00000E+00
    0.00000E+00         0.00000E+00        -0.23312E+08
 
   -0.29982E+08        -0.24192E+06         0.00000E+00
   -0.24192E+06        -0.50064E+08         0.00000E+00
    0.00000E+00         0.00000E+00        -0.23313E+08
 
   -0.29836E+08        -0.25118E+06         0.00000E+00
   -0.25118E+06        -0.50081E+08         0.00000E+00
    0.00000E+00         0.00000E+00        -0.23313E+08
 
   -0.29689E+08        -0.25400E+06         0.00000E+00
   -0.25400E+06        -0.50099E+08         0.00000E+00
    0.00000E+00         0.00000E+00        -0.23313E+08
 
   -0.29540E+08        -0.25070E+06         0.00000E+00
   -0.25070E+06        -0.50118E+08         0.00000E+00
    0.00000E+00         0.00000E+00        -0.23314E+08
 
   -0.29389E+08        -0.24160E+06         0.00000E+00
   -0.24160E+06        -0.50139E+08         0.00000E+00
    0.00000E+00         0.00000E+00        -0.23314E+08
 
   -0.29238E+08        -0.22706E+06         0.00000E+00
   -0.22706E+06        -0.50160E+08         0.00000E+00
    0.00000E+00         0.00000E+00        -0.23315E+08
 
   -0.29086E+08        -0.20739E+06         0.00000E+00
   -0.20739E+06        -0.50181E+08         0.00000E+00
    0.00000E+00         0.00000E+00        -0.23315E+08
 
   -0.28934E+08        -0.18293E+06         0.00000E+00
   -0.18293E+06        -0.50203E+08         0.00000E+00
    0.00000E+00         0.00000E+00        -0.23315E+08
 
   -0.28782E+08        -0.15400E+06         0.00000E+00
   -0.15400E+06        -0.50226E+08         0.00000E+00
    0.00000E+00         0.00000E+00        -0.23316E+08
 
   -0.28630E+08        -0.12089E+06         0.00000E+00
   -0.12089E+06        -0.50250E+08         0.00000E+00
    0.00000E+00         0.00000E+00        -0.23316E+08
 
   -0.28478E+08        -0.83863E+05         0.00000E+00
   -0.83863E+05        -0.50274E+08         0.00000E+00
    0.00000E+00         0.00000E+00        -0.23317E+08
 
   -0.28326E+08        -0.43178E+05         0.00000E+00
   -0.43178E+05        -0.50299E+08         0.00000E+00
    0.00000E+00         0.00000E+00        -0.23317E+08
 
   -0.28174E+08         0.94527E+03         0.00000E+00
    0.94527E+03        -0.50324E+08         0.00000E+00
    0.00000E+00         0.00000E+00        -0.23318E+08
 
   -0.28022E+08         0.48309E+05         0.00000E+00
    0.48309E+05        -0.50351E+08         0.00000E+00
    0.00000E+00         0.00000E+00        -0.23318E+08
 
   -0.27871E+08         0.98740E+05         0.00000E+00
    0.98740E+05        -0.50378E+08         0.00000E+00
    0.00000E+00         0.00000E+00        -0.23319E+08
 
   -0.27719E+08         0.15209E+06         0.00000E+00
    0.15209E+06        -0.50407E+08         0.00000E+00
    0.00000E+00         0.00000E+00        -0.23320E+08
 
   -0.27568E+08         0.20824E+06         0.00000E+00
    0.20824E+06        -0.50437E+08         0.00000E+00
    0.00000E+00         0.00000E+00        -0.23320E+08
 
   -0.27417E+08         0.26708E+06         0.00000E+00
    0.26708E+06        -0.50468E+08         0.00000E+00
    0.00000E+00         0.00000E+00        -0.23321E+08
 
   -0.27266E+08         0.32854E+06         0.00000E+00
    0.32854E+06        -0.50500E+08         0.00000E+00
    0.00000E+00         0.00000E+00        -0.23321E+08
 
   -0.27114E+08         0.39256E+06         0.00000E+00
    0.39256E+06        -0.50534E+08         0.00000E+00
    0.00000E+00         0.00000E+00        -0.23322E+08
 
   -0.26963E+08         0.45909E+06         0.00000E+00
    0.45909E+06        -0.50569E+08         0.00000E+00
    0.00000E+00         0.00000E+00        -0.23322E+08
 
   -0.26811E+08         0.52813E+06         0.00000E+00
    0.52813E+06        -0.50606E+08         0.00000E+00
    0.00000E+00         0.00000E+00        -0.23323E+08
 
   -0.26658E+08         0.59968E+06         0.00000E+00
    0.59968E+06        -0.50645E+08         0.00000E+00
    0.00000E+00         0.00000E+00        -0.23323E+08
 
   -0.26506E+08         0.67374E+06         0.00000E+00
    0.67374E+06        -0.50686E+08         0.00000E+00
    0.00000E+00         0.00000E+00        -0.23324E+08
 
   -0.26353E+08         0.75036E+06         0.00000E+00
    0.75036E+06        -0.50728E+08         0.00000E+00
    0.00000E+00         0.00000E+00        -0.23324E+08
 
   -0.26199E+08         0.82959E+06         0.00000E+00
    0.82959E+06        -0.50772E+08         0.00000E+00
    0.00000E+00         0.00000E+00        -0.23325E+08
 
   -0.26045E+08         0.91149E+06         0.00000E+00
    0.91149E+06        -0.50819E+08         0.00000E+00
    0.00000E+00         0.00000E+00        -0.23325E+08
 
   -0.25890E+08         0.99615E+06         0.00000E+00
    0.99615E+06        -0.50867E+08         0.00000E+00
    0.00000E+00         0.00000E+00        -0.23326E+08
 
   -0.25735E+08         0.10837E+07         0.00000E+00
    0.10837E+07        -0.50918E+08         0.00000E+00
    0.00000E+00         0.00000E+00        -0.23326E+08
 
   -0.25579E+08         0.11741E+07         0.00000E+00
    0.11741E+07        -0.50970E+08         0.00000E+00
    0.00000E+00         0.00000E+00        -0.23326E+08
 
   -0.25423E+08         0.12677E+07         0.00000E+00
    0.12677E+07        -0.51025E+08         0.00000E+00
    0.00000E+00         0.00000E+00        -0.23327E+08
 
   -0.25266E+08         0.13645E+07         0.00000E+00
    0.13645E+07        -0.51081E+08         0.00000E+00
    0.00000E+00         0.00000E+00        -0.23327E+08
 
   -0.25108E+08         0.14646E+07         0.00000E+00
    0.14646E+07        -0.51140E+08         0.00000E+00
    0.00000E+00         0.00000E+00        -0.23327E+08
 
   -0.24951E+08         0.15682E+07         0.00000E+00
    0.15682E+07        -0.51201E+08         0.00000E+00
    0.00000E+00         0.00000E+00        -0.23328E+08
 
   -0.24793E+08         0.16754E+07         0.00000E+00
    0.16754E+07        -0.51263E+08         0.00000E+00
    0.00000E+00         0.00000E+00        -0.23328E+08
 
   -0.24635E+08         0.17863E+07         0.00000E+00
    0.17863E+07        -0.51328E+08         0.00000E+00
    0.00000E+00         0.00000E+00        -0.23328E+08
 
   -0.24478E+08         0.19012E+07         0.00000E+00
    0.19012E+07        -0.51394E+08         0.00000E+00
    0.00000E+00         0.00000E+00        -0.23329E+08
 
   -0.24321E+08         0.20200E+07         0.00000E+00
    0.20200E+07        -0.51461E+08         0.00000E+00
    0.00000E+00         0.00000E+00        -0.23329E+08
 
   -0.24164E+08         0.21429E+07         0.00000E+00
    0.21429E+07        -0.51531E+08         0.00000E+00
    0.00000E+00         0.00000E+00        -0.23329E+08
 
   -0.24009E+08         0.22699E+07         0.00000E+00
    0.22699E+07        -0.51601E+08         0.00000E+00
    0.00000E+00         0.00000E+00        -0.23329E+08
 
   -0.23855E+08         0.24011E+07         0.00000E+00
    0.24011E+07        -0.51672E+08         0.00000E+00
    0.00000E+00         0.00000E+00        -0.23329E+08
 
   -0.23702E+08         0.25366E+07         0.00000E+00
    0.25366E+07        -0.51744E+08         0.00000E+00
    0.00000E+00         0.00000E+00        -0.23329E+08
 
   -0.23552E+08         0.26764E+07         0.00000E+00
    0.26764E+07        -0.51817E+08         0.00000E+00
    0.00000E+00         0.00000E+00        -0.23330E+08
 
   -0.23403E+08         0.28202E+07         0.00000E+00
    0.28202E+07        -0.51890E+08         0.00000E+00
    0.00000E+00         0.00000E+00        -0.23330E+08
 
   -0.31102E+08        -0.48792E+05         0.00000E+00
   -0.48792E+05        -0.50001E+08         0.00000E+00
    0.00000E+00         0.00000E+00        -0.22571E+08
 
   -0.30938E+08        -0.11783E+06         0.00000E+00
   -0.11783E+06        -0.50005E+08         0.00000E+00
    0.00000E+00         0.00000E+00        -0.22571E+08
 
   -0.30769E+08        -0.17660E+06         0.00000E+00
   -0.17660E+06        -0.50012E+08         0.00000E+00
    0.00000E+00         0.00000E+00        -0.22571E+08
 
   -0.30596E+08        -0.22564E+06         0.00000E+00
   -0.22564E+06        -0.50021E+08         0.00000E+00
    0.00000E+00         0.00000E+00        -0.22571E+08
 
   -0.30419E+08        -0.26519E+06         0.00000E+00
   -0.26519E+06        -0.50032E+08         0.00000E+00
    0.00000E+00         0.00000E+00        -0.22571E+08
 
   -0.30240E+08        -0.29559E+06         0.00000E+00
   -0.29559E+06        -0.50044E+08         0.00000E+00
    0.00000E+00         0.00000E+00        -0.22572E+08
 
   -0.30059E+08        -0.31727E+06         0.00000E+00
   -0.31727E+06        -0.50057E+08         0.00000E+00
    0.00000E+00         0.00000E+00        -0.22572E+08
 
   -0.29878E+08        -0.33079E+06         0.00000E+00
   -0.33079E+06        -0.50070E+08         0.00000E+00
    0.00000E+00         0.00000E+00        -0.22572E+08
 
   -0.29697E+08        -0.33676E+06         0.00000E+00
   -0.33676E+06        -0.50084E+08         0.00000E+00
    0.00000E+00         0.00000E+00        -0.22573E+08
 
   -0.29516E+08        -0.33582E+06         0.00000E+00
   -0.33582E+06        -0.50097E+08         0.00000E+00
    0.00000E+00         0.00000E+00        -0.22573E+08
 
   -0.29337E+08        -0.32862E+06         0.00000E+00
   -0.32862E+06        -0.50110E+08         0.00000E+00
    0.00000E+00         0.00000E+00        -0.22574E+08
 
   -0.29159E+08        -0.31575E+06         0.00000E+00
   -0.31575E+06        -0.50124E+08         0.00000E+00
    0.00000E+00         0.00000E+00        -0.22574E+08
 
   -0.28982E+08        -0.29778E+06         0.00000E+00
   -0.29778E+06        -0.50137E+08         0.00000E+00
    0.00000E+00         0.00000E+00        -0.22574E+08
 
   -0.28808E+08        -0.27521E+06         0.00000E+00
   -0.27521E+06        -0.50150E+08         0.00000E+00
    0.00000E+00         0.00000E+00        -0.22575E+08
 
   -0.28634E+08        -0.24850E+06         0.00000E+00
   -0.24850E+06        -0.50164E+08         0.00000E+00
    0.00000E+00         0.00000E+00        -0.22575E+08
 
   -0.28463E+08        -0.21805E+06         0.00000E+00
   -0.21805E+06        -0.50178E+08         0.00000E+00
    0.00000E+00         0.00000E+00        -0.22576E+08
 
   -0.28293E+08        -0.18421E+06         0.00000E+00
   -0.18421E+06        -0.50193E+08         0.00000E+00
    0.00000E+00         0.00000E+00        -0.22577E+08
 
   -0.28125E+08        -0.14730E+06         0.00000E+00
   -0.14730E+06        -0.50208E+08         0.00000E+00
    0.00000E+00         0.00000E+00        -0.22577E+08
 
   -0.27958E+08        -0.10755E+06         0.00000E+00
   -0.10755E+06        -0.50224E+08         0.00000E+00
    0.00000E+00         0.00000E+00        -0.22578E+08
 
   -0.27792E+08        -0.65197E+05         0.00000E+00
   -0.65197E+05        -0.50241E+08         0.00000E+00
    0.00000E+00         0.00000E+00        -0.22578E+08
 
   -0.27627E+08        -0.20417E+05         0.00000E+00
   -0.20417E+05        -0.50259E+08         0.00000E+00
    0.00000E+00         0.00000E+00        -0.22579E+08
 
   -0.27463E+08         0.26644E+05         0.00000E+00
    0.26644E+05        -0.50279E+08         0.00000E+00
    0.00000E+00         0.00000E+00        -0.22579E+08
 
   -0.27299E+08         0.75869E+05         0.00000E+00
    0.75869E+05        -0.50300E+08         0.00000E+00
    0.00000E+00         0.00000E+00        -0.22580E+08
 
   -0.27136E+08         0.12717E+06         0.00000E+00
    0.12717E+06        -0.50323E+08         0.00000E+00
    0.00000E+00         0.00000E+00        -0.22580E+08
 
   -0.26973E+08         0.18049E+06         0.00000E+00
    0.18049E+06        -0.50348E+08         0.00000E+00
    0.00000E+00         0.00000E+00        -0.22581E+08
 
   -0.26810E+08         0.23579E+06         0.00000E+00
    0.23579E+06        -0.50375E+08         0.00000E+00
    0.00000E+00         0.00000E+00        -0.22582E+08
 
   -0.26647E+08         0.29305E+06         0.00000E+00
    0.29305E+06        -0.50404E+08         0.00000E+00
    0.00000E+00         0.00000E+00        -0.22582E+08
 
   -0.26484E+08         0.35228E+06         0.00000E+00
    0.35228E+06        -0.50435E+08         0.00000E+00
    0.00000E+00         0.00000E+00        -0.22583E+08
 
   -0.26321E+08         0.41352E+06         0.00000E+00
    0.41352E+06        -0.50468E+08         0.00000E+00
    0.00000E+00         0.00000E+00        -0.22583E+08
 
   -0.26156E+08         0.47681E+06         0.00000E+00
    0.47681E+06        -0.50504E+08         0.00000E+00
    0.00000E+00         0.00000E+00        -0.22584E+08
 
   -0.25991E+08         0.54222E+06         0.00000E+00
    0.54222E+06        -0.50542E+08         0.00000E+00
    0.00000E+00         0.00000E+00        -0.22584E+08
 
   -0.25825E+08         0.60984E+06         0.00000E+00
    0.60984E+06        -0.50583E+08         0.00000E+00
    0.00000E+00         0.00000E+00        -0.22585E+08
 
   -0.25658E+08         0.67980E+06         0.00000E+00
    0.67980E+06        -0.50627E+08         0.00000E+00
    0.00000E+00         0.00000E+00        -0.22585E+08
 
   -0.25490E+08         0.75221E+06         0.00000E+00
    0.75221E+06        -0.50673E+08         0.00000E+00
    0.00000E+00         0.00000E+00        -0.22586E+08
 
   -0.25321E+08         0.82725E+06         0.00000E+00
    0.82725E+06        -0.50723E+08         0.00000E+00
    0.00000E+00         0.00000E+00        -0.22586E+08
 
   -0.25150E+08         0.90508E+06         0.00000E+00
    0.90508E+06        -0.50775E+08         0.00000E+00
    0.00000E+00         0.00000E+00        -0.22586E+08
 
   -0.24978E+08         0.98592E+06         0.00000E+00
    0.98592E+06        -0.50830E+08         0.00000E+00
    0.00000E+00         0.00000E+00        -0.22587E+08
 
   -0.24804E+08         0.10700E+07         0.00000E+00
    0.10700E+07        -0.50889E+08         0.00000E+00
    0.00000E+00         0.00000E+00        -0.22587E+08
 
   -0.24629E+08         0.11575E+07         0.00000E+00
    0.11575E+07        -0.50950E+08         0.00000E+00
    0.00000E+00         0.00000E+00        -0.22588E+08
 
   -0.24453E+08         0.12488E+07         0.00000E+00
    0.12488E+07        -0.51015E+08         0.00000E+00
    0.00000E+00         0.00000E+00        -0.22588E+08
 
   -0.24276E+08         0.13441E+07         0.00000E+00
    0.13441E+07        -0.51083E+08         0.00000E+00
    0.00000E+00         0.00000E+00        -0.22588E+08
 
   -0.24097E+08         0.14437E+07         0.00000E+00
    0.14437E+07        -0.51153E+08         0.00000E+00
    0.00000E+00         0.00000E+00        -0.22589E+08
 
   -0.23918E+08         0.15480E+07         0.00000E+00
    0.15480E+07        -0.51226E+08         0.00000E+00
    0.00000E+00         0.00000E+00        -0.22589E+08
 
   -0.23739E+08         0.16571E+07         0.00000E+00
    0.16571E+07        -0.51302E+08         0.00000E+00
    0.00000E+00         0.00000E+00        -0.22589E+08
 
   -0.23559E+08         0.17714E+07         0.00000E+00
    0.17714E+07        -0.51381E+08         0.00000E+00
    0.00000E+00         0.00000E+00        -0.22589E+08
 
   -0.23380E+08         0.18910E+07         0.00000E+00
    0.18910E+07        -0.51461E+08         0.00000E+00
    0.00000E+00         0.00000E+00        -0.22589E+08
 
   -0.23201E+08         0.20161E+07         0.00000E+00
    0.20161E+07        -0.51543E+08         0.00000E+00
    0.00000E+00         0.00000E+00        -0.22590E+08
 
   -0.23024E+08         0.21468E+07         0.00000E+00
    0.21468E+07        -0.51626E+08         0.00000E+00
    0.00000E+00         0.00000E+00        -0.22590E+08
 
   -0.22848E+08         0.22833E+07         0.00000E+00
    0.22833E+07        -0.51711E+08         0.00000E+00
    0.00000E+00         0.00000E+00        -0.22590E+08
 
   -0.22676E+08         0.24259E+07         0.00000E+00
    0.24259E+07        -0.51796E+08         0.00000E+00
    0.00000E+00         0.00000E+00        -0.22590E+08
 
   -0.31515E+08        -0.61059E+05         0.00000E+00
   -0.61059E+05        -0.50000E+08         0.00000E+00
    0.00000E+00         0.00000E+00        -0.21831E+08
 
   -0.31292E+08        -0.14500E+06         0.00000E+00
   -0.14500E+06        -0.50004E+08         0.00000E+00
    0.00000E+00         0.00000E+00        -0.21832E+08
 
   -0.31063E+08        -0.21550E+06         0.00000E+00
   -0.21550E+06        -0.50011E+08         0.00000E+00
    0.00000E+00         0.00000E+00        -0.21832E+08
 
   -0.30832E+08        -0.27171E+06         0.00000E+00
   -0.27171E+06        -0.50020E+08         0.00000E+00
    0.00000E+00         0.00000E+00        -0.21832E+08
 
   -0.30601E+08        -0.31431E+06         0.00000E+00
   -0.31431E+06        -0.50027E+08         0.00000E+00
    0.00000E+00         0.00000E+00        -0.21832E+08
 
   -0.30371E+08        -0.34465E+06         0.00000E+00
   -0.34465E+06        -0.50034E+08         0.00000E+00
    0.00000E+00         0.00000E+00        -0.21832E+08
 
   -0.30145E+08        -0.36425E+06         0.00000E+00
   -0.36425E+06        -0.50039E+08         0.00000E+00
    0.00000E+00         0.00000E+00        -0.21833E+08
 
   -0.29922E+08        -0.37463E+06         0.00000E+00
   -0.37463E+06        -0.50042E+08         0.00000E+00
    0.00000E+00         0.00000E+00        -0.21833E+08
 
   -0.29705E+08        -0.37714E+06         0.00000E+00
   -0.37714E+06        -0.50044E+08         0.00000E+00
    0.00000E+00         0.00000E+00        -0.21833E+08
 
   -0.29492E+08        -0.37298E+06         0.00000E+00
   -0.37298E+06        -0.50044E+08         0.00000E+00
    0.00000E+00         0.00000E+00        -0.21834E+08
 
   -0.29284E+08        -0.36317E+06         0.00000E+00
   -0.36317E+06        -0.50044E+08         0.00000E+00
    0.00000E+00         0.00000E+00        -0.21834E+08
 
   -0.29081E+08        -0.34857E+06         0.00000E+00
   -0.34857E+06        -0.50042E+08         0.00000E+00
    0.00000E+00         0.00000E+00        -0.21835E+08
 
   -0.28883E+08        -0.32989E+06         0.00000E+00
   -0.32989E+06        -0.50041E+08         0.00000E+00
    0.00000E+00         0.00000E+00        -0.21835E+08
 
   -0.28689E+08        -0.30773E+06         0.00000E+00
   -0.30773E+06        -0.50039E+08         0.00000E+00
    0.00000E+00         0.00000E+00        -0.21836E+08
 
   -0.28498E+08        -0.28256E+06         0.00000E+00
   -0.28256E+06        -0.50038E+08         0.00000E+00
    0.00000E+00         0.00000E+00        -0.21836E+08
 
   -0.28312E+08        -0.25480E+06         0.00000E+00
   -0.25480E+06        -0.50037E+08         0.00000E+00
    0.00000E+00         0.00000E+00        -0.21837E+08
 
   -0.28128E+08        -0.22476E+06         0.00000E+00
   -0.22476E+06        -0.50037E+08         0.00000E+00
    0.00000E+00         0.00000E+00        -0.21837E+08
 
   -0.27948E+08        -0.19270E+06         0.00000E+00
   -0.19270E+06        -0.50038E+08         0.00000E+00
    0.00000E+00         0.00000E+00        -0.21838E+08
 
   -0.27769E+08        -0.15885E+06         0.00000E+00
   -0.15885E+06        -0.50041E+08         0.00000E+00
    0.00000E+00         0.00000E+00        -0.21838E+08
 
   -0.27593E+08        -0.12336E+06         0.00000E+00
   -0.12336E+06        -0.50045E+08         0.00000E+00
    0.00000E+00         0.00000E+00        -0.21839E+08
 
   -0.27418E+08        -0.86360E+05         0.00000E+00
   -0.86360E+05        -0.50051E+08         0.00000E+00
    0.00000E+00         0.00000E+00        -0.21839E+08
 
   -0.27245E+08        -0.47956E+05         0.00000E+00
   -0.47956E+05        -0.50059E+08         0.00000E+00
    0.00000E+00         0.00000E+00        -0.21840E+08
 
   -0.27073E+08        -0.82157E+04         0.00000E+00
   -0.82157E+04        -0.50069E+08         0.00000E+00
    0.00000E+00         0.00000E+00        -0.21840E+08
 
   -0.26901E+08         0.32816E+05         0.00000E+00
    0.32816E+05        -0.50082E+08         0.00000E+00
    0.00000E+00         0.00000E+00        -0.21841E+08
 
   -0.26730E+08         0.75115E+05         0.00000E+00
    0.75115E+05        -0.50097E+08         0.00000E+00
    0.00000E+00         0.00000E+00        -0.21841E+08
 
   -0.26559E+08         0.11868E+06         0.00000E+00
    0.11868E+06        -0.50114E+08         0.00000E+00
    0.00000E+00         0.00000E+00        -0.21842E+08
 
   -0.26388E+08         0.16352E+06         0.00000E+00
    0.16352E+06        -0.50135E+08         0.00000E+00
    0.00000E+00         0.00000E+00        -0.21842E+08
 
   -0.26216E+08         0.20968E+06         0.00000E+00
    0.20968E+06        -0.50158E+08         0.00000E+00
    0.00000E+00         0.00000E+00        -0.21843E+08
 
   -0.26044E+08         0.25721E+06         0.00000E+00
    0.25721E+06        -0.50184E+08         0.00000E+00
    0.00000E+00         0.00000E+00        -0.21843E+08
 
   -0.25871E+08         0.30617E+06         0.00000E+00
    0.30617E+06        -0.50214E+08         0.00000E+00
    0.00000E+00         0.00000E+00        -0.21844E+08
 
   -0.25696E+08         0.35666E+06         0.00000E+00
    0.35666E+06        -0.50246E+08         0.00000E+00
    0.00000E+00         0.00000E+00        -0.21844E+08
 
   -0.25520E+08         0.40880E+06         0.00000E+00
    0.40880E+06        -0.50283E+08         0.00000E+00
    0.00000E+00         0.00000E+00        -0.21845E+08
 
   -0.25342E+08         0.46271E+06         0.00000E+00
    0.46271E+06        -0.50322E+08         0.00000E+00
    0.00000E+00         0.00000E+00        -0.21845E+08
 
   -0.25163E+08         0.51856E+06         0.00000E+00
    0.51856E+06        -0.50366E+08         0.00000E+00
    0.00000E+00         0.00000E+00        -0.21846E+08
 
   -0.24981E+08         0.57654E+06         0.00000E+00
    0.57654E+06        -0.50413E+08         0.00000E+00
    0.00000E+00         0.00000E+00        -0.21846E+08
 
   -0.24796E+08         0.63685E+06         0.00000E+00
    0.63685E+06        -0.50464E+08         0.00000E+00
    0.00000E+00         0.00000E+00        -0.21846E+08
 
   -0.24609E+08         0.69977E+06         0.00000E+00
    0.69977E+06        -0.50519E+08         0.00000E+00
    0.00000E+00         0.00000E+00        -0.21847E+08
 
   -0.24420E+08         0.76559E+06         0.00000E+00
    0.76559E+06        -0.50579E+08         0.00000E+00
    0.00000E+00         0.00000E+00        -0.21847E+08
 
   -0.24227E+08         0.83464E+06         0.00000E+00
    0.83464E+06        -0.50642E+08         0.00000E+00
    0.00000E+00         0.00000E+00        -0.21848E+08
 
   -0.24031E+08         0.90734E+06         0.00000E+00
    0.90734E+06        -0.50711E+08         0.00000E+00
    0.00000E+00         0.00000E+00        -0.21848E+08
 
   -0.23833E+08         0.98414E+06         0.00000E+00
    0.98414E+06        -0.50783E+08         0.00000E+00
    0.00000E+00         0.00000E+00        -0.21848E+08
 
   -0.23631E+08         0.10656E+07         0.00000E+00
    0.10656E+07        -0.50860E+08         0.00000E+00
    0.00000E+00         0.00000E+00        -0.21848E+08
 
   -0.23426E+08         0.11522E+07         0.00000E+00
    0.11522E+07        -0.50942E+08         0.00000E+00
    0.00000E+00         0.00000E+00        -0.21849E+08
 
   -0.23218E+08         0.12447E+07         0.00000E+00
    0.12447E+07        -0.51028E+08         0.00000E+00
    0.00000E+00         0.00000E+00        -0.21849E+08
 
   -0.23008E+08         0.13438E+07         0.00000E+00
    0.13438E+07        -0.51118E+08         0.00000E+00
    0.00000E+00         0.00000E+00        -0.21849E+08
 
   -0.22797E+08         0.14502E+07         0.00000E+00
    0.14502E+07        -0.51212E+08         0.00000E+00
    0.00000E+00         0.00000E+00        -0.21849E+08
 
   -0.22584E+08         0.15645E+07         0.00000E+00
    0.15645E+07        -0.51310E+08         0.00000E+00
    0.00000E+00         0.00000E+00        -0.21849E+08
 
   -0.22373E+08         0.16873E+07         0.00000E+00
    0.16873E+07        -0.51410E+08         0.00000E+00
    0.00000E+00         0.00000E+00        -0.21850E+08
 
   -0.22162E+08         0.18183E+07         0.00000E+00
    0.18183E+07        -0.51512E+08         0.00000E+00
    0.00000E+00         0.00000E+00        -0.21850E+08
 
   -0.21954E+08         0.19565E+07         0.00000E+00
    0.19565E+07        -0.51613E+08         0.00000E+00
    0.00000E+00         0.00000E+00        -0.21850E+08
 
   -0.32013E+08        -0.83122E+05         0.00000E+00
   -0.83122E+05        -0.50007E+08         0.00000E+00
    0.00000E+00         0.00000E+00        -0.21095E+08
 
   -0.31690E+08        -0.17848E+06         0.00000E+00
   -0.17848E+06        -0.50017E+08         0.00000E+00
    0.00000E+00         0.00000E+00        -0.21095E+08
 
   -0.31368E+08        -0.24359E+06         0.00000E+00
   -0.24359E+06        -0.50020E+08         0.00000E+00
    0.00000E+00         0.00000E+00        -0.21096E+08
 
   -0.31055E+08        -0.28654E+06         0.00000E+00
   -0.28654E+06        -0.50016E+08         0.00000E+00
    0.00000E+00         0.00000E+00        -0.21096E+08
 
   -0.30754E+08        -0.31323E+06         0.00000E+00
   -0.31323E+06        -0.50006E+08         0.00000E+00
    0.00000E+00         0.00000E+00        -0.21096E+08
 
   -0.30468E+08        -0.32790E+06         0.00000E+00
   -0.32790E+06        -0.49992E+08         0.00000E+00
    0.00000E+00         0.00000E+00        -0.21096E+08
 
   -0.30195E+08        -0.33362E+06         0.00000E+00
   -0.33362E+06        -0.49973E+08         0.00000E+00
    0.00000E+00         0.00000E+00        -0.21096E+08
 
   -0.29935E+08        -0.33260E+06         0.00000E+00
   -0.33260E+06        -0.49952E+08         0.00000E+00
    0.00000E+00         0.00000E+00        -0.21097E+08
 
   -0.29687E+08        -0.32646E+06         0.00000E+00
   -0.32646E+06        -0.49929E+08         0.00000E+00
    0.00000E+00         0.00000E+00        -0.21097E+08
 
   -0.29449E+08        -0.31637E+06         0.00000E+00
   -0.31637E+06        -0.49905E+08         0.00000E+00
    0.00000E+00         0.00000E+00        -0.21097E+08
 
   -0.29221E+08        -0.30320E+06         0.00000E+00
   -0.30320E+06        -0.49881E+08         0.00000E+00
    0.00000E+00         0.00000E+00        -0.21098E+08
 
   -0.29001E+08        -0.28760E+06         0.00000E+00
   -0.28760E+06        -0.49857E+08         0.00000E+00
    0.00000E+00         0.00000E+00        -0.21098E+08
 
   -0.28788E+08        -0.27005E+06         0.00000E+00
   -0.27005E+06        -0.49833E+08         0.00000E+00
    0.00000E+00         0.00000E+00        -0.21099E+08
 
   -0.28582E+08        -0.25092E+06         0.00000E+00
   -0.25092E+06        -0.49811E+08         0.00000E+00
    0.00000E+00         0.00000E+00        -0.21099E+08
 
   -0.28381E+08        -0.23048E+06         0.00000E+00
   -0.23048E+06        -0.49790E+08         0.00000E+00
    0.00000E+00         0.00000E+00        -0.21099E+08
 
   -0.28186E+08        -0.20895E+06         0.00000E+00
   -0.20895E+06        -0.49771E+08         0.00000E+00
    0.00000E+00         0.00000E+00        -0.21100E+08
 
   -0.27994E+08        -0.18648E+06         0.00000E+00
   -0.18648E+06        -0.49754E+08         0.00000E+00
    0.00000E+00         0.00000E+00        -0.21100E+08
 
   -0.27807E+08        -0.16320E+06         0.00000E+00
   -0.16320E+06        -0.49740E+08         0.00000E+00
    0.00000E+00         0.00000E+00        -0.21101E+08
 
   -0.27622E+08        -0.13919E+06         0.00000E+00
   -0.13919E+06        -0.49727E+08         0.00000E+00
    0.00000E+00         0.00000E+00        -0.21101E+08
 
   -0.27440E+08        -0.11451E+06         0.00000E+00
   -0.11451E+06        -0.49718E+08         0.00000E+00
    0.00000E+00         0.00000E+00        -0.21101E+08
 
   -0.27260E+08        -0.89207E+05         0.00000E+00
   -0.89207E+05        -0.49711E+08         0.00000E+00
    0.00000E+00         0.00000E+00        -0.21102E+08
 
   -0.27082E+08        -0.63313E+05         0.00000E+00
   -0.63313E+05        -0.49706E+08         0.00000E+00
    0.00000E+00         0.00000E+00        -0.21102E+08
 
   -0.26905E+08        -0.36839E+05         0.00000E+00
   -0.36839E+05        -0.49705E+08         0.00000E+00
    0.00000E+00         0.00000E+00        -0.21103E+08
 
   -0.26729E+08        -0.97838E+04         0.00000E+00
   -0.97838E+04        -0.49707E+08         0.00000E+00
    0.00000E+00         0.00000E+00        -0.21103E+08
 
   -0.26553E+08         0.17862E+05         0.00000E+00
    0.17862E+05        -0.49713E+08         0.00000E+00
    0.00000E+00         0.00000E+00        -0.21103E+08
 
   -0.26377E+08         0.46120E+05         0.00000E+00
    0.46120E+05        -0.49721E+08         0.00000E+00
    0.00000E+00         0.00000E+00        -0.21104E+08
 
   -0.26201E+08         0.75023E+05         0.00000E+00
    0.75023E+05        -0.49733E+08         0.00000E+00
    0.00000E+00         0.00000E+00        -0.21104E+08
 
   -0.26024E+08         0.10461E+06         0.00000E+00
    0.10461E+06        -0.49749E+08         0.00000E+00
    0.00000E+00         0.00000E+00        -0.21104E+08
 
   -0.25846E+08         0.13494E+06         0.00000E+00
    0.13494E+06        -0.49768E+08         0.00000E+00
    0.00000E+00         0.00000E+00        -0.21105E+08
 
   -0.25667E+08         0.16607E+06         0.00000E+00
    0.16607E+06        -0.49792E+08         0.00000E+00
    0.00000E+00         0.00000E+00        -0.21105E+08
 
   -0.25486E+08         0.19808E+06         0.00000E+00
    0.19808E+06        -0.49819E+08         0.00000E+00
    0.00000E+00         0.00000E+00        -0.21105E+08
 
   -0.25303E+08         0.23107E+06         0.00000E+00
    0.23107E+06        -0.49850E+08         0.00000E+00
    0.00000E+00         0.00000E+00        -0.21106E+08
 
   -0.25118E+08         0.26513E+06         0.00000E+00
    0.26513E+06        -0.49885E+08         0.00000E+00
    0.00000E+00         0.00000E+00        -0.21106E+08
 
   -0.24930E+08         0.30041E+06         0.00000E+00
    0.30041E+06        -0.49925E+08         0.00000E+00
    0.00000E+00         0.00000E+00        -0.21106E+08
 
   -0.24738E+08         0.33706E+06         0.00000E+00
    0.33706E+06        -0.49969E+08         0.00000E+00
    0.00000E+00         0.00000E+00        -0.21107E+08
 
   -0.24544E+08         0.37525E+06         0.00000E+00
    0.37525E+06        -0.50018E+08         0.00000E+00
    0.00000E+00         0.00000E+00        -0.21107E+08
 
   -0.24345E+08         0.41520E+06         0.00000E+00
    0.41520E+06        -0.50072E+08         0.00000E+00
    0.00000E+00         0.00000E+00        -0.21107E+08
 
   -0.24142E+08         0.45719E+06         0.00000E+00
    0.45719E+06        -0.50131E+08         0.00000E+00
    0.00000E+00         0.00000E+00        -0.21108E+08
 
   -0.23934E+08         0.50152E+06         0.00000E+00
    0.50152E+06        -0.50195E+08         0.00000E+00
    0.00000E+00         0.00000E+00        -0.21108E+08
 
   -0.23721E+08         0.54858E+06         0.00000E+00
    0.54858E+06        -0.50265E+08         0.00000E+00
    0.00000E+00         0.00000E+00        -0.21108E+08
 
   -0.23502E+08         0.59885E+06         0.00000E+00
    0.59885E+06        -0.50341E+08         0.00000E+00
    0.00000E+00         0.00000E+00        -0.21108E+08
 
   -0.23276E+08         0.65292E+06         0.00000E+00
    0.65292E+06        -0.50423E+08         0.00000E+00
    0.00000E+00         0.00000E+00        -0.21109E+08
 
   -0.23044E+08         0.71153E+06         0.00000E+00
    0.71153E+06        -0.50511E+08         0.00000E+00
    0.00000E+00         0.00000E+00        -0.21109E+08
 
   -0.22805E+08         0.77563E+06         0.00000E+00
    0.77563E+06        -0.50607E+08         0.00000E+00
    0.00000E+00         0.00000E+00        -0.21109E+08
 
   -0.22559E+08         0.84641E+06         0.00000E+00
    0.84641E+06        -0.50709E+08         0.00000E+00
    0.00000E+00         0.00000E+00        -0.21109E+08
 
   -0.22305E+08         0.92544E+06         0.00000E+00
    0.92544E+06        -0.50820E+08         0.00000E+00
    0.00000E+00         0.00000E+00        -0.21109E+08
 
   -0.22043E+08         0.10147E+07         0.00000E+00
    0.10147E+07        -0.50937E+08         0.00000E+00
    0.00000E+00         0.00000E+00        -0.21109E+08
 
   -0.21776E+08         0.11169E+07         0.00000E+00
    0.11169E+07        -0.51063E+08         0.00000E+00
    0.00000E+00         0.00000E+00        -0.21109E+08
 
   -0.21506E+08         0.12354E+07         0.00000E+00
    0.12354E+07        -0.51195E+08         0.00000E+00
    0.00000E+00         0.00000E+00        -0.21110E+08
 
   -0.21240E+08         0.13744E+07         0.00000E+00
    0.13744E+07        -0.51332E+08         0.00000E+00
    0.00000E+00         0.00000E+00        -0.21110E+08
 
   -0.32492E+08        -0.10861E+06         0.00000E+00
   -0.10861E+06        -0.49986E+08         0.00000E+00
    0.00000E+00         0.00000E+00        -0.20364E+08
 
   -0.31994E+08        -0.13539E+06         0.00000E+00
   -0.13539E+06        -0.49953E+08         0.00000E+00
    0.00000E+00         0.00000E+00        -0.20364E+08
 
   -0.31558E+08        -0.14845E+06         0.00000E+00
   -0.14845E+06        -0.49911E+08         0.00000E+00
    0.00000E+00         0.00000E+00        -0.20364E+08
 
   -0.31170E+08        -0.15369E+06         0.00000E+00
   -0.15369E+06        -0.49861E+08         0.00000E+00
    0.00000E+00         0.00000E+00        -0.20364E+08
 
   -0.30818E+08        -0.15429E+06         0.00000E+00
   -0.15429E+06        -0.49809E+08         0.00000E+00
    0.00000E+00         0.00000E+00        -0.20364E+08
 
   -0.30495E+08        -0.15203E+06         0.00000E+00
   -0.15203E+06        -0.49755E+08         0.00000E+00
    0.00000E+00         0.00000E+00        -0.20365E+08
 
   -0.30196E+08        -0.14793E+06         0.00000E+00
   -0.14793E+06        -0.49701E+08         0.00000E+00
    0.00000E+00         0.00000E+00        -0.20365E+08
 
   -0.29916E+08        -0.14258E+06         0.00000E+00
   -0.14258E+06        -0.49648E+08         0.00000E+00
    0.00000E+00         0.00000E+00        -0.20365E+08
 
   -0.29653E+08        -0.13636E+06         0.00000E+00
   -0.13636E+06        -0.49597E+08         0.00000E+00
    0.00000E+00         0.00000E+00        -0.20365E+08
 
   -0.29405E+08        -0.12953E+06         0.00000E+00
   -0.12953E+06        -0.49547E+08         0.00000E+00
    0.00000E+00         0.00000E+00        -0.20365E+08
 
   -0.29168E+08        -0.12224E+06         0.00000E+00
   -0.12224E+06        -0.49500E+08         0.00000E+00
    0.00000E+00         0.00000E+00        -0.20365E+08
 
   -0.28941E+08        -0.11459E+06         0.00000E+00
   -0.11459E+06        -0.49455E+08         0.00000E+00
    0.00000E+00         0.00000E+00        -0.20365E+08
 
   -0.28723E+08        -0.10667E+06         0.00000E+00
   -0.10667E+06        -0.49413E+08         0.00000E+00
    0.00000E+00         0.00000E+00        -0.20366E+08
 
   -0.28512E+08        -0.98521E+05         0.00000E+00
   -0.98521E+05        -0.49374E+08         0.00000E+00
    0.00000E+00         0.00000E+00        -0.20366E+08
 
   -0.28308E+08        -0.90190E+05         0.00000E+00
   -0.90190E+05        -0.49338E+08         0.00000E+00
    0.00000E+00         0.00000E+00        -0.20366E+08
 
   -0.28109E+08        -0.81698E+05         0.00000E+00
   -0.81698E+05        -0.49305E+08         0.00000E+00
    0.00000E+00         0.00000E+00        -0.20366E+08
 
   -0.27916E+08        -0.73065E+05         0.00000E+00
   -0.73065E+05        -0.49275E+08         0.00000E+00
    0.00000E+00         0.00000E+00        -0.20366E+08
 
   -0.27726E+08        -0.64302E+05         0.00000E+00
   -0.64302E+05        -0.49249E+08         0.00000E+00
    0.00000E+00         0.00000E+00        -0.20366E+08
 
   -0.27539E+08        -0.55415E+05         0.00000E+00
   -0.55415E+05        -0.49226E+08         0.00000E+00
    0.00000E+00         0.00000E+00        -0.20366E+08
 
   -0.27355E+08        -0.46407E+05         0.00000E+00
   -0.46407E+05        -0.49207E+08         0.00000E+00
    0.00000E+00         0.00000E+00        -0.20367E+08
 
   -0.27173E+08        -0.37278E+05         0.00000E+00
   -0.37278E+05        -0.49191E+08         0.00000E+00
    0.00000E+00         0.00000E+00        -0.20367E+08
 
   -0.26993E+08        -0.28023E+05         0.00000E+00
   -0.28023E+05        -0.49179E+08         0.00000E+00
    0.00000E+00         0.00000E+00        -0.20367E+08
 
   -0.26814E+08        -0.18638E+05         0.00000E+00
   -0.18638E+05        -0.49170E+08         0.00000E+00
    0.00000E+00         0.00000E+00        -0.20367E+08
 
   -0.26636E+08        -0.91113E+04         0.00000E+00
   -0.91113E+04        -0.49165E+08         0.00000E+00
    0.00000E+00         0.00000E+00        -0.20367E+08
 
   -0.26458E+08         0.56642E+03         0.00000E+00
    0.56642E+03        -0.49164E+08         0.00000E+00
    0.00000E+00         0.00000E+00        -0.20367E+08
 
   -0.26281E+08         0.10409E+05         0.00000E+00
    0.10409E+05        -0.49167E+08         0.00000E+00
    0.00000E+00         0.00000E+00        -0.20367E+08
 
   -0.26102E+08         0.20434E+05         0.00000E+00
    0.20434E+05        -0.49174E+08         0.00000E+00
    0.00000E+00         0.00000E+00        -0.20368E+08
 
   -0.25923E+08         0.30660E+05         0.00000E+00
    0.30660E+05        -0.49184E+08         0.00000E+00
    0.00000E+00         0.00000E+00        -0.20368E+08
 
   -0.25743E+08         0.41108E+05         0.00000E+00
    0.41108E+05        -0.49199E+08         0.00000E+00
    0.00000E+00         0.00000E+00        -0.20368E+08
 
   -0.25561E+08         0.51806E+05         0.00000E+00
    0.51806E+05        -0.49218E+08         0.00000E+00
    0.00000E+00         0.00000E+00        -0.20368E+08
 
   -0.25377E+08         0.62784E+05         0.00000E+00
    0.62784E+05        -0.49241E+08         0.00000E+00
    0.00000E+00         0.00000E+00        -0.20368E+08
 
   -0.25190E+08         0.74078E+05         0.00000E+00
    0.74078E+05        -0.49269E+08         0.00000E+00
    0.00000E+00         0.00000E+00        -0.20368E+08
 
   -0.25001E+08         0.85728E+05         0.00000E+00
    0.85728E+05        -0.49302E+08         0.00000E+00
    0.00000E+00         0.00000E+00        -0.20368E+08
 
   -0.24808E+08         0.97784E+05         0.00000E+00
    0.97784E+05        -0.49339E+08         0.00000E+00
    0.00000E+00         0.00000E+00        -0.20369E+08
 
   -0.24612E+08         0.11030E+06         0.00000E+00
    0.11030E+06        -0.49380E+08         0.00000E+00
    0.00000E+00         0.00000E+00        -0.20369E+08
 
   -0.24412E+08         0.12336E+06         0.00000E+00
    0.12336E+06        -0.49427E+08         0.00000E+00
    0.00000E+00         0.00000E+00        -0.20369E+08
 
   -0.24206E+08         0.13703E+06         0.00000E+00
    0.13703E+06        -0.49480E+08         0.00000E+00
    0.00000E+00         0.00000E+00        -0.20369E+08
 
   -0.23996E+08         0.15143E+06         0.00000E+00
    0.15143E+06        -0.49538E+08         0.00000E+00
    0.00000E+00         0.00000E+00        -0.20369E+08
 
   -0.23779E+08         0.16667E+06         0.00000E+00
    0.16667E+06        -0.49601E+08         0.00000E+00
    0.00000E+00         0.00000E+00        -0.20369E+08
 
   -0.23555E+08         0.18293E+06         0.00000E+00
    0.18293E+06        -0.49671E+08         0.00000E+00
    0.00000E+00         0.00000E+00        -0.20369E+08
 
   -0.23323E+08         0.20041E+06         0.00000E+00
    0.20041E+06        -0.49748E+08         0.00000E+00
    0.00000E+00         0.00000E+00        -0.20369E+08
 
   -0.23083E+08         0.21937E+06         0.00000E+00
    0.21937E+06        -0.49832E+08         0.00000E+00
    0.00000E+00         0.00000E+00        -0.20369E+08
 
   -0.22832E+08         0.24018E+06         0.00000E+00
    0.24018E+06        -0.49924E+08         0.00000E+00
    0.00000E+00         0.00000E+00        -0.20369E+08
 
   -0.22570E+08         0.26332E+06         0.00000E+00
    0.26332E+06        -0.50024E+08         0.00000E+00
    0.00000E+00         0.00000E+00        -0.20370E+08
 
   -0.22294E+08         0.28946E+06         0.00000E+00
    0.28946E+06        -0.50134E+08         0.00000E+00
    0.00000E+00         0.00000E+00        -0.20370E+08
 
   -0.22001E+08         0.31960E+06         0.00000E+00
    0.31960E+06        -0.50255E+08         0.00000E+00
    0.00000E+00         0.00000E+00        -0.20370E+08
 
   -0.21690E+08         0.35517E+06         0.00000E+00
    0.35517E+06        -0.50388E+08         0.00000E+00
    0.00000E+00         0.00000E+00        -0.20370E+08
 
   -0.21354E+08         0.39842E+06         0.00000E+00
    0.39842E+06        -0.50536E+08         0.00000E+00
    0.00000E+00         0.00000E+00        -0.20370E+08
 
   -0.20988E+08         0.45296E+06         0.00000E+00
    0.45296E+06        -0.50702E+08         0.00000E+00
    0.00000E+00         0.00000E+00        -0.20370E+08
 
   -0.20583E+08         0.52484E+06         0.00000E+00
    0.52484E+06        -0.50889E+08         0.00000E+00
    0.00000E+00         0.00000E+00        -0.20370E+08
 
SCALARS stresss double 
LOOKUP_TABLE default
  -60296109.5495792     
  -60420663.7137542     
  -60533098.6508333     
  -60635946.2718902     
  -60730968.1340789     
  -60819445.6264831     
  -60902346.1140677     
  -60980422.5787228     
  -61054276.0750962     
  -61124396.5033799     
  -61191190.2160256     
  -61254999.3209353     
  -61316115.5631939     
  -61374790.5554076     
  -61431243.4802626     
  -61485667.0004221     
  -61538231.8700131     
  -61589090.5882789     
  -61638380.3353304     
  -61686225.3624700     
  -61732738.9633907     
  -61778025.1203818     
  -61822179.8969041     
  -61865292.6315999     
  -61907446.9770302     
  -61948721.8179160     
  -61989192.0975465     
  -62028929.5767309     
  -62068003.5468469     
  -62106481.5169610     
  -62144429.8945635     
  -62181914.6801978     
  -62219002.1983110     
  -62255759.8903045     
  -62292257.2015372     
  -62328566.6027642     
  -62364764.7995194     
  -62400934.2024551     
  -62437164.7612124     
  -62473556.3100589     
  -62510221.6457077     
  -62547290.6749432     
  -62584916.1657453     
  -62623281.9741875     
  -62662615.2238847     
  -62703205.0313396     
  -62745432.5039312     
  -62789820.9498189     
  -62837123.8210299     
  -62888485.9109072     
  -60231310.8777747     
  -60304683.0049922     
  -60379536.0539310     
  -60453821.2280769     
  -60526513.9106452     
  -60597124.4460974     
  -60665448.7375375     
  -60731437.2807086     
  -60795124.4484397     
  -60856589.3566911     
  -60915933.7760153     
  -60973269.4995817     
  -61028711.0894918     
  -61082371.7477349     
  -61134361.0335588     
  -61184783.6849997     
  -61233739.1046012     
  -61281321.2440469     
  -61327618.7256242     
  -61372715.1006132     
  -61416689.1827791     
  -61459615.4188197     
  -61501564.2724831     
  -61542602.6084882     
  -61582794.0683542     
  -61622199.4340279     
  -61660876.9775487     
  -61698882.7963820     
  -61736271.1347702     
  -61773094.6916403     
  -61809404.9153237     
  -61845252.2845320     
  -61880686.5735450     
  -61915757.0970835     
  -61950512.9263138     
  -61985003.0609262     
  -62019276.5316077     
  -62053382.3896814     
  -62087369.5111748     
  -62121286.0920218     
  -62155178.6226228     
  -62189089.9715508     
  -62223055.9174530     
  -62257098.9209019     
  -62291216.8703227     
  -62325362.4379600     
  -62359404.4103945     
  -62393053.4428287     
  -62425715.6336965     
  -62456195.6919989     
  -60176097.7089885     
  -60227553.5827381     
  -60279301.2546879     
  -60331468.6595270     
  -60383840.2220289     
  -60436126.4351945     
  -60488061.6257964     
  -60539432.3753960     
  -60590079.3860850     
  -60639890.3980508     
  -60688791.1548292     
  -60736736.9813134     
  -60783705.7325071     
  -60829692.1720927     
  -60874703.6017281     
  -60918756.5085935     
  -60961874.0136451     
  -61004083.9383403     
  -61045417.3446163     
  -61085907.4352135     
  -61125588.7275936     
  -61164496.4351095     
  -61202666.0046717     
  -61240132.7719215     
  -61276931.7036992     
  -61313097.2040766     
  -61348662.9649034     
  -61383661.8450807     
  -61418125.7648709     
  -61452085.6026381     
  -61485571.0815674     
  -61518610.6331175     
  -61551231.2221484     
  -61583458.1156516     
  -61615314.5725576     
  -61646821.4258566     
  -61677996.5198915     
  -61708853.9548864     
  -61739403.0777564     
  -61769647.1445458     
  -61799581.5704927     
  -61829191.6922287     
  -61858450.0266035     
  -61887313.2027932     
  -61915719.2594436     
  -61943587.2848535     
  -61970824.4891697     
  -61997353.2188852     
  -62023188.0535305     
  -62048635.0525760     
  -60098335.7614752     
  -60135652.0432793     
  -60173664.9707935     
  -60212159.7697624     
  -60251027.1620148     
  -60290168.4137751     
  -60329477.6915007     
  -60368845.9839944     
  -60408168.2278172     
  -60447348.6111485     
  -60486303.4168883     
  -60524961.9551574     
  -60563266.2738720     
  -60601170.1904106     
  -60638638.0097922     
  -60675643.1535276     
  -60712166.8260093     
  -60748196.7831802     
  -60783726.2305884     
  -60818752.8562184     
  -60853277.9916853     
  -60887305.8895232     
  -60920843.1019031     
  -60953897.9456391     
  -60986480.0388436     
  -61018599.8955386     
  -61050268.5655897     
  -61081497.3083349     
  -61112297.2891475     
  -61142679.2888591     
  -61172653.4165047     
  -61202228.8162677     
  -61231413.3599252     
  -61260213.3166780     
  -61288632.9933220     
  -61316674.3397574     
  -61344336.5186677     
  -61371615.4451203     
  -61398503.3138594     
  -61424988.1521118     
  -61451053.4676718     
  -61476678.1097071     
  -61501836.5230540     
  -61526499.6393981     
  -61550636.6430103     
  -61574217.5607276     
  -61597215.4458047     
  -61619603.2005030     
  -61641329.4567487     
  -61662229.1042146     
  -60000038.7692678     
  -60026968.4517050     
  -60054635.2565377     
  -60082963.2675213     
  -60111853.2873372     
  -60141213.0819364     
  -60170959.4062623     
  -60201015.3703727     
  -60231308.6619649     
  -60261771.0751833     
  -60292338.7738300     
  -60322952.7709996     
  -60353559.3344212     
  -60384110.2026949     
  -60414562.5976096     
  -60444879.0631909     
  -60475027.1762924     
  -60504979.1723460     
  -60534711.5225455     
  -60564204.4899637     
  -60593441.6840098     
  -60622409.6259827     
  -60651097.3333512     
  -60679495.9266336     
  -60707598.2600930     
  -60735398.5756699     
  -60762892.1784269     
  -60790075.1311273     
  -60816943.9652944     
  -60843495.4061410     
  -60869726.1090800     
  -60895632.4061512     
  -60921210.0616436     
  -60946454.0375389     
  -60971358.2712162     
  -60995915.4702054     
  -61020116.9316415     
  -61043952.3972415     
  -61067409.9574588     
  -61090476.0194787     
  -61113135.3499259     
  -61135371.1892199     
  -61157165.4021220     
  -61178498.5687315     
  -61199349.8324616     
  -61219696.2581792     
  -61239511.6495968     
  -61258766.0373503     
  -61277431.8596589     
  -61295518.4135037     
  -59880614.1240751     
  -59899707.1266829     
  -59919559.4439686     
  -59940101.4652898     
  -59961270.9901653     
  -59983005.2643232     
  -60005242.0425253     
  -60027921.0837810     
  -60050984.8585692     
  -60074378.7468079     
  -60098051.0558937     
  -60121953.0194101     
  -60146038.8178429     
  -60170265.6106291     
  -60194593.5566810     
  -60218985.8051532     
  -60243408.4470439     
  -60267830.4259690     
  -60292223.4116171     
  -60316561.6421381     
  -60340821.7426666     
  -60364982.5270071     
  -60389024.7887260     
  -60412931.0868635     
  -60436685.5304269     
  -60460273.5648745     
  -60483681.7630138     
  -60506897.6221429     
  -60529909.3688610     
  -60552705.7727578     
  -60575275.9701362     
  -60597609.2990157     
  -60619695.1468571     
  -60641522.8126990     
  -60663081.3856083     
  -60684359.6414022     
  -60705345.9593073     
  -60726028.2593447     
  -60746393.9595331     
  -60766429.9493647     
  -60786122.5728286     
  -60805457.6121331     
  -60824420.2662966     
  -60842995.1349847     
  -60861166.2590430     
  -60878917.3392176     
  -60896232.2978433     
  -60913096.0603316     
  -60929493.6509776     
  -60945398.5465942     
  -59740788.0968878     
  -59753809.7062474     
  -59767583.8697914     
  -59782059.3701423     
  -59797184.5407023     
  -59812909.5735873     
  -59829186.1448976     
  -59845967.1909966     
  -59863206.9782639     
  -59880861.2683342     
  -59898887.4655758     
  -59917244.7178357     
  -59935893.9767060     
  -59954798.0298931     
  -59973921.5144810     
  -59993230.9150388     
  -60012694.5474590     
  -60032282.5282264     
  -60051966.7288548     
  -60071720.7158123     
  -60091519.6769579     
  -60111340.3360951     
  -60131160.8576325     
  -60150960.7435416     
  -60170720.7248304     
  -60190422.6496922     
  -60210049.3703498     
  -60229584.6304626     
  -60249012.9547988     
  -60268319.5427216     
  -60287490.1668908     
  -60306511.0784435     
  -60325368.9197614     
  -60344050.6457548     
  -60362543.4543727     
  -60380834.7267758     
  -60398911.9773152     
  -60416762.8132096     
  -60434374.9037573     
  -60451735.9592889     
  -60468833.7211284     
  -60485655.9656485     
  -60502190.5273131     
  -60518425.3445419     
  -60534348.5216310     
  -60549948.3697371     
  -60565213.3416400     
  -60580131.7977663     
  -60594692.1030716     
  -60608886.4966470     
  -59581642.5900825     
  -59589945.1470749     
  -59598974.0695041     
  -59608688.1724732     
  -59619047.1515635     
  -59630011.1320310     
  -59641540.9609049     
  -59653598.3676644     
  -59666146.0253714     
  -59679147.5908926     
  -59692567.7500378     
  -59706372.2658414     
  -59720528.0226791     
  -59735003.0612885     
  -59749766.6028926     
  -59764789.0624940     
  -59780042.0521174     
  -59795498.3748620     
  -59811132.0105073     
  -59826918.0933110     
  -59842832.8826176     
  -59858853.7269457     
  -59874959.0223176     
  -59891128.1656956     
  -59907341.5044768     
  -59923580.2830585     
  -59939826.5875149     
  -59956063.2894253     
  -59972273.9898621     
  -59988442.9645008     
  -60004555.1107364     
  -60020595.8976159     
  -60036551.3192943     
  -60052407.8526330     
  -60068152.4194690     
  -60083772.3540168     
  -60099255.3758318     
  -60114589.5687685     
  -60129763.3663901     
  -60144765.5442580     
  -60159585.2192974     
  -60174211.8557901     
  -60188635.2763548     
  -60202845.6750454     
  -60216833.6306789     
  -60230590.1271969     
  -60244106.6106705     
  -60257375.1313846     
  -60270388.4681215     
  -60283139.0146939     
  -59404600.3238989     
  -59409240.2793376     
  -59414568.6454735     
  -59420552.2879359     
  -59427158.3875107     
  -59434354.6256044     
  -59442109.1677830     
  -59450390.7001544     
  -59459168.4862301     
  -59468412.4183006     
  -59478093.0590114     
  -59488181.6757244     
  -59498650.2699291     
  -59509471.6024313     
  -59520619.2141410     
  -59532067.4420835     
  -59543791.4303923     
  -59555767.1362663     
  -59567971.3310487     
  -59580381.5967053     
  -59592976.3180501     
  -59605734.6711105     
  -59618636.6080582     
  -59631662.8391617     
  -59644794.8122448     
  -59658014.6901559     
  -59671305.3267747     
  -59684650.2420867     
  -59698033.5968592     
  -59711440.1674394     
  -59724855.3211806     
  -59738264.9929722     
  -59751655.6633264     
  -59765014.3384338     
  -59778328.5325737     
  -59791586.2532188     
  -59804775.9891340     
  -59817886.7017013     
  -59830907.8196243     
  -59843829.2370599     
  -59856641.3151497     
  -59869334.8869525     
  -59881901.2660787     
  -59894332.2599464     
  -59906620.1890568     
  -59918757.9119777     
  -59930738.8476795     
  -59942556.9730372     
  -59954206.8062028     
  -59965683.7856398     
  -59211294.0648717     
  -59213110.7488556     
  -59215570.4287080     
  -59218646.3198223     
  -59222311.8559985     
  -59226540.7020634     
  -59231306.8160138     
  -59236584.4888739     
  -59242348.3772808     
  -59248573.5356009     
  -59255235.4472110     
  -59262310.0534668     
  -59269773.7796166     
  -59277603.5575334     
  -59285776.8453676     
  -59294271.6442324     
  -59303066.5119926     
  -59312140.5742147     
  -59321473.5323511     
  -59331045.6692607     
  -59340837.8522148     
  -59350831.5335671     
  -59361008.7493042     
  -59371352.1157119     
  -59381844.8244152     
  -59392470.6360635     
  -59403213.8729397     
  -59414059.4107823     
  -59424992.6701091     
  -59435999.6073280     
  -59447066.7059208     
  -59458180.9679698     
  -59469329.9062902     
  -59480501.5374102     
  -59491684.3756242     
  -59502867.4283166     
  -59514040.1927308     
  -59525192.6543314     
  -59536315.2868884     
  -59547399.0544056     
  -59558435.4150179     
  -59569416.3269752     
  -59580334.2567497     
  -59591182.1890609     
  -59601953.6382274     
  -59612642.6602851     
  -59623243.8675686     
  -59633752.4537240     
  -59644164.2327358     
  -59654475.5595194     
  -59003470.9927217     
  -59003131.7692706     
  -59003386.6296555     
  -59004213.9495999     
  -59005592.1882177     
  -59007499.9290890     
  -59009915.9069872     
  -59012819.0396164     
  -59016188.4584560     
  -59020003.5370212     
  -59024243.9169306     
  -59028889.5321710     
  -59033920.6316318     
  -59039317.7998360     
  -59045061.9758013     
  -59051134.4700091     
  -59057516.9795056     
  -59064191.6011820     
  -59071140.8432977     
  -59078347.6353225     
  -59085795.3361869     
  -59093467.7410405     
  -59101349.0866330     
  -59109424.0554459     
  -59117677.7787111     
  -59126095.8384633     
  -59134664.2687790     
  -59143369.5563604     
  -59152198.6406223     
  -59161138.9134424     
  -59170178.2187328     
  -59179304.8519839     
  -59188507.5599295     
  -59197775.5404699     
  -59207098.4429844     
  -59216466.3691499     
  -59225869.8743754     
  -59235299.9699473     
  -59244748.1259694     
  -59254206.2751609     
  -59263666.8175535     
  -59273122.6260961     
  -59282567.0531582     
  -59291993.9379548     
  -59301397.6150449     
  -59310772.9241687     
  -59320115.2211542     
  -59329420.3872566     
  -59338684.8335662     
  -59347905.5417331     
  -58782907.6722969     
  -58780941.1621188     
  -58779519.1387023     
  -58778624.1951517     
  -58778238.9235371     
  -58778345.9426160     
  -58778927.9274972     
  -58779967.6360895     
  -58781447.9343093     
  -58783351.8203265     
  -58785662.4476095     
  -58788363.1466417     
  -58791437.4453003     
  -58794869.0879232     
  -58798642.0530858     
  -58802740.5701051     
  -58807149.1342880     
  -58811852.5209505     
  -58816835.7982433     
  -58822084.3388293     
  -58827583.8304657     
  -58833320.2855523     
  -58839280.0497108     
  -58845449.8094708     
  -58851816.5991367     
  -58858367.8069205     
  -58865091.1804225     
  -58871974.8315502     
  -58879007.2409615     
  -58886177.2621227     
  -58893474.1250673     
  -58900887.4399421     
  -58908407.2004225     
  -58916023.7870748     
  -58923727.9707387     
  -58931510.9159969     
  -58939364.1847915     
  -58947279.7402388     
  -58955249.9506846     
  -58963267.5940344     
  -58971325.8623839     
  -58979418.3669714     
  -58987539.1434714     
  -58995682.6576292     
  -59003843.8111876     
  -59012017.9479647     
  -59020200.8600124     
  -59028388.7945475     
  -59036578.4632200     
  -59044767.0410686     
  -58551343.5265460     
  -58548165.4688422     
  -58545483.6656952     
  -58543284.1354892     
  -58541552.8378676     
  -58540275.6989488     
  -58539438.6348815     
  -58539027.5750525     
  -58539028.4842987     
  -58539427.3840871     
  -58540210.3727387     
  -58541363.6447194     
  -58542873.5089900     
  -58544726.4064126     
  -58546908.9262181     
  -58549407.8215476     
  -58552210.0240874     
  -58555302.6578160     
  -58558673.0518905     
  -58562308.7526977     
  -58566197.5351047     
  -58570327.4129417     
  -58574686.6487585     
  -58579263.7628946     
  -58584047.5419082     
  -58589027.0464101     
  -58594191.6183512     
  -58599530.8878109     
  -58605034.7793373     
  -58610693.5178870     
  -58616497.6344138     
  -58622437.9711529     
  -58628505.6866449     
  -58634692.2605435     
  -58640989.4982451     
  -58647389.5353762     
  -58653884.8421705     
  -58660468.2277623     
  -58667132.8444190     
  -58673872.1917298     
  -58680680.1207623     
  -58687550.8381908     
  -58694478.9103934     
  -58701459.2675030     
  -58708487.2074067     
  -58715558.3997067     
  -58722668.8896597     
  -58729815.1018685     
  -58736993.8430317     
  -58744202.3074521     
  -58310432.4943900     
  -58306367.2000920     
  -58302752.6256811     
  -58299577.5460838     
  -58296830.6428112     
  -58294500.5250636     
  -58292575.7503227     
  -58291044.8440919     
  -58289896.3189714     
  -58289118.6930524     
  -58288700.5076062     
  -58288630.3440610     
  -58288896.8402723     
  -58289488.7060942     
  -58290394.7382557     
  -58291603.8345503     
  -58293105.0073480     
  -58294887.3964426     
  -58296940.2812483     
  -58299253.0923625     
  -58301815.4225139     
  -58304617.0369154     
  -58307647.8830449     
  -58310898.0998773     
  -58314358.0265906     
  -58318018.2107762     
  -58321869.4161743     
  -58325902.6299655     
  -58330109.0696430     
  -58334480.1894935     
  -58339007.6867112     
  -58343683.5071706     
  -58348499.8508831     
  -58353449.1771566     
  -58358524.2094813     
  -58363717.9401579     
  -58369023.6346845     
  -58374434.8359145     
  -58379945.3679957     
  -58385549.3400963     
  -58391241.1499219     
  -58397015.4870206     
  -58402867.3358759     
  -58408791.9787789     
  -58414784.9984701     
  -58420842.2805249     
  -58426960.0154434     
  -58433134.7004655     
  -58439363.1413247     
  -58445642.4528145     
  -58061711.3814540     
  -58057009.7840698     
  -58052716.8459796     
  -58048823.5337832     
  -58045320.7030229     
  -58042199.1159065     
  -58039449.4585044     
  -58037062.3574931     
  -58035028.3963802     
  -58033338.1312135     
  -58031982.1057745     
  -58030950.8662548     
  -58030234.9754102     
  -58029825.0261936     
  -58029711.6548666     
  -58029885.5535945     
  -58030337.4825271     
  -58031058.2813729     
  -58032038.8804716     
  -58033270.3113753     
  -58034743.7169451     
  -58036450.3609768     
  -58038381.6373636     
  -58040529.0788104     
  -58042884.3651119     
  -58045439.3310062     
  -58048185.9736207     
  -58051116.4595202     
  -58054223.1313739     
  -58057498.5142535     
  -58060935.3215747     
  -58064526.4606963     
  -58068265.0381868     
  -58072144.3647697     
  -58076157.9599576     
  -58080299.5563820     
  -58084563.1038261     
  -58088942.7729647     
  -58093432.9588160     
  -58098028.2839044     
  -58102723.6011349     
  -58107513.9963757     
  -58112394.7907444     
  -58117361.5425893     
  -58122410.0491553     
  -58127536.3479262     
  -58132736.7176353     
  -58138007.6789218     
  -58143345.9945306     
  -58148748.6693527     
  -57806582.0045968     
  -57801436.8419804     
  -57796662.1045182     
  -57792250.4799448     
  -57788194.5393858     
  -57784486.7519319     
  -57781119.4988913     
  -57778085.0876859     
  -57775375.7654003     
  -57772983.7319690     
  -57770901.1529934     
  -57769120.1721828     
  -57767632.9234149     
  -57766431.5424111     
  -57765508.1780260     
  -57764855.0031465     
  -57764464.2252032     
  -57764328.0962917     
  -57764438.9229076     
  -57764789.0752961     
  -57765370.9964190     
  -57766177.2105445     
  -57767200.3314619     
  -57768433.0703284     
  -57769868.2431510     
  -57771498.7779107     
  -57773317.7213345     
  -57775318.2453202     
  -57777493.6530211     
  -57779837.3845956     
  -57782343.0226271     
  -57785004.2972199     
  -57787815.0907755     
  -57790769.4424529     
  -57793861.5523170     
  -57797085.7851783     
  -57800436.6741228     
  -57803908.9237373     
  -57807497.4130260     
  -57811197.1980191     
  -57815003.5140706     
  -57818911.7778415     
  -57822917.5889630     
  -57827016.7313755     
  -57831205.1743343     
  -57835479.0730742     
  -57839834.7691217     
  -57844268.7902425     
  -57848777.8500416     
  -57853358.8471121     
  -57546303.9351529     
  -57540862.3820365     
  -57535756.8980345     
  -57530981.5059729     
  -57526530.1146541     
  -57522396.5306378     
  -57518574.4698088     
  -57515057.5687242     
  -57511839.3957229     
  -57508913.4617889     
  -57506273.2311587     
  -57503912.1316646     
  -57501823.5648058     
  -57500000.9155412     
  -57498437.5617985     
  -57497126.8836945     
  -57496062.2724629     
  -57495237.1390870     
  -57494644.9226340     
  -57494279.0982899     
  -57494133.1850936     
  -57494200.7533696     
  -57494475.4318593     
  -57494950.9145510     
  -57495620.9672092     
  -57496479.4336047     
  -57497520.2414452     
  -57498737.4080093     
  -57500125.0454839     
  -57501677.3660067     
  -57503388.6864146     
  -57505253.4327002     
  -57507266.1441751     
  -57509421.4773428     
  -57511714.2094788     
  -57514139.2419207     
  -57516691.6030649     
  -57519366.4510694     
  -57522159.0762626     
  -57525064.9032534     
  -57528079.4927409     
  -57531198.5430207     
  -57534417.8911824     
  -57537733.5139950     
  -57541141.5284728     
  -57544638.1921179     
  -57548219.9028323     
  -57551883.1984932     
  -57555624.7561751     
  -57559441.3910359     
  -57281994.8449171     
  -57276368.8766594     
  -57271048.3507755     
  -57266028.3138649     
  -57261303.7061375     
  -57256869.3707633     
  -57252720.0631009     
  -57248850.4597904     
  -57245255.1676984     
  -57241928.7327044     
  -57238865.6483175     
  -57236060.3641135     
  -57233507.2939842     
  -57231200.8241898     
  -57229135.3212087     
  -57227305.1393758     
  -57225704.6283058     
  -57224328.1400941     
  -57223170.0362925     
  -57222224.6946532     
  -57221486.5156400     
  -57220949.9287013     
  -57220609.3983030     
  -57220459.4297194     
  -57220494.5745779     
  -57220709.4361586     
  -57221098.6744439     
  -57221657.0109187     
  -57222379.2331200     
  -57223260.1989319     
  -57224294.8406284     
  -57225478.1686596     
  -57226805.2751818     
  -57228271.3373294     
  -57229871.6202268     
  -57231601.4797394     
  -57233456.3649606     
  -57235431.8204343     
  -57237523.4881091     
  -57239727.1090223     
  -57242038.5247109     
  -57244453.6783466     
  -57246968.6155912     
  -57249579.4851689     
  -57252282.5391517     
  -57255074.1329540     
  -57257950.7250319     
  -57260908.8762818     
  -57263945.2491378     
  -57267056.6063545     
  -57014635.9285803     
  -57008910.6929513     
  -57003463.7313792     
  -56998290.8674934     
  -56993387.8289428     
  -56988750.2546815     
  -56984373.7021963     
  -56980253.6546633     
  -56976385.5280208     
  -56972764.6779482     
  -56969386.4067382     
  -56966245.9700548     
  -56963338.5835652     
  -56960659.4294390     
  -56958203.6627052     
  -56955966.4174596     
  -56953942.8129166     
  -56952127.9592981     
  -56950516.9635530     
  -56949104.9349038     
  -56947886.9902121     
  -56946858.2591619     
  -56946013.8892528     
  -56945349.0506023     
  -56944858.9405510     
  -56944538.7880685     
  -56944383.8579565     
  -56944389.4548463     
  -56944550.9269873     
  -56944863.6698241     
  -56945323.1293602     
  -56945924.8053045     
  -56946664.2539997     
  -56947537.0911287     
  -56948538.9941981     
  -56949665.7047951     
  -56950913.0306164     
  -56952276.8472668     
  -56953753.0998234     
  -56955337.8041658     
  -56957027.0480669     
  -56958816.9920437     
  -56960703.8699644     
  -56962683.9894099     
  -56964753.7317868     
  -56966909.5521881     
  -56969147.9790013     
  -56971465.6132588     
  -56973859.1277288     
  -56976325.2657455     
  -56745080.4172451     
  -56739320.8917330     
  -56733815.5953492     
  -56728560.9366134     
  -56723553.2396354     
  -56718788.7496854     
  -56714263.6387517     
  -56709974.0110706     
  -56705915.9086182     
  -56702085.3165542     
  -56698478.1686051     
  -56695090.3523802     
  -56691917.7146087     
  -56688956.0662902     
  -56686201.1877507     
  -56683648.8335957     
  -56681294.7375538     
  -56679134.6172034     
  -56677164.1785768     
  -56675379.1206346     
  -56673775.1396058     
  -56672347.9331876     
  -56671093.2046005     
  -56670006.6664925     
  -56669084.0446911     
  -56668321.0817944     
  -56667713.5406020     
  -56667257.2073788     
  -56666947.8949496     
  -56666781.4456206     
  -56666753.7339253     
  -56666860.6691910     
  -56667098.1979236     
  -56667462.3060076     
  -56667949.0207191     
  -56668554.4125484     
  -56669274.5968310     
  -56670105.7351831     
  -56671044.0367409     
  -56672085.7592000     
  -56673227.2096539     
  -56674464.7452286     
  -56675794.7735122     
  -56677213.7527766     
  -56678718.1919906     
  -56680304.6506208     
  -56681969.7382217     
  -56683710.1138097     
  -56685522.4850233     
  -56687403.6070652     
  -56474063.7093337     
  -56468319.9126802     
  -56462809.0652781     
  -56457528.0136061     
  -56452473.5313750     
  -56447642.3237054     
  -56443031.0313177     
  -56438636.2347252     
  -56434454.4584201     
  -56430482.1750419     
  -56426715.8095187     
  -56423151.7431741     
  -56419786.3177893     
  -56416615.8396127     
  -56413636.5833105     
  -56410844.7958495     
  -56408236.7003051     
  -56405808.4995894     
  -56403556.3800910     
  -56401476.5152219     
  -56399565.0688658     
  -56397818.1987212     
  -56396232.0595355     
  -56394802.8062250     
  -56393526.5968753     
  -56392399.5956188     
  -56391417.9753850     
  -56390577.9205192     
  -56389875.6292668     
  -56389307.3161180     
  -56388869.2140122     
  -56388557.5763965     
  -56388368.6791371     
  -56388298.8222794     
  -56388344.3316551     
  -56388501.5603343     
  -56388766.8899179     
  -56389136.7316711     
  -56389607.5274941     
  -56390175.7507279     
  -56390837.9067946     
  -56391590.5336694     
  -56392430.2021837     
  -56393353.5161571     
  -56394357.1123572     
  -56395437.6602870     
  -56396591.8617972     
  -56397816.4505253     
  -56399108.1911574     
  -56400463.8785164     
  -56202214.0807065     
  -56196525.0888658     
  -56191050.1771197     
  -56185786.5196710     
  -56180731.2289810     
  -56175881.3588338     
  -56171233.9074322     
  -56166785.8205130     
  -56162533.9944757     
  -56158475.2795137     
  -56154606.4827413     
  -56150924.3713081     
  -56147425.6754931     
  -56144107.0917704     
  -56140965.2858420     
  -56137996.8956275     
  -56135198.5342070     
  -56132566.7927102     
  -56130098.2431448     
  -56127789.4411606     
  -56125636.9287415     
  -56123637.2368231     
  -56121786.8878281     
  -56120082.3981171     
  -56118520.2803494     
  -56117097.0457495     
  -56115809.2062764     
  -56114653.2766902     
  -56113625.7765140     
  -56112723.2318870     
  -56111942.1773058     
  -56111279.1572506     
  -56110730.7276941     
  -56110293.4574897     
  -56109963.9296373     
  -56109738.7424238     
  -56109614.5104361     
  -56109587.8654453     
  -56109655.4571598     
  -56109813.9538451     
  -56110060.0428100     
  -56110390.4307571     
  -56110801.8439965     
  -56111291.0285216     
  -56111854.7499468     
  -56112489.7933056     
  -56113192.9627092     
  -56113961.0808652     
  -56114790.9884567     
  -56115679.5433802     
  -55930063.2824625     
  -55924460.2737570     
  -55919054.5534181     
  -55913843.5423714     
  -55908824.6098113     
  -55903995.0753967     
  -55899352.2114850     
  -55894893.2453969     
  -55890615.3617053     
  -55886515.7045405     
  -55882591.3799035     
  -55878839.4579832     
  -55875256.9754685     
  -55871840.9378496     
  -55868588.3217034     
  -55865496.0769555     
  -55862561.1291140     
  -55859780.3814696     
  -55857150.7172564     
  -55854669.0017687     
  -55852332.0844285     
  -55850136.8007998     
  -55848079.9745444     
  -55846158.4193154     
  -55844368.9405849     
  -55842708.3374010     
  -55841173.4040712     
  -55839760.9317685     
  -55838467.7100572     
  -55837290.5283347     
  -55836226.1771870     
  -55835271.4496550     
  -55834423.1424087     
  -55833678.0568273     
  -55833032.9999830     
  -55832484.7855259     
  -55832030.2344687     
  -55831666.1758694     
  -55831389.4474098     
  -55831196.8958695     
  -55831085.3774929     
  -55831051.7582496     
  -55831092.9139856     
  -55831205.7304662     
  -55831387.1033092     
  -55831633.9378081     
  -55831943.1486454     
  -55832311.6594954     
  -55832736.4025183     
  -55833214.3177433     
  -55658056.5972531     
  -55652565.1226422     
  -55647255.9193965     
  -55642126.5970202     
  -55637174.7220916     
  -55632397.8197918     
  -55627793.3754751     
  -55623358.8362752     
  -55619091.6127402     
  -55614989.0804913     
  -55611048.5818984     
  -55607267.4277678     
  -55603642.8990353     
  -55600172.2484604     
  -55596852.7023157     
  -55593681.4620663     
  -55590655.7060352     
  -55587772.5910486     
  -55585029.2540582     
  -55582422.8137340     
  -55579950.3720258     
  -55577609.0156874     
  -55575395.8177603     
  -55573307.8390136     
  -55571342.1293359     
  -55569495.7290762     
  -55567765.6703302     
  -55566148.9781696     
  -55564642.6718108     
  -55563243.7657204     
  -55561949.2706556     
  -55560756.1946364     
  -55559661.5438469     
  -55558662.3234648     
  -55557755.5384169     
  -55556938.1940573     
  -55556207.2967688     
  -55555559.8544852     
  -55554992.8771318     
  -55554503.3769859     
  -55554088.3689529     
  -55553744.8707605     
  -55553469.9030674     
  -55553260.4894876     
  -55553113.6565307     
  -55553026.4334550     
  -55552995.8520375     
  -55553018.9462572     
  -55553092.7518948     
  -55553214.3060476     
  -55386562.1151426     
  -55381203.7600760     
  -55376014.1662763     
  -55370991.0912217     
  -55366132.2570138     
  -55361435.3514058     
  -55356898.0288725     
  -55352517.9117164     
  -55348292.5912043     
  -55344219.6287313     
  -55340296.5570042     
  -55336520.8812435     
  -55332890.0803962     
  -55329401.6083560     
  -55326052.8951878     
  -55322841.3483497     
  -55319764.3539106     
  -55316819.2777588     
  -55314003.4667967     
  -55311314.2501194     
  -55308748.9401731     
  -55306304.8338889     
  -55303979.2137900     
  -55301769.3490690     
  -55299672.4966309     
  -55297685.9021004     
  -55295806.8007901     
  -55294032.4186271     
  -55292359.9730353     
  -55290786.6737713     
  -55289309.7237115     
  -55287926.3195884     
  -55286633.6526742     
  -55285428.9094100     
  -55284309.2719783     
  -55283271.9188186     
  -55282314.0250832     
  -55281432.7630332     
  -55280625.3023727     
  -55279888.8105208     
  -55279220.4528209     
  -55278617.3926852     
  -55278076.7916762     
  -55277595.8095225     
  -55277171.6040701     
  -55276801.3311691     
  -55276482.1444950     
  -55276211.1953063     
  -55275985.6321369     
  -55275802.6004257     
  -55115879.1223277     
  -55110672.6985778     
  -55105622.8007151     
  -55100727.3067770     
  -55095984.0657581     
  -55091390.8982732     
  -55086945.5972577     
  -55082645.9287031     
  -55078489.6324225     
  -55074474.4228424     
  -55070597.9898169     
  -55066857.9994608     
  -55063252.0949977     
  -55059777.8976186     
  -55056433.0073496     
  -55053215.0039230     
  -55050121.4476491     
  -55047149.8802861     
  -55044297.8259050     
  -55041562.7917440     
  -55038942.2690535     
  -55036433.7339251     
  -55034034.6481039     
  -55031742.4597807     
  -55029554.6043622     
  -55027468.5052154     
  -55025481.5743858     
  -55023591.2132853     
  -55021794.8133494     
  -55020089.7566600     
  -55018473.4165334     
  -55016943.1580715     
  -55015496.3386732     
  -55014130.3085069     
  -55012842.4109402     
  -55011629.9829279     
  -55010490.3553546     
  -55009420.8533340     
  -55008418.7964605     
  -55007481.4990159     
  -55006606.2701272     
  -55005790.4138781     
  -55005031.2293710     
  -55004326.0107418     
  -55003672.0471251     
  -55003066.6225718     
  -55002507.0159177     
  -55001990.5006047     
  -55001514.3444532     
  -55001075.8093891     
  -54846245.5838542     
  -54841207.9642119     
  -54836315.7117588     
  -54831566.8073750     
  -54826959.2081135     
  -54822490.8476027     
  -54818159.6364828     
  -54813963.4628734     
  -54809900.1928689     
  -54805967.6710590     
  -54802163.7210702     
  -54798486.1461271     
  -54794932.7296285     
  -54791501.2357372     
  -54788189.4099794     
  -54784994.9798515     
  -54781915.6554316     
  -54778949.1299928     
  -54776093.0806156     
  -54773345.1687978     
  -54770703.0410584     
  -54768164.3295335     
  -54765726.6525620     
  -54763387.6152599     
  -54761144.8100786     
  -54758995.8173481     
  -54756938.2058012     
  -54754969.5330780     
  -54753087.3462078     
  -54751289.1820687     
  -54749572.5678211     
  -54747935.0213149     
  -54746374.0514701     
  -54744887.1586266     
  -54743471.8348652     
  -54742125.5642974     
  -54740845.8233220     
  -54739630.0808506     
  -54738475.7984975     
  -54737380.4307374     
  -54736341.4250270     
  -54735356.2218921     
  -54734422.2549793     
  -54733536.9510723     
  -54732697.7300722     
  -54731902.0049433     
  -54731147.1816222     
  -54730430.6588934     
  -54729749.8282283     
  -54729102.0735925     
  -54577844.7564623     
  -54572991.4427925     
  -54568273.2475933     
  -54563688.2438170     
  -54559234.4848120     
  -54554910.0045468     
  -54550712.8178632     
  -54546640.9207574     
  -54542692.2906846     
  -54538864.8868868     
  -54535156.6507398     
  -54531565.5061179     
  -54528089.3597746     
  -54524726.1017353     
  -54521473.6057010     
  -54518329.7294615     
  -54515292.3153139     
  -54512359.1904862     
  -54509528.1675627     
  -54506797.0449108     
  -54504163.6071048     
  -54501625.6253474     
  -54499180.8578854     
  -54496827.0504187     
  -54494561.9365004     
  -54492383.2379270     
  -54490288.6651162     
  -54488275.9174725     
  -54486342.6837368     
  -54484486.6423214     
  -54482705.4616270     
  -54480996.8003417     
  -54479358.3077205     
  -54477787.6238448     
  -54476282.3798599     
  -54474840.1981912     
  -54473458.6927377     
  -54472135.4690405     
  -54470868.1244298     
  -54469654.2481451     
  -54468491.4214321     
  -54467377.2176133     
  -54466309.2021347     
  -54465284.9325856     
  -54464301.9586939     
  -54463357.8222957     
  -54462450.0572798     
  -54461576.1895071     
  -54460733.7367059     
  -54459920.2083424     
  -54310810.9992364     
  -54306156.4952807     
  -54301627.6322015     
  -54297222.5690679     
  -54292939.4487129     
  -54288776.3978415     
  -54284731.5271636     
  -54280802.9315493     
  -54276988.6902050     
  -54273286.8668691     
  -54269695.5100248     
  -54266212.6531283     
  -54262836.3148513     
  -54259564.4993358     
  -54256395.1964586     
  -54253326.3821053     
  -54250356.0184512     
  -54247482.0542476     
  -54244702.4251123     
  -54242015.0538221     
  -54239417.8506068     
  -54236908.7134419     
  -54234485.5283400     
  -54232146.1696383     
  -54229888.5002821     
  -54227710.3721015     
  -54225609.6260821     
  -54223584.0926262     
  -54221631.5918058     
  -54219749.9336048     
  -54217936.9181490     
  -54216190.3359257     
  -54214507.9679884     
  -54212887.5861486     
  -54211326.9531532     
  -54209823.8228456     
  -54208375.9403125     
  -54206981.0420134     
  -54205636.8558938     
  -54204341.1014813     
  -54203091.4899642     
  -54201885.7242532     
  -54200721.4990246     
  -54199596.5007463     
  -54198508.4076861     
  -54197454.8899022     
  -54196433.6092164     
  -54195442.2191698     
  -54194478.3649625     
  -54193539.6833754     
  -54045234.8651025     
  -54040792.9094611     
  -54036467.7735009     
  -54032257.6996461     
  -54028160.9167361     
  -54024175.6400643     
  -54020300.0714358     
  -54016532.3992444     
  -54012870.7985658     
  -54009313.4312679     
  -54005858.4461345     
  -54002503.9790033     
  -53999248.1529154     
  -53996089.0782752     
  -53993024.8530210     
  -53990053.5628021     
  -53987173.2811646     
  -53984382.0697414     
  -53981677.9784480     
  -53979059.0456808     
  -53976523.2985180     
  -53974068.7529219     
  -53971693.4139405     
  -53969395.2759091     
  -53967172.3226487     
  -53965022.5276625     
  -53962943.8543281     
  -53960934.2560847     
  -53958991.6766150     
  -53957114.0500206     
  -53955299.3009901     
  -53953545.3449600     
  -53951850.0882658     
  -53950211.4282855     
  -53948627.2535727     
  -53947095.4439796     
  -53945613.8707696     
  -53944180.3967193     
  -53942792.8762085     
  -53941449.1552999     
  -53940147.0718058     
  -53938884.4553441     
  -53937659.1273817     
  -53936468.9012664     
  -53935311.5822468     
  -53934184.9674800     
  -53933086.8460284     
  -53932014.9988447     
  -53930967.1987455     
  -53929941.2103746     
  -53781167.5608686     
  -53776951.2625228     
  -53772843.5247946     
  -53768842.6726914     
  -53764947.0197023     
  -53761154.8677996     
  -53757464.5074560     
  -53753874.2176764     
  -53750382.2660429     
  -53746986.9087732     
  -53743686.3907898     
  -53740478.9458013     
  -53737362.7963926     
  -53734336.1541242     
  -53731397.2196407     
  -53728544.1827848     
  -53725775.2227189     
  -53723088.5080514     
  -53720482.1969681     
  -53717954.4373661     
  -53715503.3669917     
  -53713127.1135800     
  -53710823.7949949     
  -53708591.5193702     
  -53706428.3852503     
  -53704332.4817296     
  -53702301.8885899     
  -53700334.6764360     
  -53698428.9068277     
  -53696582.6324081     
  -53694793.8970284     
  -53693060.7358668     
  -53691381.1755433     
  -53689753.2342282     
  -53688174.9217447     
  -53686644.2396653     
  -53685159.1814011     
  -53683717.7322842     
  -53682317.8696438     
  -53680957.5628727     
  -53679634.7734892     
  -53678347.4551886     
  -53677093.5538891     
  -53675871.0077690     
  -53674677.7472965     
  -53673511.6952518     
  -53672370.7667426     
  -53671252.8692114     
  -53670155.9024364     
  -53669077.7585262     
  -53518624.8614080     
  -53514646.7696055     
  -53510769.4642377     
  -53506991.3532403     
  -53503310.8346308     
  -53499726.2964972     
  -53496236.1169973     
  -53492838.6643701     
  -53489532.2969562     
  -53486315.3632287     
  -53483186.2018331     
  -53480143.1416355     
  -53477184.5017790     
  -53474308.5917466     
  -53471513.7114312     
  -53468798.1512118     
  -53466160.1920341     
  -53463598.1054961     
  -53461110.1539385     
  -53458694.5905373     
  -53456349.6593996     
  -53454073.5956623     
  -53451864.6255914     
  -53449720.9666831     
  -53447640.8277648     
  -53445622.4090972     
  -53443663.9024743     
  -53441763.4913239     
  -53439919.3508058     
  -53438129.6479087     
  -53436392.5415444     
  -53434706.1826395     
  -53433068.7142243     
  -53431478.2715185     
  -53429932.9820128     
  -53428430.9655471     
  -53426970.3343848     
  -53425549.1932826     
  -53424165.6395559     
  -53422817.7631398     
  -53421503.6466461     
  -53420221.3654142     
  -53418968.9875591     
  -53417744.5740137     
  -53416546.1785670     
  -53415371.8478974     
  -53414219.6216025     
  -53413087.5322243     
  -53411973.6052697     
  -53410875.8592290     
  -53257590.5575572     
  -53253862.6895186     
  -53250228.2552567     
  -53246685.7464825     
  -53243233.6462311     
  -53239870.4288507     
  -53236594.5600014     
  -53233404.4966606     
  -53230298.6871365     
  -53227275.5710882     
  -53224333.5795525     
  -53221471.1349773     
  -53218686.6512604     
  -53215978.5337936     
  -53213345.1795127     
  -53210784.9769507     
  -53208296.3062964     
  -53205877.5394559     
  -53203527.0401180     
  -53201243.1638219     
  -53199024.2580275     
  -53196868.6621884     
  -53194774.7078259     
  -53192740.7186041     
  -53190765.0104068     
  -53188845.8914141     
  -53186981.6621796     
  -53185170.6157076     
  -53183411.0375292     
  -53181701.2057789     
  -53180039.3912686     
  -53178423.8575619     
  -53176852.8610455     
  -53175324.6510003     
  -53173837.4696693     
  -53172389.5523244     
  -53170979.1273303     
  -53169604.4162067     
  -53168263.6336875     
  -53166954.9877780     
  -53165676.6798095     
  -53164426.9044908     
  -53163203.8499584     
  -53162005.6978228     
  -53160830.6232132     
  -53159676.7948201     
  -53158542.3749353     
  -53157425.5194895     
  -53156324.3780890     
  -53155237.0940501     
  -52998019.5092763     
  -52994553.3526329     
  -52991173.6464127     
  -52987878.9670424     
  -52984667.8832470     
  -52981538.9560508     
  -52978490.7387832     
  -52975521.7770903     
  -52972630.6089500     
  -52969815.7646935     
  -52967075.7670295     
  -52964409.1310741     
  -52961814.3643838     
  -52959289.9669927     
  -52956834.4314529     
  -52954446.2428785     
  -52952123.8789921     
  -52949865.8101747     
  -52947670.4995174     
  -52945536.4028760     
  -52943461.9689267     
  -52941445.6392242     
  -52939485.8482608     
  -52937581.0235274     
  -52935729.5855741     
  -52933929.9480730     
  -52932180.5178806     
  -52930479.6951007     
  -52928825.8731475     
  -52927217.4388081     
  -52925652.7723058     
  -52924130.2473618     
  -52922648.2312567     
  -52921205.0848917     
  -52919799.1628483     
  -52918428.8134477     
  -52917092.3788087     
  -52915788.1949045     
  -52914514.5916191     
  -52913269.8928016     
  -52912052.4163199     
  -52910860.4741132     
  -52909692.3722435     
  -52908546.4109455     
  -52907420.8846764     
  -52906314.0821642     
  -52905224.2864551     
  -52904149.7749611     
  -52903088.8195059     
  -52902039.6863720     
  -52739840.3668823     
  -52736646.8686978     
  -52733533.1634202     
  -52730497.9129657     
  -52727539.7723359     
  -52724657.3896331     
  -52721849.4060803     
  -52719114.4560424     
  -52716451.1670508     
  -52713858.1598312     
  -52711334.0483325     
  -52708877.4397600     
  -52706486.9346093     
  -52704161.1267041     
  -52701898.6032346     
  -52699697.9447992     
  -52697557.7254472     
  -52695476.5127240     
  -52693452.8677173     
  -52691485.3451051     
  -52689572.4932051     
  -52687712.8540251     
  -52685904.9633142     
  -52684147.3506160     
  -52682438.5393208     
  -52680777.0467203     
  -52679161.3840613     
  -52677590.0566009     
  -52676061.5636614     
  -52674574.3986854     
  -52673127.0492909     
  -52671717.9973273     
  -52670345.7189294     
  -52669008.6845736     
  -52667705.3591319     
  -52666434.2019268     
  -52665193.6667854     
  -52663982.2020935     
  -52662798.2508492     
  -52661640.2507159     
  -52660506.6340760     
  -52659395.8280831     
  -52658306.2547147     
  -52657236.3308248     
  -52656184.4681963     
  -52655149.0735931     
  -52654128.5488130     
  -52653121.2907403     
  -52652125.6913988     
  -52651140.1380059     
  -52482958.0145265     
  -52480047.5649109     
  -52477210.5397820     
  -52474445.6870129     
  -52471751.7482254     
  -52469127.4588223     
  -52466571.5480219     
  -52464082.7388918     
  -52461659.7483855     
  -52459301.2873788     
  -52457006.0607073     
  -52454772.7672058     
  -52452600.0997473     
  -52450486.7452846     
  -52448431.3848918     
  -52446432.6938070     
  -52444489.3414760     
  -52442599.9915972     
  -52440763.3021665     
  -52438977.9255237     
  -52437242.5083993     
  -52435555.6919620     
  -52433916.1118670     
  -52432322.3983043     
  -52430773.1760478     
  -52429267.0645055     
  -52427802.6777684     
  -52426378.6246616     
  -52424993.5087942     
  -52423645.9286104     
  -52422334.4774402     
  -52421057.7435508     
  -52419814.3101971     
  -52418602.7556737     
  -52417421.6533663     
  -52416269.5718028     
  -52415145.0747052     
  -52414046.7210413     
  -52412973.0650767     
  -52411922.6564267     
  -52410894.0401086     
  -52409885.7565946     
  -52408896.3418639     
  -52407924.3274565     
  -52406968.2405270     
  -52406026.6038984     
  -52405097.9361174     
  -52404180.7515101     
  -52403273.5602383     
  -52402374.8683574     
  -52227255.7820313     
  -52224638.1974741     
  -52222087.9263735     
  -52219603.8026625     
  -52217184.6546154     
  -52214829.3048968     
  -52212536.5706093     
  -52210305.2633406     
  -52208134.1892108     
  -52206022.1489187     
  -52203967.9377885     
  -52201970.3458160     
  -52200028.1577144     
  -52198140.1529609     
  -52196305.1058426     
  -52194521.7855025     
  -52192788.9559862     
  -52191105.3762875     
  -52189469.8003955     
  -52187880.9773407     
  -52186337.6512418     
  -52184838.5613526     
  -52183382.4421086     
  -52181968.0231745     
  -52180594.0294911     
  -52179259.1813228     
  -52177962.1943047     
  -52176701.7794909     
  -52175476.6434017     
  -52174285.4880717     
  -52173127.0110979     
  -52171999.9056879     
  -52170902.8607082     
  -52169834.5607330     
  -52168793.6860927     
  -52167778.9129234     
  -52166788.9132160     
  -52165822.3548656     
  -52164877.9017222     
  -52163954.2136403     
  -52163049.9465304     
  -52162163.7524101     
  -52161294.2794561     
  -52160440.1720569     
  -52159600.0708662     
  -52158772.6128570     
  -52157956.4313767     
  -52157150.1562035     
  -52156352.4136034     
  -52155561.8263890     
  -51972597.4639897     
  -51970281.9734170     
  -51968027.9146000     
  -51965834.2072723     
  -51963699.7660743     
  -51961623.5006144     
  -51959604.3155285     
  -51957641.1105381     
  -51955732.7805069     
  -51953878.2154956     
  -51952076.3008161     
  -51950325.9170844     
  -51948625.9402726     
  -51946975.2417595     
  -51945372.6883813     
  -51943817.1424811     
  -51942307.4619573     
  -51940842.5003125     
  -51939421.1067014     
  -51938042.1259775     
  -51936704.3987411     
  -51935406.7613852     
  -51934148.0461422     
  -51932927.0811305     
  -51931742.6903995     
  -51930593.6939764     
  -51929478.9079114     
  -51928397.1443233     
  -51927347.2114453     
  -51926327.9136705     
  -51925338.0515973     
  -51924376.4220753     
  -51923441.8182511     
  -51922533.0296141     
  -51921648.8420430     
  -51920788.0378515     
  -51919949.3958362     
  -51919131.6913224     
  -51918333.6962125     
  -51917554.1790337     
  -51916791.9049865     
  -51916045.6359937     
  -51915314.1307506     
  -51914596.1447751     
  -51913890.4304595     
  -51913195.7371224     
  -51912510.8110627     
  -51911834.3956132     
  -51911165.2311968     
  -51910502.0553831     
  -51718829.1787494     
  -51716824.4137839     
  -51714875.4026607     
  -51712981.1503387     
  -51711140.6572529     
  -51709352.9193843     
  -51707616.9283286     
  -51705931.6713611     
  -51704296.1314999     
  -51702709.2875675     
  -51701170.1142494     
  -51699677.5821520     
  -51698230.6578585     
  -51696828.3039829     
  -51695469.4792229     
  -51694153.1384120     
  -51692878.2325696     
  -51691643.7089507     
  -51690448.5110941     
  -51689291.5788702     
  -51688171.8485276     
  -51687088.2527393     
  -51686039.7206483     
  -51685025.1779118     
  -51684043.5467465     
  -51683093.7459717     
  -51682174.6910534     
  -51681285.2941471     
  -51680424.4641413     
  -51679591.1067002     
  -51678784.1243061     
  -51678002.4163027     
  -51677244.8789372     
  -51676510.4054033     
  -51675797.8858842     
  -51675106.2075953     
  -51674434.2548282     
  -51673780.9089934     
  -51673145.0486653     
  -51672525.5496258     
  -51671921.2849100     
  -51671331.1248515     
  -51670753.9371285     
  -51670188.5868112     
  -51669633.9364093     
  -51669088.8459207     
  -51668552.1728817     
  -51668022.7724171     
  -51667499.4972924     
  -51666981.1979674     
  -51465781.0945761     
  -51464095.0844037     
  -51462459.3300339     
  -51460872.9208302     
  -51459334.9422292     
  -51457844.4758161     
  -51456400.5993970     
  -51455002.3870677     
  -51453648.9092802     
  -51452339.2329068     
  -51451072.4213008     
  -51449847.5343568     
  -51448663.6285669     
  -51447519.7570764     
  -51446414.9697367     
  -51445348.3131577     
  -51444318.8307575     
  -51443325.5628110     
  -51442367.5464978     
  -51441443.8159480     
  -51440553.4022876     
  -51439695.3336823     
  -51438868.6353806     
  -51438072.3297570     
  -51437305.4363521     
  -51436566.9719151     
  -51435855.9504433     
  -51435171.3832220     
  -51434512.2788646     
  -51433877.6433509     
  -51433266.4800668     
  -51432677.7898424     
  -51432110.5709908     
  -51431563.8193467     
  -51431036.5283047     
  -51430527.6888584     
  -51430036.2896386     
  -51429561.3169529     
  -51429101.7548246     
  -51428656.5850328     
  -51428224.7871523     
  -51427805.3385946     
  -51427397.2146489     
  -51426999.3885239     
  -51426610.8313912     
  -51426230.5124282     
  -51425857.3988626     
  -51425490.4560180     
  -51425128.6473602     
  -51424770.9345448     
  -51213269.0458504     
  -51211909.2163741     
  -51210594.3015542     
  -51209323.4741802     
  -51208095.9037572     
  -51206910.7565813     
  -51205767.1958113     
  -51204664.3815374     
  -51203601.4708474     
  -51202577.6178887     
  -51201591.9739291     
  -51200643.6874144     
  -51199731.9040235     
  -51198855.7667219     
  -51198014.4158124     
  -51197206.9889846     
  -51196432.6213620     
  -51195690.4455482     
  -51194979.5916703     
  -51194299.1874227     
  -51193648.3581075     
  -51193026.2266756     
  -51192431.9137654     
  -51191864.5377413     
  -51191323.2147304     
  -51190807.0586595     
  -51190315.1812907     
  -51189846.6922562     
  -51189400.6990931     
  -51188976.3072774     
  -51188572.6202578     
  -51188188.7394888     
  -51187823.7644641     
  -51187476.7927496     
  -51187146.9200161     
  -51186833.2400725     
  -51186534.8448984     
  -51186250.8246778     
  -51185980.2678319     
  -51185722.2610529     
  -51185475.8893380     
  -51185240.2360239     
  -51185014.3828218     
  -51184797.4098522     
  -51184588.3956818     
  -51184386.4173600     
  -51184190.5504565     
  -51183999.8690995     
  -51183813.4460156     
  -51183630.3525696     
  -50961096.0585266     
  -50960069.2350198     
  -50959082.1193464     
  -50958133.9666820     
  -50957224.0296149     
  -50956351.5582169     
  -50955515.8001109     
  -50954716.0005345     
  -50953951.4024015     
  -50953221.2463596     
  -50952524.7708458     
  -50951861.2121390     
  -50951229.8044106     
  -50950629.7797722     
  -50950060.3683213     
  -50949520.7981854     
  -50949010.2955640     
  -50948528.0847683     
  -50948073.3882600     
  -50947645.4266886     
  -50947243.4189265     
  -50946866.5821035     
  -50946514.1316400     
  -50946185.2812789     
  -50945879.2431167     
  -50945595.2276335     
  -50945332.4437225     
  -50945090.0987184     
  -50944867.3984254     
  -50944663.5471447     
  -50944477.7477014     
  -50944309.2014709     
  -50944157.1084057     
  -50944020.6670603     
  -50943899.0746185     
  -50943791.5269180     
  -50943697.2184764     
  -50943615.3425179     
  -50943545.0909979     
  -50943485.6546300     
  -50943436.2229123     
  -50943395.9841539     
  -50943364.1255021     
  -50943339.8329704     
  -50943322.2914658     
  -50943310.6848183     
  -50943304.1958100     
  -50943302.0062049     
  -50943303.2967802     
  -50943307.2473580     
  -50709053.8011458     
  -50708366.2133502     
  -50707713.2383475     
  -50707094.2126937     
  -50706508.4711147     
  -50705955.3465682     
  -50705434.1703021     
  -50704944.2719101     
  -50704484.9793836     
  -50704055.6191617     
  -50703655.5161779     
  -50703283.9939040     
  -50702940.3743929     
  -50702623.9783173     
  -50702334.1250079     
  -50702070.1324887     
  -50701831.3175109     
  -50701616.9955847     
  -50701426.4810095     
  -50701259.0869032     
  -50701114.1252292     
  -50700990.9068228     
  -50700888.7414157     
  -50700806.9376603     
  -50700744.8031523     
  -50700701.6444525     
  -50700676.7671081     
  -50700669.4756727     
  -50700679.0737263     
  -50700704.8638939     
  -50700746.1478648     
  -50700802.2264101     
  -50700872.3994008     
  -50700955.9658253     
  -50701052.2238066     
  -50701160.4706198     
  -50701280.0027089     
  -50701410.1157040     
  -50701550.1044388     
  -50701699.2629671     
  -50701856.8845815     
  -50702022.2618301     
  -50702194.6865349     
  -50702373.4498106     
  -50702557.8420829     
  -50702747.1531082     
  -50702940.6719936     
  -50703137.6872168     
  -50703337.4866479     
  -50703539.3575711     
  -50456923.9753871     
  -50456581.2638680     
  -50456268.1591102     
  -50455984.0781733     
  -50455728.4371039     
  -50455500.6509850     
  -50455300.1339815     
  -50455126.2993829     
  -50454978.5596441     
  -50454856.3264217     
  -50454759.0106101     
  -50454686.0223735     
  -50454636.7711769     
  -50454610.6658136     
  -50454607.1144328     
  -50454625.5245631     
  -50454665.3031360     
  -50454725.8565068     
  -50454806.5904746     
  -50454906.9103001     
  -50455026.2207231     
  -50455163.9259780     
  -50455319.4298085     
  -50455492.1354813     
  -50455681.4457983     
  -50455886.7631090     
  -50456107.4893212     
  -50456343.0259111     
  -50456592.7739335     
  -50456856.1340303     
  -50457132.5064397     
  -50457421.2910039     
  -50457721.8871775     
  -50458033.6940344     
  -50458356.1102760     
  -50458688.5342378     
  -50459030.3638970     
  -50459380.9968790     
  -50459739.8304651     
  -50460106.2615998     
  -50460479.6868975     
  -50460859.5026507     
  -50461245.1048374     
  -50461635.8891295     
  -50462031.2509010     
  -50462430.5852371     
  -50462833.2869434     
  -50463238.7505556     
  -50463646.3703499     
  -50464055.5403540     
  -50204479.6583185     
  -50204486.8808647     
  -50204518.7699821     
  -50204574.8225718     
  -50204654.5353965     
  -50204757.4051129     
  -50204882.9283012     
  -50205030.6014919     
  -50205199.9211905     
  -50205390.3838994     
  -50205601.4861385     
  -50205832.7244628     
  -50206083.5954789     
  -50206353.5958591     
  -50206642.2223544     
  -50206948.9718050     
  -50207273.3411503     
  -50207614.8274369     
  -50207972.9278253     
  -50208347.1395957     
  -50208736.9601519     
  -50209141.8870256     
  -50209561.4178778     
  -50209995.0505013     
  -50210442.2828203     
  -50210902.6128915     
  -50211375.5389024     
  -50211860.5591703     
  -50212357.1721407     
  -50212864.8763845     
  -50213383.1705953     
  -50213911.5535864     
  -50214449.5242874     
  -50214996.5817400     
  -50215552.2250951     
  -50216115.9536078     
  -50216687.2666340     
  -50217265.6636259     
  -50217850.6441284     
  -50218441.7077745     
  -50219038.3542819     
  -50219640.0834490     
  -50220246.3951517     
  -50220856.7893396     
  -50221470.7660339     
  -50222087.8253239     
  -50222707.4673652     
  -50223329.1923780     
  -50223952.5006454     
  -50224576.8925125     
  -49951486.6071117     
  -49951848.2440158     
  -49952229.6494993     
  -49952630.3999360     
  -49953050.0724866     
  -49953488.2451114     
  -49953944.4965795     
  -49954418.4064773     
  -49954909.5552149     
  -49955417.5240299     
  -49955941.8949900     
  -49956482.2509943     
  -49957038.1757724     
  -49957609.2538825     
  -49958195.0707076     
  -49958795.2124512     
  -49959409.2661314     
  -49960036.8195734     
  -49960677.4614020     
  -49961330.7810322     
  -49961996.3686595     
  -49962673.8152487     
  -49963362.7125231     
  -49964062.6529516     
  -49964773.2297360     
  -49965494.0367977     
  -49966224.6687638     
  -49966964.7209523     
  -49967713.7893574     
  -49968471.4706348     
  -49969237.3620855     
  -49970011.0616402     
  -49970792.1678438     
  -49971580.2798389     
  -49972374.9973494     
  -49973175.9206647     
  -49973982.6506227     
  -49974794.7885943     
  -49975611.9364663     
  -49976433.6966258     
  -49977259.6719437     
  -49978089.4657591     
  -49978922.6818637     
  -49979758.9244857     
  -49980597.7982755     
  -49981438.9082899     
  -49982281.8599783     
  -49983126.2591680     
  -49983971.7120503     
  -49984817.8251676     
  -49697704.5359245     
  -49698424.4930776     
  -49699159.3388826     
  -49699908.7291782     
  -49700672.3215570     
  -49701449.7753547     
  -49702240.7516384     
  -49703044.9131934     
  -49703861.9245089     
  -49704691.4517614     
  -49705533.1627980     
  -49706386.7271178     
  -49707251.8158529     
  -49708128.1017475     
  -49709015.2591365     
  -49709912.9639236     
  -49710820.8935579     
  -49711738.7270101     
  -49712666.1447479     
  -49713602.8287107     
  -49714548.4622840     
  -49715502.7302726     
  -49716465.3188741     
  -49717435.9156514     
  -49718414.2095050     
  -49719399.8906448     
  -49720392.6505617     
  -49721392.1819991     
  -49722398.1789239     
  -49723410.3364973     
  -49724428.3510455     
  -49725451.9200305     
  -49726480.7420207     
  -49727514.5166610     
  -49728552.9446436     
  -49729595.7276785     
  -49730642.5684637     
  -49731693.1706564     
  -49732747.2388431     
  -49733804.4785106     
  -49734864.5960175     
  -49735927.2985645     
  -49736992.2941667     
  -49738059.2916247     
  -49739128.0004966     
  -49740198.1310701     
  -49741269.3943353     
  -49742341.5019569     
  -49743414.1662479     
  -49744487.1001431     
  -49442888.3738658     
  -49443969.9827353     
  -49445061.5938080     
  -49446162.9427952     
  -49447273.7681588     
  -49448393.8110768     
  -49449522.8154073     
  -49450660.5276523     
  -49451806.6969208     
  -49452961.0748901     
  -49454123.4157682     
  -49455293.4762539     
  -49456471.0154973     
  -49457655.7950593     
  -49458847.5788710     
  -49460046.1331924     
  -49461251.2265706     
  -49462462.6297980     
  -49463680.1158698     
  -49464903.4599413     
  -49466132.4392852     
  -49467366.8332485     
  -49468606.4232090     
  -49469850.9925318     
  -49471100.3265261     
  -49472354.2124010     
  -49473612.4392222     
  -49474874.7978677     
  -49476141.0809845     
  -49477411.0829443     
  -49478684.5997999     
  -49479961.4292416     
  -49481241.3705532     
  -49482524.2245685     
  -49483809.7936280     
  -49485097.8815353     
  -49486388.2935140     
  -49487680.8361646     
  -49488975.3174217     
  -49490271.5465112     
  -49491569.3339081     
  -49492868.4912939     
  -49494168.8315149     
  -49495470.1685402     
  -49496772.3174206     
  -49498075.0942470     
  -49499378.3161098     
  -49500681.8010581     
  -49501985.3680593     
  -49503288.8369597     
  -49186789.5123775     
  -49188235.5260997     
  -49189686.6240964     
  -49191142.6228165     
  -49192603.3424744     
  -49194068.6069894     
  -49195538.2439252     
  -49197012.0844294     
  -49198489.9631719     
  -49199971.7182843     
  -49201457.1912989     
  -49202946.2270872     
  -49204438.6737990     
  -49205934.3828009     
  -49207433.2086155     
  -49208935.0088603     
  -49210439.6441861     
  -49211946.9782165     
  -49213456.8774870     
  -49214969.2113837     
  -49216483.8520833     
  -49218000.6744919     
  -49219519.5561851     
  -49221040.3773475     
  -49222563.0207126     
  -49224087.3715032     
  -49225613.3173714     
  -49227140.7483392     
  -49228669.5567392     
  -49230199.6371558     
  -49231730.8863659     
  -49233263.2032808     
  -49234796.4888874     
  -49236330.6461906     
  -49237865.5801549     
  -49239401.1976472     
  -49240937.4073794     
  -49242474.1198513     
  -49244011.2472936     
  -49245548.7036119     
  -49247086.4043300     
  -49248624.2665341     
  -49250162.2088173     
  -49251700.1512240     
  -49253238.0151949     
  -49254775.7235121     
  -49256313.2002447     
  -49257850.3706949     
  -49259387.1613432     
  -49260923.4997954     
  -48929157.0499633     
  -48930969.6349579     
  -48932782.3295975     
  -48934595.0324189     
  -48936407.6467435     
  -48938220.0805904     
  -48940032.2465900     
  -48941844.0618984     
  -48943655.4481118     
  -48945466.3311821     
  -48947276.6413324     
  -48949086.3129737     
  -48950895.2846216     
  -48952703.4988143     
  -48954510.9020300     
  -48956317.4446057     
  -48958123.0806566     
  -48959927.7679955     
  -48961731.4680531     
  -48963534.1457985     
  -48965335.7696607     
  -48967136.3114502     
  -48968935.7462811     
  -48970734.0524942     
  -48972531.2115799     
  -48974327.2081019     
  -48976122.0296215     
  -48977915.6666225     
  -48979708.1124357     
  -48981499.3631649     
  -48983289.4176129     
  -48985078.2772078     
  -48986865.9459296     
  -48988652.4302383     
  -48990437.7390007     
  -48992221.8834187     
  -48994004.8769584     
  -48995786.7352782     
  -48997567.4761581     
  -48999347.1194298     
  -49001125.6869064     
  -49002903.2023123     
  -49004679.6912142     
  -49006455.1809523     
  -49008229.7005709     
  -49010003.2807504     
  -49011775.9537392     
  -49013547.7532855     
  -49015318.7145702     
  -49017088.8741391     
  -48669739.0419190     
  -48671919.7646259     
  -48674095.5402955     
  -48676266.3514023     
  -48678432.1862142     
  -48680593.0386795     
  -48682748.9083148     
  -48684899.8000936     
  -48687045.7243376     
  -48689186.6966076     
  -48691322.7375969     
  -48693453.8730251     
  -48695580.1335333     
  -48697701.5545803     
  -48699818.1763401     
  -48701930.0436005     
  -48704037.2056621     
  -48706139.7162390     
  -48708237.6333602     
  -48710331.0192721     
  -48712419.9403415     
  -48714504.4669599     
  -48716584.6734486     
  -48718660.6379647     
  -48720732.4424072     
  -48722800.1723254     
  -48724863.9168262     
  -48726923.7684837     
  -48728979.8232486     
  -48731032.1803587     
  -48733080.9422499     
  -48735126.2144675     
  -48737168.1055792     
  -48739206.7270871     
  -48741242.1933418     
  -48743274.6214561     
  -48745304.1312195     
  -48747330.8450130     
  -48749354.8877246     
  -48751376.3866657     
  -48753395.4714865     
  -48755412.2740934     
  -48757426.9285659     
  -48759439.5710741     
  -48761450.3397964     
  -48763459.3748376     
  -48765466.8181475     
  -48767472.8134396     
  -48769477.5061098     
  -48771481.0431557     
  -48408283.7625528     
  -48410833.5710893     
  -48413373.2685151     
  -48415902.9235904     
  -48418422.6118531     
  -48420932.4154798     
  -48423432.4231484     
  -48425922.7299033     
  -48428403.4370221     
  -48430874.6518843     
  -48433336.4878419     
  -48435789.0640920     
  -48438232.5055505     
  -48440666.9427280     
  -48443092.5116073     
  -48445509.3535220     
  -48447917.6150371     
  -48450317.4478309     
  -48452709.0085783     
  -48455092.4588353     
  -48457467.9649251     
  -48459835.6978253     
  -48462195.8330563     
  -48464548.5505710     
  -48466894.0346454     
  -48469232.4737705     
  -48471564.0605452     
  -48473888.9915701     
  -48476207.4673424     
  -48478519.6921513     
  -48480825.8739749     
  -48483126.2243776     
  -48485420.9584082     
  -48487710.2944987     
  -48489994.4543642     
  -48492273.6629031     
  -48494548.1480980     
  -48496818.1409177     
  -48499083.8752185     
  -48501345.5876476     
  -48503603.5175458     
  -48505857.9068515     
  -48508109.0000041     
  -48510357.0438490     
  -48512602.2875421     
  -48514844.9824551     
  -48517085.3820803     
  -48519323.7419370     
  -48521560.3194771     
  -48523795.3739908     
  -48144540.9873085     
  -48147460.1880528     
  -48150363.9810455     
  -48153252.5241628     
  -48156125.9830035     
  -48158984.5307251     
  -48161828.3478835     
  -48164657.6222748     
  -48167472.5487800     
  -48170273.3292121     
  -48173060.1721656     
  -48175833.2928686     
  -48178592.9130372     
  -48181339.2607315     
  -48184072.5702144     
  -48186793.0818123     
  -48189501.0417774     
  -48192196.7021524     
  -48194880.3206366     
  -48197552.1604541     
  -48200212.4902235     
  -48202861.5838292     
  -48205499.7202941     
  -48208127.1836543     
  -48210744.2628349     
  -48213351.2515268     
  -48215948.4480655     
  -48218536.1553104     
  -48221114.6805261     
  -48223684.3352641     
  -48226245.4352458     
  -48228798.3002466     
  -48231343.2539810     
  -48233880.6239882     
  -48236410.7415190     
  -48238933.9414231     
  -48241450.5620376     
  -48243960.9450758     
  -48246465.4355167     
  -48248964.3814949     
  -48251458.1341919     
  -48253947.0477266     
  -48256431.4790475     
  -48258911.7878243     
  -48261388.3363404     
  -48263861.4893856     
  -48266331.6141492     
  -48268799.0801130     
  -48271264.2589448     
  -48273727.5243920     
  -47878263.3022176     
  -47881551.5315354     
  -47884818.8990219     
  -47888065.6549502     
  -47891292.0582071     
  -47894498.3761079     
  -47897684.8842134     
  -47900851.8661518     
  -47903999.6134429     
  -47907128.4253254     
  -47910238.6085876     
  -47913330.4774010     
  -47916404.3531565     
  -47919460.5643029     
  -47922499.4461891     
  -47925521.3409076     
  -47928526.5971412     
  -47931515.5700115     
  -47934488.6209300     
  -47937446.1174510     
  -47940388.4331265     
  -47943315.9473635     
  -47946229.0452825     
  -47949128.1175784     
  -47952013.5603822     
  -47954885.7751256     
  -47957745.1684057     
  -47960592.1518523     
  -47963427.1419957     
  -47966250.5601364     
  -47969062.8322160     
  -47971864.3886883     
  -47974655.6643931     
  -47977437.0984297     
  -47980209.1340315     
  -47982972.2184424     
  -47985726.8027928     
  -47988473.3419771     
  -47991212.2945319     
  -47993944.1225143     
  -47996669.2913811     
  -47999388.2698688     
  -48002101.5298734     
  -48004809.5463311     
  -48007512.7970992     
  -48010211.7628370     
  -48012906.9268878     
  -48015598.7751595     
  -48018287.7960072     
  -48020974.4801145     
  -47609207.4481983     
  -47612863.6397448     
  -47616493.3335036     
  -47620096.8758290     
  -47623674.6225143     
  -47627226.9385869     
  -47630754.1981074     
  -47634256.7839730     
  -47637735.0877236     
  -47641189.5093534     
  -47644620.4571239     
  -47648028.3473819     
  -47651413.6043802     
  -47654776.6601010     
  -47658117.9540833     
  -47661437.9332519     
  -47664737.0517505     
  -47668015.7707763     
  -47671274.5584178     
  -47674513.8894948     
  -47677734.2454008     
  -47680936.1139473     
  -47684119.9892106     
  -47687286.3713806     
  -47690435.7666107     
  -47693568.6868709     
  -47696685.6498011     
  -47699787.1785672     
  -47702873.8017180     
  -47705946.0530436     
  -47709004.4714358     
  -47712049.6007489     
  -47715081.9896620     
  -47718102.1915426     
  -47721110.7643110     
  -47724108.2703056     
  -47727095.2761490     
  -47730072.3526155     
  -47733040.0744983     
  -47735999.0204778     
  -47738949.7729911     
  -47741892.9181007     
  -47744829.0453646     
  -47747758.7477067     
  -47750682.6212870     
  -47753601.2653721     
  -47756515.2822066     
  -47759425.2768834     
  -47762331.8572152     
  -47765235.6336051     
  -47337135.7079088     
  -47341158.0561532     
  -47345148.0648762     
  -47349106.1805383     
  -47353032.8597872     
  -47356928.5692369     
  -47360793.7852518     
  -47364628.9937352     
  -47368434.6899214     
  -47372211.3781732     
  -47375959.5717815     
  -47379679.7927711     
  -47383372.5717075     
  -47387038.4475093     
  -47390677.9672629     
  -47394291.6860404     
  -47397880.1667207     
  -47401443.9798141     
  -47404983.7032882     
  -47408499.9223984     
  -47411993.2295190     
  -47415464.2239784     
  -47418913.5118950     
  -47422341.7060166     
  -47425749.4255614     
  -47429137.2960602     
  -47432505.9492017     
  -47435856.0226786     
  -47439188.1600356     
  -47442503.0105192     
  -47445801.2289281     
  -47449083.4754663     
  -47452350.4155956     
  -47455602.7198911     
  -47458841.0638964     
  -47462066.1279802     
  -47465278.5971940     
  -47468479.1611302     
  -47471668.5137809     
  -47474847.3533979     
  -47478016.3823520     
  -47481176.3069944     
  -47484327.8375168     
  -47487471.6878130     
  -47490608.5753401     
  -47493739.2209797     
  -47496864.3489003     
  -47499984.6864179     
  -47503100.9638577     
  -47506213.9144160     
  -47061817.3431610     
  -47066203.2639957     
  -47070550.7745004     
  -47074860.4255304     
  -47079132.7787901     
  -47083368.4066007     
  -47087567.8916732     
  -47091731.8268861     
  -47095860.8150672     
  -47099955.4687810     
  -47104016.4101192     
  -47108044.2704959     
  -47112039.6904464     
  -47116003.3194303     
  -47119935.8156372     
  -47123837.8457969     
  -47127710.0849918     
  -47131553.2164734     
  -47135367.9314807     
  -47139154.9290626     
  -47142914.9159016     
  -47146648.6061414     
  -47150356.7212157     
  -47154039.9896804     
  -47157699.1470467     
  -47161334.9356171     
  -47164948.1043234     
  -47168539.4085655     
  -47172109.6100530     
  -47175659.4766476     
  -47179189.7822071     
  -47182701.3064311     
  -47186194.8347072     
  -47189671.1579594     
  -47193131.0724959     
  -47196575.3798599     
  -47200004.8866792     
  -47203420.4045181     
  -47206822.7497288     
  -47210212.7433040     
  -47213591.2107300     
  -47216958.9818394     
  -47220316.8906651     
  -47223665.7752937     
  -47227006.4777191     
  -47230339.8436969     
  -47233666.7225972     
  -47236987.9672591     
  -47240304.4338431     
  -47243616.9816848     
  -46783030.0913494     
  -46787776.1808499     
  -46792477.5374590     
  -46797134.8208863     
  -46801748.7022609     
  -46806319.8638919     
  -46810848.9990350     
  -46815336.8116644     
  -46819784.0162485     
  -46824191.3375314     
  -46828559.5103182     
  -46832889.2792644     
  -46837181.3986701     
  -46841436.6322772     
  -46845655.7530708     
  -46849839.5430840     
  -46853988.7932058     
  -46858104.3029926     
  -46862186.8804825     
  -46866237.3420121     
  -46870256.5120366     
  -46874245.2229525     
  -46878204.3149217     
  -46882134.6356992     
  -46886037.0404620     
  -46889912.3916407     
  -46893761.5587525     
  -46897585.4182357     
  -46901384.8532870     
  -46905160.7536989     
  -46908914.0156997     
  -46912645.5417937     
  -46916356.2406037     
  -46920047.0267135     
  -46923718.8205121     
  -46927372.5480386     
  -46931009.1408274     
  -46934629.5357546     
  -46938234.6748848     
  -46941825.5053181     
  -46945402.9790374     
  -46948968.0527567     
  -46952521.6877684     
  -46956064.8497915     
  -46959598.5088194     
  -46963123.6389676     
  -46966641.2183212     
  -46970152.2287822     
  -46973657.6559160     
  -46977158.4887976     
  -46500561.7299692     
  -46505663.7225621     
  -46510714.3858399     
  -46515714.4928930     
  -46520664.8287066     
  -46525566.1899208     
  -46530419.3845959     
  -46535225.2319830     
  -46539984.5622985     
  -46544698.2165051     
  -46549367.0460956     
  -46553991.9128816     
  -46558573.6887865     
  -46563113.2556417     
  -46567611.5049870     
  -46572069.3378740     
  -46576487.6646734     
  -46580867.4048849     
  -46585209.4869499     
  -46589514.8480680     
  -46593784.4340147     
  -46598019.1989629     
  -46602220.1053060     
  -46606388.1234833     
  -46610524.2318076     
  -46614629.4162949     
  -46618704.6704956     
  -46622750.9953269     
  -46626769.3989082     
  -46630760.8963966     
  -46634726.5098239     
  -46638667.2679354     
  -46642584.2060294     
  -46646478.3657972     
  -46650350.7951650     
  -46654202.5481354     
  -46658034.6846306     
  -46661848.2703350     
  -46665644.3765391     
  -46669424.0799834     
  -46673188.4627023     
  -46676938.6118687     
  -46680675.6196374     
  -46684400.5829901     
  -46688114.6035784     
  -46691818.7875677     
  -46695514.2454804     
  -46699202.0920383     
  -46702883.4460045     
  -46706559.4300244     
  -46214211.7191549     
  -46219664.4466125     
  -46225058.9527946     
  -46230396.1286475     
  -46235676.8773971     
  -46240902.1143129     
  -46246072.7664780     
  -46251189.7725639     
  -46256254.0826098     
  -46261266.6578063     
  -46266228.4702839     
  -46271140.5029049     
  -46276003.7490600     
  -46280819.2124673     
  -46285587.9069759     
  -46290310.8563722     
  -46294989.0941896     
  -46299623.6635206     
  -46304215.6168325     
  -46308766.0157847     
  -46313275.9310496     
  -46317746.4421343     
  -46322178.6372062     
  -46326573.6129195     
  -46330932.4742435     
  -46335256.3342937     
  -46339546.3141633     
  -46343803.5427569     
  -46348029.1566258     
  -46352224.2998037     
  -46356390.1236445     
  -46360527.7866606     
  -46364638.4543620     
  -46368723.2990969     
  -46372783.4998924     
  -46376820.2422956     
  -46380834.7182159     
  -46384828.1257674     
  -46388801.6691109     
  -46392756.5582971     
  -46396694.0091093     
  -46400615.2429058     
  -46404521.4864625     
  -46408413.9718153     
  -46412293.9361017     
  -46416162.6214024     
  -46420021.2745814     
  -46423871.1471266     
  -46427713.4949888     
  -46431549.5784195     
  -45923792.9333286     
  -45929590.2861303     
  -45935322.2086770     
  -45940989.7140718     
  -45946593.8279986     
  -45952135.5884972     
  -45957616.0457428     
  -45963036.2618313     
  -45968397.3105673     
  -45973700.2772576     
  -45978946.2585075     
  -45984136.3620214     
  -45989271.7064068     
  -45994353.4209805     
  -45999382.6455797     
  -46004360.5303745     
  -46009288.2356838     
  -46014166.9317935     
  -46018997.7987774     
  -46023782.0263199     
  -46028520.8135416     
  -46033215.3688261     
  -46037866.9096491     
  -46042476.6624093     
  -46047045.8622609     
  -46051575.7529470     
  -46056067.5866356     
  -46060522.6237556     
  -46064942.1328351     
  -46069327.3903398     
  -46073679.6805128     
  -46078000.2952156     
  -46082290.5337691     
  -46086551.7027960     
  -46090785.1160628     
  -46094992.0943233     
  -46099173.9651617     
  -46103332.0628359     
  -46107467.7281215     
  -46111582.3081553     
  -46115677.1562786     
  -46119753.6318808     
  -46123813.1002419     
  -46127856.9323758     
  -46131886.5048713     
  -46135903.1997341     
  -46139908.4042269     
  -46143903.5107090     
  -46147889.9164749     
  -46151869.0235917     
  -45629133.4945747     
  -45635268.3872245     
  -45641330.3019587     
  -45647320.3780350     
  -45653239.7675252     
  -45659089.6351068     
  -45664871.1578597     
  -45670585.5250656     
  -45676233.9380108     
  -45681817.6097938     
  -45687337.7651344     
  -45692795.6401871     
  -45698192.4823560     
  -45703529.5501137     
  -45708808.1128218     
  -45714029.4505539     
  -45719194.8539207     
  -45724305.6238975     
  -45729363.0716531     
  -45734368.5183811     
  -45739323.2951322     
  -45744228.7426488     
  -45749086.2112005     
  -45753897.0604214     
  -45758662.6591483     
  -45763384.3852602     
  -45768063.6255193     
  -45772701.7754124     
  -45777300.2389935     
  -45781860.4287273     
  -45786383.7653333     
  -45790871.6776303     
  -45795325.6023823     
  -45799746.9841438     
  -45804137.2751060     
  -45808497.9349439     
  -45812830.4306620     
  -45817136.2364416     
  -45821416.8334875     
  -45825673.7098743     
  -45829908.3603931     
  -45834122.2863973     
  -45838316.9956483     
  -45842494.0021604     
  -45846654.8260454     
  -45850800.9933557     
  -45854934.0359273     
  -45859055.4912212     
  -45863166.9021639     
  -45867269.8169857     
  -45330078.7223621     
  -45336543.0642085     
  -45342926.5194235     
  -45349230.3569872     
  -45355455.8588831     
  -45361604.3199130     
  -45367677.0475137     
  -45373675.3615770     
  -45379600.5942726     
  -45385454.0898721     
  -45391237.2045767     
  -45396951.3063459     
  -45402597.7747283     
  -45408178.0006939     
  -45413693.3864691     
  -45419145.3453720     
  -45424535.3016494     
  -45429864.6903160     
  -45435134.9569935     
  -45440347.5577522     
  -45445503.9589527     
  -45450605.6370893     
  -45455654.0786338     
  -45460650.7798811     
  -45465597.2467945     
  -45470494.9948531     
  -45475345.5488985     
  -45480150.4429837     
  -45484911.2202213     
  -45489629.4326333     
  -45494306.6410011     
  -45498944.4147152     
  -45503544.3316268     
  -45508107.9778982     
  -45512636.9478548     
  -45517132.8438363     
  -45521597.2760482     
  -45526031.8624139     
  -45530438.2284260     
  -45534818.0069980     
  -45539172.8383153     
  -45543504.3696863     
  -45547814.2553924     
  -45552104.1565384     
  -45556375.7409009     
  -45560630.6827770     
  -45564870.6628315     
  -45569097.3679430     
  -45573312.4910486     
  -45577517.7309880     
  -45026493.2168219     
  -45033277.8897401     
  -45039973.3824417     
  -45046581.0966527     
  -45053102.4472817     
  -45059538.8622615     
  -45065891.7823919     
  -45072162.6611841     
  -45078352.9647055     
  -45084464.1714263     
  -45090497.7720664     
  -45096455.2694426     
  -45102338.1783179     
  -45108148.0252496     
  -45113886.3484396     
  -45119554.6975842     
  -45125154.6337245     
  -45130687.7290978     
  -45136155.5669888     
  -45141559.7415817     
  -45146901.8578123     
  -45152183.5312209     
  -45157406.3878056     
  -45162572.0638755     
  -45167682.2059049     
  -45172738.4703876     
  -45177742.5236917     
  -45182696.0419150     
  -45187600.7107401     
  -45192458.2252909     
  -45197270.2899883     
  -45202038.6184077     
  -45206764.9331352     
  -45211450.9656253     
  -45216098.4560586     
  -45220709.1531993     
  -45225284.8142529     
  -45229827.2047249     
  -45234338.0982782     
  -45238819.2765914     
  -45243272.5292168     
  -45247699.6534375     
  -45252102.4541254     
  -45256482.7435973     
  -45260842.3414719     
  -45265183.0745249     
  -45269506.7765439     
  -45273815.2881818     
  -45278110.4568098     
  -45282394.1363684     
  -44718263.0960796     
  -44725357.9399933     
  -44732354.8990241     
  -44739255.5100300     
  -44746061.3232651     
  -44752773.9022513     
  -44759394.8236503     
  -44765925.6771345     
  -44772368.0652569     
  -44778723.6033199     
  -44784993.9192440     
  -44791180.6534352     
  -44797285.4586511     
  -44803309.9998669     
  -44809255.9541406     
  -44815125.0104766     
  -44820918.8696902     
  -44826639.2442696     
  -44832287.8582390     
  -44837866.4470204     
  -44843376.7572953     
  -44848820.5468662     
  -44854199.5845177     
  -44859515.6498776     
  -44864770.5332776     
  -44869966.0356153     
  -44875103.9682144     
  -44880186.1526867     
  -44885214.4207933     
  -44890190.6143070     
  -44895116.5848743     
  -44899994.1938780     
  -44904825.3123002     
  -44909611.8205860     
  -44914355.6085075     
  -44919058.5750277     
  -44923722.6281658     
  -44928349.6848617     
  -44932941.6708422     
  -44937500.5204865     
  -44942028.1766920     
  -44946526.5907408     
  -44950997.7221657     
  -44955443.5386165     
  -44959866.0157257     
  -44964267.1369744     
  -44968648.8935575     
  -44973013.2842480     
  -44977362.3152607     
  -44981698.0001150     
  -44405298.4122826     
  -44412692.2188514     
  -44419978.9949485     
  -44427160.4142572     
  -44434238.1641625     
  -44441213.9456550     
  -44448089.4732320     
  -44454866.4747950     
  -44461546.6915441     
  -44468131.8778694     
  -44474623.8012391     
  -44481024.2420851     
  -44487334.9936856     
  -44493557.8620458     
  -44499694.6657753     
  -44505747.2359639     
  -44511717.4160558     
  -44517607.0617210     
  -44523418.0407260     
  -44529152.2328027     
  -44534811.5295163     
  -44540397.8341324     
  -44545913.0614825     
  -44551359.1378298     
  -44556738.0007345     
  -44562051.5989184     
  -44567301.8921298     
  -44572490.8510087     
  -44577620.4569514     
  -44582692.7019768     
  -44587709.5885922     
  -44592673.1296603     
  -44597585.3482668     
  -44602448.2775886     
  -44607263.9607634     
  -44612034.4507599     
  -44616761.8102491     
  -44621448.1114768     
  -44626095.4361363     
  -44630705.8752437     
  -44635281.5290122     
  -44639824.5067289     
  -44644336.9266312     
  -44648820.9157850     
  -44653278.6099624     
  -44657712.1535209     
  -44662123.6992816     
  -44666515.4084090     
  -44670889.4502893     
  -44675248.0024094     
  -44087535.7760832     
  -44095216.2898669     
  -44102780.1516440     
  -44110229.1729263     
  -44117565.1793988     
  -44124790.0108527     
  -44131905.5211137     
  -44138913.5779625     
  -44145816.0630499     
  -44152614.8718063     
  -44159311.9133449     
  -44165909.1103604     
  -44172408.3990228     
  -44178811.7288660     
  -44185121.0626734     
  -44191338.3763586     
  -44197465.6588434     
  -44203504.9119326     
  -44209458.1501855     
  -44215327.4007861     
  -44221114.7034108     
  -44226822.1100942     
  -44232451.6850940     
  -44238005.5047552     
  -44243485.6573734     
  -44248894.2430579     
  -44254233.3735945     
  -44259505.1723097     
  -44264711.7739338     
  -44269855.3244668     
  -44274937.9810441     
  -44279961.9118035     
  -44284929.2957543     
  -44289842.3226479     
  -44294703.1928501     
  -44299514.1172154     
  -44304277.3169630     
  -44308995.0235560     
  -44313669.4785811     
  -44318302.9336322     
  -44322897.6501950     
  -44327455.8995343     
  -44331979.9625830     
  -44336472.1298334     
  -44340934.7012307     
  -44345369.9860672     
  -44349780.3028791     
  -44354167.9793442     
  -44358535.3521804     
  -44362884.7670461     
  -43764941.2256012     
  -43772895.1505077     
  -43780722.2838004     
  -43788424.5752205     
  -43796003.9894081     
  -43803462.5058597     
  -43810802.1188739     
  -43818024.8374887     
  -43825132.6854079     
  -43832127.7009200     
  -43839011.9368068     
  -43845787.4602457     
  -43852456.3527039     
  -43859020.7098263     
  -43865482.6413169     
  -43871844.2708151     
  -43878107.7357665     
  -43884275.1872899     
  -43890348.7900401     
  -43896330.7220683     
  -43902223.1746784     
  -43908028.3522832     
  -43913748.4722575     
  -43919385.7647907     
  -43924942.4727399     
  -43930420.8514814     
  -43935823.1687638     
  -43941151.7045619     
  -43946408.7509321     
  -43951596.6118690     
  -43956717.6031649     
  -43961774.0522715     
  -43966768.2981641     
  -43971702.6912095     
  -43976579.5930372     
  -43981401.3764135     
  -43986170.4251200     
  -43990889.1338361     
  -43995559.9080251     
  -44000185.1638244     
  -44004767.3279402     
  -44009308.8375461     
  -44013812.1401856     
  -44018279.6936793     
  -44022713.9660350     
  -44027117.4353627     
  -44031492.5897922     
  -44035841.9273946     
  -44040167.9561063     
  -44044473.1936573     
  -43437513.3833899     
  -43445726.3900710     
  -43453801.8958924     
  -43461741.9888278     
  -43469548.7728391     
  -43477224.3678435     
  -43484770.9096651     
  -43492190.5499725     
  -43499485.4562032     
  -43506657.8114755     
  -43513709.8144875     
  -43520643.6794063     
  -43527461.6357474     
  -43534165.9282442     
  -43540758.8167097     
  -43547242.5758913     
  -43553619.4953183     
  -43559891.8791451     
  -43566062.0459882     
  -43572132.3287615     
  -43578105.0745059     
  -43583982.6442199     
  -43589767.4126859     
  -43595461.7682982     
  -43601068.1128899     
  -43606588.8615609     
  -43612026.4425082     
  -43617383.2968572     
  -43622661.8784973     
  -43627864.6539195     
  -43632994.1020592     
  -43638052.7141427     
  -43643042.9935391     
  -43647967.4556171     
  -43652828.6276083     
  -43657629.0484760     
  -43662371.2687903     
  -43667057.8506103     
  -43671691.3673730     
  -43676274.4037887     
  -43680809.5557441     
  -43685299.4302120     
  -43689746.6451682     
  -43694153.8295158     
  -43698523.6230159     
  -43702858.6762255     
  -43707161.6504419     
  -43711435.2176530     
  -43715682.0604941     
  -43719904.8722106     
  -43105286.9537554     
  -43113743.6806386     
  -43122051.5639698     
  -43130212.8299286     
  -43138229.7222613     
  -43146104.5022368     
  -43153839.4485817     
  -43161436.8573960     
  -43168899.0420516     
  -43176228.3330732     
  -43183427.0780047     
  -43190497.6412611     
  -43197442.4039677     
  -43204263.7637882     
  -43210964.1347422     
  -43217545.9470136     
  -43224011.6467523     
  -43230363.6958684     
  -43236604.5718220     
  -43242736.7674086     
  -43248762.7905419     
  -43254685.1640346     
  -43260506.4253794     
  -43266229.1265294     
  -43271855.8336812     
  -43277389.1270596     
  -43282831.6007064     
  -43288185.8622735     
  -43293454.5328207     
  -43298640.2466205     
  -43303745.6509691     
  -43308773.4060047     
  -43313726.1845351     
  -43318606.6718725     
  -43323417.5656788     
  -43328161.5758206     
  -43332841.4242335     
  -43337459.8447980     
  -43342019.5832256     
  -43346523.3969566     
  -43350974.0550682     
  -43355374.3381949     
  -43359727.0384597     
  -43364034.9594170     
  -43368300.9160068     
  -43372527.7345194     
  -43376718.2525719     
  -43380875.3190947     
  -43385001.7943280     
  -43389100.5498291     
  -42768336.6229277     
  -42777020.6595257     
  -42785543.7970849     
  -42793908.4005157     
  -42802116.8545103     
  -42810171.5634547     
  -42818074.9513134     
  -42825829.4614897     
  -42833437.5566643     
  -42840901.7186118     
  -42848224.4479983     
  -42855408.2641630     
  -42862455.7048822     
  -42869369.3261216     
  -42876151.7017755     
  -42882805.4233960     
  -42889333.0999146     
  -42895737.3573554     
  -42902020.8385451     
  -42908186.2028178     
  -42914236.1257194     
  -42920173.2987104     
  -42926000.4288709     
  -42931720.2386070     
  -42937335.4653624     
  -42942848.8613345     
  -42948263.1931972     
  -42953581.2418317     
  -42958805.8020658     
  -42963939.6824238     
  -42968985.7048868     
  -42973946.7046656     
  -42978825.5299855     
  -42983625.0418861     
  -42988348.1140341     
  -42992997.6325523     
  -42997576.4958629     
  -43002087.6145484     
  -43006533.9112277     
  -43010918.3204498     
  -43015243.7886046     
  -43019513.2738503     
  -43023729.7460592     
  -43027896.1867799     
  -43032015.5892174     
  -43036090.9582302     
  -43040125.3103443     
  -43044121.6737836     
  -43048083.0885168     
  -43052012.6063196     
  -42426781.4359006     
  -42435675.2716333     
  -42444395.3413389     
  -42452944.1506023     
  -42461324.2278064     
  -42469538.1239520     
  -42477588.4124462     
  -42485477.6888594     
  -42493208.5706559     
  -42500783.6968985     
  -42508205.7279300     
  -42515477.3450356     
  -42522601.2500860     
  -42529580.1651665     
  -42536416.8321918     
  -42543114.0125103     
  -42549674.4865007     
  -42556101.0531611     
  -42562396.5296951     
  -42568563.7510954     
  -42574605.5697276     
  -42580524.8549165     
  -42586324.4925359     
  -42592007.3846053     
  -42597576.4488935     
  -42603034.6185322     
  -42608384.8416409     
  -42613630.0809640     
  -42618773.3135228     
  -42623817.5302831     
  -42628765.7358391     
  -42633620.9481164     
  -42638386.1980942     
  -42643064.5295471     
  -42647658.9988097     
  -42652172.6745618     
  -42656608.6376382     
  -42660969.9808613     
  -42665259.8088976     
  -42669481.2381398     
  -42673637.3966135     
  -42677731.4239091     
  -42681766.4711395     
  -42685745.7009232     
  -42689672.2873927     
  -42693549.4162286     
  -42697380.2847186     
  -42701168.1018411     
  -42704916.0883730     
  -42708627.4770216     
  -42080789.7358893     
  -42089874.6505427     
  -42098771.9982940     
  -42107484.4299961     
  -42116014.6232954     
  -42124365.2822968     
  -42132539.1371888     
  -42140538.9438341     
  -42148367.4833257     
  -42156027.5615158     
  -42163522.0085167     
  -42170853.6781807     
  -42178025.4475593     
  -42185040.2163466     
  -42191900.9063090     
  -42198610.4607052     
  -42205171.8436972     
  -42211588.0397596     
  -42217862.0530850     
  -42223996.9069909     
  -42229995.6433317     
  -42235861.3219153     
  -42241597.0199297     
  -42247205.8313808     
  -42252690.8665430     
  -42258055.2514264     
  -42263302.1272613     
  -42268434.6500032     
  -42273455.9898587     
  -42278369.3308358     
  -42283177.8703188     
  -42287884.8186705     
  -42292493.3988626     
  -42297006.8461349     
  -42301428.4076870     
  -42305761.3424004     
  -42310008.9205941     
  -42314174.4238140     
  -42318261.1446571     
  -42322272.3866302     
  -42326211.4640452     
  -42330081.7019493     
  -42333886.4360923     
  -42337629.0129305     
  -42341312.7896653     
  -42344941.1343208     
  -42348517.4258544     
  -42352045.0543056     
  -42355527.4209773     
  -42358967.9386539     
  -41730584.7646248     
  -41739840.6273604     
  -41748894.0376048     
  -41757747.8004173     
  -41766404.7528155     
  -41774867.7631969     
  -41783139.7307159     
  -41791223.5846184     
  -41799122.2835403     
  -41806838.8147732     
  -41814376.1935020     
  -41821737.4620185     
  -41828925.6889145     
  -41835943.9682596     
  -41842795.4187663     
  -41849483.1829476     
  -41856010.4262695     
  -41862380.3363035     
  -41868596.1218810     
  -41874661.0122547     
  -41880578.2562694     
  -41886351.1215451     
  -41891982.8936773     
  -41897476.8754545     
  -41902836.3860990     
  -41908064.7605317     
  -41913165.3486639     
  -41918141.5147187     
  -41922996.6365853     
  -41927734.1052062     
  -41932357.3240020     
  -41936869.7083337     
  -41941274.6850052     
  -41945575.6918083     
  -41949776.1771101     
  -41953879.5994852     
  -41957889.4273952     
  -41961809.1389129     
  -41965642.2214967     
  -41969392.1718128     
  -41973062.4956067     
  -41976656.7076256     
  -41980178.3315898     
  -41983630.9002158     
  -41987017.9552895     
  -41990343.0477896     
  -41993609.7380612     
  -41996821.5960406     
  -41999982.2015265     
  -42003095.1445022     
  -41376451.0329664     
  -41385855.9650167     
  -41395042.2899345     
  -41404012.9825474     
  -41412771.0561626     
  -41421319.5616301     
  -41429661.5863564     
  -41437800.2532721     
  -41445738.7197600     
  -41453480.1765483     
  -41461027.8465760     
  -41468384.9838340     
  -41475554.8721878     
  -41482540.8241864     
  -41489346.1798640     
  -41495974.3055367     
  -41502428.5926008     
  -41508712.4563368     
  -41514829.3347227     
  -41520782.6872622     
  -41526575.9938309     
  -41532212.7535444     
  -41537696.4836534     
  -41543030.7184672     
  -41548219.0083124     
  -41553264.9185256     
  -41558172.0284883     
  -41562943.9307033     
  -41567584.2299169     
  -41572096.5422904     
  -41576484.4946207     
  -41580751.7236167     
  -41584901.8752289     
  -41588938.6040380     
  -41592865.5727027     
  -41596686.4514684     
  -41600404.9177389     
  -41604024.6557119     
  -41607549.3560801     
  -41610982.7157986     
  -41614328.4379188     
  -41617590.2314916     
  -41620771.8115368     
  -41623876.8990829     
  -41626909.2212752     
  -41629872.5115518     
  -41632770.5098888     
  -41635606.9631137     
  -41638385.6252852     
  -41641110.2581408     
  -41018741.5797622     
  -41028271.4211129     
  -41037565.0086622     
  -41046625.5121885     
  -41055456.1479959     
  -41064060.1774715     
  -41072440.9055893     
  -41080601.6793667     
  -41088545.8862804     
  -41096276.9526482     
  -41103798.3419851     
  -41111113.5533386     
  -41118226.1196094     
  -41125139.6058653     
  -41131857.6076535     
  -41138383.7493161     
  -41144721.6823165     
  -41150875.0835810     
  -41156847.6538603     
  -41162643.1161181     
  -41168265.2139492     
  -41173717.7100345     
  -41179004.3846345     
  -41184129.0341290     
  -41189095.4696044     
  -41193907.5154934     
  -41198569.0082723     
  -41203083.7952175     
  -41207455.7332257     
  -41211688.6877010     
  -41215786.5315114     
  -41219753.1440183     
  -41223592.4101809     
  -41227308.2197388     
  -41230904.4664733     
  -41234385.0475527     
  -41237753.8629595     
  -41241014.8150045     
  -41244171.8079268     
  -41247228.7475835     
  -41250189.5412273     
  -41253058.0973755     
  -41255838.3257689     
  -41258534.1374225     
  -41261149.4447687     
  -41263688.1618901     
  -41266154.2048457     
  -41268551.4920871     
  -41270883.9449659     
  -41273155.4883299     
  -40657886.2397796     
  -40667513.7417296     
  -40676885.5847884     
  -40686005.1723549     
  -40694875.9640507     
  -40703501.4735846     
  -40711885.2665626     
  -40720030.9582526     
  -40727942.2113111     
  -40735622.7334811     
  -40743076.2752697     
  -40750306.6276125     
  -40757317.6195329     
  -40764113.1158040     
  -40770697.0146198     
  -40777073.2452842     
  -40783245.7659213     
  -40789218.5612178     
  -40794995.6402003     
  -40800581.0340552     
  -40805978.7939973     
  -40811192.9891908     
  -40816227.7047305     
  -40821087.0396866     
  -40825775.1052186     
  -40830296.0227624     
  -40834653.9222964     
  -40838852.9406888     
  -40842897.2201318     
  -40846790.9066654     
  -40850538.1487951     
  -40854143.0962057     
  -40857609.8985757     
  -40860942.7044937     
  -40864145.6604811     
  -40867222.9101219     
  -40870178.5933024     
  -40873016.8455636     
  -40875741.7975674     
  -40878357.5746772     
  -40880868.2966562     
  -40883278.0774837     
  -40885591.0252889     
  -40887811.2424053     
  -40889942.8255449     
  -40891989.8660915     
  -40893956.4505146     
  -40895846.6609035     
  -40897664.5756203     
  -40899414.2700703     
  -40294401.0349318     
  -40304094.6779445     
  -40313511.1849305     
  -40322654.2499685     
  -40331527.6347546     
  -40340135.1655419     
  -40348480.7300291     
  -40356568.2742116     
  -40364401.7992022     
  -40371985.3580352     
  -40379323.0524596     
  -40386419.0297352     
  -40393277.4794365     
  -40399902.6302765     
  -40406298.7469565     
  -40412470.1270526     
  -40418421.0979434     
  -40424156.0137899     
  -40429679.2525722     
  -40434995.2131918     
  -40440108.3126448     
  -40445022.9832730     
  -40449743.6700990     
  -40454274.8282509     
  -40458620.9204820     
  -40462786.4147912     
  -40466775.7821486     
  -40470593.4943312     
  -40474244.0218734     
  -40477731.8321360     
  -40481061.3874983     
  -40484237.1436764     
  -40487263.5481722     
  -40490145.0388546     
  -40492886.0426781     
  -40495490.9745400     
  -40497964.2362791     
  -40500310.2158196     
  -40502533.2864592     
  -40504637.8063076     
  -40506628.1178730     
  -40508508.5478002     
  -40510283.4067618     
  -40511956.9895019     
  -40513533.5750339     
  -40515017.4269933     
  -40516412.7941449     
  -40517723.9110446     
  -40518954.9988558     
  -40520110.2663193     
  -39928898.7812971     
  -39938621.0906315     
  -39948042.3519735     
  -39957166.6316350     
  -39965998.0765554     
  -39974540.9100321     
  -39982799.4274133     
  -39990777.9917664     
  -39998481.0295358     
  -40005913.0261995     
  -40013078.5219379     
  -40019982.1073245     
  -40026628.4190494     
  -40033022.1356862     
  -40039167.9735108     
  -40045070.6823822     
  -40050735.0416940     
  -40056165.8564054     
  -40061367.9531586     
  -40066346.1764915     
  -40071105.3851526     
  -40075650.4485251     
  -40079986.2431669     
  -40084117.6494722     
  -40088049.5484626     
  -40091786.8187105     
  -40095334.3334033     
  -40098696.9575509     
  -40101879.5453431     
  -40104886.9376609     
  -40107723.9597453     
  -40110395.4190297     
  -40112906.1031369     
  -40115260.7780474     
  -40117464.1864389     
  -40119521.0462042     
  -40121436.0491465     
  -40123213.8598572     
  -40124859.1147786     
  -40126376.4214522     
  -40127770.3579559     
  -40129045.4725326     
  -40130206.2834093     
  -40131257.2788107     
  -40132202.9171671     
  -40133047.6275172     
  -40133795.8101078     
  -40134451.8371889     
  -40135020.0540057     
  -40135504.7799876     
  -39562100.9598935     
  -39571806.1599541     
  -39581183.5545486     
  -39590237.6957329     
  -39598973.2305326     
  -39607394.8951263     
  -39615507.5090152     
  -39623315.9691963     
  -39630825.2443511     
  -39638040.3690649     
  -39644966.4380888     
  -39651608.6006558     
  -39657972.0548655     
  -39664062.0421445     
  -39669883.8417976     
  -39675442.7656561     
  -39680744.1528345     
  -39685793.3646058     
  -39690595.7794008     
  -39695156.7879432     
  -39699481.7885259     
  -39703576.1824368     
  -39707445.3695405     
  -39711094.7440232     
  -39714529.6903061     
  -39717755.5791343     
  -39720777.7638458     
  -39723601.5768264     
  -39726232.3261551     
  -39728675.2924455     
  -39730935.7258864     
  -39733018.8434873     
  -39734929.8265314     
  -39736673.8182412     
  -39738255.9216593     
  -39739681.1977478     
  -39740954.6637109     
  -39742081.2915412     
  -39743066.0067954     
  -39743913.6875996     
  -39744629.1638882     
  -39745217.2168781     
  -39745682.5787803     
  -39746029.9327510     
  -39746263.9130840     
  -39746389.1056452     
  -39746410.0485516     
  -39746331.2330949     
  -39746157.1049108     
  -39745892.0653949     
  -39194850.8215393     
  -39204481.6339231     
  -39213754.5855618     
  -39222674.8686622     
  -39231247.7854984     
  -39239478.7406542     
  -39247373.2332939     
  -39254936.8494776     
  -39262175.2545365     
  -39269094.1855238     
  -39275699.4437544     
  -39281996.8874473     
  -39287992.4244820     
  -39293692.0052839     
  -39299101.6158448     
  -39304227.2708945     
  -39309075.0072290     
  -39313650.8772072     
  -39317960.9424234     
  -39322011.2675649     
  -39325807.9144609     
  -39329356.9363319     
  -39332664.3722443     
  -39335736.2417779     
  -39338578.5399114     
  -39341197.2321326     
  -39343598.2497773     
  -39345787.4856026     
  -39347770.7895993     
  -39349553.9650477     
  -39351142.7648209     
  -39352542.8879402     
  -39353759.9763854     
  -39354799.6121656     
  -39355667.3146514     
  -39356368.5381744     
  -39356908.6698965     
  -39357293.0279510     
  -39357526.8598612     
  -39357615.3412365     
  -39357563.5747523     
  -39357376.5894124     
  -39357059.3401020     
  -39356616.7074283     
  -39356053.4978558     
  -39355374.4441363     
  -39354584.2060360     
  -39353687.3713634     
  -39352688.4572979     
  -39351591.9120225     
  -38828127.5721327     
  -38837610.9227841     
  -38846702.5794019     
  -38855408.5801075     
  -38863735.0879518     
  -38871688.3807747     
  -38879274.8411520     
  -38886500.9464535     
  -38893373.2590231     
  -38899898.4165015     
  -38906083.1223020     
  -38911934.1362575     
  -38917458.2654450     
  -38922662.3552082     
  -38927553.2803802     
  -38932137.9367230     
  -38936423.2325898     
  -38940416.0808201     
  -38944123.3908753     
  -38947552.0612221     
  -38950708.9719706     
  -38953600.9777733     
  -38956234.9009911     
  -38958617.5251310     
  -38960755.5885604     
  -38962655.7785038     
  -38964324.7253242     
  -38965768.9970950     
  -38966995.0944647     
  -38968009.4458190     
  -38968818.4027429     
  -38969428.2357868     
  -38969845.1305390     
  -38970075.1840090     
  -38970124.4013232     
  -38969998.6927368     
  -38969703.8709665     
  -38969245.6488445     
  -38968629.6372991     
  -38967861.3436648     
  -38966946.1703254     
  -38965889.4136926     
  -38964696.2635264     
  -38963371.8025971     
  -38961921.0066964     
  -38960348.7449989     
  -38958659.7807790     
  -38956858.7724862     
  -38954950.2751845     
  -38952938.7423554     
  -38463061.2979062     
  -38472302.6572867     
  -38481114.2275297     
  -38489503.1617050     
  -38497476.7508881     
  -38505042.4111492     
  -38512207.6707232     
  -38518980.1573790     
  -38525367.5860050     
  -38531377.7464253     
  -38537018.4914632     
  -38542297.7252617     
  -38547223.3918760     
  -38551803.4641481     
  -38556045.9328707     
  -38559958.7962538     
  -38563550.0496968     
  -38566827.6758776     
  -38569799.6351614     
  -38572473.8563366     
  -38574858.2276823     
  -38576960.5883704     
  -38578788.7202076     
  -38580350.3397186     
  -38581653.0905750     
  -38582704.5363707     
  -38583512.1537467     
  -38584083.3258668     
  -38584425.3362463     
  -38584545.3629343     
  -38584450.4730529     
  -38584147.6176923     
  -38583643.6271667     
  -38582945.2066296     
  -38582058.9320530     
  -38580991.2465710     
  -38579748.4571917     
  -38578336.7318791     
  -38576762.0970085     
  -38575030.4351992     
  -38573147.4835284     
  -38571118.8321291     
  -38568949.9231801     
  -38566646.0502884     
  -38564212.3582734     
  -38561653.8433567     
  -38558975.3537636     
  -38556181.5907444     
  -38553277.1100169     
  -38550266.3236472     
  -38100948.0215203     
  -38109824.0610568     
  -38118227.5059509     
  -38126166.9696620     
  -38133651.2126498     
  -38140689.1259868     
  -38147289.7152838     
  -38153462.0849344     
  -38159215.4227025     
  -38164558.9846658     
  -38169502.0805257     
  -38174054.0592967     
  -38178224.2953832     
  -38182022.1750555     
  -38185457.0833278     
  -38188538.3912479     
  -38191275.4436004     
  -38193677.5470302     
  -38195753.9585860     
  -38197513.8746875     
  -38198966.4205175     
  -38200120.6398376     
  -38200985.4852290     
  -38201569.8087566     
  -38201882.3530552     
  -38201931.7428355     
  -38201726.4768105     
  -38201274.9200363     
  -38200585.2966687     
  -38199665.6831315     
  -38198524.0016959     
  -38197168.0144677     
  -38195605.3177833     
  -38193843.3370101     
  -38191889.3217558     
  -38189750.3414816     
  -38187433.2815236     
  -38184944.8395230     
  -38182291.5222669     
  -38179479.6429431     
  -38176515.3188141     
  -38173404.4693125     
  -38170152.8145669     
  -38166765.8743621     
  -38163248.9675428     
  -38159607.2118696     
  -38155845.5243336     
  -38151968.6219413     
  -38147981.0229915     
  -38143887.0488203     
  -37743263.9091088     
  -37751613.1214288     
  -37759441.8678077     
  -37766760.6578548     
  -37773580.1498679     
  -37779911.1305737     
  -37785764.4953358     
  -37791151.2288716     
  -37796082.3864693     
  -37800569.0757218     
  -37804622.4387889     
  -37808253.6351962     
  -37811473.8251743     
  -37814294.1535453     
  -37816725.7341573     
  -37818779.6348700     
  -37820466.8630903     
  -37821798.3518565     
  -37822784.9464694     
  -37823437.3916654     
  -37823766.3193269     
  -37823782.2367246     
  -37823495.5152844     
  -37822916.3798716     
  -37822054.8985857     
  -37820920.9730548     
  -37819524.3292243     
  -37817874.5086284     
  -37815980.8601375     
  -37813852.5321721     
  -37811498.4653761     
  -37808927.3857407     
  -37806147.7981735     
  -37803167.9805051     
  -37799995.9779308     
  -37796639.5978807     
  -37793106.4053167     
  -37789403.7184561     
  -37785538.6049206     
  -37781517.8783127     
  -37777348.0952240     
  -37773035.5526790     
  -37768586.2860219     
  -37764006.0672554     
  -37759300.4038394     
  -37754474.5379654     
  -37749533.4463191     
  -37744481.8403510     
  -37739324.1670287     
  -37734064.6102191     
  -37391677.1582399     
  -37399288.0627883     
  -37406325.3841742     
  -37412802.0683564     
  -37418731.1999907     
  -37424125.9778173     
  -37428999.6907993     
  -37433365.6949128     
  -37437237.3906735     
  -37440628.2014003     
  -37443551.5522092     
  -37446020.8497441     
  -37448049.4626454     
  -37449650.7027571     
  -37450837.8070701     
  -37451623.9203956     
  -37452022.0787619     
  -37452045.1935256     
  -37451706.0361877     
  -37451017.2239001     
  -37449991.2056512     
  -37448640.2491133     
  -37446976.4281359     
  -37445011.6108673     
  -37442757.4484861     
  -37440225.3645224     
  -37437426.5447510     
  -37434371.9276345     
  -37431072.1952991     
  -37427537.7650218     
  -37423778.7812114     
  -37419805.1078658     
  -37415626.3214882     
  -37411251.7044473     
  -37406690.2387691     
  -37401950.6003471     
  -37397041.1535628     
  -37391969.9463090     
  -37386744.7054120     
  -37381372.8324494     
  -37375861.3999674     
  -37370217.1480983     
  -37364446.4815875     
  -37358555.4672415     
  -37352549.8318093     
  -37346434.9603135     
  -37340215.8948371     
  -37333897.3338032     
  -37327483.6318873     
  -37320978.8001464     
  -37048055.4805680     
  -37054652.0241912     
  -37060616.7276187     
  -37065965.6313123     
  -37070714.8871724     
  -37074880.7292652     
  -37078479.4452824     
  -37081527.3492115     
  -37084040.7549524     
  -37086035.9508969     
  -37087529.1755108     
  -37088536.5939210     
  -37089074.2755003     
  -37089158.1724403     
  -37088804.0993011     
  -37088027.7135300     
  -37086844.4969303     
  -37085269.7380656     
  -37083318.5155753     
  -37081005.6823787     
  -37078345.8507395     
  -37075353.3781620     
  -37072042.3540859     
  -37068426.5873484     
  -37064519.5943743     
  -37060334.5880618     
  -37055884.4673225     
  -37051181.8072403     
  -37046238.8498090     
  -37041067.4952125     
  -37035679.2936098     
  -37030085.4373894     
  -37024296.7538606     
  -37018323.6983480     
  -37012176.3476640     
  -37005864.3939302     
  -36999397.1387288     
  -36992783.4875638     
  -36986031.9446198     
  -36979150.6078083     
  -36972147.1640992     
  -36965028.8851360     
  -36957802.6231411     
  -36950474.8071203     
  -36943051.4393790     
  -36935538.0923909     
  -36927939.9060703     
  -36920261.5854211     
  -36912507.3982603     
  -36904681.1746091     
  -36714466.3683287     
  -36719690.1320447     
  -36724219.1929936     
  -36728073.4757704     
  -36731272.9649038     
  -36733837.6699259     
  -36735787.5927900     
  -36737142.6957873     
  -36737922.8708721     
  -36738147.9104477     
  -36737837.4794996     
  -36737011.0890474     
  -36735688.0709199     
  -36733887.5538587     
  -36731628.4409415     
  -36728929.3883045     
  -36725808.7851380     
  -36722284.7349235     
  -36718375.0378781     
  -36714097.1745634     
  -36709468.2906155     
  -36704505.1825431     
  -36699224.2845400     
  -36693641.6562506     
  -36687772.9714262     
  -36681633.5074076     
  -36675238.1353627     
  -36668601.3112134     
  -36661737.0671809     
  -36654659.0038787     
  -36647380.2828872     
  -36639913.6197416     
  -36632271.2772720     
  -36624465.0592326     
  -36616506.3041677     
  -36608405.8794626     
  -36600174.1755356     
  -36591821.1001320     
  -36583356.0726908     
  -36574788.0187577     
  -36566125.3644290     
  -36557376.0308205     
  -36548547.4285683     
  -36539646.4523783     
  -36530679.4756362     
  -36521652.3450575     
  -36512570.3753534     
  -36503438.3442339     
  -36494260.4887327     
  -36485040.4976031     
  -36393166.5667425     
  -36396555.3859977     
  -36399183.1714385     
  -36401074.6658731     
  -36402254.5878362     
  -36402747.5932999     
  -36402578.2346526     
  -36401770.9242171     
  -36400349.8995191     
  -36398339.1899154     
  -36395762.5849091     
  -36392643.6043359     
  -36389005.4704300     
  -36384871.0817309     
  -36380262.9888012     
  -36375203.3717249     
  -36369714.0193670     
  -36363816.3103491     
  -36357531.1956941     
  -36350879.1830741     
  -36343880.3225838     
  -36336554.1939570     
  -36328919.8951262     
  -36320996.0320272     
  -36312800.7095362     
  -36304351.5234241     
  -36295665.5532083     
  -36286759.3557789     
  -36277648.9596726     
  -36268349.8598725     
  -36258877.0130076     
  -36249244.8328327     
  -36239467.1858744     
  -36229557.3871302     
  -36219528.1957219     
  -36209391.8104057     
  -36199159.8648581     
  -36188843.4226631     
  -36178452.9719426     
  -36167998.4195819     
  -36157489.0850143     
  -36146933.6935349     
  -36136340.3691180     
  -36125716.6267344     
  -36115069.3642440     
  -36104404.8540589     
  -36093728.7346795     
  -36083046.0011201     
  -36072360.9920063     
  -36061677.3912856     
  -36086576.5064527     
  -36087539.0586318     
  -36087672.7039854     
  -36087008.1089121     
  -36085575.7934428     
  -36083406.0743419     
  -36080529.0284573     
  -36076974.4489971     
  -36072771.8030616     
  -36067950.1928151     
  -36062538.3197409     
  -36056564.4514259     
  -36050056.3907724     
  -36043041.4477356     
  -36035546.4136813     
  -36027597.5383898     
  -36019220.5096739     
  -36010440.4355405     
  -36001281.8288055     
  -35991768.5940554     
  -35981924.0168247     
  -35971770.7548538     
  -35961330.8312584     
  -35950625.6294357     
  -35939675.8895109     
  -35928501.7061190     
  -35917122.5273045     
  -35905557.1543198     
  -35893823.7420946     
  -35881939.8001538     
  -35869922.1937629     
  -35857787.1450836     
  -35845550.2341355     
  -35833226.3993680     
  -35820829.9376605     
  -35808374.5035848     
  -35795873.1077766     
  -35783338.1142834     
  -35770781.2367709     
  -35758213.5334977     
  -35745645.4010041     
  -35733086.5665011     
  -35720546.0789750     
  -35708032.2989732     
  -35695552.8868590     
  -35683114.7891572     
  -35670724.2233732     
  -35658386.6650240     
  -35646106.8416560     
  -35633888.6753363     
  -35797235.1627105     
  -35795020.7777542     
  -35791911.0147190     
  -35787943.7781222     
  -35783156.6324980     
  -35777586.7859520     
  -35771271.0038275     
  -35764245.5538115     
  -35756546.1612875     
  -35748207.9653302     
  -35739265.4758592     
  -35729752.5340290     
  -35719702.2769053     
  -35709147.1065951     
  -35698118.6636920     
  -35686647.8048731     
  -35674764.5845451     
  -35662498.2404575     
  -35649877.1831797     
  -35636928.9892965     
  -35623680.3981099     
  -35610157.3115955     
  -35596384.7973104     
  -35582387.0939179     
  -35568187.6189647     
  -35553808.9785337     
  -35539272.9783720     
  -35524600.6360949     
  -35509812.1940552     
  -35494927.1324762     
  -35479964.1824493     
  -35464941.3384141     
  -35449875.8697522     
  -35434784.3311547     
  -35419682.5714488     
  -35404585.7406024     
  -35389508.2946654     
  -35374463.9984390     
  -35359465.9256921     
  -35344526.4567545     
  -35329657.2733119     
  -35314869.3502351     
  -35300172.9443968     
  -35285577.5807631     
  -35271092.0366033     
  -35256724.3246106     
  -35242481.6725265     
  -35228370.4879684     
  -35214396.3033779     
  -35200563.8889502     
  -35527731.2186680     
  -35521393.5065020     
  -35514099.3714401     
  -35505895.6134436     
  -35496828.5528221     
  -35486943.7702931     
  -35476286.1319476     
  -35464899.7396268     
  -35452827.8523760     
  -35440112.8156047     
  -35426796.0040357     
  -35412917.7747938     
  -35398517.4274293     
  -35383633.1698510     
  -35368302.0904138     
  -35352560.1366928     
  -35336442.1012795     
  -35319981.6146255     
  -35303211.1447089     
  -35286162.0031345     
  -35268864.3571722     
  -35251347.2471848     
  -35233638.6088430     
  -35215765.2994845     
  -35197753.1279381     
  -35179626.8870974     
  -35161410.3885091     
  -35143126.4982243     
  -35124797.1731644     
  -35106443.4972682     
  -35088085.7167114     
  -35069743.2735240     
  -35051434.8369769     
  -35033178.3321503     
  -35014990.9651488     
  -34996889.2444814     
  -34978888.9981882     
  -34961005.3863884     
  -34943252.9090351     
  -34925645.4088123     
  -34908196.0692175     
  -34890917.4078268     
  -34873821.2643226     
  -34856918.7819753     
  -34840220.3806021     
  -34823735.7214421     
  -34807473.6758009     
  -34791442.3289313     
  -34775649.0039643     
  -34760099.7246550     
  -35280608.3888845     
  -35268958.5387654     
  -35256302.3010265     
  -35242697.7430434     
  -35228201.6518067     
  -35212870.1722988     
  -35196758.3975715     
  -35179920.1442388     
  -35162407.8683765     
  -35144272.6108624     
  -35125563.9357169     
  -35106329.8639297     
  -35086616.8130927     
  -35066469.5497806     
  -35045931.1572270     
  -35025043.0181919     
  -35003844.8119231     
  -34982374.5239961     
  -34960668.4679827     
  -34938761.3180484     
  -34916686.1516082     
  -34894474.5010980     
  -34872156.4137900     
  -34849760.5184324     
  -34827314.0973763     
  -34804843.1627625     
  -34782372.5353057     
  -34759925.9242111     
  -34737526.0068023     
  -34715194.5065125     
  -34692952.2679858     
  -34670819.3281593     
  -34648814.9823247     
  -34626957.8443026     
  -34605265.8999892     
  -34583756.5536237     
  -34562446.6661781     
  -34541352.5852573     
  -34520490.1658695     
  -34499874.7814621     
  -34479521.3249486     
  -34459444.2003674     
  -34439657.3074996     
  -34420174.0235185     
  -34401007.1843483     
  -34382169.0560844     
  -34363671.2544757     
  -34345524.5437707     
  -34327738.6608599     
  -34310323.8950344     
  -35058244.4131351     
  -35039787.7470180     
  -35020291.9510415     
  -34999829.1191515     
  -34978471.9383920     
  -34956290.4353731     
  -34933352.5080281     
  -34909724.2441685     
  -34885469.8258306     
  -34860651.2987999     
  -34835328.3670875     
  -34809558.2532317     
  -34783395.6155850     
  -34756892.5048295     
  -34730098.3473131     
  -34703059.9496280     
  -34675821.5231869     
  -34648424.7292177     
  -34620908.7445547     
  -34593310.3477750     
  -34565664.0242444     
  -34538002.0878129     
  -34510354.8163568     
  -34482750.5980876     
  -34455216.0854993     
  -34427776.3539207     
  -34400455.0618223     
  -34373274.6102539     
  -34346256.2990141     
  -34319420.4773731     
  -34292786.6873723     
  -34266373.7979275     
  -34240200.1281702     
  -34214283.5587216     
  -34188641.6299028     
  -34163291.6262693     
  -34138250.6472744     
  -34113535.6642207     
  -34089163.5637385     
  -34065151.1775031     
  -34041515.2963979     
  -34018272.6647499     
  -33995439.9477023     
  -33973033.6662874     
  -33951070.1097998     
  -33929565.2779414     
  -33908534.9737001     
  -33887995.1356187     
  -33867961.7008282     
  -33848445.1170715     
  -34862714.8104142     
  -34835540.0447181     
  -34807321.5110519     
  -34778157.0756407     
  -34748134.1061669     
  -34717340.7132375     
  -34685864.2545035     
  -34653789.2286972     
  -34621196.2814655     
  -34588161.9295837     
  -34554758.5388253     
  -34521054.3288747     
  -34487113.3469500     
  -34452995.4252073     
  -34418756.1541750     
  -34384446.8979531     
  -34350114.8644550     
  -34315803.2330442     
  -34281551.3346233     
  -34247394.8753711     
  -34213366.1939748     
  -34179494.5424616     
  -34145806.3818350     
  -34112325.6851734     
  -34079074.2423381     
  -34046071.9617763     
  -34013337.1660128     
  -33980886.8782614     
  -33948737.0981545     
  -33916903.0648913     
  -33885399.5061787     
  -33854240.8712099     
  -33823441.5456420     
  -33793016.0461888     
  -33762979.1921327     
  -33733346.2509910     
  -33704133.0559799     
  -33675356.0941640     
  -33647032.5665869     
  -33619180.4254184     
  -33591818.3976615     
  -33564966.0079753     
  -33538643.6088854     
  -33512872.4036616     
  -33487674.3888934     
  -33463072.0444488     
  -33439087.5371204     
  -33415741.6126913     
  -33393054.8791021     
  -33371064.3258819     
  -34695606.7085558     
  -34657221.4083994     
  -34617829.3175737     
  -34577536.9466270     
  -34536483.6124031     
  -34494798.7680982     
  -34452599.1513627     
  -34409992.5065007     
  -34367080.0975673     
  -34323957.3777887     
  -34280713.6223523     
  -34237431.2554706     
  -34194185.2819099     
  -34151042.9849596     
  -34108063.9117344     
  -34065300.1025635     
  -34022796.5012549     
  -33980591.4847204     
  -33938717.4608127     
  -33897201.4956123     
  -33856065.9428172     
  -33815329.0572796     
  -33775005.5819544     
  -33735107.3028328     
  -33695643.5701733     
  -33656621.7868751     
  -33618047.8664535     
  -33579926.6639938     
  -33542262.3838483     
  -33505058.9677749     
  -33468320.4667585     
  -33432051.3988724     
  -33396257.0941966     
  -33360944.0259018     
  -33326120.1240361     
  -33291795.0652256     
  -33257980.5274372     
  -33224690.3944610     
  -33191940.8907558     
  -33159750.6258726     
  -33128140.5330522     
  -33097133.7063654     
  -33066755.1866977     
  -33037031.8323917     
  -33007992.5347657     
  -32979669.1285540     
  -32952098.0694218     
  -32925321.1602420     
  -32899376.7850082     
  -32874251.0458894     
  -34557995.7782487     
  -34504802.8947156     
  -34450666.8373396     
  -34395889.6784564     
  -34340624.5930528     
  -34285009.8497230     
  -34229193.7133801     
  -34173328.9172648     
  -34117562.6154709     
  -34062028.9056917     
  -34006844.8235878     
  -33952109.0321902     
  -33897902.2344778     
  -33844288.5429425     
  -33791317.2906123     
  -33739024.9673607     
  -33687437.1026188     
  -33636570.0032612     
  -33586432.3085260     
  -33537026.3544547     
  -33488349.3569813     
  -33440394.4310480     
  -33393151.4664932     
  -33346607.8821231     
  -33300749.2786624     
  -33255560.0099393     
  -33211023.6901620     
  -33167123.6537213     
  -33123843.3827355     
  -33081166.9165766     
  -33039079.2568721     
  -32997566.7808819     
  -32956617.6755647     
  -32916222.4038151     
  -32876374.2128436     
  -32837069.6917783     
  -32798309.3801337     
  -32760098.4189838     
  -32722447.2196344     
  -32685372.0961647     
  -32648895.7629069     
  -32613047.5303327     
  -32577862.9430113     
  -32543382.5145121     
  -32509649.2222662     
  -32476704.8338873     
  -32444586.8101698     
  -32413332.8128432     
  -32383014.9153554     
  -32353866.5044313     
  -34449084.1812049     
  -34375793.3018153     
  -34302137.8735265     
  -34227935.8660657     
  -34153489.9215391     
  -34079206.9734792     
  -34005460.3155315     
  -33932549.5184069     
  -33860697.8132488     
  -33790062.0964599     
  -33720745.6851947     
  -33652810.2050382     
  -33586285.5411813     
  -33521177.7704371     
  -33457475.3273234     
  -33395153.7326306     
  -33334179.1917136     
  -33274511.3198407     
  -33216105.1996401     
  -33158912.9300571     
  -33102884.7892868     
  -33047970.1053380     
  -32994117.9058716     
  -32941277.4023457     
  -32889398.3511096     
  -32838431.3249425     
  -32788327.9219247     
  -32739040.9339284     
  -32690524.4940651     
  -32642734.2208946     
  -32595627.3770048     
  -32549163.0606923     
  -32503302.4520636     
  -32458009.1391485     
  -32413249.5559364     
  -32368993.5731002     
  -32325215.2940481     
  -32281894.1242641     
  -32239016.2003519     
  -32196576.2846354     
  -32154580.2444231     
  -32113048.2229863     
  -32072018.5242336     
  -32031551.9605411     
  -31991735.6826725     
  -31952683.6865138     
  -31914526.7791827     
  -31877374.2616568     
  -31841204.5814238     
  -31805582.7427628     
  -34371733.4233096     
  -34267384.2260074     
  -34161001.1553641     
  -34055472.5661080     
  -33952241.6325608     
  -33851996.7634625     
  -33755023.5638500     
  -33661389.6473687     
  -33571044.4179801     
  -33483874.2819618     
  -33399733.8053654     
  -33318463.5271187     
  -33239900.1833632     
  -33163882.5234683     
  -33090254.5215167     
  -33018867.0306511     
  -32949578.5010528     
  -32882255.1358020     
  -32816770.7132401     
  -32753006.2167266     
  -32690849.3589424     
  -32630194.0544994     
  -32570939.8736451     
  -32512991.4965730     
  -32456258.1794236     
  -32400653.2377298     
  -32346093.5497511     
  -32292499.0801760     
  -32239792.4236715     
  -32187898.3674864     
  -32136743.4727297     
  -32086255.6750899     
  -32036363.9078770     
  -31986997.7537883     
  -31938087.1375020     
  -31889562.0804326     
  -31841352.5540304     
  -31793388.4928953     
  -31745600.0708142     
  -31697918.4145214     
  -31650277.0554519     
  -31602614.6444416     
  -31554879.8666359     
  -31507040.2700516     
  -31459098.2211725     
  -31411120.1766832     
  -31363291.5184500     
  -31316021.8431482     
  -31270152.6198687     
  -31227378.1638234     
  -34280596.5612533     
  -34103927.9878684     
  -33944422.7472373     
  -33798503.5020757     
  -33663680.6678383     
  -33538142.7545915     
  -33420521.8005982     
  -33309752.6836302     
  -33204984.9275241     
  -33105525.1213430     
  -33010797.9280564     
  -32920318.8180822     
  -32833674.4586981     
  -32750508.2601441     
  -32670509.4918609     
  -32593404.9308033     
  -32518952.3438480     
  -32446935.3233091     
  -32377159.1366788     
  -32309447.3469760     
  -32243639.0252917     
  -32179586.4225502     
  -32117152.9996563     
  -32056211.7382246     
  -31996643.6707095     
  -31938336.5807782     
  -31881183.8334051     
  -31825083.3002156     
  -31769936.3495882     
  -31715646.8732476     
  -31662120.3216785     
  -31609262.7196358     
  -31556979.6301170     
  -31505175.0299721     
  -31453750.0521336     
  -31402601.5370643     
  -31351620.3175359     
  -31300689.1331879     
  -31249680.0293811     
  -31198451.0300919     
  -31146841.7722130     
  -31094667.6223721     
  -31041711.5192835     
  -30987712.3044015     
  -30932347.4462432     
  -30875206.4800519     
  -30815748.4585776     
  -30753230.7349834     
  -30686584.2268307     
  -30614184.7805288     
SCALARS 2waySource double 
LOOKUP_TABLE default
  1.557035876439988E-005
  1.481512117677016E-005
  1.413552490431806E-005
  1.351542253032312E-005
  1.294402270481249E-005
  1.241367249245252E-005
  1.191866665990810E-005
  1.145457740058613E-005
  1.101785783031585E-005
  1.060559546006477E-005
  1.021535143923089E-005
  9.845051060445456E-006
  9.492906263084051E-006
  9.157358952517314E-006
  8.837038379829166E-006
  8.530728340243692E-006
  8.237341426964442E-006
  7.955898478303853E-006
  7.685511924398883E-006
  7.425372109967426E-006
  7.174735917719323E-006
  6.932917187792677E-006
  6.699278548369292E-006
  6.473224358299412E-006
  6.254194524272527E-006
  6.041658999684159E-006
  5.835112804789748E-006
  5.634071429614680E-006
  5.438066495820151E-006
  5.246641561157432E-006
  5.059347950880023E-006
  4.875740494572113E-006
  4.695373032309949E-006
  4.517793529742477E-006
  4.342538602817048E-006
  4.169127193826986E-006
  3.997053051807375E-006
  3.825775534159978E-006
  3.654708036851438E-006
  3.483203028772087E-006
  3.310532128399273E-006
  3.135858766331760E-006
  2.958199441560540E-006
  2.776366861668965E-006
  2.588883290172558E-006
  2.393843053126036E-006
  2.188684909964784E-006
  1.969798372427723E-006
  1.731812416457745E-006
  1.466254575904972E-006
  1.584224511012197E-005
  1.538085400078006E-005
  1.491871069713984E-005
  1.446658206360104E-005
  1.402933840503301E-005
  1.360894598066136E-005
  1.320591873994026E-005
  1.282004023389233E-005
  1.245073143556764E-005
  1.209724236263142E-005
  1.175875369984189E-005
  1.143443122771908E-005
  1.112345486852446E-005
  1.082503376151012E-005
  1.053841349819998E-005
  1.026287889908732E-005
  9.997754241555409E-006
  9.742402041419564E-006
  9.496221035692135E-006
  9.258643750816500E-006
  9.029133885840907E-006
  8.807183645526112E-006
  8.592311101557442E-006
  8.384057623457787E-006
  8.181985398645973E-006
  7.985675046827260E-006
  7.794723324379466E-006
  7.608740909358131E-006
  7.427350253903570E-006
  7.250183489170660E-006
  7.076880367655101E-006
  6.907086228608584E-006
  6.740449975140256E-006
  6.576622057557450E-006
  6.415252467929699E-006
  6.255988770054762E-006
  6.098474222841077E-006
  5.942346115613060E-006
  5.787234543577670E-006
  5.632762051293432E-006
  5.478544944373186E-006
  5.324197773063683E-006
  5.169343850510331E-006
  5.013637346640826E-006
  4.856807892897953E-006
  4.698749733992069E-006
  4.539700797823507E-006
  4.380607128026941E-006
  4.223877698487239E-006
  4.074978867858867E-006
  1.605550656836760E-005
  1.573579017916788E-005
  1.541758016975855E-005
  1.510083324294349E-005
  1.478704812176668E-005
  1.447787223352358E-005
  1.417466354224988E-005
  1.387840872871102E-005
  1.358976084957174E-005
  1.330910629553414E-005
  1.303662942310793E-005
  1.277236588666148E-005
  1.251624390448363E-005
  1.226811524045960E-005
  1.202777812761434E-005
  1.179499411206510E-005
  1.156950038758456E-005
  1.135101880819493E-005
  1.113926245685559E-005
  1.093394041298382E-005
  1.073476119001136E-005
  1.054143518809679E-005
  1.035367641740614E-005
  1.017120368217298E-005
  9.993741369090305E-006
  9.821019950328300E-006
  9.652776287594782E-006
  9.488753808119028E-006
  9.328702612387299E-006
  9.172379569191978E-006
  9.019548452208444E-006
  8.869980177003443E-006
  8.723453206839788E-006
  8.579754211918139E-006
  8.438679091769200E-006
  8.300034507189651E-006
  8.163640120812706E-006
  8.029331818943962E-006
  7.896966289047038E-006
  7.766427459730549E-006
  7.637635471375931E-006
  7.510559001819310E-006
  7.385231817644873E-006
  7.261774054029962E-006
  7.140417155950633E-006
  7.021526649425466E-006
  6.905604023323839E-006
  6.793215883892522E-006
  6.684715548169061E-006
  6.579416719028586E-006
  1.635255085200806E-005
  1.612862521691658E-005
  1.590386320655239E-005
  1.567926463551925E-005
  1.545539513217368E-005
  1.523280842072042E-005
  1.501209099351950E-005
  1.479382022190408E-005
  1.457852207675650E-005
  1.436664645922882E-005
  1.415855838330330E-005
  1.395453948184699E-005
  1.375479508065922E-005
  1.355946364808156E-005
  1.336862673619680E-005
  1.318231841644160E-005
  1.300053375587264E-005
  1.282323618863144E-005
  1.265036380056959E-005
  1.248183462193920E-005
  1.231755105386484E-005
  1.215740355863848E-005
  1.200127373706637E-005
  1.184903690418026E-005
  1.170056426126922E-005
  1.155572475032807E-005
  1.141438666631138E-005
  1.127641909446629E-005
  1.114169323355623E-005
  1.101008366215048E-005
  1.088146960264877E-005
  1.075573623754387E-005
  1.063277613388440E-005
  1.051249083336126E-005
  1.039479266824278E-005
  1.027960686294137E-005
  1.016687397634805E-005
  1.005655272387243E-005
  9.948623180639301E-006
  9.843090292101689E-006
  9.739987478417967E-006
  9.639379878481514E-006
  9.541366398205041E-006
  9.446079201548752E-006
  9.353678770181534E-006
  9.264342864343028E-006
  9.178250974184988E-006
  9.095579037798102E-006
  9.016561530738699E-006
  8.941801487033605E-006
  1.672068618239220E-005
  1.657204951042842E-005
  1.642133700931456E-005
  1.626901513772388E-005
  1.611562270914380E-005
  1.596164626629389E-005
  1.580752150713143E-005
  1.565364828280618E-005
  1.550039760083818E-005
  1.534811173251379E-005
  1.519710155515008E-005
  1.504764390207213E-005
  1.489998013182929E-005
  1.475431615796082E-005
  1.461082372967172E-005
  1.446964260962842E-005
  1.433088330329201E-005
  1.419463005893970E-005
  1.406094393457284E-005
  1.392986579583185E-005
  1.380141916300683E-005
  1.367561286448941E-005
  1.355244348108750E-005
  1.343189758401420E-005
  1.331395378067190E-005
  1.319858458881367E-005
  1.308575816390092E-005
  1.297543990541281E-005
  1.286759396835234E-005
  1.276218470506941E-005
  1.265917806090937E-005
  1.255854294411289E-005
  1.246025258659628E-005
  1.236428590619658E-005
  1.227062887248336E-005
  1.217927586647916E-005
  1.209023100808647E-005
  1.200350940345895E-005
  1.191913823883290E-005
  1.183715762026038E-005
  1.175762104223047E-005
  1.168059538352382E-005
  1.160616042031851E-005
  1.153440808078282E-005
  1.146544211030435E-005
  1.139937940810446E-005
  1.133635435185217E-005
  1.127652407596187E-005
  1.122005616021948E-005
  1.116702040008875E-005
  1.715812308977247E-005
  1.707037374493442E-005
  1.697967259539352E-005
  1.688641208540100E-005
  1.679095346775318E-005
  1.669365592202736E-005
  1.659486837887299E-005
  1.649492231712799E-005
  1.639412907430205E-005
  1.629277943848976E-005
  1.619114381986756E-005
  1.608947236742235E-005
  1.598799498141164E-005
  1.588692136178787E-005
  1.578644123055456E-005
  1.568672480409428E-005
  1.558792353043137E-005
  1.549017106466637E-005
  1.539358443479720E-005
  1.529826534337310E-005
  1.520430155445116E-005
  1.511176832185203E-005
  1.502072982505461E-005
  1.493124058716732E-005
  1.484334685816938E-005
  1.475708795249872E-005
  1.467249753536621E-005
  1.458960485527340E-005
  1.450843592272823E-005
  1.442901463568697E-005
  1.435136385236441E-005
  1.427550641086985E-005
  1.420146609293458E-005
  1.412926852657502E-005
  1.405894201893242E-005
  1.399051830759402E-005
  1.392403321602672E-005
  1.385952719854928E-005
  1.379704576365703E-005
  1.373663977397826E-005
  1.367836563752961E-005
  1.362228542571636E-005
  1.356846696583053E-005
  1.351698392757891E-005
  1.346791579173308E-005
  1.342134728289491E-005
  1.337736644501569E-005
  1.333606094236776E-005
  1.329751749463560E-005
  1.326185456887764E-005
  1.765615831565264E-005
  1.761901715086675E-005
  1.757824230076864E-005
  1.753415758998276E-005
  1.748708097205806E-005
  1.743731630627382E-005
  1.738515556447140E-005
  1.733087959422391E-005
  1.727475753445635E-005
  1.721704598426169E-005
  1.715798840592593E-005
  1.709781482223057E-005
  1.703674173333195E-005
  1.697497217918567E-005
  1.691269590676159E-005
  1.685008962844289E-005
  1.678731737020606E-005
  1.672453091026661E-005
  1.666187030546610E-005
  1.659946449790312E-005
  1.653743199070816E-005
  1.647588157925122E-005
  1.641491312348391E-005
  1.635461834716885E-005
  1.629508165115026E-005
  1.623638092911135E-005
  1.617858837593270E-005
  1.612177128007824E-005
  1.606599279273596E-005
  1.601131266728562E-005
  1.595778796333446E-005
  1.590547370975914E-005
  1.585442352169008E-005
  1.580469016621104E-005
  1.575632607234136E-005
  1.570938378100182E-005
  1.566391633213058E-005
  1.561997758728460E-005
  1.557762248719162E-005
  1.553690724400673E-005
  1.549788946533691E-005
  1.546062820003287E-005
  1.542518388453989E-005
  1.539161816041756E-005
  1.535999355324678E-005
  1.533037310054913E-005
  1.530282023567727E-005
  1.527739937349081E-005
  1.525417620343180E-005
  1.523320703326761E-005
  1.820363928084286E-005
  1.820890747455569E-005
  1.821004521747317E-005
  1.820733701764084E-005
  1.820105871144237E-005
  1.819147887188243E-005
  1.817885749926086E-005
  1.816344548010956E-005
  1.814548446151957E-005
  1.812520677277903E-005
  1.810283531406765E-005
  1.807858344615417E-005
  1.805265492327531E-005
  1.802524389020702E-005
  1.799653494749180E-005
  1.796670328067444E-005
  1.793591484726549E-005
  1.790432661583599E-005
  1.787208685215653E-005
  1.783933544821992E-005
  1.780620428943352E-005
  1.777281765503427E-005
  1.773929264628156E-005
  1.770573963627769E-005
  1.767226273545071E-005
  1.763896026603228E-005
  1.760592523961536E-005
  1.757324583164228E-005
  1.754100584704272E-005
  1.750928517198994E-005
  1.747816020656971E-005
  1.744770427410607E-005
  1.741798800300785E-005
  1.738907967764321E-005
  1.736104555510440E-005
  1.733395014505364E-005
  1.730785645032202E-005
  1.728282616570884E-005
  1.725891983257789E-005
  1.723619694634635E-005
  1.721471601448186E-005
  1.719453456410152E-005
  1.717570910288199E-005
  1.715829504425381E-005
  1.714234661182618E-005
  1.712791671880345E-005
  1.711505673887979E-005
  1.710381596210495E-005
  1.709424084235363E-005
  1.708637759944657E-005
  1.878730595385532E-005
  1.882824279681107E-005
  1.886469030905847E-005
  1.889690522918156E-005
  1.892513767991272E-005
  1.894963063941306E-005
  1.897062011659283E-005
  1.898833506339593E-005
  1.900299722246022E-005
  1.901482101893225E-005
  1.902401350380565E-005
  1.903077433206560E-005
  1.903529576623601E-005
  1.903776270401437E-005
  1.903835273236823E-005
  1.903723620972063E-005
  1.903457637758856E-005
  1.903052950039062E-005
  1.902524503209131E-005
  1.901886580744071E-005
  1.901152825510859E-005
  1.900336263012257E-005
  1.899449326259208E-005
  1.898503881960450E-005
  1.897511257705050E-005
  1.896482269821750E-005
  1.895427251542373E-005
  1.894356081169848E-005
  1.893278209879190E-005
  1.892202688862054E-005
  1.891138195473767E-005
  1.890093058119906E-005
  1.889075279589170E-005
  1.888092558597594E-005
  1.887152309305673E-005
  1.886261678606848E-005
  1.885427560994300E-005
  1.884656610858505E-005
  1.883955252080329E-005
  1.883329684862955E-005
  1.882785889774932E-005
  1.882329629038096E-005
  1.881966445023067E-005
  1.881701655719162E-005
  1.881540346589959E-005
  1.881487358393841E-005
  1.881547272842986E-005
  1.881724403812478E-005
  1.882022797722101E-005
  1.882446129372599E-005
  1.939262232250788E-005
  1.946354795131129E-005
  1.952973946438323E-005
  1.959143175782822E-005
  1.964885400216493E-005
  1.970222965387779E-005
  1.975177630564144E-005
  1.979770563742290E-005
  1.984022339213674E-005
  1.987952935130631E-005
  1.991581731688395E-005
  1.994927510686027E-005
  1.998008456753911E-005
  2.000842160258444E-005
  2.003445621819774E-005
  2.005835258389211E-005
  2.008026910842562E-005
  2.010035853058404E-005
  2.011876802415994E-005
  2.013563931625649E-005
  2.015110881779766E-005
  2.016530776496864E-005
  2.017836236989571E-005
  2.019039397904047E-005
  2.020151923747862E-005
  2.021185025725175E-005
  2.022149478785655E-005
  2.023055638699475E-005
  2.023913458971299E-005
  2.024732507399808E-005
  2.025521982100949E-005
  2.026290726825583E-005
  2.027047245393640E-005
  2.027799715103858E-005
  2.028555998958730E-005
  2.029323656596008E-005
  2.030109953796398E-005
  2.030921870491775E-005
  2.031766107176474E-005
  2.032649089675898E-005
  2.033576972194621E-005
  2.034555638593932E-005
  2.035590701855389E-005
  2.036687501760480E-005
  2.037851100981755E-005
  2.039086279915123E-005
  2.040397530087994E-005
  2.041789043793261E-005
  2.043264696967669E-005
  2.044828060600103E-005
  2.000444774075143E-005
  2.010052166838193E-005
  2.019170703970129E-005
  2.027822082509464E-005
  2.036027511454554E-005
  2.043807706147919E-005
  2.051182887340003E-005
  2.058172778235511E-005
  2.064796602232804E-005
  2.071073081924649E-005
  2.077020439104941E-005
  2.082656395607323E-005
  2.087998174990096E-005
  2.093062505121433E-005
  2.097865621685223E-005
  2.102423272601638E-005
  2.106750723358358E-005
  2.110862763197730E-005
  2.114773712104402E-005
  2.118497428576010E-005
  2.122047318053626E-005
  2.125436341995137E-005
  2.128677027468342E-005
  2.131781477189262E-005
  2.134761379909893E-005
  2.137628021043197E-005
  2.140392293424066E-005
  2.143064708102206E-005
  2.145655405051825E-005
  2.148174163688709E-005
  2.150630413098751E-005
  2.153033241864055E-005
  2.155391407398473E-005
  2.157713344694963E-005
  2.160007174401679E-005
  2.162280710153990E-005
  2.164541465085335E-005
  2.166796657468245E-005
  2.169053215419869E-005
  2.171317780645203E-005
  2.173596711177385E-005
  2.175896083114979E-005
  2.178221691350763E-005
  2.180579049308912E-005
  2.182973387661469E-005
  2.185409651935930E-005
  2.187892499009868E-005
  2.190426293215738E-005
  2.193015103596408E-005
  2.195662691783604E-005
  2.060762727802420E-005
  2.072469124747783E-005
  2.083678438225758E-005
  2.094410833913428E-005
  2.104686056283276E-005
  2.114523426367788E-005
  2.123941839175065E-005
  2.132959762463664E-005
  2.141595236035067E-005
  2.149865871482967E-005
  2.157788852532036E-005
  2.165380935986947E-005
  2.172658453306760E-005
  2.179637312773710E-005
  2.186333002248114E-005
  2.192760592479191E-005
  2.198934740984589E-005
  2.204869696442997E-005
  2.210579303585152E-005
  2.216077008556630E-005
  2.221375864690797E-005
  2.226488538658789E-005
  2.231427316948636E-005
  2.236204112611150E-005
  2.240830472220668E-005
  2.245317582993614E-005
  2.249676280002437E-005
  2.253917053417131E-005
  2.258050055720712E-005
  2.262085108834721E-005
  2.266031711083449E-005
  2.269899043958704E-005
  2.273695978605541E-005
  2.277431081994501E-005
  2.281112622721842E-005
  2.284748576396350E-005
  2.288346630571961E-005
  2.291914189194375E-005
  2.295458376532965E-005
  2.298986040576302E-005
  2.302503755879709E-005
  2.306017825851363E-005
  2.309534284476928E-005
  2.313058897477088E-005
  2.316597162921794E-005
  2.320154311354608E-005
  2.323735305493199E-005
  2.327344839372598E-005
  2.330987336378940E-005
  2.334666949341527E-005
  2.118746208232593E-005
  2.132192049913666E-005
  2.145138357551306E-005
  2.157603965993941E-005
  2.169607342025282E-005
  2.181166582668749E-005
  2.192299414141149E-005
  2.203023191039989E-005
  2.213354896008453E-005
  2.223311139864744E-005
  2.232908162180976E-005
  2.242161832260601E-005
  2.251087650543551E-005
  2.259700750419406E-005
  2.268015900438651E-005
  2.276047506911756E-005
  2.283809616868607E-005
  2.291315921376122E-005
  2.298579759174164E-005
  2.305614120615169E-005
  2.312431651886102E-005
  2.319044659466915E-005
  2.325465114815270E-005
  2.331704659231329E-005
  2.337774608873349E-005
  2.343685959883652E-005
  2.349449393606658E-005
  2.355075281832115E-005
  2.360573692061416E-005
  2.365954392737231E-005
  2.371226858407494E-005
  2.376400274800891E-005
  2.381483543763048E-005
  2.386485288045410E-005
  2.391413855896371E-005
  2.396277325454167E-005
  2.401083508897229E-005
  2.405839956353779E-005
  2.410553959544070E-005
  2.415232555149467E-005
  2.419882527901603E-005
  2.424510413392364E-005
  2.429122500601774E-005
  2.433724834161101E-005
  2.438323216360491E-005
  2.442923208905587E-005
  2.447530134431284E-005
  2.452149077832766E-005
  2.456784887657751E-005
  2.461442176694942E-005
  2.173005946258551E-005
  2.187878249194404E-005
  2.202253266848302E-005
  2.216148655678320E-005
  2.229581746677568E-005
  2.242569544481424E-005
  2.255128726769926E-005
  2.267275644055637E-005
  2.279026319778337E-005
  2.290396450719631E-005
  2.301401407728913E-005
  2.312056236754281E-005
  2.322375660188195E-005
  2.332374078493096E-005
  2.342065572107794E-005
  2.351463903632911E-005
  2.360582520261279E-005
  2.369434556464002E-005
  2.378032836899290E-005
  2.386389879530566E-005
  2.394517898953691E-005
  2.402428809883214E-005
  2.410134230811341E-005
  2.417645487796144E-005
  2.424973618373807E-005
  2.432129375561542E-005
  2.439123231939776E-005
  2.445965383788844E-005
  2.452665755253300E-005
  2.459234002530319E-005
  2.465679518039948E-005
  2.472011434576986E-005
  2.478238629416624E-005
  2.484369728363811E-005
  2.490413109722739E-005
  2.496376908188327E-005
  2.502269018633200E-005
  2.508097099791016E-005
  2.513868577831901E-005
  2.519590649814176E-005
  2.525270287028998E-005
  2.530914238224595E-005
  2.536529032723184E-005
  2.542120983436454E-005
  2.547696189786218E-005
  2.553260540549980E-005
  2.558819716652645E-005
  2.564379193920196E-005
  2.569944245741300E-005
  2.575519945924377E-005
  2.222257304903718E-005
  2.238281709035793E-005
  2.253814978435950E-005
  2.268873705595778E-005
  2.283474192268273E-005
  2.297632449245362E-005
  2.311364196379522E-005
  2.324684862831954E-005
  2.337609587548508E-005
  2.350153219974388E-005
  2.362330320990160E-005
  2.374155164063296E-005
  2.385641736619631E-005
  2.396803741625735E-005
  2.407654599363352E-005
  2.418207449411165E-005
  2.428475152799626E-005
  2.438470294356587E-005
  2.448205185207547E-005
  2.457691865441779E-005
  2.466942106919929E-005
  2.475967416221438E-005
  2.484779037707270E-005
  2.493387956704599E-005
  2.501804902781875E-005
  2.510040353112876E-005
  2.518104535919804E-005
  2.526007433970983E-005
  2.533758788137205E-005
  2.541368100977810E-005
  2.548844640363664E-005
  2.556197443113215E-005
  2.563435318639929E-005
  2.570566852593793E-005
  2.577600410504469E-005
  2.584544141406188E-005
  2.591405981442736E-005
  2.598193657455918E-005
  2.604914690549849E-005
  2.611576399628193E-005
  2.618185904916167E-005
  2.624750131459115E-005
  2.631275812610529E-005
  2.637769493514733E-005
  2.644237534590731E-005
  2.650686115032202E-005
  2.657121236331811E-005
  2.663548725843013E-005
  2.669974240421847E-005
  2.676403270094463E-005
  2.265335125520143E-005
  2.282269404332535E-005
  2.298722011981315E-005
  2.314708558117758E-005
  2.330244391092588E-005
  2.345344598315984E-005
  2.360024006778698E-005
  2.374297183732134E-005
  2.388178437529483E-005
  2.401681818614997E-005
  2.414821120677527E-005
  2.427609881959814E-005
  2.440061386711562E-005
  2.452188666799274E-005
  2.464004503457835E-005
  2.475521429185001E-005
  2.486751729766059E-005
  2.497707446441931E-005
  2.508400378188307E-005
  2.518842084125614E-005
  2.529043886037178E-005
  2.539016870995670E-005
  2.548771894085770E-005
  2.558319581229109E-005
  2.567670332084160E-005
  2.576834323036000E-005
  2.585821510249183E-005
  2.594641632795085E-005
  2.603304215831249E-005
  2.611818573838985E-005
  2.620193813906625E-005
  2.628438839055681E-005
  2.636562351604240E-005
  2.644572856565706E-005
  2.652478665075625E-005
  2.660287897849704E-005
  2.668008488667051E-005
  2.675648187878771E-005
  2.683214565944634E-005
  2.690715016997207E-005
  2.698156762436441E-005
  2.705546854557627E-005
  2.712892180219154E-005
  2.720199464556527E-005
  2.727475274744249E-005
  2.734726023822959E-005
  2.741957974593792E-005
  2.749177243594221E-005
  2.756389805161096E-005
  2.763601495610236E-005
  2.301201394865500E-005
  2.318830246483276E-005
  2.335989757061151E-005
  2.352694606432451E-005
  2.368959239264781E-005
  2.384797865876807E-005
  2.400224463154431E-005
  2.415252775576232E-005
  2.429896316326995E-005
  2.444168368531556E-005
  2.458081986583935E-005
  2.471649997590740E-005
  2.484885002911932E-005
  2.497799379815203E-005
  2.510405283227854E-005
  2.522714647599942E-005
  2.534739188853291E-005
  2.546490406447962E-005
  2.557979585528795E-005
  2.569217799172451E-005
  2.580215910720481E-005
  2.590984576201140E-005
  2.601534246835048E-005
  2.611875171617552E-005
  2.622017399975023E-005
  2.631970784501366E-005
  2.641744983755622E-005
  2.651349465126655E-005
  2.660793507765762E-005
  2.670086205568644E-005
  2.679236470226423E-005
  2.688253034318601E-005
  2.697144454469111E-005
  2.705919114547730E-005
  2.714585228922219E-005
  2.723150845761265E-005
  2.731623850387951E-005
  2.740011968680071E-005
  2.748322770526324E-005
  2.756563673333027E-005
  2.764741945589561E-005
  2.772864710490571E-005
  2.780938949624761E-005
  2.788971506730207E-005
  2.796969091524677E-005
  2.804938283616177E-005
  2.812885536498366E-005
  2.820817181642963E-005
  2.828739432694461E-005
  2.836658389774748E-005
  2.328947579886547E-005
  2.347078529960874E-005
  2.364754978253525E-005
  2.381990705155302E-005
  2.398799280209510E-005
  2.415194063228351E-005
  2.431188205466456E-005
  2.446794650861568E-005
  2.462026137333280E-005
  2.476895198154453E-005
  2.491414163394219E-005
  2.505595161430010E-005
  2.519450120537490E-005
  2.532990770548674E-005
  2.546228644596035E-005
  2.559175080921162E-005
  2.571841224763253E-005
  2.584238030328308E-005
  2.596376262819399E-005
  2.608266500554610E-005
  2.619919137147239E-005
  2.631344383762049E-005
  2.642552271438001E-005
  2.653552653483362E-005
  2.664355207934216E-005
  2.674969440079773E-005
  2.685404685051179E-005
  2.695670110474462E-005
  2.705774719183996E-005
  2.715727351993437E-005
  2.725536690533884E-005
  2.735211260141362E-005
  2.744759432809250E-005
  2.754189430196876E-005
  2.763509326695102E-005
  2.772727052552477E-005
  2.781850397060497E-005
  2.790887011797036E-005
  2.799844413936201E-005
  2.808729989619213E-005
  2.817550997391106E-005
  2.826314571710714E-005
  2.835027726528164E-005
  2.843697358942069E-005
  2.852330252935376E-005
  2.860933083195263E-005
  2.869512419024286E-005
  2.878074728342962E-005
  2.886626381797178E-005
  2.895173656967124E-005
  2.347793182920934E-005
  2.366253428108549E-005
  2.384276211686217E-005
  2.401874428065575E-005
  2.419060784307841E-005
  2.435847801375460E-005
  2.452247815405884E-005
  2.468272979036124E-005
  2.483935262756039E-005
  2.499246456318422E-005
  2.514218170191284E-005
  2.528861837061467E-005
  2.543188713391139E-005
  2.557209881031188E-005
  2.570936248887622E-005
  2.584378554646696E-005
  2.597547366562201E-005
  2.610453085291967E-005
  2.623105945806666E-005
  2.635516019348082E-005
  2.647693215450447E-005
  2.659647284024594E-005
  2.671387817500155E-005
  2.682924253023511E-005
  2.694265874721301E-005
  2.705421816020720E-005
  2.716401062026911E-005
  2.727212451960915E-005
  2.737864681656047E-005
  2.748366306112030E-005
  2.758725742110014E-005
  2.768951270879739E-005
  2.779051040835165E-005
  2.789033070359625E-005
  2.798905250657954E-005
  2.808675348664928E-005
  2.818351010017436E-005
  2.827939762089007E-005
  2.837449017087448E-005
  2.846886075219973E-005
  2.856258127924835E-005
  2.865572261173880E-005
  2.874835458847003E-005
  2.884054606179636E-005
  2.893236493291996E-005
  2.902387818796648E-005
  2.911515193488283E-005
  2.920625144126005E-005
  2.929724117302603E-005
  2.938818483410924E-005
  2.357081741516914E-005
  2.375715762939818E-005
  2.393931277422661E-005
  2.411740295554149E-005
  2.429154663838636E-005
  2.446186065912185E-005
  2.462846023781224E-005
  2.479145899083245E-005
  2.495096894380163E-005
  2.510710054487599E-005
  2.525996267832028E-005
  2.540966267855898E-005
  2.555630634452607E-005
  2.569999795457958E-005
  2.584084028176320E-005
  2.597893460955250E-005
  2.611438074813399E-005
  2.624727705107309E-005
  2.637772043262124E-005
  2.650580638539353E-005
  2.663162899867113E-005
  2.675528097713767E-005
  2.687685366023598E-005
  2.699643704198871E-005
  2.711411979136887E-005
  2.722998927324470E-005
  2.734413156981649E-005
  2.745663150264237E-005
  2.756757265519352E-005
  2.767703739596181E-005
  2.778510690212779E-005
  2.789186118380222E-005
  2.799737910880573E-005
  2.810173842805551E-005
  2.820501580150258E-005
  2.830728682467218E-005
  2.840862605579450E-005
  2.850910704354905E-005
  2.860880235542031E-005
  2.870778360668521E-005
  2.880612149004556E-005
  2.890388580593207E-005
  2.900114549344962E-005
  2.909796866206860E-005
  2.919442262398698E-005
  2.929057392723606E-005
  2.938648838955728E-005
  2.948223113302821E-005
  2.957786661950173E-005
  2.967345868687198E-005
  2.356275193169062E-005
  2.374942977529427E-005
  2.393212842498156E-005
  2.411095910822874E-005
  2.428603164462383E-005
  2.445745445629690E-005
  2.462533457857517E-005
  2.478977767078922E-005
  2.495088802739693E-005
  2.510876858941827E-005
  2.526352095610583E-005
  2.541524539703479E-005
  2.556404086449027E-005
  2.571000500629326E-005
  2.585323417897657E-005
  2.599382346138859E-005
  2.613186666875641E-005
  2.626745636712419E-005
  2.640068388829998E-005
  2.653163934526509E-005
  2.666041164798961E-005
  2.678708851981121E-005
  2.691175651423668E-005
  2.703450103225540E-005
  2.715540634017081E-005
  2.727455558789530E-005
  2.739203082777622E-005
  2.750791303393589E-005
  2.762228212212627E-005
  2.773521697008608E-005
  2.784679543845803E-005
  2.795709439219253E-005
  2.806618972254176E-005
  2.817415636953638E-005
  2.828106834506595E-005
  2.838699875645858E-005
  2.849201983065384E-005
  2.859620293894889E-005
  2.869961862228465E-005
  2.880233661714418E-005
  2.890442588203908E-005
  2.900595462458381E-005
  2.910699032919642E-005
  2.920759978540926E-005
  2.930784911683432E-005
  2.940780381073475E-005
  2.950752874829609E-005
  2.960708823553225E-005
  2.970654603489250E-005
  2.980596539755472E-005
  2.344947270867071E-005
  2.363522991944298E-005
  2.381722728281461E-005
  2.399556709025294E-005
  2.417035045889152E-005
  2.434167733912297E-005
  2.450964652235473E-005
  2.467435564902457E-005
  2.483590121697750E-005
  2.499437859006298E-005
  2.514988200712682E-005
  2.530250459128333E-005
  2.545233835965464E-005
  2.559947423332166E-005
  2.574400204787050E-005
  2.588601056419163E-005
  2.602558747974825E-005
  2.616281944026487E-005
  2.629779205189329E-005
  2.643058989374229E-005
  2.656129653094240E-005
  2.668999452810118E-005
  2.681676546329823E-005
  2.694168994245201E-005
  2.706484761426726E-005
  2.718631718560397E-005
  2.730617643731536E-005
  2.742450224063219E-005
  2.754137057399425E-005
  2.765685654037169E-005
  2.777103438514112E-005
  2.788397751438103E-005
  2.799575851375401E-005
  2.810644916783016E-005
  2.821612047997375E-005
  2.832484269270250E-005
  2.843268530860819E-005
  2.853971711176733E-005
  2.864600618967544E-005
  2.875161995576062E-005
  2.885662517235885E-005
  2.896108797430635E-005
  2.906507389300859E-005
  2.916864788110246E-005
  2.927187433765291E-005
  2.937481713392080E-005
  2.947753963966499E-005
  2.958010475006275E-005
  2.968257491314109E-005
  2.978501215783771E-005
  2.322776395722134E-005
  2.341147428211753E-005
  2.359165464746640E-005
  2.376839836990542E-005
  2.394179782460048E-005
  2.411194444906522E-005
  2.427892874731021E-005
  2.444284029418868E-005
  2.460376774027520E-005
  2.476179881700619E-005
  2.491702034221446E-005
  2.506951822606166E-005
  2.521937747739327E-005
  2.536668221046924E-005
  2.551151565212952E-005
  2.565396014939408E-005
  2.579409717749320E-005
  2.593200734834029E-005
  2.606777041944498E-005
  2.620146530329547E-005
  2.633317007717237E-005
  2.646296199345458E-005
  2.659091749037391E-005
  2.671711220320619E-005
  2.684162097601651E-005
  2.696451787377782E-005
  2.708587619503293E-005
  2.720576848498360E-005
  2.732426654912503E-005
  2.744144146725740E-005
  2.755736360808434E-005
  2.767210264420009E-005
  2.778572756762240E-005
  2.789830670576718E-005
  2.800990773791102E-005
  2.812059771216457E-005
  2.823044306287899E-005
  2.833950962857887E-005
  2.844786267034792E-005
  2.855556689070954E-005
  2.866268645300036E-005
  2.876928500120764E-005
  2.887542568029883E-005
  2.898117115703419E-005
  2.908658364126059E-005
  2.919172490768860E-005
  2.929665631814418E-005
  2.940143884432097E-005
  2.950613309096247E-005
  2.961079931959496E-005
  2.289538383517034E-005
  2.307604542168561E-005
  2.325341448646098E-005
  2.342757537895776E-005
  2.359861173709797E-005
  2.376660648658710E-005
  2.393164184088803E-005
  2.409379930147025E-005
  2.425315965860962E-005
  2.440980299257320E-005
  2.456380867528210E-005
  2.471525537241607E-005
  2.486422104603249E-005
  2.501078295755126E-005
  2.515501767130826E-005
  2.529700105853057E-005
  2.543680830179019E-005
  2.557451389993235E-005
  2.571019167348957E-005
  2.584391477057546E-005
  2.597575567322597E-005
  2.610578620426397E-005
  2.623407753461365E-005
  2.636070019108144E-005
  2.648572406465970E-005
  2.660921841925378E-005
  2.673125190091531E-005
  2.685189254754846E-005
  2.697120779905586E-005
  2.708926450800852E-005
  2.720612895072301E-005
  2.732186683886725E-005
  2.743654333146098E-005
  2.755022304739210E-005
  2.766297007836829E-005
  2.777484800232878E-005
  2.788591989729323E-005
  2.799624835568993E-005
  2.810589549909923E-005
  2.821492299345820E-005
  2.832339206469871E-005
  2.843136351483160E-005
  2.853889773843298E-005
  2.864605473959781E-005
  2.875289414928102E-005
  2.885947524308313E-005
  2.896585695943026E-005
  2.907209791817808E-005
  2.917825643959937E-005
  2.928439056378214E-005
  2.245099174471821E-005
  2.262772092321079E-005
  2.280139955047763E-005
  2.297210308280351E-005
  2.313990648882711E-005
  2.330488424429122E-005
  2.346711032741836E-005
  2.362665821481214E-005
  2.378360087786811E-005
  2.393801077976315E-005
  2.408995987296767E-005
  2.423951959729333E-005
  2.438676087846985E-005
  2.453175412727953E-005
  2.467456923916719E-005
  2.481527559443902E-005
  2.495394205894376E-005
  2.509063698527349E-005
  2.522542821449787E-005
  2.535838307841161E-005
  2.548956840227296E-005
  2.561905050805640E-005
  2.574689521822296E-005
  2.587316785995638E-005
  2.599793326991384E-005
  2.612125579946981E-005
  2.624319932041915E-005
  2.636382723119571E-005
  2.648320246352047E-005
  2.660138748956186E-005
  2.671844432952528E-005
  2.683443455975058E-005
  2.694941932118577E-005
  2.706345932839638E-005
  2.717661487894437E-005
  2.728894586325867E-005
  2.740051177489412E-005
  2.751137172125312E-005
  2.762158443468983E-005
  2.773120828405138E-005
  2.784030128661681E-005
  2.794892112044005E-005
  2.805712513706110E-005
  2.816497037463735E-005
  2.827251357142157E-005
  2.837981117962773E-005
  2.848691937963830E-005
  2.859389409458619E-005
  2.870079100524542E-005
  2.880766556529692E-005
  2.189407720713208E-005
  2.206610299637492E-005
  2.223532174480110E-005
  2.240180016797948E-005
  2.256560470882320E-005
  2.272680152765125E-005
  2.288545649295465E-005
  2.304163517277786E-005
  2.319540282677012E-005
  2.334682439886357E-005
  2.349596451053797E-005
  2.364288745476664E-005
  2.378765719051674E-005
  2.393033733789259E-005
  2.407099117382699E-005
  2.420968162838326E-005
  2.434647128162577E-005
  2.448142236108391E-005
  2.461459673972225E-005
  2.474605593452085E-005
  2.487586110556807E-005
  2.500407305571091E-005
  2.513075223069742E-005
  2.525595871991614E-005
  2.537975225755519E-005
  2.550219222435354E-005
  2.562333764979896E-005
  2.574324721482765E-005
  2.586197925503478E-005
  2.597959176432789E-005
  2.609614239904281E-005
  2.621168848257578E-005
  2.632628701037525E-005
  2.643999465547411E-005
  2.655286777438341E-005
  2.666496241343969E-005
  2.677633431558512E-005
  2.688703892751708E-005
  2.699713140727880E-005
  2.710666663221424E-005
  2.721569920729885E-005
  2.732428347387689E-005
  2.743247351872162E-005
  2.754032318346854E-005
  2.764788607438517E-005
  2.775521557247761E-005
  2.786236484390080E-005
  2.796938685070039E-005
  2.807633436183634E-005
  2.818325996449508E-005
  2.122489115656236E-005
  2.139154999804634E-005
  2.155564393625861E-005
  2.171723118306764E-005
  2.187636988080486E-005
  2.203311808777148E-005
  2.218753376452795E-005
  2.233967476088466E-005
  2.248959880366545E-005
  2.263736348517424E-005
  2.278302625237957E-005
  2.292664439676257E-005
  2.306827504486633E-005
  2.320797514950968E-005
  2.334580148166823E-005
  2.348181062293272E-005
  2.361605895869501E-005
  2.374860267186112E-005
  2.387949773723021E-005
  2.400879991644237E-005
  2.413656475350200E-005
  2.426284757090237E-005
  2.438770346626650E-005
  2.451118730960715E-005
  2.463335374103974E-005
  2.475425716908749E-005
  2.487395176949298E-005
  2.499249148451068E-005
  2.510993002272424E-005
  2.522632085933176E-005
  2.534171723691676E-005
  2.545617216667888E-005
  2.556973843010810E-005
  2.568246858113060E-005
  2.579441494864413E-005
  2.590562963952052E-005
  2.601616454197652E-005
  2.612607132937833E-005
  2.623540146440404E-005
  2.634420620360730E-005
  2.645253660232794E-005
  2.656044351996751E-005
  2.666797762560638E-005
  2.677518940393988E-005
  2.688212916154045E-005
  2.698884703342379E-005
  2.709539298991029E-005
  2.720181684376160E-005
  2.730816825756896E-005
  2.741449675143446E-005
  2.044438016840649E-005
  2.060511054326283E-005
  2.076351400231456E-005
  2.091964057589520E-005
  2.107354041344356E-005
  2.122526376468366E-005
  2.137486096175158E-005
  2.152238240205018E-005
  2.166787853198963E-005
  2.181139983151061E-005
  2.195299679932937E-005
  2.209271993902278E-005
  2.223061974579651E-005
  2.236674669396990E-005
  2.250115122523393E-005
  2.263388373751609E-005
  2.276499457461424E-005
  2.289453401639172E-005
  2.302255226970270E-005
  2.314909945992517E-005
  2.327422562306354E-005
  2.339798069855874E-005
  2.352041452256802E-005
  2.364157682190895E-005
  2.376151720855476E-005
  2.388028517461218E-005
  2.399793008794595E-005
  2.411450118820809E-005
  2.423004758349051E-005
  2.434461824738206E-005
  2.445826201656153E-005
  2.457102758884938E-005
  2.468296352172732E-005
  2.479411823127165E-005
  2.490453999156395E-005
  2.501427693449789E-005
  2.512337704998240E-005
  2.523188818657153E-005
  2.533985805244996E-005
  2.544733421679469E-005
  2.555436411149522E-005
  2.566099503321494E-005
  2.576727414577657E-005
  2.587324848287475E-005
  2.597896495106905E-005
  2.608447033309437E-005
  2.618981129141355E-005
  2.629503437206131E-005
  2.640018600870538E-005
  2.650531252695088E-005
  1.955412393269568E-005
  1.970846063874315E-005
  1.986070167553828E-005
  2.001088929568219E-005
  2.015906604269620E-005
  2.030527472837577E-005
  2.044955841108498E-005
  2.059196037492541E-005
  2.073252410979952E-005
  2.087129329231713E-005
  2.100831176751913E-005
  2.114362353146135E-005
  2.127727271452081E-005
  2.140930356553741E-005
  2.153976043666334E-005
  2.166868776897716E-005
  2.179613007880347E-005
  2.192213194473780E-005
  2.204673799530685E-005
  2.216999289740151E-005
  2.229194134522280E-005
  2.241262804997708E-005
  2.253209773010847E-005
  2.265039510217132E-005
  2.276756487226831E-005
  2.288365172806339E-005
  2.299870033136693E-005
  2.311275531121991E-005
  2.322586125753939E-005
  2.333806271523741E-005
  2.344940417888425E-005
  2.355993008779768E-005
  2.366968482162251E-005
  2.377871269637469E-005
  2.388705796089461E-005
  2.399476479373877E-005
  2.410187730047729E-005
  2.420843951138120E-005
  2.431449537949982E-005
  2.442008877907550E-005
  2.452526350434886E-005
  2.463006326866850E-005
  2.473453170394238E-005
  2.483871236037766E-005
  2.494264870652630E-005
  2.504638412961872E-005
  2.514996193612135E-005
  2.525342535258950E-005
  2.535681752671608E-005
  2.546018152862195E-005
  1.855627615943561E-005
  1.870384412529706E-005
  1.884953856707245E-005
  1.899339443814772E-005
  1.913544713603156E-005
  1.927573247642060E-005
  1.941428666814715E-005
  1.955114628913002E-005
  1.968634826321317E-005
  1.981992983790885E-005
  1.995192856303348E-005
  2.008238227015503E-005
  2.021132905292143E-005
  2.033880724814463E-005
  2.046485541770602E-005
  2.058951233122665E-005
  2.071281694946398E-005
  2.083480840844836E-005
  2.095552600434652E-005
  2.107500917897360E-005
  2.119329750600454E-005
  2.131043067784862E-005
  2.142644849312767E-005
  2.154139084479817E-005
  2.165529770885333E-005
  2.176820913364816E-005
  2.188016522973990E-005
  2.199120616031092E-005
  2.210137213213256E-005
  2.221070338702728E-005
  2.231924019384406E-005
  2.242702284092034E-005
  2.253409162901129E-005
  2.264048686468758E-005
  2.274624885415323E-005
  2.285141789750849E-005
  2.295603428340447E-005
  2.306013828411571E-005
  2.316377015096109E-005
  2.326697011011373E-005
  2.336977835875488E-005
  2.347223506154145E-005
  2.357438034743416E-005
  2.367625430677716E-005
  2.377789698869980E-005
  2.387934839878854E-005
  2.398064849699833E-005
  2.408183719581960E-005
  2.418295435866889E-005
  2.428403979848073E-005
  1.745350903030394E-005
  1.759401662141621E-005
  1.773286163764930E-005
  1.787007227718393E-005
  1.800567731561605E-005
  1.813970607725297E-005
  1.827218840731956E-005
  1.840315464517489E-005
  1.853263559847090E-005
  1.866066251824187E-005
  1.878726707487215E-005
  1.891248133497326E-005
  1.903633773907820E-005
  1.915886908019875E-005
  1.928010848317068E-005
  1.940008938479935E-005
  1.951884551476462E-005
  1.963641087726722E-005
  1.975281973340794E-005
  1.986810658427723E-005
  1.998230615473405E-005
  2.009545337781264E-005
  2.020758337985081E-005
  2.031873146617088E-005
  2.042893310743996E-005
  2.053822392657876E-005
  2.064663968625916E-005
  2.075421627698582E-005
  2.086098970567776E-005
  2.096699608481522E-005
  2.107227162206886E-005
  2.117685261042869E-005
  2.128077541882808E-005
  2.138407648318291E-005
  2.148679229793124E-005
  2.158895940794364E-005
  2.169061440088188E-005
  2.179179389995411E-005
  2.189253455701961E-005
  2.199287304609199E-005
  2.209284605716119E-005
  2.219249029037290E-005
  2.229184245051089E-005
  2.239093924178230E-005
  2.248981736288271E-005
  2.258851350235312E-005
  2.268706433416769E-005
  2.278550651356556E-005
  2.288387667311661E-005
  2.298221141897830E-005
  1.624896126946929E-005
  1.638219309951030E-005
  1.651396030596945E-005
  1.664428493052338E-005
  1.677318970478853E-005
  1.690069801941503E-005
  1.702683389414487E-005
  1.715162194884757E-005
  1.727508737556631E-005
  1.739725591144602E-005
  1.751815381259111E-005
  1.763780782884485E-005
  1.775624517936490E-005
  1.787349352909839E-005
  1.798958096605572E-005
  1.810453597936417E-005
  1.821838743812119E-005
  1.833116457099651E-005
  1.844289694656058E-005
  1.855361445432211E-005
  1.866334728648122E-005
  1.877212592033119E-005
  1.887998110133808E-005
  1.898694382683065E-005
  1.909304533033900E-005
  1.919831706650373E-005
  1.930279069657905E-005
  1.940649807450356E-005
  1.950947123351633E-005
  1.961174237327718E-005
  1.971334384754535E-005
  1.981430815230006E-005
  1.991466791438363E-005
  2.001445588057182E-005
  2.011370490711128E-005
  2.021244794967340E-005
  2.031071805371332E-005
  2.040854834525694E-005
  2.050597202202584E-005
  2.060302234494351E-005
  2.069973263000940E-005
  2.079613624046448E-005
  2.089226657931355E-005
  2.098815708211374E-005
  2.108384121008032E-005
  2.117935244342441E-005
  2.127472427499232E-005
  2.136999020408827E-005
  2.146518373056471E-005
  2.156033834909563E-005
  1.494618988049378E-005
  1.507199918421187E-005
  1.519652732636282E-005
  1.531979083383830E-005
  1.544180701477750E-005
  1.556259392607671E-005
  1.568217034187261E-005
  1.580055572300417E-005
  1.591777018745336E-005
  1.603383448170041E-005
  1.614876995301198E-005
  1.626259852256311E-005
  1.637534265948450E-005
  1.648702535570460E-005
  1.659767010159493E-005
  1.670730086248910E-005
  1.681594205588767E-005
  1.692361852944345E-005
  1.703035553971819E-005
  1.713617873158399E-005
  1.724111411838337E-005
  1.734518806271217E-005
  1.744842725787915E-005
  1.755085870999150E-005
  1.765250972068394E-005
  1.775340787038996E-005
  1.785358100224646E-005
  1.795305720653938E-005
  1.805186480568092E-005
  1.815003233974251E-005
  1.824758855246948E-005
  1.834456237780104E-005
  1.844098292687721E-005
  1.853687947547992E-005
  1.863228145193651E-005
  1.872721842544313E-005
  1.882172009479997E-005
  1.891581627753651E-005
  1.900953689941826E-005
  1.910291198431556E-005
  1.919597164442688E-005
  1.928874607080927E-005
  1.938126552425265E-005
  1.947356032644025E-005
  1.956566085138427E-005
  1.965759751715258E-005
  1.974940077783311E-005
  1.984110111573180E-005
  1.993272903382056E-005
  2.002431504835464E-005
  1.354912557838330E-005
  1.366742623057506E-005
  1.378461352299361E-005
  1.390069914038991E-005
  1.401569561885541E-005
  1.412961631233401E-005
  1.424247536007901E-005
  1.435428765516269E-005
  1.446506881384045E-005
  1.457483514586028E-005
  1.468360362569702E-005
  1.479139186459787E-005
  1.489821808350905E-005
  1.500410108685074E-005
  1.510906023701351E-005
  1.521311542975444E-005
  1.531628707024171E-005
  1.541859604992949E-005
  1.552006372409674E-005
  1.562071189012401E-005
  1.572056276642764E-005
  1.581963897207162E-005
  1.591796350703160E-005
  1.601555973306202E-005
  1.611245135520119E-005
  1.620866240383432E-005
  1.630421721735669E-005
  1.639914042537563E-005
  1.649345693246525E-005
  1.658719190241710E-005
  1.668037074301659E-005
  1.677301909130721E-005
  1.686516279931091E-005
  1.695682792020220E-005
  1.704804069494209E-005
  1.713882753930359E-005
  1.722921503133765E-005
  1.731922989919140E-005
  1.740889900932818E-005
  1.749824935510319E-005
  1.758730804567745E-005
  1.767610229525237E-005
  1.776465941263598E-005
  1.785300679108845E-005
  1.794117189846987E-005
  1.802918226763963E-005
  1.811706548711277E-005
  1.820484919196569E-005
  1.829256105494356E-005
  1.838022877780646E-005
  1.206203192874625E-005
  1.217279021199524E-005
  1.228258642900160E-005
  1.239142811401160E-005
  1.249932370177766E-005
  1.260628249366933E-005
  1.271231462473002E-005
  1.281743103165600E-005
  1.292164342171194E-005
  1.302496424247745E-005
  1.312740665255311E-005
  1.322898449300439E-005
  1.332971225970325E-005
  1.342960507645435E-005
  1.352867866887127E-005
  1.362694933907429E-005
  1.372443394105751E-005
  1.382114985686111E-005
  1.391711497337063E-005
  1.401234765984084E-005
  1.410686674609151E-005
  1.420069150133555E-005
  1.429384161362472E-005
  1.438633716994468E-005
  1.447819863686497E-005
  1.456944684180286E-005
  1.466010295480315E-005
  1.475018847090969E-005
  1.483972519302696E-005
  1.492873521530610E-005
  1.501724090701737E-005
  1.510526489691813E-005
  1.519283005805446E-005
  1.527995949303472E-005
  1.536667651970161E-005
  1.545300465726251E-005
  1.553896761276956E-005
  1.562458926802950E-005
  1.570989366683527E-005
  1.579490500259772E-005
  1.587964760628517E-005
  1.596414593469550E-005
  1.604842455903222E-005
  1.613250815379772E-005
  1.621642148592465E-005
  1.630018940422461E-005
  1.638383682904172E-005
  1.646738874218027E-005
  1.655087017702119E-005
  1.663430620888162E-005
  1.048946818797801E-005
  1.059269442082676E-005
  1.069509284372823E-005
  1.079666753943729E-005
  1.089742352015289E-005
  1.099736669372293E-005
  1.109650383081319E-005
  1.119484253289908E-005
  1.129239120121515E-005
  1.138915900646949E-005
  1.148515585943017E-005
  1.158039238234104E-005
  1.167487988106387E-005
  1.176863031807109E-005
  1.186165628611058E-005
  1.195397098267544E-005
  1.204558818513219E-005
  1.213652222658080E-005
  1.222678797238956E-005
  1.231640079735007E-005
  1.240537656353943E-005
  1.249373159876530E-005
  1.258148267562243E-005
  1.266864699115260E-005
  1.275524214708218E-005
  1.284128613060251E-005
  1.292679729570548E-005
  1.301179434504011E-005
  1.309629631227203E-005
  1.318032254496151E-005
  1.326389268789100E-005
  1.334702666686756E-005
  1.342974467299738E-005
  1.351206714733449E-005
  1.359401476602126E-005
  1.367560842576568E-005
  1.375686922975544E-005
  1.383781847391840E-005
  1.391847763355646E-005
  1.399886835031118E-005
  1.407901241948075E-005
  1.415893177763468E-005
  1.423864849054678E-005
  1.431818474139472E-005
  1.439756281927633E-005
  1.447680510793608E-005
  1.455593407478259E-005
  1.463497226011537E-005
  1.471394226659473E-005
  1.479286674889219E-005
  8.836255816945936E-006
  8.931995956497880E-006
  9.027025286097755E-006
  9.121345132596625E-006
  9.214957761814300E-006
  9.307866345381111E-006
  9.400074928445533E-006
  9.491588398227352E-006
  9.582412453378577E-006
  9.672553574182291E-006
  9.762018993485315E-006
  9.850816668469601E-006
  9.938955253096824E-006
  1.002644407134786E-005
  1.011329309114697E-005
  1.019951289898504E-005
  1.028511467523560E-005
  1.037011017011752E-005
  1.045451168032658E-005
  1.053833202627688E-005
  1.062158452996981E-005
  1.070428299344857E-005
  1.078644167785484E-005
  1.086807528302818E-005
  1.094919892766569E-005
  1.102982813002819E-005
  1.110997878914941E-005
  1.118966716656192E-005
  1.126890986849320E-005
  1.134772382856984E-005
  1.142612629095230E-005
  1.150413479392486E-005
  1.158176715392722E-005
  1.165904144998479E-005
  1.173597600855841E-005
  1.181258938876895E-005
  1.188890036801515E-005
  1.196492792793419E-005
  1.204069124071675E-005
  1.211620965577109E-005
  1.219150268667794E-005
  1.226658999847968E-005
  1.234149139526081E-005
  1.241622680799387E-005
  1.249081628267059E-005
  1.256527996868103E-005
  1.263963810743509E-005
  1.271391102122854E-005
  1.278811910230534E-005
  1.286228280213506E-005
  7.107448615896876E-006
  7.195775946283931E-006
  7.283492287963615E-006
  7.370596893969580E-006
  7.457089947503173E-006
  7.542972529845903E-006
  7.628246589061942E-006
  7.712914909506195E-006
  7.796981082088141E-006
  7.880449475303250E-006
  7.963325206982123E-006
  8.045614116794569E-006
  8.127322739415151E-006
  8.208458278413214E-006
  8.289028580806107E-006
  8.369042112261355E-006
  8.448507932939101E-006
  8.527435673981263E-006
  8.605835514583822E-006
  8.683718159696167E-006
  8.761094818263051E-006
  8.837977182069052E-006
  8.914377405104899E-006
  8.990308083493491E-006
  9.065782235924883E-006
  9.140813284599226E-006
  9.215415036660248E-006
  9.289601666128430E-006
  9.363387696268052E-006
  9.436787982438545E-006
  9.509817695347754E-006
  9.582492304777503E-006
  9.654827563665625E-006
  9.726839492635978E-006
  9.798544364878832E-006
  9.869958691409455E-006
  9.941099206710816E-006
  1.001198285468374E-005
  1.008262677496277E-005
  1.015304828953196E-005
  1.022326488965690E-005
  1.029329422311976E-005
  1.036315408172299E-005
  1.043286238907683E-005
  1.050243718864785E-005
  1.057189663203379E-005
  1.064125896750921E-005
  1.071054252876398E-005
  1.077976572386986E-005
  1.084894702443974E-005
  5.308306400316258E-006
  5.389313412398780E-006
  5.469792435905534E-006
  5.549741309549694E-006
  5.629158776283467E-006
  5.708044452654335E-006
  5.786398798921041E-006
  5.864223089884390E-006
  5.941519386450359E-006
  6.018290507861169E-006
  6.094540004655568E-006
  6.170272132262403E-006
  6.245491825259367E-006
  6.320204672277391E-006
  6.394416891541090E-006
  6.468135307006461E-006
  6.541367325090579E-006
  6.614120912015444E-006
  6.686404571697395E-006
  6.758227324188502E-006
  6.829598684705001E-006
  6.900528643125748E-006
  6.971027644041725E-006
  7.041106567312628E-006
  7.110776709099033E-006
  7.180049763366400E-006
  7.248937803873881E-006
  7.317453266593754E-006
  7.385608932586109E-006
  7.453417911285547E-006
  7.520893624194736E-006
  7.588049789010652E-006
  7.654900404096238E-006
  7.721459733371390E-006
  7.787742291512376E-006
  7.853762829572358E-006
  7.919536320880756E-006
  7.985077947305148E-006
  8.050403085816999E-006
  8.115527295362624E-006
  8.180466304031173E-006
  8.245235996504453E-006
  8.309852401770385E-006
  8.374331681101866E-006
  8.438690116284082E-006
  8.502944098079099E-006
  8.567110114903823E-006
  8.631204741748513E-006
  8.695244629276043E-006
  8.759246493124554E-006
  3.444272107068543E-006
  3.518062666380213E-006
  3.591392035129213E-006
  3.664257266477456E-006
  3.736656276055633E-006
  3.808587813099505E-006
  3.880051432326484E-006
  3.951047466444754E-006
  4.021576999332636E-006
  4.091641839847069E-006
  4.161244496281977E-006
  4.230388151423484E-006
  4.299076638213403E-006
  4.367314416017484E-006
  4.435106547446263E-006
  4.502458675771930E-006
  4.569377002858771E-006
  4.635868267689314E-006
  4.701939725351297E-006
  4.767599126594495E-006
  4.832854697868855E-006
  4.897715121851619E-006
  4.962189518457986E-006
  5.026287426323183E-006
  5.090018784722383E-006
  5.153393915952313E-006
  5.216423508145206E-006
  5.279118598473305E-006
  5.341490556805650E-006
  5.403551069711225E-006
  5.465312124901171E-006
  5.526785995993233E-006
  5.587985227669583E-006
  5.648922621185814E-006
  5.709611220200003E-006
  5.770064296950880E-006
  5.830295338735203E-006
  5.890318034721455E-006
  5.950146263025033E-006
  6.009794078097521E-006
  6.069275698369895E-006
  6.128605494187428E-006
  6.187797975963349E-006
  6.246867782614109E-006
  6.305829670204534E-006
  6.364698500820821E-006
  6.423489231669962E-006
  6.482216904369577E-006
  6.540896634439996E-006
  6.599543600974260E-006
  1.520952187589917E-006
  1.587634078101932E-006
  1.653906234091855E-006
  1.719765514062684E-006
  1.785209582688248E-006
  1.850236884060459E-006
  1.914846615611540E-006
  1.979038702614303E-006
  2.042813773264473E-006
  2.106173134381061E-006
  2.169118747655328E-006
  2.231653206461732E-006
  2.293779713216931E-006
  2.355502057312555E-006
  2.416824593498631E-006
  2.477752220877534E-006
  2.538290362329676E-006
  2.598444944458685E-006
  2.658222378034239E-006
  2.717629538881611E-006
  2.776673749247312E-006
  2.835362759605120E-006
  2.893704730914605E-006
  2.951708217290567E-006
  3.009382149110155E-006
  3.066735816501738E-006
  3.123778853255435E-006
  3.180521221101634E-006
  3.236973194375254E-006
  3.293145345043565E-006
  3.349048528071132E-006
  3.404693867164787E-006
  3.460092740813806E-006
  3.515256768679929E-006
  3.570197798299972E-006
  3.624927892072132E-006
  3.679459314557101E-006
  3.733804520066189E-006
  3.787976140496796E-006
  3.841986973472792E-006
  3.895849970699512E-006
  3.949578226594808E-006
  4.003184967145884E-006
  4.056683538996792E-006
  4.110087398748084E-006
  4.163410102467346E-006
  4.216665295410326E-006
  4.269866701910594E-006
  4.323028115490421E-006
  4.376163389092130E-006
 -4.558998880462611E-007
 -3.962219668648096E-007
 -3.369165857083542E-007
 -2.779865339937345E-007
 -2.194338644219024E-007
 -1.612599173401224E-007
 -1.034653445298145E-007
 -4.605013245817557E-008
  1.098637501632021E-008
  6.764545443141410E-008
  1.239289810568176E-007
  1.798394077278492E-007
  2.353797441591867E-007
  2.905535367580933E-007
  3.453648489061384E-007
  3.998182417102043E-007
  4.539187552099192E-007
  5.076718900360776E-007
  5.610835894801053E-007
  6.141602220266876E-007
  6.669085642804797E-007
  7.193357843030981E-007
  7.714494253458848E-007
  8.232573899904369E-007
  8.747679246361851E-007
  9.259896043794783E-007
  9.769313182417375E-007
  1.027602254756572E-006
  1.078011887893533E-006
  1.128169963303371E-006
  1.178086484900750E-006
  1.227771701760529E-006
  1.277236095295203E-006
  1.326490366766352E-006
  1.375545425038189E-006
  1.424412374646654E-006
  1.473102504106395E-006
  1.521627274503449E-006
  1.569998308316995E-006
  1.618227378495461E-006
  1.666326397771764E-006
  1.714307408182084E-006
  1.762182570823364E-006
  1.809964155805899E-006
  1.857664532422455E-006
  1.905296159489154E-006
  1.952871575874577E-006
  2.000403391223597E-006
  2.047904276827378E-006
  2.095386956667203E-006
 -2.480397226049218E-006
 -2.427628141097398E-006
 -2.375207383599070E-006
 -2.323136893708208E-006
 -2.271417956096753E-006
 -2.220051221727979E-006
 -2.169036729110262E-006
 -2.118373925064441E-006
 -2.068061685039613E-006
 -2.018098332941246E-006
 -1.968481660518960E-006
 -1.919208946285866E-006
 -1.870276974014989E-006
 -1.821682050809216E-006
 -1.773420024711748E-006
 -1.725486301949577E-006
 -1.677875863735952E-006
 -1.630583282690548E-006
 -1.583602738869735E-006
 -1.536928035415190E-006
 -1.490552613820107E-006
 -1.444469568852251E-006
 -1.398671663105930E-006
 -1.353151341217255E-006
 -1.307900743731348E-006
 -1.262911720642728E-006
 -1.218175844632419E-006
 -1.173684423956715E-006
 -1.129428515059132E-006
 -1.085398934890766E-006
 -1.041586272900728E-006
 -9.979809027952566E-007
 -9.545729939993622E-007
 -9.113525228582242E-007
 -8.683092835754824E-007
 -8.254328989135776E-007
 -7.827128306626283E-007
 -7.401383898359952E-007
 -6.976987466966805E-007
 -6.553829405199971E-007
 -6.131798891695081E-007
 -5.710783984586489E-007
 -5.290671713376546E-007
 -4.871348168612429E-007
 -4.452698590086896E-007
 -4.034607453080999E-007
 -3.616958552960160E-007
 -3.199635088451612E-007
 -2.782519742900894E-007
 -2.365494764640893E-007
 -4.546530445359616E-006
 -4.500590532200425E-006
 -4.454986257849297E-006
 -4.409718270197484E-006
 -4.364786653354310E-006
 -4.320190946632389E-006
 -4.275930163042865E-006
 -4.232002807430689E-006
 -4.188406894156858E-006
 -4.145139964375427E-006
 -4.102199102938845E-006
 -4.059580954869454E-006
 -4.017281741477504E-006
 -3.975297276075342E-006
 -3.933622979361258E-006
 -3.892253894380844E-006
 -3.851184701182272E-006
 -3.810409731102105E-006
 -3.769922980721503E-006
 -3.729718125455772E-006
 -3.689788532869516E-006
 -3.650127275633202E-006
 -3.610727144183100E-006
 -3.571580659075084E-006
 -3.532680083040637E-006
 -3.494017432753762E-006
 -3.455584490322471E-006
 -3.417372814493184E-006
 -3.379373751602091E-006
 -3.341578446239930E-006
 -3.303977851709679E-006
 -3.266562740184901E-006
 -3.229323712665918E-006
 -3.192251208692387E-006
 -3.155335515825834E-006
 -3.118566778921065E-006
 -3.081935009178369E-006
 -3.045430093011532E-006
 -3.009041800679372E-006
 -2.972759794769241E-006
 -2.936573638461229E-006
 -2.900472803642338E-006
 -2.864446678827736E-006
 -2.828484576926502E-006
 -2.792575742843417E-006
 -2.756709360944415E-006
 -2.720874562349693E-006
 -2.685060432112213E-006
 -2.649256016239265E-006
 -2.613450328612012E-006
 -6.648176230040290E-006
 -6.609006565342160E-006
 -6.570169758603973E-006
 -6.531664780653823E-006
 -6.493490139390683E-006
 -6.455643895771621E-006
 -6.418123679446664E-006
 -6.380926704042554E-006
 -6.344049782054414E-006
 -6.307489339420571E-006
 -6.271241429737624E-006
 -6.235301748151828E-006
 -6.199665644887193E-006
 -6.164328138482914E-006
 -6.129283928705118E-006
 -6.094527409127387E-006
 -6.060052679427833E-006
 -6.025853557371372E-006
 -5.991923590511551E-006
 -5.958256067600776E-006
 -5.924844029713921E-006
 -5.891680281106007E-006
 -5.858757399806173E-006
 -5.826067747940689E-006
 -5.793603481819388E-006
 -5.761356561737929E-006
 -5.729318761586346E-006
 -5.697481678183828E-006
 -5.665836740402834E-006
 -5.634375218064294E-006
 -5.603088230612615E-006
 -5.571966755595861E-006
 -5.541001636921074E-006
 -5.510183592919697E-006
 -5.479503224226157E-006
 -5.448951021447532E-006
 -5.418517372697351E-006
 -5.388192570901977E-006
 -5.357966820962316E-006
 -5.327830246768142E-006
 -5.297772898020435E-006
 -5.267784756923472E-006
 -5.237855744740433E-006
 -5.207975728165588E-006
 -5.178134525619304E-006
 -5.148321913363837E-006
 -5.118527631515233E-006
 -5.088741389941290E-006
 -5.058952874034804E-006
 -5.029151750376397E-006
 -8.779103801903532E-006
 -8.746670802933918E-006
 -8.714576034224607E-006
 -8.682816466359856E-006
 -8.651388715689036E-006
 -8.620289057211734E-006
 -8.589513437171262E-006
 -8.559057485356711E-006
 -8.528916527057484E-006
 -8.499085594792917E-006
 -8.469559439679843E-006
 -8.440332542584012E-006
 -8.411399124944462E-006
 -8.382753159349075E-006
 -8.354388379851950E-006
 -8.326298291999941E-006
 -8.298476182634598E-006
 -8.270915129432360E-006
 -8.243608010192895E-006
 -8.216547511900523E-006
 -8.189726139548307E-006
 -8.163136224741476E-006
 -8.136769934052398E-006
 -8.110619277191905E-006
 -8.084676114961770E-006
 -8.058932166977425E-006
 -8.033379019220725E-006
 -8.008008131379561E-006
 -7.982810843998408E-006
 -7.957778385458469E-006
 -7.932901878754232E-006
 -7.908172348118920E-006
 -7.883580725472685E-006
 -7.859117856689598E-006
 -7.834774507743087E-006
 -7.810541370659925E-006
 -7.786409069340934E-006
 -7.762368165251193E-006
 -7.738409162946384E-006
 -7.714522515470886E-006
 -7.690698629642733E-006
 -7.666927871199305E-006
 -7.643200569821715E-006
 -7.619507024048141E-006
 -7.595837506083427E-006
 -7.572182266484351E-006
 -7.548531538764306E-006
 -7.524875543884561E-006
 -7.501204494649951E-006
 -7.477508600044757E-006
 -1.093297964568044E-005
 -1.090727895985707E-005
 -1.088192815541250E-005
 -1.085692194406878E-005
 -1.083225479860992E-005
 -1.080792096254565E-005
 -1.078391445954060E-005
 -1.076022910258575E-005
 -1.073685850292696E-005
 -1.071379607876919E-005
 -1.069103506372553E-005
 -1.066856851506506E-005
 -1.064638932170439E-005
 -1.062449021201770E-005
 -1.060286376139694E-005
 -1.058150239963558E-005
 -1.056039841807924E-005
 -1.053954397659250E-005
 -1.051893111033360E-005
 -1.049855173632500E-005
 -1.047839765984702E-005
 -1.045846058065285E-005
 -1.043873209899640E-005
 -1.041920372150354E-005
 -1.039986686685507E-005
 -1.038071287133300E-005
 -1.036173299417681E-005
 -1.034291842282203E-005
 -1.032426027794275E-005
 -1.030574961840573E-005
 -1.028737744603394E-005
 -1.026913471025971E-005
 -1.025101231262546E-005
 -1.023300111119358E-005
 -1.021509192478248E-005
 -1.019727553711972E-005
 -1.017954270086614E-005
 -1.016188414152239E-005
 -1.014429056123841E-005
 -1.012675264251875E-005
 -1.010926105180562E-005
 -1.009180644300533E-005
 -1.007437946088302E-005
 -1.005697074439288E-005
 -1.003957092991318E-005
 -1.002217065440223E-005
 -1.000476055847679E-005
 -9.987331289424097E-006
 -9.969873504122823E-006
 -9.952377871919002E-006
 -1.310337084440477E-005
 -1.308443049676747E-005
 -1.306585598462803E-005
 -1.304763956936888E-005
 -1.302977339409646E-005
 -1.301224948998378E-005
 -1.299505978241084E-005
 -1.297819609691521E-005
 -1.296165016496768E-005
 -1.294541362954857E-005
 -1.292947805056563E-005
 -1.291383491008029E-005
 -1.289847561738095E-005
 -1.288339151388015E-005
 -1.286857387785717E-005
 -1.285401392903242E-005
 -1.283970283300298E-005
 -1.282563170552215E-005
 -1.281179161663347E-005
 -1.279817359466027E-005
 -1.278476863005405E-005
 -1.277156767913807E-005
 -1.275856166766791E-005
 -1.274574149431822E-005
 -1.273309803401630E-005
 -1.272062214114797E-005
 -1.270830465269834E-005
 -1.269613639121221E-005
 -1.268410816769980E-005
 -1.267221078440518E-005
 -1.266043503748924E-005
 -1.264877171961130E-005
 -1.263721162241392E-005
 -1.262574553891515E-005
 -1.261436426580658E-005
 -1.260305860568569E-005
 -1.259181936918758E-005
 -1.258063737704279E-005
 -1.256950346205971E-005
 -1.255840847103363E-005
 -1.254734326659514E-005
 -1.253629872897177E-005
 -1.252526575771202E-005
 -1.251423527331728E-005
 -1.250319821885128E-005
 -1.249214556145575E-005
 -1.248106829384848E-005
 -1.246995743574973E-005
 -1.245880403526948E-005
 -1.244759917024625E-005
 -1.528374740543022E-005
 -1.527163017586592E-005
 -1.525989697933134E-005
 -1.524853750476956E-005
 -1.523754144766231E-005
 -1.522689851293915E-005
 -1.521659841772770E-005
 -1.520663089401007E-005
 -1.519698569112644E-005
 -1.518765257814773E-005
 -1.517862134614341E-005
 -1.516988181032833E-005
 -1.516142381209118E-005
 -1.515323722090317E-005
 -1.514531193613869E-005
 -1.513763788877612E-005
 -1.513020504300867E-005
 -1.512300339774008E-005
 -1.511602298800753E-005
 -1.510925388629655E-005
 -1.510268620376858E-005
 -1.509631009141165E-005
 -1.509011574110016E-005
 -1.508409338657902E-005
 -1.507823330437186E-005
 -1.507252581459135E-005
 -1.506696128172473E-005
 -1.506153011531268E-005
 -1.505622277055843E-005
 -1.505102974891230E-005
 -1.504594159854706E-005
 -1.504094891481350E-005
 -1.503604234061296E-005
 -1.503121256672255E-005
 -1.502645033208356E-005
 -1.502174642402062E-005
 -1.501709167841949E-005
 -1.501247697987277E-005
 -1.500789326176535E-005
 -1.500333150632846E-005
 -1.499878274464798E-005
 -1.499423805665187E-005
 -1.498968857104745E-005
 -1.498512546523491E-005
 -1.498053996518936E-005
 -1.497592334529945E-005
 -1.497126692821779E-005
 -1.496656208464591E-005
 -1.496180023311422E-005
 -1.495697283973891E-005
 -1.746748397710619E-005
 -1.746228898223278E-005
 -1.745749633543659E-005
 -1.745309310248429E-005
 -1.744906648340244E-005
 -1.744540381185970E-005
 -1.744209255446516E-005
 -1.743912031001621E-005
 -1.743647480865848E-005
 -1.743414391098836E-005
 -1.743211560708005E-005
 -1.743037801547567E-005
 -1.742891938208384E-005
 -1.742772807905601E-005
 -1.742679260356478E-005
 -1.742610157660435E-005
 -1.742564374166550E-005
 -1.742540796341217E-005
 -1.742538322629169E-005
 -1.742555863313425E-005
 -1.742592340366746E-005
 -1.742646687304792E-005
 -1.742717849030656E-005
 -1.742804781679390E-005
 -1.742906452460095E-005
 -1.743021839491832E-005
 -1.743149931638831E-005
 -1.743289728344433E-005
 -1.743440239460657E-005
 -1.743600485075862E-005
 -1.743769495342222E-005
 -1.743946310297807E-005
 -1.744129979691581E-005
 -1.744319562803156E-005
 -1.744514128262924E-005
 -1.744712753869846E-005
 -1.744914526409507E-005
 -1.745118541470442E-005
 -1.745323903258804E-005
 -1.745529724414117E-005
 -1.745735125822000E-005
 -1.745939236429590E-005
 -1.746141193057482E-005
 -1.746340140212705E-005
 -1.746535229902032E-005
 -1.746725621445049E-005
 -1.746910481285108E-005
 -1.747088982804687E-005
 -1.747260306136542E-005
 -1.747423637978239E-005
 -1.964786137262777E-005
 -1.964972482978197E-005
 -1.965200689288074E-005
 -1.965469202687364E-005
 -1.965776496033217E-005
 -1.966121068121533E-005
 -1.966501443266252E-005
 -1.966916170875013E-005
 -1.967363825026168E-005
 -1.967843004042744E-005
 -1.968352330066522E-005
 -1.968890448634965E-005
 -1.969456028251086E-005
 -1.970047759961827E-005
 -1.970664356930747E-005
 -1.971304554014040E-005
 -1.971967107336569E-005
 -1.972650793867671E-005
 -1.973354411000723E-005
 -1.974076776130960E-005
 -1.974816726236317E-005
 -1.975573117459284E-005
 -1.976344824689412E-005
 -1.977130741148992E-005
 -1.977929777980062E-005
 -1.978740863832295E-005
 -1.979562944452926E-005
 -1.980394982281384E-005
 -1.981235956041437E-005
 -1.982084860339857E-005
 -1.982940705264433E-005
 -1.983802515985744E-005
 -1.984669332361657E-005
 -1.985540208541366E-005
 -1.986414212576788E-005
 -1.987290426031451E-005
 -1.988167943595430E-005
 -1.989045872702074E-005
 -1.989923333145117E-005
 -1.990799456701934E-005
 -1.991673386757535E-005
 -1.992544277931233E-005
 -1.993411295706038E-005
 -1.994273616062293E-005
 -1.995130425110971E-005
 -1.995980918733671E-005
 -1.996824302222192E-005
 -1.997659789922060E-005
 -1.998486604879573E-005
 -1.999303978489611E-005
 -2.181806833054287E-005
 -2.182716348346496E-005
 -2.183668923747742E-005
 -2.184662755363800E-005
 -2.185696078629530E-005
 -2.186767167521998E-005
 -2.187874333778574E-005
 -2.189015926122258E-005
 -2.190190329491137E-005
 -2.191395964272958E-005
 -2.192631285545147E-005
 -2.193894782323825E-005
 -2.195184976813746E-005
 -2.196500423668409E-005
 -2.197839709255940E-005
 -2.199201450928720E-005
 -2.200584296301684E-005
 -2.201986922537516E-005
 -2.203408035636142E-005
 -2.204846369732791E-005
 -2.206300686401533E-005
 -2.207769773966668E-005
 -2.209252446819506E-005
 -2.210747544741880E-005
 -2.212253932238814E-005
 -2.213770497873352E-005
 -2.215296153613006E-005
 -2.216829834179392E-005
 -2.218370496405653E-005
 -2.219917118602476E-005
 -2.221468699925645E-005
 -2.223024259756798E-005
 -2.224582837084827E-005
 -2.226143489897389E-005
 -2.227705294577585E-005
 -2.229267345306837E-005
 -2.230828753475067E-005
 -2.232388647095128E-005
 -2.233946170226059E-005
 -2.235500482400207E-005
 -2.237050758057825E-005
 -2.238596185986759E-005
 -2.240135968768486E-005
 -2.241669322229916E-005
 -2.243195474900580E-005
 -2.244713667475414E-005
 -2.246223152284137E-005
 -2.247723192764347E-005
 -2.249213062942409E-005
 -2.250692046916554E-005
 -2.397120395083566E-005
 -2.398774013890548E-005
 -2.400471244274756E-005
 -2.402210049221309E-005
 -2.403988443907980E-005
 -2.405804494545149E-005
 -2.407656317234961E-005
 -2.409542076837568E-005
 -2.411459985850015E-005
 -2.413408303300251E-005
 -2.415385333649279E-005
 -2.417389425709485E-005
 -2.419418971571829E-005
 -2.421472405548748E-005
 -2.423548203125175E-005
 -2.425644879927572E-005
 -2.427760990699291E-005
 -2.429895128293341E-005
 -2.432045922674228E-005
 -2.434212039932955E-005
 -2.436392181315091E-005
 -2.438585082259065E-005
 -2.440789511448461E-005
 -2.443004269875109E-005
 -2.445228189913755E-005
 -2.447460134410044E-005
 -2.449698995777413E-005
 -2.451943695108074E-005
 -2.454193181294917E-005
 -2.456446430162872E-005
 -2.458702443612387E-005
 -2.460960248775215E-005
 -2.463218897179358E-005
 -2.465477463924016E-005
 -2.467735046867495E-005
 -2.469990765822136E-005
 -2.472243761763725E-005
 -2.474493196045985E-005
 -2.476738249628127E-005
 -2.478978122311277E-005
 -2.481212031983831E-005
 -2.483439213876329E-005
 -2.485658919826623E-005
 -2.487870417550218E-005
 -2.490072989924869E-005
 -2.492265934278254E-005
 -2.494448561688544E-005
 -2.496620196288923E-005
 -2.498780174583807E-005
 -2.500927844770503E-005
 -2.610028125117484E-005
 -2.612450210643070E-005
 -2.614915590152649E-005
 -2.617422018447169E-005
 -2.619967315127443E-005
 -2.622549363068211E-005
 -2.625166106907265E-005
 -2.627815551554231E-005
 -2.630495760720949E-005
 -2.633204855466927E-005
 -2.635941012769067E-005
 -2.638702464105005E-005
 -2.641487494059684E-005
 -2.644294438949024E-005
 -2.647121685461477E-005
 -2.649967669320623E-005
 -2.652830873965408E-005
 -2.655709829246777E-005
 -2.658603110146004E-005
 -2.661509335508860E-005
 -2.664427166797789E-005
 -2.667355306863396E-005
 -2.670292498731487E-005
 -2.673237524408408E-005
 -2.676189203704049E-005
 -2.679146393070324E-005
 -2.682107984458130E-005
 -2.685072904188443E-005
 -2.688040111842038E-005
 -2.691008599162673E-005
 -2.693977388978096E-005
 -2.696945534135382E-005
 -2.699912116451373E-005
 -2.702876245678277E-005
 -2.705837058483289E-005
 -2.708793717443224E-005
 -2.711745410053402E-005
 -2.714691347748313E-005
 -2.717630764938662E-005
 -2.720562918059537E-005
 -2.723487084631275E-005
 -2.726402562334684E-005
 -2.729308668095909E-005
 -2.732204737187280E-005
 -2.735090122334701E-005
 -2.737964192840799E-005
 -2.740826333717503E-005
 -2.743675944827856E-005
 -2.746512440042672E-005
 -2.749335246401528E-005
 -2.819823228943898E-005
 -2.823041304879971E-005
 -2.826301270016875E-005
 -2.829600703615639E-005
 -2.832937261941662E-005
 -2.836308676364527E-005
 -2.839712751481413E-005
 -2.843147363268689E-005
 -2.846610457262986E-005
 -2.850100046762413E-005
 -2.853614211061999E-005
 -2.857151093708539E-005
 -2.860708900785376E-005
 -2.864285899222200E-005
 -2.867880415130225E-005
 -2.871490832161679E-005
 -2.875115589896611E-005
 -2.878753182251724E-005
 -2.882402155916674E-005
 -2.886061108812454E-005
 -2.889728688573949E-005
 -2.893403591057062E-005
 -2.897084558867955E-005
 -2.900770379916714E-005
 -2.904459885990711E-005
 -2.908151951354527E-005
 -2.911845491366655E-005
 -2.915539461122255E-005
 -2.919232854113787E-005
 -2.922924700913611E-005
 -2.926614067878399E-005
 -2.930300055869914E-005
 -2.933981798998270E-005
 -2.937658463383515E-005
 -2.941329245936259E-005
 -2.944993373154628E-005
 -2.948650099943083E-005
 -2.952298708445120E-005
 -2.955938506893679E-005
 -2.959568828480962E-005
 -2.963189030241420E-005
 -2.966798491951363E-005
 -2.970396615045914E-005
 -2.973982821548774E-005
 -2.977556553016576E-005
 -2.981117269499936E-005
 -2.984664448516913E-005
 -2.988197584037818E-005
 -2.991716185487527E-005
 -2.995219776755981E-005
 -3.025791529638992E-005
 -3.029835922052175E-005
 -3.033919498739425E-005
 -3.038039703780439E-005
 -3.042194069887280E-005
 -3.046380216134354E-005
 -3.050595845720592E-005
 -3.054838743765983E-005
 -3.059106775146291E-005
 -3.063397882358669E-005
 -3.067710083423458E-005
 -3.072041469818088E-005
 -3.076390204445736E-005
 -3.080754519637250E-005
 -3.085132715184323E-005
 -3.089523156405940E-005
 -3.093924272246524E-005
 -3.098334553405329E-005
 -3.102752550496977E-005
 -3.107176872242748E-005
 -3.111606183690999E-005
 -3.116039204469621E-005
 -3.120474707063099E-005
 -3.124911515123986E-005
 -3.129348501807739E-005
 -3.133784588137933E-005
 -3.138218741397092E-005
 -3.142649973545891E-005
 -3.147077339666215E-005
 -3.151499936431953E-005
 -3.155916900603170E-005
 -3.160327407546494E-005
 -3.164730669778306E-005
 -3.169125935530741E-005
 -3.173512487342956E-005
 -3.177889640673240E-005
 -3.182256742531990E-005
 -3.186613170138687E-005
 -3.190958329597398E-005
 -3.195291654593464E-005
 -3.199612605109271E-005
 -3.203920666161502E-005
 -3.208215346552202E-005
 -3.212496177643266E-005
 -3.216762712145326E-005
 -3.221014522925133E-005
 -3.225251201827180E-005
 -3.229472358514922E-005
 -3.233677619324132E-005
 -3.237866626133967E-005
 -3.227212425549782E-005
 -3.232115815097205E-005
 -3.237054178569952E-005
 -3.242024872866815E-005
 -3.247025354394873E-005
 -3.252053176434532E-005
 -3.257105986548063E-005
 -3.262181524028520E-005
 -3.267277617395573E-005
 -3.272392181931746E-005
 -3.277523217262046E-005
 -3.282668804974846E-005
 -3.287827106283559E-005
 -3.292996359729628E-005
 -3.298174878925495E-005
 -3.303361050336032E-005
 -3.308553331100643E-005
 -3.313750246892902E-005
 -3.318950389815959E-005
 -3.324152416339002E-005
 -3.329355045266338E-005
 -3.334557055745464E-005
 -3.339757285307316E-005
 -3.344954627943742E-005
 -3.350148032216211E-005
 -3.355336499401287E-005
 -3.360519081664502E-005
 -3.365694880269681E-005
 -3.370863043817311E-005
 -3.376022766513657E-005
 -3.381173286471755E-005
 -3.386313884037700E-005
 -3.391443880149973E-005
 -3.396562634723629E-005
 -3.401669545061665E-005
 -3.406764044294163E-005
 -3.411845599843513E-005
 -3.416913711911328E-005
 -3.421967911994823E-005
 -3.427007761423001E-005
 -3.432032849917619E-005
 -3.437042794175951E-005
 -3.442037236476054E-005
 -3.447015843301355E-005
 -3.451978303988941E-005
 -3.456924329393379E-005
 -3.461853650572364E-005
 -3.466766017490519E-005
 -3.471661197740485E-005
 -3.476538975281257E-005
 -3.423360135597656E-005
 -3.429157020423738E-005
 -3.434982968491615E-005
 -3.440835305022945E-005
 -3.446711464679292E-005
 -3.452608988577474E-005
 -3.458525521348748E-005
 -3.464458808256130E-005
 -3.470406692363470E-005
 -3.476367111754850E-005
 -3.482338096801883E-005
 -3.488317767487308E-005
 -3.494304330772256E-005
 -3.500296078015132E-005
 -3.506291382436715E-005
 -3.512288696632544E-005
 -3.518286550132624E-005
 -3.524283547004182E-005
 -3.530278363501476E-005
 -3.536269745757779E-005
 -3.542256507521419E-005
 -3.548237527932917E-005
 -3.554211749344514E-005
 -3.560178175179693E-005
 -3.566135867832039E-005
 -3.572083946603267E-005
 -3.578021585679959E-005
 -3.583948012146530E-005
 -3.589862504035037E-005
 -3.595764388410067E-005
 -3.601653039488122E-005
 -3.607527876792103E-005
 -3.613388363337856E-005
 -3.619234003851220E-005
 -3.625064343020131E-005
 -3.630878963773838E-005
 -3.636677485592999E-005
 -3.642459562849794E-005
 -3.648224883172850E-005
 -3.653973165842322E-005
 -3.659704160210178E-005
 -3.665417644145978E-005
 -3.671113422507061E-005
 -3.676791325633333E-005
 -3.682451207864302E-005
 -3.688092946079574E-005
 -3.693716438260108E-005
 -3.699321602069716E-005
 -3.704908373457023E-005
 -3.710476705277889E-005
 -3.613505272970522E-005
 -3.620231343462250E-005
 -3.626978684542668E-005
 -3.633744652525311E-005
 -3.640526721955395E-005
 -3.647322482283671E-005
 -3.654129634601191E-005
 -3.660945988434470E-005
 -3.667769458607323E-005
 -3.674598062158032E-005
 -3.681429915319328E-005
 -3.688263230554591E-005
 -3.695096313652547E-005
 -3.701927560880487E-005
 -3.708755456189011E-005
 -3.715578568474350E-005
 -3.722395548894569E-005
 -3.729205128236642E-005
 -3.736006114336096E-005
 -3.742797389547350E-005
 -3.749577908262282E-005
 -3.756346694481499E-005
 -3.763102839426282E-005
 -3.769845499204021E-005
 -3.776573892515212E-005
 -3.783287298404992E-005
 -3.789985054060445E-005
 -3.796666552647647E-005
 -3.803331241193000E-005
 -3.809978618501106E-005
 -3.816608233117413E-005
 -3.823219681322800E-005
 -3.829812605171919E-005
 -3.836386690562633E-005
 -3.842941665344510E-005
 -3.849477297459555E-005
 -3.855993393117820E-005
 -3.862489795003113E-005
 -3.868966380513551E-005
 -3.875423060028706E-005
 -3.881859775210034E-005
 -3.888276497325907E-005
 -3.894673225607986E-005
 -3.901049985630908E-005
 -3.907406827719625E-005
 -3.913743825381459E-005
 -3.920061073760401E-005
 -3.926358688115543E-005
 -3.932636802321761E-005
 -3.938895567389956E-005
 -3.796916786278105E-005
 -3.804608213895502E-005
 -3.812311072216230E-005
 -3.820022818345293E-005
 -3.827741035054889E-005
 -3.835463427142121E-005
 -3.843187817861214E-005
 -3.850912145416837E-005
 -3.858634459544716E-005
 -3.866352918147726E-005
 -3.874065784008997E-005
 -3.881771421568826E-005
 -3.889468293766992E-005
 -3.897154958953414E-005
 -3.904830067858100E-005
 -3.912492360628501E-005
 -3.920140663920270E-005
 -3.927773888058626E-005
 -3.935391024248191E-005
 -3.942991141845811E-005
 -3.950573385689701E-005
 -3.958136973480344E-005
 -3.965681193218918E-005
 -3.973205400694322E-005
 -3.980709017026303E-005
 -3.988191526252531E-005
 -3.995652472970842E-005
 -4.003091460025788E-005
 -4.010508146239184E-005
 -4.017902244193671E-005
 -4.025273518050267E-005
 -4.032621781418136E-005
 -4.039946895258730E-005
 -4.047248765835340E-005
 -4.054527342699448E-005
 -4.061782616715016E-005
 -4.069014618121928E-005
 -4.076223414633110E-005
 -4.083409109566965E-005
 -4.090571840014268E-005
 -4.097711775035466E-005
 -4.104829113891590E-005
 -4.111924084304161E-005
 -4.118996940743714E-005
 -4.126047962747433E-005
 -4.133077453262503E-005
 -4.140085737016570E-005
 -4.147073158912552E-005
 -4.154040082446018E-005
 -4.160986888146947E-005
 -3.972864304870710E-005
 -3.981556948451271E-005
 -3.990248990010270E-005
 -3.998938063598337E-005
 -4.007621934805339E-005
 -4.016298496821768E-005
 -4.024965766596718E-005
 -4.033621881066300E-005
 -4.042265093472133E-005
 -4.050893769751427E-005
 -4.059506385009818E-005
 -4.068101520068141E-005
 -4.076677858082876E-005
 -4.085234181241421E-005
 -4.093769367529582E-005
 -4.102282387565403E-005
 -4.110772301506377E-005
 -4.119238256019361E-005
 -4.127679481321711E-005
 -4.136095288279776E-005
 -4.144485065574414E-005
 -4.152848276928630E-005
 -4.161184458392572E-005
 -4.169493215686522E-005
 -4.177774221602920E-005
 -4.186027213463779E-005
 -4.194251990629787E-005
 -4.202448412065626E-005
 -4.210616393952402E-005
 -4.218755907354222E-005
 -4.226866975930278E-005
 -4.234949673694807E-005
 -4.243004122823967E-005
 -4.251030491504655E-005
 -4.259028991829850E-005
 -4.266999877731660E-005
 -4.274943442957897E-005
 -4.282860019086197E-005
 -4.290749973576275E-005
 -4.298613707858602E-005
 -4.306451655457981E-005
 -4.314264280151263E-005
 -4.322052074158102E-005
 -4.329815556361902E-005
 -4.337555270561739E-005
 -4.345271783752552E-005
 -4.352965684435153E-005
 -4.360637580948484E-005
 -4.368288099831038E-005
 -4.375917884203814E-005
 -4.140620922202250E-005
 -4.150349456542660E-005
 -4.160063040728027E-005
 -4.169759567771517E-005
 -4.179437066303610E-005
 -4.189093696381507E-005
 -4.198727745404843E-005
 -4.208337624111853E-005
 -4.217921862677695E-005
 -4.227479106889208E-005
 -4.237008114415611E-005
 -4.246507751158243E-005
 -4.255976987686209E-005
 -4.265414895750573E-005
 -4.274820644883054E-005
 -4.284193499065936E-005
 -4.293532813481987E-005
 -4.302838031336878E-005
 -4.312108680756748E-005
 -4.321344371751449E-005
 -4.330544793252453E-005
 -4.339709710213776E-005
 -4.348838960781627E-005
 -4.357932453525595E-005
 -4.366990164734418E-005
 -4.376012135769330E-005
 -4.384998470481077E-005
 -4.393949332680759E-005
 -4.402864943666751E-005
 -4.411745579808068E-005
 -4.420591570178161E-005
 -4.429403294241354E-005
 -4.438181179588376E-005
 -4.446925699719088E-005
 -4.455637371873129E-005
 -4.464316754905166E-005
 -4.472964447202226E-005
 -4.481581084645676E-005
 -4.490167338610727E-005
 -4.498723914008190E-005
 -4.507251547360543E-005
 -4.515751004917048E-005
 -4.524223080802338E-005
 -4.532668595197129E-005
 -4.541088392553518E-005
 -4.549483339839636E-005
 -4.557854324812258E-005
 -4.566202254318811E-005
 -4.574528052625141E-005
 -4.582832659770333E-005
 -4.299466447996050E-005
 -4.310263421022289E-005
 -4.321028684288427E-005
 -4.331760476887491E-005
 -4.342457175599007E-005
 -4.353117290493426E-005
 -4.363739460647413E-005
 -4.374322449950165E-005
 -4.384865143025295E-005
 -4.395366541231653E-005
 -4.405825758775747E-005
 -4.416242018906176E-005
 -4.426614650203731E-005
 -4.436943082958884E-005
 -4.447226845640934E-005
 -4.457465561443257E-005
 -4.467658944919494E-005
 -4.477806798695939E-005
 -4.487909010265431E-005
 -4.497965548855844E-005
 -4.507976462376028E-005
 -4.517941874433436E-005
 -4.527861981421605E-005
 -4.537737049680887E-005
 -4.547567412721662E-005
 -4.557353468516763E-005
 -4.567095676856416E-005
 -4.576794556764218E-005
 -4.586450683975389E-005
 -4.596064688470660E-005
 -4.605637252068442E-005
 -4.615169106072088E-005
 -4.624661028967946E-005
 -4.634113844178617E-005
 -4.643528417861544E-005
 -4.652905656759170E-005
 -4.662246506091969E-005
 -4.671551947500911E-005
 -4.680822997027490E-005
 -4.690060703138681E-005
 -4.699266144790558E-005
 -4.708440429530951E-005
 -4.717584691636707E-005
 -4.726700090288940E-005
 -4.735787807778074E-005
 -4.744849047744762E-005
 -4.753885033448125E-005
 -4.762897006064903E-005
 -4.771886223014296E-005
 -4.780853956311537E-005
 -4.448691156528896E-005
 -4.460585983027225E-005
 -4.472429862565625E-005
 -4.484221471621229E-005
 -4.495959624208164E-005
 -4.507643267329709E-005
 -4.519271476541879E-005
 -4.530843451627865E-005
 -4.542358512382988E-005
 -4.553816094501434E-005
 -4.565215745571892E-005
 -4.576557121168172E-005
 -4.587839981044176E-005
 -4.599064185420023E-005
 -4.610229691364368E-005
 -4.621336549271232E-005
 -4.632384899418258E-005
 -4.643374968621142E-005
 -4.654307066965115E-005
 -4.665181584626062E-005
 -4.675998988766147E-005
 -4.686759820510252E-005
 -4.697464691999055E-005
 -4.708114283515097E-005
 -4.718709340681912E-005
 -4.729250671731468E-005
 -4.739739144841477E-005
 -4.750175685537871E-005
 -4.760561274158078E-005
 -4.770896943382759E-005
 -4.781183775821955E-005
 -4.791422901661666E-005
 -4.801615496365155E-005
 -4.811762778430809E-005
 -4.821866007200648E-005
 -4.831926480719150E-005
 -4.841945533642441E-005
 -4.851924535193258E-005
 -4.861864887160291E-005
 -4.871768021943848E-005
 -4.881635400638583E-005
 -4.891468511160575E-005
 -4.901268866410294E-005
 -4.911038002471447E-005
 -4.920777476845074E-005
 -4.930488866718787E-005
 -4.940173767262767E-005
 -4.949833789961320E-005
 -4.959470560966424E-005
 -4.969085719483151E-005
 -4.587600054719161E-005
 -4.600617956290672E-005
 -4.613563163245231E-005
 -4.626434883851974E-005
 -4.639232461356923E-005
 -4.651955369333885E-005
 -4.664603207162814E-005
 -4.677175695622404E-005
 -4.689672672606720E-005
 -4.702094088944766E-005
 -4.714440004339621E-005
 -4.726710583411495E-005
 -4.738906091847860E-005
 -4.751026892653697E-005
 -4.763073442504025E-005
 -4.775046288195380E-005
 -4.786946063188159E-005
 -4.798773484242497E-005
 -4.810529348149114E-005
 -4.822214528542117E-005
 -4.833829972796944E-005
 -4.845376699016583E-005
 -4.856855793092516E-005
 -4.868268405845581E-005
 -4.879615750247374E-005
 -4.890899098706465E-005
 -4.902119780434308E-005
 -4.913279178876168E-005
 -4.924378729210376E-005
 -4.935419915912764E-005
 -4.946404270383153E-005
 -4.957333368634362E-005
 -4.968208829038260E-005
 -4.979032310128144E-005
 -4.989805508459952E-005
 -5.000530156520286E-005
 -5.011208020689113E-005
 -5.021840899250938E-005
 -5.032430620450647E-005
 -5.042979040597548E-005
 -5.053488042208292E-005
 -5.063959532196702E-005
 -5.074395440095825E-005
 -5.084797716324416E-005
 -5.095168330483092E-005
 -5.105509269688811E-005
 -5.115822536938329E-005
 -5.126110149503640E-005
 -5.136374137354926E-005
 -5.146616541610055E-005
 -4.715517689960079E-005
 -4.729678592547874E-005
 -4.743742545873651E-005
 -4.757709386272724E-005
 -4.771579079902252E-005
 -4.785351718063860E-005
 -4.799027512660265E-005
 -4.812606791774249E-005
 -4.826089995377159E-005
 -4.839477671149706E-005
 -4.852770470425058E-005
 -4.865969144243373E-005
 -4.879074539521093E-005
 -4.892087595321935E-005
 -4.905009339238608E-005
 -4.917840883876785E-005
 -4.930583423435814E-005
 -4.943238230386067E-005
 -4.955806652248135E-005
 -4.968290108452707E-005
 -4.980690087298254E-005
 -4.993008142991132E-005
 -5.005245892772819E-005
 -5.017405014123746E-005
 -5.029487242052854E-005
 -5.041494366458448E-005
 -5.053428229565847E-005
 -5.065290723438675E-005
 -5.077083787556951E-005
 -5.088809406463961E-005
 -5.100469607478429E-005
 -5.112066458470811E-005
 -5.123602065698672E-005
 -5.135078571701450E-005
 -5.146498153251117E-005
 -5.157863019360578E-005
 -5.169175409338260E-005
 -5.180437590898964E-005
 -5.191651858319662E-005
 -5.202820530641797E-005
 -5.213945949918327E-005
 -5.225030479502614E-005
 -5.236076502377367E-005
 -5.247086419521571E-005
 -5.258062648314218E-005
 -5.269007620971868E-005
 -5.279923783018036E-005
 -5.290813591783776E-005
 -5.301679514936480E-005
 -5.312524029035302E-005
 -4.831793513959867E-005
 -4.847110915823665E-005
 -4.862304649293706E-005
 -4.877375275509348E-005
 -4.892323477535317E-005
 -4.907150055732665E-005
 -4.921855923268296E-005
 -4.936442101752465E-005
 -4.950909717008841E-005
 -4.965259994966589E-005
 -4.979494257675352E-005
 -4.993613919440625E-005
 -5.007620483071267E-005
 -5.021515536241847E-005
 -5.035300747963156E-005
 -5.048977865160817E-005
 -5.062548709353466E-005
 -5.076015173436074E-005
 -5.089379218558421E-005
 -5.102642871097230E-005
 -5.115808219724311E-005
 -5.128877412558680E-005
 -5.141852654411799E-005
 -5.154736204111920E-005
 -5.167530371912821E-005
 -5.180237516980056E-005
 -5.192860044954333E-005
 -5.205400405591780E-005
 -5.217861090469535E-005
 -5.230244630767470E-005
 -5.242553595113151E-005
 -5.254790587492260E-005
 -5.266958245220547E-005
 -5.279059236980285E-005
 -5.291096260905520E-005
 -5.303072042734002E-005
 -5.314989334004367E-005
 -5.326850910306025E-005
 -5.338659569582692E-005
 -5.350418130477054E-005
 -5.362129430723582E-005
 -5.373796325583067E-005
 -5.385421686318466E-005
 -5.397008398707832E-005
 -5.408559361595284E-005
 -5.420077485476563E-005
 -5.431565691114594E-005
 -5.443026908188158E-005
 -5.454464073968222E-005
 -5.465880132019670E-005
 -4.935807815297087E-005
 -4.952287639583456E-005
 -4.968614695557255E-005
 -4.984790364824346E-005
 -5.000816140169568E-005
 -5.016693621061925E-005
 -5.032424509286244E-005
 -5.048010604728757E-005
 -5.063453801277095E-005
 -5.078756082859617E-005
 -5.093919519607219E-005
 -5.108946264135311E-005
 -5.123838547945502E-005
 -5.138598677941520E-005
 -5.153229033058511E-005
 -5.167732060998798E-005
 -5.182110275074649E-005
 -5.196366251154735E-005
 -5.210502624707396E-005
 -5.224522087945401E-005
 -5.238427387056973E-005
 -5.252221319537362E-005
 -5.265906731602028E-005
 -5.279486515687780E-005
 -5.292963608039388E-005
 -5.306340986370067E-005
 -5.319621667608599E-005
 -5.332808705716683E-005
 -5.345905189577476E-005
 -5.358914240960042E-005
 -5.371839012548471E-005
 -5.384682686035849E-005
 -5.397448470284638E-005
 -5.410139599545838E-005
 -5.422759331736358E-005
 -5.435310946774321E-005
 -5.447797744968227E-005
 -5.460223045456358E-005
 -5.472590184698242E-005
 -5.484902515010996E-005
 -5.497163403153050E-005
 -5.509376228949856E-005
 -5.521544383959839E-005
 -5.533671270181353E-005
 -5.545760298793176E-005
 -5.557814888931824E-005
 -5.569838466500527E-005
 -5.581834463007941E-005
 -5.593806314436217E-005
 -5.605757460132217E-005
 -5.026978230217848E-005
 -5.044617677100572E-005
 -5.062073001319991E-005
 -5.079346497894940E-005
 -5.096440559365493E-005
 -5.113357671511886E-005
 -5.130100409207164E-005
 -5.146671432412957E-005
 -5.163073482304068E-005
 -5.179309377525369E-005
 -5.195382010578462E-005
 -5.211294344322679E-005
 -5.227049408602710E-005
 -5.242650296989001E-005
 -5.258100163631977E-005
 -5.273402220226920E-005
 -5.288559733081742E-005
 -5.303576020290113E-005
 -5.318454449008113E-005
 -5.333198432821943E-005
 -5.347811429215877E-005
 -5.362296937129219E-005
 -5.376658494602862E-005
 -5.390899676511424E-005
 -5.405024092380868E-005
 -5.419035384285062E-005
 -5.432937224822421E-005
 -5.446733315166692E-005
 -5.460427383192793E-005
 -5.474023181672073E-005
 -5.487524486537268E-005
 -5.500935095213214E-005
 -5.514258825010517E-005
 -5.527499511580401E-005
 -5.540661007430627E-005
 -5.553747180494462E-005
 -5.566761912758325E-005
 -5.579709098937360E-005
 -5.592592645204164E-005
 -5.605416467962748E-005
 -5.618184492670214E-005
 -5.630900652698432E-005
 -5.643568888239752E-005
 -5.656193145250018E-005
 -5.668777374428869E-005
 -5.681325530232821E-005
 -5.693841569922532E-005
 -5.706329452639567E-005
 -5.718793138510080E-005
 -5.731236587775826E-005
 -5.104766838478778E-005
 -5.123553251988069E-005
 -5.142122103657767E-005
 -5.160476690441718E-005
 -5.178620390235129E-005
 -5.196556657899463E-005
 -5.214289021419190E-005
 -5.231821078191855E-005
 -5.249156491458099E-005
 -5.266298986857034E-005
 -5.283252349105400E-005
 -5.300020418805722E-005
 -5.316607089357845E-005
 -5.333016304005457E-005
 -5.349252052977409E-005
 -5.365318370747586E-005
 -5.381219333395467E-005
 -5.396959056071540E-005
 -5.412541690563354E-005
 -5.427971422954155E-005
 -5.443252471378672E-005
 -5.458389083871326E-005
 -5.473385536296608E-005
 -5.488246130374261E-005
 -5.502975191779919E-005
 -5.517577068327144E-005
 -5.532056128235063E-005
 -5.546416758460270E-005
 -5.560663363109044E-005
 -5.574800361920499E-005
 -5.588832188813774E-005
 -5.602763290502602E-005
 -5.616598125176931E-005
 -5.630341161239640E-005
 -5.643996876107050E-005
 -5.657569755064616E-005
 -5.671064290175805E-005
 -5.684484979243956E-005
 -5.697836324824073E-005
 -5.711122833283768E-005
 -5.724349013905981E-005
 -5.737519378037652E-005
 -5.750638438279662E-005
 -5.763710707713493E-005
 -5.776740699167166E-005
 -5.789732924512567E-005
 -5.802691893998239E-005
 -5.815622115609225E-005
 -5.828528094456423E-005
 -5.841414332192360E-005
 -5.168687848915521E-005
 -5.188597612826608E-005
 -5.208254503302449E-005
 -5.227662901611809E-005
 -5.246827250522617E-005
 -5.265752050718017E-005
 -5.284441857338924E-005
 -5.302901276661116E-005
 -5.321134962901422E-005
 -5.339147615148816E-005
 -5.356943974416709E-005
 -5.374528820820431E-005
 -5.391906970854265E-005
 -5.409083274800673E-005
 -5.426062614234069E-005
 -5.442849899634541E-005
 -5.459450068105202E-005
 -5.475868081191434E-005
 -5.492108922792282E-005
 -5.508177597174823E-005
 -5.524079127066933E-005
 -5.539818551855966E-005
 -5.555400925859562E-005
 -5.570831316690590E-005
 -5.586114803695787E-005
 -5.601256476480954E-005
 -5.616261433509642E-005
 -5.631134780771325E-005
 -5.645881630532724E-005
 -5.660507100148509E-005
 -5.675016310945225E-005
 -5.689414387167175E-005
 -5.703706454989928E-005
 -5.717897641588054E-005
 -5.731993074267187E-005
 -5.745997879649965E-005
 -5.759917182915199E-005
 -5.773756107091818E-005
 -5.787519772399363E-005
 -5.801213295640274E-005
 -5.814841789633105E-005
 -5.828410362692984E-005
 -5.841924118151675E-005
 -5.855388153914080E-005
 -5.868807562059268E-005
 -5.882187428466959E-005
 -5.895532832482639E-005
 -5.908848846611519E-005
 -5.922140536240107E-005
 -5.935412959382957E-005
 -5.218315877955921E-005
 -5.239313353114266E-005
 -5.260021024384596E-005
 -5.280444431931554E-005
 -5.300589155249866E-005
 -5.320460810044131E-005
 -5.340065045240101E-005
 -5.359407540121004E-005
 -5.378494001591053E-005
 -5.397330161549284E-005
 -5.415921774390032E-005
 -5.434274614607115E-005
 -5.452394474512797E-005
 -5.470287162064265E-005
 -5.487958498790754E-005
 -5.505414317824106E-005
 -5.522660462030280E-005
 -5.539702782231076E-005
 -5.556547135526456E-005
 -5.573199383701252E-005
 -5.589665391725731E-005
 -5.605951026338227E-005
 -5.622062154714574E-005
 -5.638004643220428E-005
 -5.653784356233606E-005
 -5.669407155058314E-005
 -5.684878896902396E-005
 -5.700205433929784E-005
 -5.715392612388294E-005
 -5.730446271800651E-005
 -5.745372244223775E-005
 -5.760176353573168E-005
 -5.774864415008267E-005
 -5.789442234378439E-005
 -5.803915607727088E-005
 -5.818290320852044E-005
 -5.832572148920810E-005
 -5.846766856135127E-005
 -5.860880195449750E-005
 -5.874917908334242E-005
 -5.888885724585720E-005
 -5.902789362182688E-005
 -5.916634527180221E-005
 -5.930426913645936E-005
 -5.944172203634849E-005
 -5.957876067198016E-005
 -5.971544162424001E-005
 -5.985182135514251E-005
 -5.998795620885181E-005
 -6.012390241298893E-005
 -5.253294823356813E-005
 -5.275331335287501E-005
 -5.297039785733900E-005
 -5.318426939066236E-005
 -5.339499574281215E-005
 -5.360264482418500E-005
 -5.380728464117493E-005
 -5.400898327283906E-005
 -5.420780884859893E-005
 -5.440382952725566E-005
 -5.459711347689627E-005
 -5.478772885592309E-005
 -5.497574379510210E-005
 -5.516122638061596E-005
 -5.534424463809857E-005
 -5.552486651756280E-005
 -5.570315987933580E-005
 -5.587919248084887E-005
 -5.605303196433794E-005
 -5.622474584537825E-005
 -5.639440150229471E-005
 -5.656206616635959E-005
 -5.672780691282330E-005
 -5.689169065271032E-005
 -5.705378412535960E-005
 -5.721415389177661E-005
 -5.737286632861917E-005
 -5.752998762293600E-005
 -5.768558376763262E-005
 -5.783972055750824E-005
 -5.799246358604307E-005
 -5.814387824276911E-005
 -5.829402971123775E-005
 -5.844298296765112E-005
 -5.859080277999499E-005
 -5.873755370779372E-005
 -5.888330010237403E-005
 -5.902810610767403E-005
 -5.917203566152993E-005
 -5.931515249749676E-005
 -5.945752014707986E-005
 -5.959920194247272E-005
 -5.974026101968701E-005
 -5.988076032211280E-005
 -6.002076260447863E-005
 -6.016033043715135E-005
 -6.029952621083251E-005
 -6.043841214155001E-005
 -6.057705027598088E-005
 -6.071550249706393E-005
 -5.273347334903522E-005
 -5.296360214984151E-005
 -5.319005774309385E-005
 -5.341292056275921E-005
 -5.363227091933158E-005
 -5.384818898027846E-005
 -5.406075475142530E-005
 -5.427004805951089E-005
 -5.447614853565529E-005
 -5.467913559988024E-005
 -5.487908844657416E-005
 -5.507608603086109E-005
 -5.527020705602983E-005
 -5.546152996171288E-005
 -5.565013291305641E-005
 -5.583609379076601E-005
 -5.601949018194411E-005
 -5.620039937179851E-005
 -5.637889833622860E-005
 -5.655506373510679E-005
 -5.672897190643095E-005
 -5.690069886124238E-005
 -5.707032027927690E-005
 -5.723791150535910E-005
 -5.740354754656732E-005
 -5.756730307004823E-005
 -5.772925240159914E-005
 -5.788946952487105E-005
 -5.804802808129522E-005
 -5.820500137063322E-005
 -5.836046235217538E-005
 -5.851448364656185E-005
 -5.866713753822002E-005
 -5.881849597841758E-005
 -5.896863058885496E-005
 -5.911761266585425E-005
 -5.926551318509202E-005
 -5.941240280687789E-005
 -5.955835188193152E-005
 -5.970343045769667E-005
 -5.984770828509353E-005
 -5.999125482579874E-005
 -6.013413925995297E-005
 -6.027643049429263E-005
 -6.041819717073550E-005
 -6.055950767532859E-005
 -6.070043014762517E-005
 -6.084103249037948E-005
 -6.098138237963260E-005
 -6.112154727507869E-005
 -5.278284882865253E-005
 -5.302196558394949E-005
 -5.325701005613535E-005
 -5.348807590436928E-005
 -5.371525637576190E-005
 -5.393864429229087E-005
 -5.415833203850968E-005
 -5.437441155033846E-005
 -5.458697430450977E-005
 -5.479611130908586E-005
 -5.500191309462890E-005
 -5.520446970628811E-005
 -5.540387069677301E-005
 -5.560020511997212E-005
 -5.579356152546002E-005
 -5.598402795388841E-005
 -5.617169193290763E-005
 -5.635664047408991E-005
 -5.653896007046198E-005
 -5.671873669482222E-005
 -5.689605579880520E-005
 -5.707100231266667E-005
 -5.724366064576742E-005
 -5.741411468774541E-005
 -5.758244781044871E-005
 -5.774874287047523E-005
 -5.791308221243494E-005
 -5.807554767287361E-005
 -5.823622058483871E-005
 -5.839518178309320E-005
 -5.855251160997104E-005
 -5.870828992186111E-005
 -5.886259609629395E-005
 -5.901550903965212E-005
 -5.916710719545567E-005
 -5.931746855321838E-005
 -5.946667065791682E-005
 -5.961479061997503E-005
 -5.976190512582233E-005
 -5.990809044895908E-005
 -6.005342246157759E-005
 -6.019797664664884E-005
 -6.034182811053847E-005
 -6.048505159607917E-005
 -6.062772149610701E-005
 -6.076991186746945E-005
 -6.091169644542601E-005
 -6.105314865849341E-005
 -6.119434164369186E-005
 -6.133534826213951E-005
 -5.268018422798282E-005
 -5.292735540464474E-005
 -5.317005248044227E-005
 -5.340838265911319E-005
 -5.364245242898791E-005
 -5.387236755651816E-005
 -5.409823308054685E-005
 -5.432015330731408E-005
 -5.453823180604780E-005
 -5.475257140549774E-005
 -5.496327419091390E-005
 -5.517044150189455E-005
 -5.537417393089911E-005
 -5.557457132237921E-005
 -5.577173277271874E-005
 -5.596575663078988E-005
 -5.615674049919637E-005
 -5.634478123624635E-005
 -5.652997495856415E-005
 -5.671241704443082E-005
 -5.689220213772692E-005
 -5.706942415264662E-005
 -5.724417627900723E-005
 -5.741655098827254E-005
 -5.758664004019667E-005
 -5.775453449019305E-005
 -5.792032469730978E-005
 -5.808410033289629E-005
 -5.824595038986590E-005
 -5.840596319267585E-005
 -5.856422640789663E-005
 -5.872082705543071E-005
 -5.887585152036431E-005
 -5.902938556544518E-005
 -5.918151434417081E-005
 -5.933232241447390E-005
 -5.948189375305203E-005
 -5.963031177025492E-005
 -5.977765932556297E-005
 -5.992401874366303E-005
 -6.006947183108792E-005
 -6.021409989339102E-005
 -6.035798375291037E-005
 -6.050120376704323E-005
 -6.064383984705718E-005
 -6.078597147740326E-005
 -6.092767773556458E-005
 -6.106903731235020E-005
 -6.121012853268858E-005
 -6.135102937688069E-005
 -5.242569650043317E-005
 -5.267982202959649E-005
 -5.292907276204089E-005
 -5.317356965449057E-005
 -5.341343263487405E-005
 -5.364878060234032E-005
 -5.387973142778512E-005
 -5.410640195494834E-005
 -5.432890800195340E-005
 -5.454736436355827E-005
 -5.476188481382509E-005
 -5.497258210938991E-005
 -5.517956799340332E-005
 -5.538295319987557E-005
 -5.558284745880613E-005
 -5.577935950179308E-005
 -5.597259706828359E-005
 -5.616266691243103E-005
 -5.634967481057759E-005
 -5.653372556939078E-005
 -5.671492303457393E-005
 -5.689337010024256E-005
 -5.706916871895693E-005
 -5.724241991237252E-005
 -5.741322378255806E-005
 -5.758167952392449E-005
 -5.774788543590049E-005
 -5.791193893612833E-005
 -5.807393657445388E-005
 -5.823397404748386E-005
 -5.839214621384502E-005
 -5.854854711007709E-005
 -5.870326996723102E-005
 -5.885640722807109E-005
 -5.900805056497314E-005
 -5.915829089846345E-005
 -5.930721841643681E-005
 -5.945492259398646E-005
 -5.960149221390088E-005
 -5.974701538782691E-005
 -5.989157957804920E-005
 -6.003527161989546E-005
 -6.017817774480000E-005
 -6.032038360395944E-005
 -6.046197429263509E-005
 -6.060303437503136E-005
 -6.074364790979970E-005
 -6.088389847610010E-005
 -6.102386920027156E-005
 -6.116364278305341E-005
 -5.202082826297738E-005
 -5.228063236701563E-005
 -5.253516599687507E-005
 -5.278456397352745E-005
 -5.302895977071524E-005
 -5.326848552087516E-005
 -5.350327202135320E-005
 -5.373344874102150E-005
 -5.395914382720837E-005
 -5.418048411308091E-005
 -5.439759512543862E-005
 -5.461060109294633E-005
 -5.481962495485914E-005
 -5.502478837017324E-005
 -5.522621172737967E-005
 -5.542401415463575E-005
 -5.561831353055659E-005
 -5.580922649552247E-005
 -5.599686846358219E-005
 -5.618135363489780E-005
 -5.636279500887968E-005
 -5.654130439780758E-005
 -5.671699244120912E-005
 -5.688996862079129E-005
 -5.706034127603910E-005
 -5.722821762046568E-005
 -5.739370375860168E-005
 -5.755690470352855E-005
 -5.771792439520820E-005
 -5.787686571947710E-005
 -5.803383052770172E-005
 -5.818891965719663E-005
 -5.834223295231277E-005
 -5.849386928624215E-005
 -5.864392658359502E-005
 -5.879250184362644E-005
 -5.893969116425841E-005
 -5.908558976677963E-005
 -5.923029202132253E-005
 -5.937389147305408E-005
 -5.951648086909476E-005
 -5.965815218617911E-005
 -5.979899665907156E-005
 -5.993910480968412E-005
 -6.007856647694634E-005
 -6.021747084739921E-005
 -6.035590648650564E-005
 -6.049396137069952E-005
 -6.063172292012785E-005
 -6.076927803211944E-005
 -5.146837140206752E-005
 -5.173239227490222E-005
 -5.199075585167852E-005
 -5.224361085642541E-005
 -5.249110434737838E-005
 -5.273338172767508E-005
 -5.297058675630014E-005
 -5.320286155917462E-005
 -5.343034664053566E-005
 -5.365318089457090E-005
 -5.387150161729570E-005
 -5.408544451893954E-005
 -5.429514373658012E-005
 -5.450073184726378E-005
 -5.470233988152773E-005
 -5.490009733743459E-005
 -5.509413219509654E-005
 -5.528457093168758E-005
 -5.547153853710065E-005
 -5.565515853005426E-005
 -5.583555297491202E-005
 -5.601284249904846E-005
 -5.618714631087105E-005
 -5.635858221852572E-005
 -5.652726664920829E-005
 -5.669331466924377E-005
 -5.685684000483774E-005
 -5.701795506353165E-005
 -5.717677095642322E-005
 -5.733339752114006E-005
 -5.748794334553399E-005
 -5.764051579220106E-005
 -5.779122102376640E-005
 -5.794016402895657E-005
 -5.808744864949561E-005
 -5.823317760780298E-005
 -5.837745253556573E-005
 -5.852037400305495E-005
 -5.866204154938195E-005
 -5.880255371355226E-005
 -5.894200806639195E-005
 -5.908050124332746E-005
 -5.921812897804423E-005
 -5.935498613704301E-005
 -5.949116675501786E-005
 -5.962676407117332E-005
 -5.976187056639465E-005
 -5.989657800132229E-005
 -6.003097745529256E-005
 -6.016515936619180E-005
 -5.077259528469744E-005
 -5.103917265357617E-005
 -5.129971845521895E-005
 -5.155439532062805E-005
 -5.180336390033975E-005
 -5.204678287852128E-005
 -5.228480898704248E-005
 -5.251759701964136E-005
 -5.274529984627389E-005
 -5.296806842774804E-005
 -5.318605183031824E-005
 -5.339939724100650E-005
 -5.360824998290769E-005
 -5.381275353109909E-005
 -5.401304952887547E-005
 -5.420927780449833E-005
 -5.440157638843705E-005
 -5.459008153115135E-005
 -5.477492772144517E-005
 -5.495624770540065E-005
 -5.513417250599354E-005
 -5.530883144330318E-005
 -5.548035215547467E-005
 -5.564886062029257E-005
 -5.581448117761701E-005
 -5.597733655244445E-005
 -5.613754787883446E-005
 -5.629523472459462E-005
 -5.645051511676898E-005
 -5.660350556801775E-005
 -5.675432110377914E-005
 -5.690307529034502E-005
 -5.704988026381798E-005
 -5.719484675995408E-005
 -5.733808414497004E-005
 -5.747970044721927E-005
 -5.761980238987222E-005
 -5.775849542455103E-005
 -5.789588376592023E-005
 -5.803207042730014E-005
 -5.816715725727717E-005
 -5.830124497731436E-005
 -5.843443322042803E-005
 -5.856682057089295E-005
 -5.869850460500935E-005
 -5.882958193290834E-005
 -5.896014824149580E-005
 -5.909029833842836E-005
 -5.922012619722389E-005
 -5.934972500345186E-005
 -4.993937825964032E-005
 -5.020663754438283E-005
 -5.046750703476166E-005
 -5.072216328922357E-005
 -5.097078057793910E-005
 -5.121353089810217E-005
 -5.145058398914861E-005
 -5.168210734818536E-005
 -5.190826624542298E-005
 -5.212922373990502E-005
 -5.234514069548829E-005
 -5.255617579708694E-005
 -5.276248556740090E-005
 -5.296422438399903E-005
 -5.316154449688895E-005
 -5.335459604665903E-005
 -5.354352708313969E-005
 -5.372848358467491E-005
 -5.390960947807374E-005
 -5.408704665920619E-005
 -5.426093501432308E-005
 -5.443141244211539E-005
 -5.459861487658101E-005
 -5.476267631059319E-005
 -5.492372882045684E-005
 -5.508190259116914E-005
 -5.523732594262376E-005
 -5.539012535674687E-005
 -5.554042550549100E-005
 -5.568834927982425E-005
 -5.583401781968522E-005
 -5.597755054489638E-005
 -5.611906518714569E-005
 -5.625867782294229E-005
 -5.639650290766006E-005
 -5.653265331066703E-005
 -5.666724035151382E-005
 -5.680037383724294E-005
 -5.693216210088534E-005
 -5.706271204104883E-005
 -5.719212916271342E-005
 -5.732051761922454E-005
 -5.744798025550632E-005
 -5.757461865250484E-005
 -5.770053317289949E-005
 -5.782582300809820E-005
 -5.795058622652727E-005
 -5.807491982324618E-005
 -5.819891977090275E-005
 -5.832268107206359E-005
 -4.897634023031702E-005
 -4.924217166609363E-005
 -4.950127439784663E-005
 -4.975383901530933E-005
 -5.000005351931810E-005
 -5.024010333581295E-005
 -5.047417132981597E-005
 -5.070243781958169E-005
 -5.092508059109697E-005
 -5.114227491272894E-005
 -5.135419355043238E-005
 -5.156100678325894E-005
 -5.176288241948963E-005
 -5.195998581326394E-005
 -5.215247988184325E-005
 -5.234052512359698E-005
 -5.252427963651363E-005
 -5.270389913776552E-005
 -5.287953698369688E-005
 -5.305134419096771E-005
 -5.321946945831179E-005
 -5.338405918927886E-005
 -5.354525751594060E-005
 -5.370320632336339E-005
 -5.385804527529435E-005
 -5.400991184060615E-005
 -5.415894132089638E-005
 -5.430526687912304E-005
 -5.444901956920774E-005
 -5.459032836686546E-005
 -5.472932020140436E-005
 -5.486611998875442E-005
 -5.500085066561978E-005
 -5.513363322479447E-005
 -5.526458675169423E-005
 -5.539382846212872E-005
 -5.552147374129177E-005
 -5.564763618403731E-005
 -5.577242763647835E-005
 -5.589595823890462E-005
 -5.601833647001902E-005
 -5.613966919263505E-005
 -5.626006170070951E-005
 -5.637961776788521E-005
 -5.649843969747086E-005
 -5.661662837394955E-005
 -5.673428331603027E-005
 -5.685150273125518E-005
 -5.696838357226069E-005
 -5.708502159461995E-005
 -4.789297272709358E-005
 -4.815500344209963E-005
 -4.840998896298980E-005
 -4.865813417938228E-005
 -4.889964109569383E-005
 -4.913470884079633E-005
 -4.936353367787669E-005
 -4.958630901476179E-005
 -4.980322541479092E-005
 -5.001447060813644E-005
 -5.022022950395099E-005
 -5.042068420304404E-005
 -5.061601401146327E-005
 -5.080639545480479E-005
 -5.099200229343884E-005
 -5.117300553858911E-005
 -5.134957346943471E-005
 -5.152187165111713E-005
 -5.169006295375425E-005
 -5.185430757260314E-005
 -5.201476304911608E-005
 -5.217158429323562E-005
 -5.232492360671076E-005
 -5.247493070758104E-005
 -5.262175275580433E-005
 -5.276553438005196E-005
 -5.290641770567837E-005
 -5.304454238395013E-005
 -5.318004562239044E-005
 -5.331306221650753E-005
 -5.344372458265434E-005
 -5.357216279224586E-005
 -5.369850460725890E-005
 -5.382287551702573E-005
 -5.394539877642386E-005
 -5.406619544537564E-005
 -5.418538442981071E-005
 -5.430308252398226E-005
 -5.441940445430598E-005
 -5.453446292461913E-005
 -5.464836866302228E-005
 -5.476123047023915E-005
 -5.487315526958597E-005
 -5.498424815858853E-005
 -5.509461246226320E-005
 -5.520434978814868E-005
 -5.531356008310010E-005
 -5.542234169192981E-005
 -5.553079141788966E-005
 -5.563900458515444E-005
 -4.670076095411506E-005
 -4.695631761742984E-005
 -4.720453809254644E-005
 -4.744564209731236E-005
 -4.767984616449476E-005
 -4.790736364393299E-005
 -4.812840470515999E-005
 -4.834317634104747E-005
 -4.855188237244819E-005
 -4.875472345366521E-005
 -4.895189707933118E-005
 -4.914359759212528E-005
 -4.933001619175232E-005
 -4.951134094526872E-005
 -4.968775679846918E-005
 -4.985944558863411E-005
 -5.002658605862251E-005
 -5.018935387215740E-005
 -5.034792163054131E-005
 -5.050245889067712E-005
 -5.065313218443230E-005
 -5.080010503943319E-005
 -5.094353800106331E-005
 -5.108358865603801E-005
 -5.122041165722144E-005
 -5.135415874982874E-005
 -5.148497879908753E-005
 -5.161301781919241E-005
 -5.173841900375900E-005
 -5.186132275752338E-005
 -5.198186672964178E-005
 -5.210018584820366E-005
 -5.221641235634376E-005
 -5.233067584965601E-005
 -5.244310331515709E-005
 -5.255381917167340E-005
 -5.266294531175649E-005
 -5.277060114508790E-005
 -5.287690364348966E-005
 -5.298196738746677E-005
 -5.308590461442612E-005
 -5.318882526855913E-005
 -5.329083705241519E-005
 -5.339204548030508E-005
 -5.349255393347853E-005
 -5.359246371725001E-005
 -5.369187412004592E-005
 -5.379088247449615E-005
 -5.388958422073652E-005
 -5.398807297162816E-005
 -4.541328957120280E-005
 -4.565934888210476E-005
 -4.589780983748373E-005
 -4.612890787602384E-005
 -4.635287493397962E-005
 -4.656993943639041E-005
 -4.678032628939936E-005
 -4.698425687449805E-005
 -4.718194904441873E-005
 -4.737361712053738E-005
 -4.755947189225715E-005
 -4.773972061788437E-005
 -4.791456702754881E-005
 -4.808421132769957E-005
 -4.824885020750478E-005
 -4.840867684701066E-005
 -4.856388092704576E-005
 -4.871464864097831E-005
 -4.886116270819009E-005
 -4.900360238923643E-005
 -4.914214350290358E-005
 -4.927695844480337E-005
 -4.940821620772640E-005
 -4.953608240365220E-005
 -4.966071928746105E-005
 -4.978228578210008E-005
 -4.990093750556045E-005
 -5.001682679920020E-005
 -5.013010275785416E-005
 -5.024091126123331E-005
 -5.034939500704973E-005
 -5.045569354549272E-005
 -5.055994331530644E-005
 -5.066227768125242E-005
 -5.076282697316589E-005
 -5.086171852641323E-005
 -5.095907672391006E-005
 -5.105502303962124E-005
 -5.114967608361851E-005
 -5.124315164872880E-005
 -5.133556275876299E-005
 -5.142701971840624E-005
 -5.151763016487853E-005
 -5.160749912129089E-005
 -5.169672905190552E-005
 -5.178541991930683E-005
 -5.187366924364122E-005
 -5.196157216398373E-005
 -5.204922150157836E-005
 -5.213670782640762E-005
 -4.404632034797173E-005
 -4.427944437140804E-005
 -4.450474073743636E-005
 -4.472246197173332E-005
 -4.493285674077001E-005
 -4.513616982860116E-005
 -4.533264211713955E-005
 -4.552251056814481E-005
 -4.570600820829133E-005
 -4.588336411666531E-005
 -4.605480341514811E-005
 -4.622054726111779E-005
 -4.638081284303626E-005
 -4.653581337825960E-005
 -4.668575811366479E-005
 -4.683085232859785E-005
 -4.697129734028894E-005
 -4.710729051167579E-005
 -4.723902526153493E-005
 -4.736669107690849E-005
 -4.749047352773409E-005
 -4.761055428358930E-005
 -4.772711113265676E-005
 -4.784031800250015E-005
 -4.795034498297558E-005
 -4.805735835095374E-005
 -4.816152059687679E-005
 -4.826299045299491E-005
 -4.836192292338445E-005
 -4.845846931554422E-005
 -4.855277727351739E-005
 -4.864499081255705E-005
 -4.873525035523597E-005
 -4.882369276893395E-005
 -4.891045140474178E-005
 -4.899565613768000E-005
 -4.907943340822559E-005
 -4.916190626518614E-005
 -4.924319440985768E-005
 -4.932341424154180E-005
 -4.940267890441196E-005
 -4.948109833573682E-005
 -4.955877931560913E-005
 -4.963582551820209E-005
 -4.971233756461106E-005
 -4.978841307742290E-005
 -4.986414673699703E-005
 -4.993963033969669E-005
 -5.001495285947311E-005
 -5.009020050804001E-005
 -4.261782522187058E-005
 -4.283407842887596E-005
 -4.304231295603367E-005
 -4.324280036068321E-005
 -4.343580791412862E-005
 -4.362159856347996E-005
 -4.380043089470640E-005
 -4.397255910200438E-005
 -4.413823296097574E-005
 -4.429769780498128E-005
 -4.445119450539837E-005
 -4.459895945573696E-005
 -4.474122455933193E-005
 -4.487821722066802E-005
 -4.501016034011341E-005
 -4.513727231211887E-005
 -4.525976702667147E-005
 -4.537785387391760E-005
 -4.549173775198488E-005
 -4.560161907777208E-005
 -4.570769380043716E-005
 -4.581015341792135E-005
 -4.590918499587460E-005
 -4.600497118914236E-005
 -4.609769026561707E-005
 -4.618751613222658E-005
 -4.627461836312097E-005
 -4.635916222961535E-005
 -4.644130873206063E-005
 -4.652121463325561E-005
 -4.659903249336480E-005
 -4.667491070626171E-005
 -4.674899353700869E-005
 -4.682142116052797E-005
 -4.689232970124370E-005
 -4.696185127362657E-005
 -4.703011402358849E-005
 -4.709724217063759E-005
 -4.716335605070127E-005
 -4.722857215971021E-005
 -4.729300319783388E-005
 -4.735675811437447E-005
 -4.741994215349091E-005
 -4.748265690059251E-005
 -4.754500032967001E-005
 -4.760706685171017E-005
 -4.766894736465910E-005
 -4.773072930434308E-005
 -4.779249669324420E-005
 -4.785433020404215E-005
 -4.114795281254424E-005
 -4.134279768124697E-005
 -4.152947881363165E-005
 -4.170828942448460E-005
 -4.187951790620402E-005
 -4.204344776646819E-005
 -4.220035758495275E-005
 -4.235052096564779E-005
 -4.249420649546332E-005
 -4.263167770940541E-005
 -4.276319306133155E-005
 -4.288900589951135E-005
 -4.300936444704419E-005
 -4.312451178706722E-005
 -4.323468585293713E-005
 -4.334011942299139E-005
 -4.344104011984539E-005
 -4.353767041409728E-005
 -4.363022763220937E-005
 -4.371892396845793E-005
 -4.380396650063896E-005
 -4.388555720959155E-005
 -4.396389300197496E-005
 -4.403916573633087E-005
 -4.411156225210182E-005
 -4.418126440130290E-005
 -4.424844908264510E-005
 -4.431328827777604E-005
 -4.437594908942734E-005
 -4.443659378107591E-005
 -4.449537981796549E-005
 -4.455245990911131E-005
 -4.460798205003340E-005
 -4.466208956597951E-005
 -4.471492115542936E-005
 -4.476661093354342E-005
 -4.481728847546910E-005
 -4.486707885925952E-005
 -4.491610270827235E-005
 -4.496447623292960E-005
 -4.501231127175981E-005
 -4.505971533163556E-005
 -4.510679162739558E-005
 -4.515363912077557E-005
 -4.520035255875654E-005
 -4.524702251086123E-005
 -4.529373540519322E-005
 -4.534057356646868E-005
 -4.538761526492523E-005
 -4.543493472001916E-005
 -3.965890057666421E-005
 -3.982706862641495E-005
 -3.998698496603868E-005
 -4.013896785180587E-005
 -4.028333001800176E-005
 -4.042037862870799E-005
 -4.055041517980091E-005
 -4.067373544199876E-005
 -4.079062941213077E-005
 -4.090138126661113E-005
 -4.100626932044520E-005
 -4.110556599333077E-005
 -4.119953778358786E-005
 -4.128844524878566E-005
 -4.137254299312168E-005
 -4.145207966130999E-005
 -4.152729793868522E-005
 -4.159843455761808E-005
 -4.166572030998127E-005
 -4.172938006543655E-005
 -4.178963279528933E-005
 -4.184669160157402E-005
 -4.190076375100863E-005
 -4.195205071341966E-005
 -4.200074820417443E-005
 -4.204704623028196E-005
 -4.209112913946479E-005
 -4.213317567191854E-005
 -4.217335901397380E-005
 -4.221184685335237E-005
 -4.224880143527332E-005
 -4.228437961895921E-005
 -4.231873293398305E-005
 -4.235200763589157E-005
 -4.238434476065143E-005
 -4.241588017742199E-005
 -4.244674463920177E-005
 -4.247706383103365E-005
 -4.250695841537773E-005
 -4.253654407448166E-005
 -4.256593154935661E-005
 -4.259522667530007E-005
 -4.262453041354321E-005
 -4.265393887910874E-005
 -4.268354336547265E-005
 -4.271343036772179E-005
 -4.274368160432556E-005
 -4.277437402656391E-005
 -4.280557979609412E-005
 -4.283736641843891E-005
 -3.817465958975390E-005
 -3.830999454356431E-005
 -3.843706263961286E-005
 -3.855621148864131E-005
 -3.866778232679906E-005
 -3.877210979205780E-005
 -3.886952194125734E-005
 -3.896034016736764E-005
 -3.904487910927390E-005
 -3.912344658377153E-005
 -3.919634353490781E-005
 -3.926386399275478E-005
 -3.932629504022220E-005
 -3.938391678834138E-005
 -3.943700236084794E-005
 -3.948581788898108E-005
 -3.953062251629278E-005
 -3.957166841343946E-005
 -3.960920080239098E-005
 -3.964345798997335E-005
 -3.967467141016018E-005
 -3.970306567473472E-005
 -3.972885863162885E-005
 -3.975226143038986E-005
 -3.977347859396920E-005
 -3.979270809584872E-005
 -3.981014144175676E-005
 -3.982596375483057E-005
 -3.984035386319204E-005
 -3.985348438898999E-005
 -3.986552183762423E-005
 -3.987662668629270E-005
 -3.988695347064259E-005
 -3.989665086860107E-005
 -3.990586178040097E-005
 -3.991472340393065E-005
 -3.992336730444329E-005
 -3.993191947790768E-005
 -3.994050040739054E-005
 -3.994922511175407E-005
 -3.995820318648451E-005
 -3.996753883666521E-005
 -3.997733090201383E-005
 -3.998767287338421E-005
 -3.999865289823100E-005
 -4.001035377160842E-005
 -4.002285291802999E-005
 -4.003622240178001E-005
 -4.005052900093723E-005
 -4.006583373771487E-005
 -3.672059677251292E-005
 -3.681586447939926E-005
 -3.690294504144952E-005
 -3.698222082416286E-005
 -3.705406640969763E-005
 -3.711884901556734E-005
 -3.717692800633303E-005
 -3.722865473923410E-005
 -3.727437251644869E-005
 -3.731441652285161E-005
 -3.734911374721733E-005
 -3.737878290829238E-005
 -3.740373439778312E-005
 -3.742427024301408E-005
 -3.744068408811737E-005
 -3.745326119182791E-005
 -3.746227844187728E-005
 -3.746800438535706E-005
 -3.747069927550476E-005
 -3.747061513486552E-005
 -3.746799583417138E-005
 -3.746307718651947E-005
 -3.745608705541751E-005
 -3.744724547551042E-005
 -3.743676478433956E-005
 -3.742484976332401E-005
 -3.741169778618592E-005
 -3.739749897267166E-005
 -3.738243634556952E-005
 -3.736668598888929E-005
 -3.735041720507324E-005
 -3.733379266905580E-005
 -3.731696857724898E-005
 -3.730009478940148E-005
 -3.728331496165382E-005
 -3.726676666909395E-005
 -3.725058151652961E-005
 -3.723488523606454E-005
 -3.721979777054824E-005
 -3.720543334144901E-005
 -3.719190049983067E-005
 -3.717930215920222E-005
 -3.716773561015840E-005
 -3.715729252011335E-005
 -3.714805892573266E-005
 -3.714011522243302E-005
 -3.713353612099167E-005
 -3.712839046097041E-005
 -3.712474087083280E-005
 -3.712264519265397E-005
 -3.532284227438666E-005
 -3.536949850632614E-005
 -3.540817017271765E-005
 -3.543928153069561E-005
 -3.546324899679110E-005
 -3.548047858003354E-005
 -3.549136683348564E-005
 -3.549630096392175E-005
 -3.549565853121653E-005
 -3.548980716437936E-005
 -3.547910438339080E-005
 -3.546389749261899E-005
 -3.544452350744096E-005
 -3.542130909918004E-005
 -3.539457055903378E-005
 -3.536461378686378E-005
 -3.533173431099378E-005
 -3.529621734135351E-005
 -3.525833785718240E-005
 -3.521836072829415E-005
 -3.517654086784548E-005
 -3.513312341480805E-005
 -3.508834394303126E-005
 -3.504242869417843E-005
 -3.499559483106865E-005
 -3.494805070784467E-005
 -3.489999615292990E-005
 -3.485162276064365E-005
 -3.480311418702321E-005
 -3.475464644565017E-005
 -3.470638819894655E-005
 -3.465850104109281E-005
 -3.461113976841289E-005
 -3.456445263363698E-005
 -3.451858158071677E-005
 -3.447366245717947E-005
 -3.442982520155067E-005
 -3.438719400398109E-005
 -3.434588743940976E-005
 -3.430601857323582E-005
 -3.426769504026451E-005
 -3.423101909612226E-005
 -3.419608763575022E-005
 -3.416299216557001E-005
 -3.413181871316800E-005
 -3.410264768877148E-005
 -3.407555382521017E-005
 -3.405060647939096E-005
 -3.402787001089506E-005
 -3.400739840096923E-005
 -3.400746790256499E-005
 -3.399535204441512E-005
 -3.397561608310104E-005
 -3.394873875817845E-005
 -3.391518261623958E-005
 -3.387540329275517E-005
 -3.382984586257569E-005
 -3.377894295094396E-005
 -3.372311443730255E-005
 -3.366276751152886E-005
 -3.359829660520496E-005
 -3.353008318122970E-005
 -3.345849548297780E-005
 -3.338388832543649E-005
 -3.330660296539393E-005
 -3.322696705846161E-005
 -3.314529469774172E-005
 -3.306188652616772E-005
 -3.297702991685641E-005
 -3.289099921729639E-005
 -3.280405605463735E-005
 -3.271644969887218E-005
 -3.262841747961738E-005
 -3.254018525055158E-005
 -3.245196789427896E-005
 -3.236396985875390E-005
 -3.227638571579275E-005
 -3.218940073163368E-005
 -3.210319143959073E-005
 -3.201792620525517E-005
 -3.193376577536671E-005
 -3.185086380256537E-005
 -3.176936733924063E-005
 -3.168941729481109E-005
 -3.161114885188119E-005
 -3.153469183705809E-005
 -3.146017104278074E-005
 -3.138770649599467E-005
 -3.131741366952162E-005
 -3.124940363287211E-005
 -3.118378314316525E-005
 -3.112065468613090E-005
 -3.106011649147376E-005
 -3.100226255695193E-005
 -3.094718268842475E-005
 -3.089496243142995E-005
 -3.084568247784683E-005
 -3.079941700295845E-005
 -3.075623274637332E-005
 -3.071620584273218E-005
 -3.279944811424371E-005
 -3.271636919913427E-005
 -3.262623282404719E-005
 -3.252957752854282E-005
 -3.242695442460978E-005
 -3.231888822837990E-005
 -3.220588377283255E-005
 -3.208843127488267E-005
 -3.196700683297209E-005
 -3.184207096913963E-005
 -3.171406707996805E-005
 -3.158342038264813E-005
 -3.145053733822427E-005
 -3.131580538321153E-005
 -3.117959283466239E-005
 -3.104224890344939E-005
 -3.090410380325685E-005
 -3.076546896780445E-005
 -3.062663739505329E-005
 -3.048788413042563E-005
 -3.034946689216423E-005
 -3.021162683131815E-005
 -3.007458941113908E-005
 -2.993856538565656E-005
 -2.980375185340431E-005
 -2.967033336215283E-005
 -2.953848303998906E-005
 -2.940836372973093E-005
 -2.928012910532232E-005
 -2.915392475077276E-005
 -2.902988918484860E-005
 -2.890815481693080E-005
 -2.878884882270699E-005
 -2.867209393131418E-005
 -2.855800911970112E-005
 -2.844671021352955E-005
 -2.833831039801285E-005
 -2.823292064392479E-005
 -2.813065005270827E-005
 -2.803160611725230E-005
 -2.793589487873656E-005
 -2.784362093842179E-005
 -2.775488726917937E-005
 -2.766979480768960E-005
 -2.758844197601409E-005
 -2.751092468258675E-005
 -2.743733787193176E-005
 -2.736777898150690E-005
 -2.730234545921674E-005
 -2.724107958714088E-005
 -3.172154149576600E-005
 -3.155248682388241E-005
 -3.137719770315610E-005
 -3.119638737752282E-005
 -3.101064377157421E-005
 -3.082057018767109E-005
 -3.062677592393378E-005
 -3.042985479007274E-005
 -3.023037437329401E-005
 -3.002887327391423E-005
 -2.982586141540844E-005
 -2.962182070914465E-005
 -2.941720518366437E-005
 -2.921244060302520E-005
 -2.900792389472994E-005
 -2.880402270641141E-005
 -2.860107530658949E-005
 -2.839939093222944E-005
 -2.819925059864943E-005
 -2.800090833138058E-005
 -2.780459275081391E-005
 -2.761050892957200E-005
 -2.741884044413915E-005
 -2.722975154961963E-005
 -2.704338941693121E-005
 -2.685988638226177E-005
 -2.667936216823344E-005
 -2.650192604404859E-005
 -2.632767889803777E-005
 -2.615671519963674E-005
 -2.598912483065396E-005
 -2.582499476604423E-005
 -2.566441058514840E-005
 -2.550745779423306E-005
 -2.535422294298458E-005
 -2.520479452206707E-005
 -2.505926363850532E-005
 -2.491772448210607E-005
 -2.478027462169571E-005
 -2.464701520197790E-005
 -2.451805114135608E-005
 -2.439349143250163E-005
 -2.427344956469348E-005
 -2.415804382721654E-005
 -2.404739670554057E-005
 -2.394163180365165E-005
 -2.384086664868325E-005
 -2.374520455394608E-005
 -2.365475323951058E-005
 -2.356978910995630E-005
 -3.079265065953601E-005
 -3.051873779046466E-005
 -3.023980657596718E-005
 -2.995639909704137E-005
 -2.966949154667228E-005
 -2.937999370489370E-005
 -2.908870076070355E-005
 -2.879633212706979E-005
 -2.850356333902872E-005
 -2.821103838926195E-005
 -2.791936895396949E-005
 -2.762912806194632E-005
 -2.734084307454621E-005
 -2.705499034134559E-005
 -2.677199230092750E-005
 -2.649221695746237E-005
 -2.621597931023545E-005
 -2.594354422125819E-005
 -2.567513024367722E-005
 -2.541091401700342E-005
 -2.515103493051371E-005
 -2.489559984079929E-005
 -2.464468770021860E-005
 -2.439835400706757E-005
 -2.415663502926308E-005
 -2.391955178135234E-005
 -2.368711375409680E-005
 -2.345932240747402E-005
 -2.323617444355400E-005
 -2.301766487682447E-005
 -2.280378991563811E-005
 -2.259454966106630E-005
 -2.238995061770794E-005
 -2.219000799450774E-005
 -2.199474775363921E-005
 -2.180420834035376E-005
 -2.161844200117682E-005
 -2.143751557441537E-005
 -2.126151062892619E-005
 -2.109052285484613E-005
 -2.092466071129222E-005
 -2.076404357253349E-005
 -2.060880006436175E-005
 -2.045906800580981E-005
 -2.031499823339842E-005
 -2.017676470825784E-005
 -2.004457943462562E-005
 -1.991869262219791E-005
 -1.979929645377967E-005
 -1.968606184291344E-005
 -3.002844380415237E-005
 -2.962284511898372E-005
 -2.921310169721222E-005
 -2.880186769370776E-005
 -2.839005922164083E-005
 -2.797838888937076E-005
 -2.756771448182864E-005
 -2.715902239871232E-005
 -2.675333353585211E-005
 -2.635162038983963E-005
 -2.595475406331118E-005
 -2.556347801621584E-005
 -2.517840069791603E-005
 -2.479999988625966E-005
 -2.442863346546966E-005
 -2.406455315268405E-005
 -2.370791902398173E-005
 -2.335881360577452E-005
 -2.301725488961667E-005
 -2.268320799519314E-005
 -2.235659542360898E-005
 -2.203730596459131E-005
 -2.172520238548406E-005
 -2.142012805693246E-005
 -2.112191267820320E-005
 -2.083037726177904E-005
 -2.054533852742350E-005
 -2.026661284559736E-005
 -1.999401985854530E-005
 -1.972738589678630E-005
 -1.946654729828377E-005
 -1.921135372700968E-005
 -1.896167157494795E-005
 -1.871738751460406E-005
 -1.847841224336818E-005
 -1.824468442014784E-005
 -1.801617472959743E-005
 -1.779288990393752E-005
 -1.757487636897881E-005
 -1.736222293108709E-005
 -1.715506156062467E-005
 -1.695356484636002E-005
 -1.675793816760874E-005
 -1.656840437527629E-005
 -1.638517979323219E-005
 -1.620844544935256E-005
 -1.603833403886204E-005
 -1.587500028775683E-005
 -1.571896846447439E-005
 -1.557227737517629E-005
 -2.942777737993856E-005
 -2.885142671039144E-005
 -2.827822984942538E-005
 -2.770391712441452E-005
 -2.712983466948733E-005
 -2.655895832304189E-005
 -2.599432385210642E-005
 -2.543848279672918E-005
 -2.489338066528077E-005
 -2.436039687714552E-005
 -2.384043578171246E-005
 -2.333402372212389E-005
 -2.284139560198448E-005
 -2.236256647720442E-005
 -2.189738850940040E-005
 -2.144559527758474E-005
 -2.100683578174002E-005
 -2.058070029442662E-005
 -2.016673987763627E-005
 -1.976448103249726E-005
 -1.937343663575027E-005
 -1.899311406119693E-005
 -1.862302118028676E-005
 -1.826267077861452E-005
 -1.791158380443558E-005
 -1.756929177585752E-005
 -1.723533860778050E-005
 -1.690928207187279E-005
 -1.659069507338133E-005
 -1.627916690941953E-005
 -1.597430466847940E-005
 -1.567573493590283E-005
 -1.538310598676802E-005
 -1.509609067673529E-005
 -1.481439028349233E-005
 -1.453773960740276E-005
 -1.426591371033100E-005
 -1.399873675052510E-005
 -1.373609344546827E-005
 -1.347794372624299E-005
 -1.322434104799262E-005
 -1.297545439190724E-005
 -1.273159278774390E-005
 -1.249322821107887E-005
 -1.226100575867962E-005
 -1.203571413655232E-005
 -1.181815354238227E-005
 -1.160875649753035E-005
 -1.140663126191813E-005
 -1.120726989280414E-005
 -2.903528819054887E-005
 -2.821524473882631E-005
 -2.737154542800202E-005
 -2.653231191520181E-005
 -2.571206686851075E-005
 -2.491801486214654E-005
 -2.415334804200153E-005
 -2.341903507959203E-005
 -2.271481350748636E-005
 -2.203975150410624E-005
 -2.139257074272236E-005
 -2.077183349009338E-005
 -2.017605102265167E-005
 -1.960374569998422E-005
 -1.905348542307899E-005
 -1.852390152466602E-005
 -1.801369670956505E-005
 -1.752164705774415E-005
 -1.704660054325882E-005
 -1.658747357664233E-005
 -1.614324649659190E-005
 -1.571295857627552E-005
 -1.529570288519468E-005
 -1.489062120673740E-005
 -1.449689912360364E-005
 -1.411376132991271E-005
 -1.374046719569862E-005
 -1.337630659281333E-005
 -1.302059598269682E-005
 -1.267267476774264E-005
 -1.233190191485032E-005
 -1.199765287582641E-005
 -1.166931685417177E-005
 -1.134629450789751E-005
 -1.102799623886918E-005
 -1.071384131342130E-005
 -1.040325820663479E-005
 -1.009568679567334E-005
 -9.790583404453210E-006
 -9.487430319723603E-006
 -9.185752435272350E-006
 -8.885145459659648E-006
 -8.585323250377249E-006
 -8.286197485605644E-006
 -7.988013369867871E-006
 -7.691585097845043E-006
 -7.398714165421426E-006
 -7.112953194841436E-006
 -6.841043216791578E-006
 -6.595704466837580E-006
 -2.849874049586542E-005
 -2.704811064180082E-005
 -2.574678186443296E-005
 -2.456469575258870E-005
 -2.348030722817240E-005
 -2.247767845042385E-005
 -2.154468849725395E-005
 -2.067189159502296E-005
 -1.985176620431995E-005
 -1.907820745522064E-005
 -1.834617554624667E-005
 -1.765144670734414E-005
 -1.699043317964599E-005
 -1.636005061133249E-005
 -1.575761865150942E-005
 -1.518078519551306E-005
 -1.462746775338326E-005
 -1.409580740094676E-005
 -1.358413210371821E-005
 -1.309092711096931E-005
 -1.261481074076955E-005
 -1.215451431525373E-005
 -1.170886531433638E-005
 -1.127677303685004E-005
 -1.085721621802174E-005
 -1.044923216639172E-005
 -1.005190706716445E-005
 -9.664367157543639E-006
 -9.285770520088485E-006
 -8.915299266097418E-006
 -8.552151892926290E-006
 -8.195535600177650E-006
 -7.844658336721781E-006
 -7.498720324744695E-006
 -7.156904762924687E-006
 -6.818367344602932E-006
 -6.482224130548554E-006
 -6.147537175630913E-006
 -5.813297107126767E-006
 -5.478401556905282E-006
 -5.141627912740675E-006
 -4.801598194104511E-006
 -4.456732837476495E-006
 -4.105188557998590E-006
 -3.744772804439841E-006
 -3.372822839930689E-006
 -2.986029605570235E-006
 -2.580172157908710E-006
 -2.149701233281675E-006
 -1.687056867230437E-006
SCALARS elementIsPlast double 
LOOKUP_TABLE default
  0.000000000000000E+000
  0.000000000000000E+000
  0.000000000000000E+000
  0.000000000000000E+000
  0.000000000000000E+000
  0.000000000000000E+000
  0.000000000000000E+000
  0.000000000000000E+000
  0.000000000000000E+000
  0.000000000000000E+000
  0.000000000000000E+000
  0.000000000000000E+000
  0.000000000000000E+000
  0.000000000000000E+000
  0.000000000000000E+000
  0.000000000000000E+000
  0.000000000000000E+000
  0.000000000000000E+000
  0.000000000000000E+000
  0.000000000000000E+000
  0.000000000000000E+000
  0.000000000000000E+000
  0.000000000000000E+000
  0.000000000000000E+000
  0.000000000000000E+000
  0.000000000000000E+000
  0.000000000000000E+000
  0.000000000000000E+000
  0.000000000000000E+000
  0.000000000000000E+000
  0.000000000000000E+000
  0.000000000000000E+000
  0.000000000000000E+000
  0.000000000000000E+000
  0.000000000000000E+000
  0.000000000000000E+000
  0.000000000000000E+000
  0.000000000000000E+000
  0.000000000000000E+000
  0.000000000000000E+000
  0.000000000000000E+000
  0.000000000000000E+000
  0.000000000000000E+000
  0.000000000000000E+000
  0.000000000000000E+000
  0.000000000000000E+000
  0.000000000000000E+000
  0.000000000000000E+000
  0.000000000000000E+000
  0.000000000000000E+000
  0.000000000000000E+000
  0.000000000000000E+000
  0.000000000000000E+000
  0.000000000000000E+000
  0.000000000000000E+000
  0.000000000000000E+000
  0.000000000000000E+000
  0.000000000000000E+000
  0.000000000000000E+000
  0.000000000000000E+000
  0.000000000000000E+000
  0.000000000000000E+000
  0.000000000000000E+000
  0.000000000000000E+000
  0.000000000000000E+000
  0.000000000000000E+000
  0.000000000000000E+000
  0.000000000000000E+000
  0.000000000000000E+000
  0.000000000000000E+000
  0.000000000000000E+000
  0.000000000000000E+000
  0.000000000000000E+000
  0.000000000000000E+000
  0.000000000000000E+000
  0.000000000000000E+000
  0.000000000000000E+000
  0.000000000000000E+000
  0.000000000000000E+000
  0.000000000000000E+000
  0.000000000000000E+000
  0.000000000000000E+000
  0.000000000000000E+000
  0.000000000000000E+000
  0.000000000000000E+000
  0.000000000000000E+000
  0.000000000000000E+000
  0.000000000000000E+000
  0.000000000000000E+000
  0.000000000000000E+000
  0.000000000000000E+000
  0.000000000000000E+000
  0.000000000000000E+000
  0.000000000000000E+000
  0.000000000000000E+000
  0.000000000000000E+000
  0.000000000000000E+000
  0.000000000000000E+000
  0.000000000000000E+000
  0.000000000000000E+000
  0.000000000000000E+000
  0.000000000000000E+000
  0.000000000000000E+000
  0.000000000000000E+000
  0.000000000000000E+000
  0.000000000000000E+000
  0.000000000000000E+000
  0.000000000000000E+000
  0.000000000000000E+000
  0.000000000000000E+000
  0.000000000000000E+000
  0.000000000000000E+000
  0.000000000000000E+000
  0.000000000000000E+000
  0.000000000000000E+000
  0.000000000000000E+000
  0.000000000000000E+000
  0.000000000000000E+000
  0.000000000000000E+000
  0.000000000000000E+000
  0.000000000000000E+000
  0.000000000000000E+000
  0.000000000000000E+000
  0.000000000000000E+000
  0.000000000000000E+000
  0.000000000000000E+000
  0.000000000000000E+000
  0.000000000000000E+000
  0.000000000000000E+000
  0.000000000000000E+000
  0.000000000000000E+000
  0.000000000000000E+000
  0.000000000000000E+000
  0.000000000000000E+000
  0.000000000000000E+000
  0.000000000000000E+000
  0.000000000000000E+000
  0.000000000000000E+000
  0.000000000000000E+000
  0.000000000000000E+000
  0.000000000000000E+000
  0.000000000000000E+000
  0.000000000000000E+000
  0.000000000000000E+000
  0.000000000000000E+000
  0.000000000000000E+000
  0.000000000000000E+000
  0.000000000000000E+000
  0.000000000000000E+000
  0.000000000000000E+000
  0.000000000000000E+000
  0.000000000000000E+000
  0.000000000000000E+000
  0.000000000000000E+000
  0.000000000000000E+000
  0.000000000000000E+000
  0.000000000000000E+000
  0.000000000000000E+000
  0.000000000000000E+000
  0.000000000000000E+000
  0.000000000000000E+000
  0.000000000000000E+000
  0.000000000000000E+000
  0.000000000000000E+000
  0.000000000000000E+000
  0.000000000000000E+000
  0.000000000000000E+000
  0.000000000000000E+000
  0.000000000000000E+000
  0.000000000000000E+000
  0.000000000000000E+000
  0.000000000000000E+000
  0.000000000000000E+000
  0.000000000000000E+000
  0.000000000000000E+000
  0.000000000000000E+000
  0.000000000000000E+000
  0.000000000000000E+000
  0.000000000000000E+000
  0.000000000000000E+000
  0.000000000000000E+000
  0.000000000000000E+000
  0.000000000000000E+000
  0.000000000000000E+000
  0.000000000000000E+000
  0.000000000000000E+000
  0.000000000000000E+000
  0.000000000000000E+000
  0.000000000000000E+000
  0.000000000000000E+000
  0.000000000000000E+000
  0.000000000000000E+000
  0.000000000000000E+000
  0.000000000000000E+000
  0.000000000000000E+000
  0.000000000000000E+000
  0.000000000000000E+000
  0.000000000000000E+000
  0.000000000000000E+000
  0.000000000000000E+000
  0.000000000000000E+000
  0.000000000000000E+000
  0.000000000000000E+000
  0.000000000000000E+000
  0.000000000000000E+000
  0.000000000000000E+000
  0.000000000000000E+000
  0.000000000000000E+000
  0.000000000000000E+000
  0.000000000000000E+000
  0.000000000000000E+000
  0.000000000000000E+000
  0.000000000000000E+000
  0.000000000000000E+000
  0.000000000000000E+000
  0.000000000000000E+000
  0.000000000000000E+000
  0.000000000000000E+000
  0.000000000000000E+000
  0.000000000000000E+000
  0.000000000000000E+000
  0.000000000000000E+000
  0.000000000000000E+000
  0.000000000000000E+000
  0.000000000000000E+000
  0.000000000000000E+000
  0.000000000000000E+000
  0.000000000000000E+000
  0.000000000000000E+000
  0.000000000000000E+000
  0.000000000000000E+000
  0.000000000000000E+000
  0.000000000000000E+000
  0.000000000000000E+000
  0.000000000000000E+000
  0.000000000000000E+000
  0.000000000000000E+000
  0.000000000000000E+000
  0.000000000000000E+000
  0.000000000000000E+000
  0.000000000000000E+000
  0.000000000000000E+000
  0.000000000000000E+000
  0.000000000000000E+000
  0.000000000000000E+000
  0.000000000000000E+000
  0.000000000000000E+000
  0.000000000000000E+000
  0.000000000000000E+000
  0.000000000000000E+000
  0.000000000000000E+000
  0.000000000000000E+000
  0.000000000000000E+000
  0.000000000000000E+000
  0.000000000000000E+000
  0.000000000000000E+000
  0.000000000000000E+000
  0.000000000000000E+000
  0.000000000000000E+000
  0.000000000000000E+000
  0.000000000000000E+000
  0.000000000000000E+000
  0.000000000000000E+000
  0.000000000000000E+000
  0.000000000000000E+000
  0.000000000000000E+000
  0.000000000000000E+000
  0.000000000000000E+000
  0.000000000000000E+000
  0.000000000000000E+000
  0.000000000000000E+000
  0.000000000000000E+000
  0.000000000000000E+000
  0.000000000000000E+000
  0.000000000000000E+000
  0.000000000000000E+000
  0.000000000000000E+000
  0.000000000000000E+000
  0.000000000000000E+000
  0.000000000000000E+000
  0.000000000000000E+000
  0.000000000000000E+000
  0.000000000000000E+000
  0.000000000000000E+000
  0.000000000000000E+000
  0.000000000000000E+000
  0.000000000000000E+000
  0.000000000000000E+000
  0.000000000000000E+000
  0.000000000000000E+000
  0.000000000000000E+000
  0.000000000000000E+000
  0.000000000000000E+000
  0.000000000000000E+000
  0.000000000000000E+000
  0.000000000000000E+000
  0.000000000000000E+000
  0.000000000000000E+000
  0.000000000000000E+000
  0.000000000000000E+000
  0.000000000000000E+000
  0.000000000000000E+000
  0.000000000000000E+000
  0.000000000000000E+000
  0.000000000000000E+000
  0.000000000000000E+000
  0.000000000000000E+000
  0.000000000000000E+000
  0.000000000000000E+000
  0.000000000000000E+000
  0.000000000000000E+000
  0.000000000000000E+000
  0.000000000000000E+000
  0.000000000000000E+000
  0.000000000000000E+000
  0.000000000000000E+000
  0.000000000000000E+000
  0.000000000000000E+000
  0.000000000000000E+000
  0.000000000000000E+000
  0.000000000000000E+000
  0.000000000000000E+000
  0.000000000000000E+000
  0.000000000000000E+000
  0.000000000000000E+000
  0.000000000000000E+000
  0.000000000000000E+000
  0.000000000000000E+000
  0.000000000000000E+000
  0.000000000000000E+000
  0.000000000000000E+000
  0.000000000000000E+000
  0.000000000000000E+000
  0.000000000000000E+000
  0.000000000000000E+000
  0.000000000000000E+000
  0.000000000000000E+000
  0.000000000000000E+000
  0.000000000000000E+000
  0.000000000000000E+000
  0.000000000000000E+000
  0.000000000000000E+000
  0.000000000000000E+000
  0.000000000000000E+000
  0.000000000000000E+000
  0.000000000000000E+000
  0.000000000000000E+000
  0.000000000000000E+000
  0.000000000000000E+000
  0.000000000000000E+000
  0.000000000000000E+000
  0.000000000000000E+000
  0.000000000000000E+000
  0.000000000000000E+000
  0.000000000000000E+000
  0.000000000000000E+000
  0.000000000000000E+000
  0.000000000000000E+000
  0.000000000000000E+000
  0.000000000000000E+000
  0.000000000000000E+000
  0.000000000000000E+000
  0.000000000000000E+000
  0.000000000000000E+000
  0.000000000000000E+000
  0.000000000000000E+000
  0.000000000000000E+000
  0.000000000000000E+000
  0.000000000000000E+000
  0.000000000000000E+000
  0.000000000000000E+000
  0.000000000000000E+000
  0.000000000000000E+000
  0.000000000000000E+000
  0.000000000000000E+000
  0.000000000000000E+000
  0.000000000000000E+000
  0.000000000000000E+000
  0.000000000000000E+000
  0.000000000000000E+000
  0.000000000000000E+000
  0.000000000000000E+000
  0.000000000000000E+000
  0.000000000000000E+000
  0.000000000000000E+000
  0.000000000000000E+000
  0.000000000000000E+000
  0.000000000000000E+000
  0.000000000000000E+000
  0.000000000000000E+000
  0.000000000000000E+000
  0.000000000000000E+000
  0.000000000000000E+000
  0.000000000000000E+000
  0.000000000000000E+000
  0.000000000000000E+000
  0.000000000000000E+000
  0.000000000000000E+000
  0.000000000000000E+000
  0.000000000000000E+000
  0.000000000000000E+000
  0.000000000000000E+000
  0.000000000000000E+000
  0.000000000000000E+000
  0.000000000000000E+000
  0.000000000000000E+000
  0.000000000000000E+000
  0.000000000000000E+000
  0.000000000000000E+000
  0.000000000000000E+000
  0.000000000000000E+000
  0.000000000000000E+000
  0.000000000000000E+000
  0.000000000000000E+000
  0.000000000000000E+000
  0.000000000000000E+000
  0.000000000000000E+000
  0.000000000000000E+000
  0.000000000000000E+000
  0.000000000000000E+000
  0.000000000000000E+000
  0.000000000000000E+000
  0.000000000000000E+000
  0.000000000000000E+000
  0.000000000000000E+000
  0.000000000000000E+000
  0.000000000000000E+000
  0.000000000000000E+000
  0.000000000000000E+000
  0.000000000000000E+000
  0.000000000000000E+000
  0.000000000000000E+000
  0.000000000000000E+000
  0.000000000000000E+000
  0.000000000000000E+000
  0.000000000000000E+000
  0.000000000000000E+000
  0.000000000000000E+000
  0.000000000000000E+000
  0.000000000000000E+000
  0.000000000000000E+000
  0.000000000000000E+000
  0.000000000000000E+000
  0.000000000000000E+000
  0.000000000000000E+000
  0.000000000000000E+000
  0.000000000000000E+000
  0.000000000000000E+000
  0.000000000000000E+000
  0.000000000000000E+000
  0.000000000000000E+000
  0.000000000000000E+000
  0.000000000000000E+000
  0.000000000000000E+000
  0.000000000000000E+000
  0.000000000000000E+000
  0.000000000000000E+000
  0.000000000000000E+000
  0.000000000000000E+000
  0.000000000000000E+000
  0.000000000000000E+000
  0.000000000000000E+000
  0.000000000000000E+000
  0.000000000000000E+000
  0.000000000000000E+000
  0.000000000000000E+000
  0.000000000000000E+000
  0.000000000000000E+000
  0.000000000000000E+000
  0.000000000000000E+000
  0.000000000000000E+000
  0.000000000000000E+000
  0.000000000000000E+000
  0.000000000000000E+000
  0.000000000000000E+000
  0.000000000000000E+000
  0.000000000000000E+000
  0.000000000000000E+000
  0.000000000000000E+000
  0.000000000000000E+000
  0.000000000000000E+000
  0.000000000000000E+000
  0.000000000000000E+000
  0.000000000000000E+000
  0.000000000000000E+000
  0.000000000000000E+000
  0.000000000000000E+000
  0.000000000000000E+000
  0.000000000000000E+000
  0.000000000000000E+000
  0.000000000000000E+000
  0.000000000000000E+000
  0.000000000000000E+000
  0.000000000000000E+000
  0.000000000000000E+000
  0.000000000000000E+000
  0.000000000000000E+000
  0.000000000000000E+000
  0.000000000000000E+000
  0.000000000000000E+000
  0.000000000000000E+000
  0.000000000000000E+000
  0.000000000000000E+000
  0.000000000000000E+000
  0.000000000000000E+000
  0.000000000000000E+000
  0.000000000000000E+000
  0.000000000000000E+000
  0.000000000000000E+000
  0.000000000000000E+000
  0.000000000000000E+000
  0.000000000000000E+000
  0.000000000000000E+000
  0.000000000000000E+000
  0.000000000000000E+000
  0.000000000000000E+000
  0.000000000000000E+000
  0.000000000000000E+000
  0.000000000000000E+000
  0.000000000000000E+000
  0.000000000000000E+000
  0.000000000000000E+000
  0.000000000000000E+000
  0.000000000000000E+000
  0.000000000000000E+000
  0.000000000000000E+000
  0.000000000000000E+000
  0.000000000000000E+000
  0.000000000000000E+000
  0.000000000000000E+000
  0.000000000000000E+000
  0.000000000000000E+000
  0.000000000000000E+000
  0.000000000000000E+000
  0.000000000000000E+000
  0.000000000000000E+000
  0.000000000000000E+000
  0.000000000000000E+000
  0.000000000000000E+000
  0.000000000000000E+000
  0.000000000000000E+000
  0.000000000000000E+000
  0.000000000000000E+000
  0.000000000000000E+000
  0.000000000000000E+000
  0.000000000000000E+000
  0.000000000000000E+000
  0.000000000000000E+000
  0.000000000000000E+000
  0.000000000000000E+000
  0.000000000000000E+000
  0.000000000000000E+000
  0.000000000000000E+000
  0.000000000000000E+000
  0.000000000000000E+000
  0.000000000000000E+000
  0.000000000000000E+000
  0.000000000000000E+000
  0.000000000000000E+000
  0.000000000000000E+000
  0.000000000000000E+000
  0.000000000000000E+000
  0.000000000000000E+000
  0.000000000000000E+000
  0.000000000000000E+000
  0.000000000000000E+000
  0.000000000000000E+000
  0.000000000000000E+000
  0.000000000000000E+000
  0.000000000000000E+000
  0.000000000000000E+000
  0.000000000000000E+000
  0.000000000000000E+000
  0.000000000000000E+000
  0.000000000000000E+000
  0.000000000000000E+000
  0.000000000000000E+000
  0.000000000000000E+000
  0.000000000000000E+000
  0.000000000000000E+000
  0.000000000000000E+000
  0.000000000000000E+000
  0.000000000000000E+000
  0.000000000000000E+000
  0.000000000000000E+000
  0.000000000000000E+000
  0.000000000000000E+000
  0.000000000000000E+000
  0.000000000000000E+000
  0.000000000000000E+000
  0.000000000000000E+000
  0.000000000000000E+000
  0.000000000000000E+000
  0.000000000000000E+000
  0.000000000000000E+000
  0.000000000000000E+000
  0.000000000000000E+000
  0.000000000000000E+000
  0.000000000000000E+000
  0.000000000000000E+000
  0.000000000000000E+000
  0.000000000000000E+000
  0.000000000000000E+000
  0.000000000000000E+000
  0.000000000000000E+000
  0.000000000000000E+000
  0.000000000000000E+000
  0.000000000000000E+000
  0.000000000000000E+000
  0.000000000000000E+000
  0.000000000000000E+000
  0.000000000000000E+000
  0.000000000000000E+000
  0.000000000000000E+000
  0.000000000000000E+000
  0.000000000000000E+000
  0.000000000000000E+000
  0.000000000000000E+000
  0.000000000000000E+000
  0.000000000000000E+000
  0.000000000000000E+000
  0.000000000000000E+000
  0.000000000000000E+000
  0.000000000000000E+000
  0.000000000000000E+000
  0.000000000000000E+000
  0.000000000000000E+000
  0.000000000000000E+000
  0.000000000000000E+000
  0.000000000000000E+000
  0.000000000000000E+000
  0.000000000000000E+000
  0.000000000000000E+000
  0.000000000000000E+000
  0.000000000000000E+000
  0.000000000000000E+000
  0.000000000000000E+000
  0.000000000000000E+000
  0.000000000000000E+000
  0.000000000000000E+000
  0.000000000000000E+000
  0.000000000000000E+000
  0.000000000000000E+000
  0.000000000000000E+000
  0.000000000000000E+000
  0.000000000000000E+000
  0.000000000000000E+000
  0.000000000000000E+000
  0.000000000000000E+000
  0.000000000000000E+000
  0.000000000000000E+000
  0.000000000000000E+000
  0.000000000000000E+000
  0.000000000000000E+000
  0.000000000000000E+000
  0.000000000000000E+000
  0.000000000000000E+000
  0.000000000000000E+000
  0.000000000000000E+000
  0.000000000000000E+000
  0.000000000000000E+000
  0.000000000000000E+000
  0.000000000000000E+000
  0.000000000000000E+000
  0.000000000000000E+000
  0.000000000000000E+000
  0.000000000000000E+000
  0.000000000000000E+000
  0.000000000000000E+000
  0.000000000000000E+000
  0.000000000000000E+000
  0.000000000000000E+000
  0.000000000000000E+000
  0.000000000000000E+000
  0.000000000000000E+000
  0.000000000000000E+000
  0.000000000000000E+000
  0.000000000000000E+000
  0.000000000000000E+000
  0.000000000000000E+000
  0.000000000000000E+000
  0.000000000000000E+000
  0.000000000000000E+000
  0.000000000000000E+000
  0.000000000000000E+000
  0.000000000000000E+000
  0.000000000000000E+000
  0.000000000000000E+000
  0.000000000000000E+000
  0.000000000000000E+000
  0.000000000000000E+000
  0.000000000000000E+000
  0.000000000000000E+000
  0.000000000000000E+000
  0.000000000000000E+000
  0.000000000000000E+000
  0.000000000000000E+000
  0.000000000000000E+000
  0.000000000000000E+000
  0.000000000000000E+000
  0.000000000000000E+000
  0.000000000000000E+000
  0.000000000000000E+000
  0.000000000000000E+000
  0.000000000000000E+000
  0.000000000000000E+000
  0.000000000000000E+000
  0.000000000000000E+000
  0.000000000000000E+000
  0.000000000000000E+000
  0.000000000000000E+000
  0.000000000000000E+000
  0.000000000000000E+000
  0.000000000000000E+000
  0.000000000000000E+000
  0.000000000000000E+000
  0.000000000000000E+000
  0.000000000000000E+000
  0.000000000000000E+000
  0.000000000000000E+000
  0.000000000000000E+000
  0.000000000000000E+000
  0.000000000000000E+000
  0.000000000000000E+000
  0.000000000000000E+000
  0.000000000000000E+000
  0.000000000000000E+000
  0.000000000000000E+000
  0.000000000000000E+000
  0.000000000000000E+000
  0.000000000000000E+000
  0.000000000000000E+000
  0.000000000000000E+000
  0.000000000000000E+000
  0.000000000000000E+000
  0.000000000000000E+000
  0.000000000000000E+000
  0.000000000000000E+000
  0.000000000000000E+000
  0.000000000000000E+000
  0.000000000000000E+000
  0.000000000000000E+000
  0.000000000000000E+000
  0.000000000000000E+000
  0.000000000000000E+000
  0.000000000000000E+000
  0.000000000000000E+000
  0.000000000000000E+000
  0.000000000000000E+000
  0.000000000000000E+000
  0.000000000000000E+000
  0.000000000000000E+000
  0.000000000000000E+000
  0.000000000000000E+000
  0.000000000000000E+000
  0.000000000000000E+000
  0.000000000000000E+000
  0.000000000000000E+000
  0.000000000000000E+000
  0.000000000000000E+000
  0.000000000000000E+000
  0.000000000000000E+000
  0.000000000000000E+000
  0.000000000000000E+000
  0.000000000000000E+000
  0.000000000000000E+000
  0.000000000000000E+000
  0.000000000000000E+000
  0.000000000000000E+000
  0.000000000000000E+000
  0.000000000000000E+000
  0.000000000000000E+000
  0.000000000000000E+000
  0.000000000000000E+000
  0.000000000000000E+000
  0.000000000000000E+000
  0.000000000000000E+000
  0.000000000000000E+000
  0.000000000000000E+000
  0.000000000000000E+000
  0.000000000000000E+000
  0.000000000000000E+000
  0.000000000000000E+000
  0.000000000000000E+000
  0.000000000000000E+000
  0.000000000000000E+000
  0.000000000000000E+000
  0.000000000000000E+000
  0.000000000000000E+000
  0.000000000000000E+000
  0.000000000000000E+000
  0.000000000000000E+000
  0.000000000000000E+000
  0.000000000000000E+000
  0.000000000000000E+000
  0.000000000000000E+000
  0.000000000000000E+000
  0.000000000000000E+000
  0.000000000000000E+000
  0.000000000000000E+000
  0.000000000000000E+000
  0.000000000000000E+000
  0.000000000000000E+000
  0.000000000000000E+000
  0.000000000000000E+000
  0.000000000000000E+000
  0.000000000000000E+000
  0.000000000000000E+000
  0.000000000000000E+000
  0.000000000000000E+000
  0.000000000000000E+000
  0.000000000000000E+000
  0.000000000000000E+000
  0.000000000000000E+000
  0.000000000000000E+000
  0.000000000000000E+000
  0.000000000000000E+000
  0.000000000000000E+000
  0.000000000000000E+000
  0.000000000000000E+000
  0.000000000000000E+000
  0.000000000000000E+000
  0.000000000000000E+000
  0.000000000000000E+000
  0.000000000000000E+000
  0.000000000000000E+000
  0.000000000000000E+000
  0.000000000000000E+000
  0.000000000000000E+000
  0.000000000000000E+000
  0.000000000000000E+000
  0.000000000000000E+000
  0.000000000000000E+000
  0.000000000000000E+000
  0.000000000000000E+000
  0.000000000000000E+000
  0.000000000000000E+000
  0.000000000000000E+000
  0.000000000000000E+000
  0.000000000000000E+000
  0.000000000000000E+000
  0.000000000000000E+000
  0.000000000000000E+000
  0.000000000000000E+000
  0.000000000000000E+000
  0.000000000000000E+000
  0.000000000000000E+000
  0.000000000000000E+000
  0.000000000000000E+000
  0.000000000000000E+000
  0.000000000000000E+000
  0.000000000000000E+000
  0.000000000000000E+000
  0.000000000000000E+000
  0.000000000000000E+000
  0.000000000000000E+000
  0.000000000000000E+000
  0.000000000000000E+000
  0.000000000000000E+000
  0.000000000000000E+000
  0.000000000000000E+000
  0.000000000000000E+000
  0.000000000000000E+000
  0.000000000000000E+000
  0.000000000000000E+000
  0.000000000000000E+000
  0.000000000000000E+000
  0.000000000000000E+000
  0.000000000000000E+000
  0.000000000000000E+000
  0.000000000000000E+000
  0.000000000000000E+000
  0.000000000000000E+000
  0.000000000000000E+000
  0.000000000000000E+000
  0.000000000000000E+000
  0.000000000000000E+000
  0.000000000000000E+000
  0.000000000000000E+000
  0.000000000000000E+000
  0.000000000000000E+000
  0.000000000000000E+000
  0.000000000000000E+000
  0.000000000000000E+000
  0.000000000000000E+000
  0.000000000000000E+000
  0.000000000000000E+000
  0.000000000000000E+000
  0.000000000000000E+000
  0.000000000000000E+000
  0.000000000000000E+000
  0.000000000000000E+000
  0.000000000000000E+000
  0.000000000000000E+000
  0.000000000000000E+000
  0.000000000000000E+000
  0.000000000000000E+000
  0.000000000000000E+000
  0.000000000000000E+000
  0.000000000000000E+000
  0.000000000000000E+000
  0.000000000000000E+000
  0.000000000000000E+000
  0.000000000000000E+000
  0.000000000000000E+000
  0.000000000000000E+000
  0.000000000000000E+000
  0.000000000000000E+000
  0.000000000000000E+000
  0.000000000000000E+000
  0.000000000000000E+000
  0.000000000000000E+000
  0.000000000000000E+000
  0.000000000000000E+000
  0.000000000000000E+000
  0.000000000000000E+000
  0.000000000000000E+000
  0.000000000000000E+000
  0.000000000000000E+000
  0.000000000000000E+000
  0.000000000000000E+000
  0.000000000000000E+000
  0.000000000000000E+000
  0.000000000000000E+000
  0.000000000000000E+000
  0.000000000000000E+000
  0.000000000000000E+000
  0.000000000000000E+000
  0.000000000000000E+000
  0.000000000000000E+000
  0.000000000000000E+000
  0.000000000000000E+000
  0.000000000000000E+000
  0.000000000000000E+000
  0.000000000000000E+000
  0.000000000000000E+000
  0.000000000000000E+000
  0.000000000000000E+000
  0.000000000000000E+000
  0.000000000000000E+000
  0.000000000000000E+000
  0.000000000000000E+000
  0.000000000000000E+000
  0.000000000000000E+000
  0.000000000000000E+000
  0.000000000000000E+000
  0.000000000000000E+000
  0.000000000000000E+000
  0.000000000000000E+000
  0.000000000000000E+000
  0.000000000000000E+000
  0.000000000000000E+000
  0.000000000000000E+000
  0.000000000000000E+000
  0.000000000000000E+000
  0.000000000000000E+000
  0.000000000000000E+000
  0.000000000000000E+000
  0.000000000000000E+000
  0.000000000000000E+000
  0.000000000000000E+000
  0.000000000000000E+000
  0.000000000000000E+000
  0.000000000000000E+000
  0.000000000000000E+000
  0.000000000000000E+000
  0.000000000000000E+000
  0.000000000000000E+000
  0.000000000000000E+000
  0.000000000000000E+000
  0.000000000000000E+000
  0.000000000000000E+000
  0.000000000000000E+000
  0.000000000000000E+000
  0.000000000000000E+000
  0.000000000000000E+000
  0.000000000000000E+000
  0.000000000000000E+000
  0.000000000000000E+000
  0.000000000000000E+000
  0.000000000000000E+000
  0.000000000000000E+000
  0.000000000000000E+000
  0.000000000000000E+000
  0.000000000000000E+000
  0.000000000000000E+000
  0.000000000000000E+000
  0.000000000000000E+000
  0.000000000000000E+000
  0.000000000000000E+000
  0.000000000000000E+000
  0.000000000000000E+000
  0.000000000000000E+000
  0.000000000000000E+000
  0.000000000000000E+000
  0.000000000000000E+000
  0.000000000000000E+000
  0.000000000000000E+000
  0.000000000000000E+000
  0.000000000000000E+000
  0.000000000000000E+000
  0.000000000000000E+000
  0.000000000000000E+000
  0.000000000000000E+000
  0.000000000000000E+000
  0.000000000000000E+000
  0.000000000000000E+000
  0.000000000000000E+000
  0.000000000000000E+000
  0.000000000000000E+000
  0.000000000000000E+000
  0.000000000000000E+000
  0.000000000000000E+000
  0.000000000000000E+000
  0.000000000000000E+000
  0.000000000000000E+000
  0.000000000000000E+000
  0.000000000000000E+000
  0.000000000000000E+000
  0.000000000000000E+000
  0.000000000000000E+000
  0.000000000000000E+000
  0.000000000000000E+000
  0.000000000000000E+000
  0.000000000000000E+000
  0.000000000000000E+000
  0.000000000000000E+000
  0.000000000000000E+000
  0.000000000000000E+000
  0.000000000000000E+000
  0.000000000000000E+000
  0.000000000000000E+000
  0.000000000000000E+000
  0.000000000000000E+000
  0.000000000000000E+000
  0.000000000000000E+000
  0.000000000000000E+000
  0.000000000000000E+000
  0.000000000000000E+000
  0.000000000000000E+000
  0.000000000000000E+000
  0.000000000000000E+000
  0.000000000000000E+000
  0.000000000000000E+000
  0.000000000000000E+000
  0.000000000000000E+000
  0.000000000000000E+000
  0.000000000000000E+000
  0.000000000000000E+000
  0.000000000000000E+000
  0.000000000000000E+000
  0.000000000000000E+000
  0.000000000000000E+000
  0.000000000000000E+000
  0.000000000000000E+000
  0.000000000000000E+000
  0.000000000000000E+000
  0.000000000000000E+000
  0.000000000000000E+000
  0.000000000000000E+000
  0.000000000000000E+000
  0.000000000000000E+000
  0.000000000000000E+000
  0.000000000000000E+000
  0.000000000000000E+000
  0.000000000000000E+000
  0.000000000000000E+000
  0.000000000000000E+000
  0.000000000000000E+000
  0.000000000000000E+000
  0.000000000000000E+000
  0.000000000000000E+000
  0.000000000000000E+000
  0.000000000000000E+000
  0.000000000000000E+000
  0.000000000000000E+000
  0.000000000000000E+000
  0.000000000000000E+000
  0.000000000000000E+000
  0.000000000000000E+000
  0.000000000000000E+000
  0.000000000000000E+000
  0.000000000000000E+000
  0.000000000000000E+000
  0.000000000000000E+000
  0.000000000000000E+000
  0.000000000000000E+000
  0.000000000000000E+000
  0.000000000000000E+000
  0.000000000000000E+000
  0.000000000000000E+000
  0.000000000000000E+000
  0.000000000000000E+000
  0.000000000000000E+000
  0.000000000000000E+000
  0.000000000000000E+000
  0.000000000000000E+000
  0.000000000000000E+000
  0.000000000000000E+000
  0.000000000000000E+000
  0.000000000000000E+000
  0.000000000000000E+000
  0.000000000000000E+000
  0.000000000000000E+000
  0.000000000000000E+000
  0.000000000000000E+000
  0.000000000000000E+000
  0.000000000000000E+000
  0.000000000000000E+000
  0.000000000000000E+000
  0.000000000000000E+000
  0.000000000000000E+000
  0.000000000000000E+000
  0.000000000000000E+000
  0.000000000000000E+000
  0.000000000000000E+000
  0.000000000000000E+000
  0.000000000000000E+000
  0.000000000000000E+000
  0.000000000000000E+000
  0.000000000000000E+000
  0.000000000000000E+000
  0.000000000000000E+000
  0.000000000000000E+000
  0.000000000000000E+000
  0.000000000000000E+000
  0.000000000000000E+000
  0.000000000000000E+000
  0.000000000000000E+000
  0.000000000000000E+000
  0.000000000000000E+000
  0.000000000000000E+000
  0.000000000000000E+000
  0.000000000000000E+000
  0.000000000000000E+000
  0.000000000000000E+000
  0.000000000000000E+000
  0.000000000000000E+000
  0.000000000000000E+000
  0.000000000000000E+000
  0.000000000000000E+000
  0.000000000000000E+000
  0.000000000000000E+000
  0.000000000000000E+000
  0.000000000000000E+000
  0.000000000000000E+000
  0.000000000000000E+000
  0.000000000000000E+000
  0.000000000000000E+000
  0.000000000000000E+000
  0.000000000000000E+000
  0.000000000000000E+000
  0.000000000000000E+000
  0.000000000000000E+000
  0.000000000000000E+000
  0.000000000000000E+000
  0.000000000000000E+000
  0.000000000000000E+000
  0.000000000000000E+000
  0.000000000000000E+000
  0.000000000000000E+000
  0.000000000000000E+000
  0.000000000000000E+000
  0.000000000000000E+000
  0.000000000000000E+000
  0.000000000000000E+000
  0.000000000000000E+000
  0.000000000000000E+000
  0.000000000000000E+000
  0.000000000000000E+000
  0.000000000000000E+000
  0.000000000000000E+000
  0.000000000000000E+000
  0.000000000000000E+000
  0.000000000000000E+000
  0.000000000000000E+000
  0.000000000000000E+000
  0.000000000000000E+000
  0.000000000000000E+000
  0.000000000000000E+000
  0.000000000000000E+000
  0.000000000000000E+000
  0.000000000000000E+000
  0.000000000000000E+000
  0.000000000000000E+000
  0.000000000000000E+000
  0.000000000000000E+000
  0.000000000000000E+000
  0.000000000000000E+000
  0.000000000000000E+000
  0.000000000000000E+000
  0.000000000000000E+000
  0.000000000000000E+000
  0.000000000000000E+000
  0.000000000000000E+000
  0.000000000000000E+000
  0.000000000000000E+000
  0.000000000000000E+000
  0.000000000000000E+000
  0.000000000000000E+000
  0.000000000000000E+000
  0.000000000000000E+000
  0.000000000000000E+000
  0.000000000000000E+000
  0.000000000000000E+000
  0.000000000000000E+000
  0.000000000000000E+000
  0.000000000000000E+000
  0.000000000000000E+000
  0.000000000000000E+000
  0.000000000000000E+000
  0.000000000000000E+000
  0.000000000000000E+000
  0.000000000000000E+000
  0.000000000000000E+000
  0.000000000000000E+000
  0.000000000000000E+000
  0.000000000000000E+000
  0.000000000000000E+000
  0.000000000000000E+000
  0.000000000000000E+000
  0.000000000000000E+000
  0.000000000000000E+000
  0.000000000000000E+000
  0.000000000000000E+000
  0.000000000000000E+000
  0.000000000000000E+000
  0.000000000000000E+000
  0.000000000000000E+000
  0.000000000000000E+000
  0.000000000000000E+000
  0.000000000000000E+000
  0.000000000000000E+000
  0.000000000000000E+000
  0.000000000000000E+000
  0.000000000000000E+000
  0.000000000000000E+000
  0.000000000000000E+000
  0.000000000000000E+000
  0.000000000000000E+000
  0.000000000000000E+000
  0.000000000000000E+000
  0.000000000000000E+000
  0.000000000000000E+000
  0.000000000000000E+000
  0.000000000000000E+000
  0.000000000000000E+000
  0.000000000000000E+000
  0.000000000000000E+000
  0.000000000000000E+000
  0.000000000000000E+000
  0.000000000000000E+000
  0.000000000000000E+000
  0.000000000000000E+000
  0.000000000000000E+000
  0.000000000000000E+000
  0.000000000000000E+000
  0.000000000000000E+000
  0.000000000000000E+000
  0.000000000000000E+000
  0.000000000000000E+000
  0.000000000000000E+000
  0.000000000000000E+000
  0.000000000000000E+000
  0.000000000000000E+000
  0.000000000000000E+000
  0.000000000000000E+000
  0.000000000000000E+000
  0.000000000000000E+000
  0.000000000000000E+000
  0.000000000000000E+000
  0.000000000000000E+000
  0.000000000000000E+000
  0.000000000000000E+000
  0.000000000000000E+000
  0.000000000000000E+000
  0.000000000000000E+000
  0.000000000000000E+000
  0.000000000000000E+000
  0.000000000000000E+000
  0.000000000000000E+000
  0.000000000000000E+000
  0.000000000000000E+000
  0.000000000000000E+000
  0.000000000000000E+000
  0.000000000000000E+000
  0.000000000000000E+000
  0.000000000000000E+000
  0.000000000000000E+000
  0.000000000000000E+000
  0.000000000000000E+000
  0.000000000000000E+000
  0.000000000000000E+000
  0.000000000000000E+000
  0.000000000000000E+000
  0.000000000000000E+000
  0.000000000000000E+000
  0.000000000000000E+000
  0.000000000000000E+000
  0.000000000000000E+000
  0.000000000000000E+000
  0.000000000000000E+000
  0.000000000000000E+000
  0.000000000000000E+000
  0.000000000000000E+000
  0.000000000000000E+000
  0.000000000000000E+000
  0.000000000000000E+000
  0.000000000000000E+000
  0.000000000000000E+000
  0.000000000000000E+000
  0.000000000000000E+000
  0.000000000000000E+000
  0.000000000000000E+000
  0.000000000000000E+000
  0.000000000000000E+000
  0.000000000000000E+000
  0.000000000000000E+000
  0.000000000000000E+000
  0.000000000000000E+000
  0.000000000000000E+000
  0.000000000000000E+000
  0.000000000000000E+000
  0.000000000000000E+000
  0.000000000000000E+000
  0.000000000000000E+000
  0.000000000000000E+000
  0.000000000000000E+000
  0.000000000000000E+000
  0.000000000000000E+000
  0.000000000000000E+000
  0.000000000000000E+000
  0.000000000000000E+000
  0.000000000000000E+000
  0.000000000000000E+000
  0.000000000000000E+000
  0.000000000000000E+000
  0.000000000000000E+000
  0.000000000000000E+000
  0.000000000000000E+000
  0.000000000000000E+000
  0.000000000000000E+000
  0.000000000000000E+000
  0.000000000000000E+000
  0.000000000000000E+000
  0.000000000000000E+000
  0.000000000000000E+000
  0.000000000000000E+000
  0.000000000000000E+000
  0.000000000000000E+000
  0.000000000000000E+000
  0.000000000000000E+000
  0.000000000000000E+000
  0.000000000000000E+000
  0.000000000000000E+000
  0.000000000000000E+000
  0.000000000000000E+000
  0.000000000000000E+000
  0.000000000000000E+000
  0.000000000000000E+000
  0.000000000000000E+000
  0.000000000000000E+000
  0.000000000000000E+000
  0.000000000000000E+000
  0.000000000000000E+000
  0.000000000000000E+000
  0.000000000000000E+000
  0.000000000000000E+000
  0.000000000000000E+000
  0.000000000000000E+000
  0.000000000000000E+000
  0.000000000000000E+000
  0.000000000000000E+000
  0.000000000000000E+000
  0.000000000000000E+000
  0.000000000000000E+000
  0.000000000000000E+000
  0.000000000000000E+000
  0.000000000000000E+000
  0.000000000000000E+000
  0.000000000000000E+000
  0.000000000000000E+000
  0.000000000000000E+000
  0.000000000000000E+000
  0.000000000000000E+000
  0.000000000000000E+000
  0.000000000000000E+000
  0.000000000000000E+000
  0.000000000000000E+000
  0.000000000000000E+000
  0.000000000000000E+000
  0.000000000000000E+000
  0.000000000000000E+000
  0.000000000000000E+000
  0.000000000000000E+000
  0.000000000000000E+000
  0.000000000000000E+000
  0.000000000000000E+000
  0.000000000000000E+000
  0.000000000000000E+000
  0.000000000000000E+000
  0.000000000000000E+000
  0.000000000000000E+000
  0.000000000000000E+000
  0.000000000000000E+000
  0.000000000000000E+000
  0.000000000000000E+000
  0.000000000000000E+000
  0.000000000000000E+000
  0.000000000000000E+000
  0.000000000000000E+000
  0.000000000000000E+000
  0.000000000000000E+000
  0.000000000000000E+000
  0.000000000000000E+000
  0.000000000000000E+000
  0.000000000000000E+000
  0.000000000000000E+000
  0.000000000000000E+000
  0.000000000000000E+000
  0.000000000000000E+000
  0.000000000000000E+000
  0.000000000000000E+000
  0.000000000000000E+000
  0.000000000000000E+000
  0.000000000000000E+000
  0.000000000000000E+000
  0.000000000000000E+000
  0.000000000000000E+000
  0.000000000000000E+000
  0.000000000000000E+000
  0.000000000000000E+000
  0.000000000000000E+000
  0.000000000000000E+000
  0.000000000000000E+000
  0.000000000000000E+000
  0.000000000000000E+000
  0.000000000000000E+000
  0.000000000000000E+000
  0.000000000000000E+000
  0.000000000000000E+000
  0.000000000000000E+000
  0.000000000000000E+000
  0.000000000000000E+000
  0.000000000000000E+000
  0.000000000000000E+000
  0.000000000000000E+000
  0.000000000000000E+000
  0.000000000000000E+000
  0.000000000000000E+000
  0.000000000000000E+000
  0.000000000000000E+000
  0.000000000000000E+000
  0.000000000000000E+000
  0.000000000000000E+000
  0.000000000000000E+000
  0.000000000000000E+000
  0.000000000000000E+000
  0.000000000000000E+000
  0.000000000000000E+000
  0.000000000000000E+000
  0.000000000000000E+000
  0.000000000000000E+000
  0.000000000000000E+000
  0.000000000000000E+000
  0.000000000000000E+000
  0.000000000000000E+000
  0.000000000000000E+000
  0.000000000000000E+000
  0.000000000000000E+000
  0.000000000000000E+000
  0.000000000000000E+000
  0.000000000000000E+000
  0.000000000000000E+000
  0.000000000000000E+000
  0.000000000000000E+000
  0.000000000000000E+000
  0.000000000000000E+000
  0.000000000000000E+000
  0.000000000000000E+000
  0.000000000000000E+000
  0.000000000000000E+000
  0.000000000000000E+000
  0.000000000000000E+000
  0.000000000000000E+000
  0.000000000000000E+000
  0.000000000000000E+000
  0.000000000000000E+000
  0.000000000000000E+000
  0.000000000000000E+000
  0.000000000000000E+000
  0.000000000000000E+000
  0.000000000000000E+000
  0.000000000000000E+000
  0.000000000000000E+000
  0.000000000000000E+000
  0.000000000000000E+000
  0.000000000000000E+000
  0.000000000000000E+000
  0.000000000000000E+000
  0.000000000000000E+000
  0.000000000000000E+000
  0.000000000000000E+000
  0.000000000000000E+000
  0.000000000000000E+000
  0.000000000000000E+000
  0.000000000000000E+000
  0.000000000000000E+000
  0.000000000000000E+000
  0.000000000000000E+000
  0.000000000000000E+000
  0.000000000000000E+000
  0.000000000000000E+000
  0.000000000000000E+000
  0.000000000000000E+000
  0.000000000000000E+000
  0.000000000000000E+000
  0.000000000000000E+000
  0.000000000000000E+000
  0.000000000000000E+000
  0.000000000000000E+000
  0.000000000000000E+000
  0.000000000000000E+000
  0.000000000000000E+000
  0.000000000000000E+000
  0.000000000000000E+000
  0.000000000000000E+000
  0.000000000000000E+000
  0.000000000000000E+000
  0.000000000000000E+000
  0.000000000000000E+000
  0.000000000000000E+000
  0.000000000000000E+000
  0.000000000000000E+000
  0.000000000000000E+000
  0.000000000000000E+000
  0.000000000000000E+000
  0.000000000000000E+000
  0.000000000000000E+000
  0.000000000000000E+000
  0.000000000000000E+000
  0.000000000000000E+000
  0.000000000000000E+000
  0.000000000000000E+000
  0.000000000000000E+000
  0.000000000000000E+000
  0.000000000000000E+000
  0.000000000000000E+000
  0.000000000000000E+000
  0.000000000000000E+000
  0.000000000000000E+000
  0.000000000000000E+000
  0.000000000000000E+000
  0.000000000000000E+000
  0.000000000000000E+000
  0.000000000000000E+000
  0.000000000000000E+000
  0.000000000000000E+000
  0.000000000000000E+000
  0.000000000000000E+000
  0.000000000000000E+000
  0.000000000000000E+000
  0.000000000000000E+000
  0.000000000000000E+000
  0.000000000000000E+000
  0.000000000000000E+000
  0.000000000000000E+000
  0.000000000000000E+000
  0.000000000000000E+000
  0.000000000000000E+000
  0.000000000000000E+000
  0.000000000000000E+000
  0.000000000000000E+000
  0.000000000000000E+000
  0.000000000000000E+000
  0.000000000000000E+000
  0.000000000000000E+000
  0.000000000000000E+000
  0.000000000000000E+000
  0.000000000000000E+000
  0.000000000000000E+000
  0.000000000000000E+000
  0.000000000000000E+000
  0.000000000000000E+000
  0.000000000000000E+000
  0.000000000000000E+000
  0.000000000000000E+000
  0.000000000000000E+000
  0.000000000000000E+000
  0.000000000000000E+000
  0.000000000000000E+000
  0.000000000000000E+000
  0.000000000000000E+000
  0.000000000000000E+000
  0.000000000000000E+000
  0.000000000000000E+000
  0.000000000000000E+000
  0.000000000000000E+000
  0.000000000000000E+000
  0.000000000000000E+000
  0.000000000000000E+000
  0.000000000000000E+000
  0.000000000000000E+000
  0.000000000000000E+000
  0.000000000000000E+000
  0.000000000000000E+000
  0.000000000000000E+000
  0.000000000000000E+000
  0.000000000000000E+000
  0.000000000000000E+000
  0.000000000000000E+000
  0.000000000000000E+000
  0.000000000000000E+000
  0.000000000000000E+000
  0.000000000000000E+000
  0.000000000000000E+000
  0.000000000000000E+000
  0.000000000000000E+000
  0.000000000000000E+000
  0.000000000000000E+000
  0.000000000000000E+000
  0.000000000000000E+000
  0.000000000000000E+000
  0.000000000000000E+000
  0.000000000000000E+000
  0.000000000000000E+000
  0.000000000000000E+000
  0.000000000000000E+000
  0.000000000000000E+000
  0.000000000000000E+000
  0.000000000000000E+000
  0.000000000000000E+000
  0.000000000000000E+000
  0.000000000000000E+000
  0.000000000000000E+000
  0.000000000000000E+000
  0.000000000000000E+000
  0.000000000000000E+000
  0.000000000000000E+000
  0.000000000000000E+000
  0.000000000000000E+000
  0.000000000000000E+000
  0.000000000000000E+000
  0.000000000000000E+000
  0.000000000000000E+000
  0.000000000000000E+000
  0.000000000000000E+000
  0.000000000000000E+000
  0.000000000000000E+000
  0.000000000000000E+000
  0.000000000000000E+000
  0.000000000000000E+000
  0.000000000000000E+000
  0.000000000000000E+000
  0.000000000000000E+000
  0.000000000000000E+000
  0.000000000000000E+000
  0.000000000000000E+000
  0.000000000000000E+000
  0.000000000000000E+000
  0.000000000000000E+000
  0.000000000000000E+000
  0.000000000000000E+000
  0.000000000000000E+000
  0.000000000000000E+000
  0.000000000000000E+000
  0.000000000000000E+000
  0.000000000000000E+000
  0.000000000000000E+000
  0.000000000000000E+000
  0.000000000000000E+000
  0.000000000000000E+000
  0.000000000000000E+000
  0.000000000000000E+000
  0.000000000000000E+000
  0.000000000000000E+000
  0.000000000000000E+000
  0.000000000000000E+000
  0.000000000000000E+000
  0.000000000000000E+000
  0.000000000000000E+000
  0.000000000000000E+000
  0.000000000000000E+000
  0.000000000000000E+000
  0.000000000000000E+000
  0.000000000000000E+000
  0.000000000000000E+000
  0.000000000000000E+000
  0.000000000000000E+000
  0.000000000000000E+000
  0.000000000000000E+000
  0.000000000000000E+000
  0.000000000000000E+000
  0.000000000000000E+000
  0.000000000000000E+000
  0.000000000000000E+000
  0.000000000000000E+000
  0.000000000000000E+000
  0.000000000000000E+000
  0.000000000000000E+000
  0.000000000000000E+000
  0.000000000000000E+000
  0.000000000000000E+000
  0.000000000000000E+000
  0.000000000000000E+000
  0.000000000000000E+000
  0.000000000000000E+000
  0.000000000000000E+000
  0.000000000000000E+000
  0.000000000000000E+000
  0.000000000000000E+000
  0.000000000000000E+000
  0.000000000000000E+000
  0.000000000000000E+000
  0.000000000000000E+000
  0.000000000000000E+000
  0.000000000000000E+000
  0.000000000000000E+000
  0.000000000000000E+000
  0.000000000000000E+000
  0.000000000000000E+000
  0.000000000000000E+000
  0.000000000000000E+000
  0.000000000000000E+000
  0.000000000000000E+000
  0.000000000000000E+000
  0.000000000000000E+000
  0.000000000000000E+000
  0.000000000000000E+000
  0.000000000000000E+000
  0.000000000000000E+000
  0.000000000000000E+000
  0.000000000000000E+000
  0.000000000000000E+000
  0.000000000000000E+000
  0.000000000000000E+000
  0.000000000000000E+000
  0.000000000000000E+000
  0.000000000000000E+000
  0.000000000000000E+000
  0.000000000000000E+000
  0.000000000000000E+000
  0.000000000000000E+000
  0.000000000000000E+000
  0.000000000000000E+000
  0.000000000000000E+000
  0.000000000000000E+000
  0.000000000000000E+000
  0.000000000000000E+000
  0.000000000000000E+000
  0.000000000000000E+000
  0.000000000000000E+000
  0.000000000000000E+000
  0.000000000000000E+000
  0.000000000000000E+000
  0.000000000000000E+000
  0.000000000000000E+000
  0.000000000000000E+000
  0.000000000000000E+000
  0.000000000000000E+000
  0.000000000000000E+000
  0.000000000000000E+000
  0.000000000000000E+000
  0.000000000000000E+000
  0.000000000000000E+000
  0.000000000000000E+000
  0.000000000000000E+000
  0.000000000000000E+000
  0.000000000000000E+000
  0.000000000000000E+000
  0.000000000000000E+000
  0.000000000000000E+000
  0.000000000000000E+000
  0.000000000000000E+000
  0.000000000000000E+000
  0.000000000000000E+000
  0.000000000000000E+000
  0.000000000000000E+000
  0.000000000000000E+000
  0.000000000000000E+000
  0.000000000000000E+000
  0.000000000000000E+000
  0.000000000000000E+000
  0.000000000000000E+000
  0.000000000000000E+000
  0.000000000000000E+000
  0.000000000000000E+000
  0.000000000000000E+000
  0.000000000000000E+000
  0.000000000000000E+000
  0.000000000000000E+000
  0.000000000000000E+000
  0.000000000000000E+000
  0.000000000000000E+000
  0.000000000000000E+000
  0.000000000000000E+000
  0.000000000000000E+000
  0.000000000000000E+000
  0.000000000000000E+000
  0.000000000000000E+000
  0.000000000000000E+000
  0.000000000000000E+000
  0.000000000000000E+000
  0.000000000000000E+000
  0.000000000000000E+000
  0.000000000000000E+000
  0.000000000000000E+000
  0.000000000000000E+000
  0.000000000000000E+000
  0.000000000000000E+000
  0.000000000000000E+000
  0.000000000000000E+000
  0.000000000000000E+000
  0.000000000000000E+000
  0.000000000000000E+000
  0.000000000000000E+000
  0.000000000000000E+000
  0.000000000000000E+000
  0.000000000000000E+000
  0.000000000000000E+000
  0.000000000000000E+000
  0.000000000000000E+000
  0.000000000000000E+000
  0.000000000000000E+000
  0.000000000000000E+000
  0.000000000000000E+000
  0.000000000000000E+000
  0.000000000000000E+000
  0.000000000000000E+000
  0.000000000000000E+000
  0.000000000000000E+000
  0.000000000000000E+000
  0.000000000000000E+000
  0.000000000000000E+000
  0.000000000000000E+000
  0.000000000000000E+000
  0.000000000000000E+000
  0.000000000000000E+000
  0.000000000000000E+000
  0.000000000000000E+000
  0.000000000000000E+000
  0.000000000000000E+000
  0.000000000000000E+000
  0.000000000000000E+000
  0.000000000000000E+000
  0.000000000000000E+000
  0.000000000000000E+000
  0.000000000000000E+000
  0.000000000000000E+000
  0.000000000000000E+000
  0.000000000000000E+000
  0.000000000000000E+000
  0.000000000000000E+000
  0.000000000000000E+000
  0.000000000000000E+000
  0.000000000000000E+000
  0.000000000000000E+000
  0.000000000000000E+000
  0.000000000000000E+000
  0.000000000000000E+000
  0.000000000000000E+000
  0.000000000000000E+000
  0.000000000000000E+000
  0.000000000000000E+000
  0.000000000000000E+000
  0.000000000000000E+000
  0.000000000000000E+000
  0.000000000000000E+000
  0.000000000000000E+000
  0.000000000000000E+000
  0.000000000000000E+000
  0.000000000000000E+000
  0.000000000000000E+000
  0.000000000000000E+000
  0.000000000000000E+000
  0.000000000000000E+000
  0.000000000000000E+000
  0.000000000000000E+000
  0.000000000000000E+000
  0.000000000000000E+000
  0.000000000000000E+000
  0.000000000000000E+000
  0.000000000000000E+000
  0.000000000000000E+000
  0.000000000000000E+000
  0.000000000000000E+000
  0.000000000000000E+000
  0.000000000000000E+000
  0.000000000000000E+000
  0.000000000000000E+000
  0.000000000000000E+000
  0.000000000000000E+000
  0.000000000000000E+000
  0.000000000000000E+000
  0.000000000000000E+000
  0.000000000000000E+000
  0.000000000000000E+000
  0.000000000000000E+000
  0.000000000000000E+000
  0.000000000000000E+000
  0.000000000000000E+000
  0.000000000000000E+000
  0.000000000000000E+000
  0.000000000000000E+000
  0.000000000000000E+000
  0.000000000000000E+000
  0.000000000000000E+000
  0.000000000000000E+000
  0.000000000000000E+000
  0.000000000000000E+000
  0.000000000000000E+000
  0.000000000000000E+000
  0.000000000000000E+000
  0.000000000000000E+000
  0.000000000000000E+000
  0.000000000000000E+000
  0.000000000000000E+000
  0.000000000000000E+000
  0.000000000000000E+000
  0.000000000000000E+000
  0.000000000000000E+000
  0.000000000000000E+000
  0.000000000000000E+000
  0.000000000000000E+000
  0.000000000000000E+000
  0.000000000000000E+000
  0.000000000000000E+000
  0.000000000000000E+000
  0.000000000000000E+000
  0.000000000000000E+000
  0.000000000000000E+000
  0.000000000000000E+000
  0.000000000000000E+000
  0.000000000000000E+000
  0.000000000000000E+000
  0.000000000000000E+000
  0.000000000000000E+000
  0.000000000000000E+000
  0.000000000000000E+000
  0.000000000000000E+000
  0.000000000000000E+000
  0.000000000000000E+000
  0.000000000000000E+000
  0.000000000000000E+000
  0.000000000000000E+000
  0.000000000000000E+000
  0.000000000000000E+000
  0.000000000000000E+000
  0.000000000000000E+000
  0.000000000000000E+000
  0.000000000000000E+000
  0.000000000000000E+000
  0.000000000000000E+000
  0.000000000000000E+000
  0.000000000000000E+000
  0.000000000000000E+000
  0.000000000000000E+000
  0.000000000000000E+000
  0.000000000000000E+000
  0.000000000000000E+000
  0.000000000000000E+000
  0.000000000000000E+000
  0.000000000000000E+000
  0.000000000000000E+000
  0.000000000000000E+000
  0.000000000000000E+000
  0.000000000000000E+000
  0.000000000000000E+000
  0.000000000000000E+000
  0.000000000000000E+000
  0.000000000000000E+000
  0.000000000000000E+000
  0.000000000000000E+000
  0.000000000000000E+000
  0.000000000000000E+000
  0.000000000000000E+000
  0.000000000000000E+000
  0.000000000000000E+000
  0.000000000000000E+000
  0.000000000000000E+000
  0.000000000000000E+000
  0.000000000000000E+000
  0.000000000000000E+000
  0.000000000000000E+000
  0.000000000000000E+000
  0.000000000000000E+000
  0.000000000000000E+000
  0.000000000000000E+000
  0.000000000000000E+000
  0.000000000000000E+000
  0.000000000000000E+000
  0.000000000000000E+000
  0.000000000000000E+000
  0.000000000000000E+000
  0.000000000000000E+000
  0.000000000000000E+000
  0.000000000000000E+000
  0.000000000000000E+000
  0.000000000000000E+000
  0.000000000000000E+000
  0.000000000000000E+000
  0.000000000000000E+000
  0.000000000000000E+000
  0.000000000000000E+000
  0.000000000000000E+000
  0.000000000000000E+000
  0.000000000000000E+000
  0.000000000000000E+000
  0.000000000000000E+000
  0.000000000000000E+000
  0.000000000000000E+000
  0.000000000000000E+000
  0.000000000000000E+000
  0.000000000000000E+000
  0.000000000000000E+000
  0.000000000000000E+000
  0.000000000000000E+000
  0.000000000000000E+000
  0.000000000000000E+000
  0.000000000000000E+000
  0.000000000000000E+000
  0.000000000000000E+000
  0.000000000000000E+000
  0.000000000000000E+000
  0.000000000000000E+000
  0.000000000000000E+000
  0.000000000000000E+000
  0.000000000000000E+000
  0.000000000000000E+000
  0.000000000000000E+000
  0.000000000000000E+000
  0.000000000000000E+000
  0.000000000000000E+000
  0.000000000000000E+000
  0.000000000000000E+000
  0.000000000000000E+000
  0.000000000000000E+000
  0.000000000000000E+000
  0.000000000000000E+000
  0.000000000000000E+000
  0.000000000000000E+000
  0.000000000000000E+000
  0.000000000000000E+000
  0.000000000000000E+000
  0.000000000000000E+000
  0.000000000000000E+000
  0.000000000000000E+000
  0.000000000000000E+000
  0.000000000000000E+000
  0.000000000000000E+000
  0.000000000000000E+000
  0.000000000000000E+000
  0.000000000000000E+000
  0.000000000000000E+000
  0.000000000000000E+000
  0.000000000000000E+000
  0.000000000000000E+000
  0.000000000000000E+000
  0.000000000000000E+000
  0.000000000000000E+000
  0.000000000000000E+000
  0.000000000000000E+000
  0.000000000000000E+000
  0.000000000000000E+000
  0.000000000000000E+000
  0.000000000000000E+000
  0.000000000000000E+000
  0.000000000000000E+000
  0.000000000000000E+000
  0.000000000000000E+000
  0.000000000000000E+000
  0.000000000000000E+000
  0.000000000000000E+000
  0.000000000000000E+000
  0.000000000000000E+000
  0.000000000000000E+000
  0.000000000000000E+000
  0.000000000000000E+000
  0.000000000000000E+000
  0.000000000000000E+000
  0.000000000000000E+000
  0.000000000000000E+000
  0.000000000000000E+000
  0.000000000000000E+000
  0.000000000000000E+000
  0.000000000000000E+000
  0.000000000000000E+000
  0.000000000000000E+000
  0.000000000000000E+000
  0.000000000000000E+000
  0.000000000000000E+000
  0.000000000000000E+000
  0.000000000000000E+000
  0.000000000000000E+000
  0.000000000000000E+000
  0.000000000000000E+000
  0.000000000000000E+000
  0.000000000000000E+000
  0.000000000000000E+000
  0.000000000000000E+000
  0.000000000000000E+000
  0.000000000000000E+000
  0.000000000000000E+000
  0.000000000000000E+000
  0.000000000000000E+000
  0.000000000000000E+000
  0.000000000000000E+000
  0.000000000000000E+000
  0.000000000000000E+000
  0.000000000000000E+000
  0.000000000000000E+000
  0.000000000000000E+000
  0.000000000000000E+000
  0.000000000000000E+000
  0.000000000000000E+000
  0.000000000000000E+000
  0.000000000000000E+000
  0.000000000000000E+000
  0.000000000000000E+000
  0.000000000000000E+000
  0.000000000000000E+000
  0.000000000000000E+000
  0.000000000000000E+000
  0.000000000000000E+000
  0.000000000000000E+000
  0.000000000000000E+000
  0.000000000000000E+000
  0.000000000000000E+000
  0.000000000000000E+000
  0.000000000000000E+000
  0.000000000000000E+000
  0.000000000000000E+000
  0.000000000000000E+000
  0.000000000000000E+000
  0.000000000000000E+000
  0.000000000000000E+000
  0.000000000000000E+000
  0.000000000000000E+000
  0.000000000000000E+000
  0.000000000000000E+000
  0.000000000000000E+000
  0.000000000000000E+000
  0.000000000000000E+000
  0.000000000000000E+000
  0.000000000000000E+000
  0.000000000000000E+000
  0.000000000000000E+000
  0.000000000000000E+000
  0.000000000000000E+000
  0.000000000000000E+000
  0.000000000000000E+000
  0.000000000000000E+000
  0.000000000000000E+000
  0.000000000000000E+000
  0.000000000000000E+000
  0.000000000000000E+000
  0.000000000000000E+000
  0.000000000000000E+000
  0.000000000000000E+000
  0.000000000000000E+000
  0.000000000000000E+000
  0.000000000000000E+000
  0.000000000000000E+000
  0.000000000000000E+000
  0.000000000000000E+000
  0.000000000000000E+000
  0.000000000000000E+000
  0.000000000000000E+000
  0.000000000000000E+000
  0.000000000000000E+000
  0.000000000000000E+000
  0.000000000000000E+000
  0.000000000000000E+000
  0.000000000000000E+000
  0.000000000000000E+000
  0.000000000000000E+000
  0.000000000000000E+000
  0.000000000000000E+000
  0.000000000000000E+000
  0.000000000000000E+000
  0.000000000000000E+000
  0.000000000000000E+000
  0.000000000000000E+000
  0.000000000000000E+000
  0.000000000000000E+000
  0.000000000000000E+000
  0.000000000000000E+000
  0.000000000000000E+000
  0.000000000000000E+000
  0.000000000000000E+000
  0.000000000000000E+000
  0.000000000000000E+000
  0.000000000000000E+000
  0.000000000000000E+000
  0.000000000000000E+000
  0.000000000000000E+000
  0.000000000000000E+000
  0.000000000000000E+000
  0.000000000000000E+000
  0.000000000000000E+000
  0.000000000000000E+000
  0.000000000000000E+000
  0.000000000000000E+000
  0.000000000000000E+000
  0.000000000000000E+000
  0.000000000000000E+000
  0.000000000000000E+000
  0.000000000000000E+000
  0.000000000000000E+000
  0.000000000000000E+000
  0.000000000000000E+000
  0.000000000000000E+000
  0.000000000000000E+000
  0.000000000000000E+000
  0.000000000000000E+000
  0.000000000000000E+000
  0.000000000000000E+000
  0.000000000000000E+000
  0.000000000000000E+000
  0.000000000000000E+000
  0.000000000000000E+000
  0.000000000000000E+000
  0.000000000000000E+000
  0.000000000000000E+000
  0.000000000000000E+000
  0.000000000000000E+000
  0.000000000000000E+000
  0.000000000000000E+000
  0.000000000000000E+000
  0.000000000000000E+000
  0.000000000000000E+000
  0.000000000000000E+000
  0.000000000000000E+000
  0.000000000000000E+000
  0.000000000000000E+000
  0.000000000000000E+000
  0.000000000000000E+000
  0.000000000000000E+000
  0.000000000000000E+000
  0.000000000000000E+000
  0.000000000000000E+000
  0.000000000000000E+000
  0.000000000000000E+000
  0.000000000000000E+000
  0.000000000000000E+000
  0.000000000000000E+000
  0.000000000000000E+000
  0.000000000000000E+000
  0.000000000000000E+000
  0.000000000000000E+000
  0.000000000000000E+000
  0.000000000000000E+000
  0.000000000000000E+000
  0.000000000000000E+000
  0.000000000000000E+000
  0.000000000000000E+000
  0.000000000000000E+000
  0.000000000000000E+000
  0.000000000000000E+000
  0.000000000000000E+000
  0.000000000000000E+000
  0.000000000000000E+000
  0.000000000000000E+000
  0.000000000000000E+000
  0.000000000000000E+000
  0.000000000000000E+000
  0.000000000000000E+000
  0.000000000000000E+000
  0.000000000000000E+000
  0.000000000000000E+000
  0.000000000000000E+000
  0.000000000000000E+000
  0.000000000000000E+000
  0.000000000000000E+000
  0.000000000000000E+000
  0.000000000000000E+000
  0.000000000000000E+000
  0.000000000000000E+000
  0.000000000000000E+000
  0.000000000000000E+000
  0.000000000000000E+000
  0.000000000000000E+000
  0.000000000000000E+000
  0.000000000000000E+000
  0.000000000000000E+000
  0.000000000000000E+000
  0.000000000000000E+000
  0.000000000000000E+000
  0.000000000000000E+000
  0.000000000000000E+000
  0.000000000000000E+000
  0.000000000000000E+000
  0.000000000000000E+000
  0.000000000000000E+000
  0.000000000000000E+000
  0.000000000000000E+000
  0.000000000000000E+000
  0.000000000000000E+000
  0.000000000000000E+000
  0.000000000000000E+000
  0.000000000000000E+000
  0.000000000000000E+000
  0.000000000000000E+000
  0.000000000000000E+000
  0.000000000000000E+000
  0.000000000000000E+000
  0.000000000000000E+000
  0.000000000000000E+000
  0.000000000000000E+000
  0.000000000000000E+000
  0.000000000000000E+000
  0.000000000000000E+000
  0.000000000000000E+000
  0.000000000000000E+000
  0.000000000000000E+000
  0.000000000000000E+000
  0.000000000000000E+000
  0.000000000000000E+000
  0.000000000000000E+000
  0.000000000000000E+000
  0.000000000000000E+000
  0.000000000000000E+000
  0.000000000000000E+000
  0.000000000000000E+000
  0.000000000000000E+000
  0.000000000000000E+000
  0.000000000000000E+000
  0.000000000000000E+000
  0.000000000000000E+000
  0.000000000000000E+000
  0.000000000000000E+000
  0.000000000000000E+000
  0.000000000000000E+000
  0.000000000000000E+000
  0.000000000000000E+000
  0.000000000000000E+000
  0.000000000000000E+000
  0.000000000000000E+000
  0.000000000000000E+000
  0.000000000000000E+000
  0.000000000000000E+000
  0.000000000000000E+000
  0.000000000000000E+000
  0.000000000000000E+000
  0.000000000000000E+000
  0.000000000000000E+000
  0.000000000000000E+000
  0.000000000000000E+000
  0.000000000000000E+000
  0.000000000000000E+000
  0.000000000000000E+000
  0.000000000000000E+000
  0.000000000000000E+000
  0.000000000000000E+000
  0.000000000000000E+000
  0.000000000000000E+000
  0.000000000000000E+000
  0.000000000000000E+000
  0.000000000000000E+000
  0.000000000000000E+000
  0.000000000000000E+000
  0.000000000000000E+000
  0.000000000000000E+000
  0.000000000000000E+000
  0.000000000000000E+000
  0.000000000000000E+000
  0.000000000000000E+000
  0.000000000000000E+000
  0.000000000000000E+000
  0.000000000000000E+000
  0.000000000000000E+000
  0.000000000000000E+000
  0.000000000000000E+000
  0.000000000000000E+000
  0.000000000000000E+000
  0.000000000000000E+000
  0.000000000000000E+000
  0.000000000000000E+000
  0.000000000000000E+000
  0.000000000000000E+000
  0.000000000000000E+000
  0.000000000000000E+000
  0.000000000000000E+000
  0.000000000000000E+000
  0.000000000000000E+000
  0.000000000000000E+000
  0.000000000000000E+000
  0.000000000000000E+000
  0.000000000000000E+000
  0.000000000000000E+000
  0.000000000000000E+000
  0.000000000000000E+000
  0.000000000000000E+000
  0.000000000000000E+000
  0.000000000000000E+000
  0.000000000000000E+000
  0.000000000000000E+000
  0.000000000000000E+000
  0.000000000000000E+000
  0.000000000000000E+000
  0.000000000000000E+000
  0.000000000000000E+000
  0.000000000000000E+000
  0.000000000000000E+000
  0.000000000000000E+000
  0.000000000000000E+000
  0.000000000000000E+000
  0.000000000000000E+000
  0.000000000000000E+000
  0.000000000000000E+000
  0.000000000000000E+000
  0.000000000000000E+000
  0.000000000000000E+000
  0.000000000000000E+000
  0.000000000000000E+000
  0.000000000000000E+000
  0.000000000000000E+000
  0.000000000000000E+000
  0.000000000000000E+000
  0.000000000000000E+000
  0.000000000000000E+000
  0.000000000000000E+000
  0.000000000000000E+000
  0.000000000000000E+000
  0.000000000000000E+000
  0.000000000000000E+000
  0.000000000000000E+000
  0.000000000000000E+000
  0.000000000000000E+000
  0.000000000000000E+000
  0.000000000000000E+000
  0.000000000000000E+000
  0.000000000000000E+000
  0.000000000000000E+000
  0.000000000000000E+000
  0.000000000000000E+000
  0.000000000000000E+000
  0.000000000000000E+000
  0.000000000000000E+000
  0.000000000000000E+000
  0.000000000000000E+000
  0.000000000000000E+000
  0.000000000000000E+000
  0.000000000000000E+000
  0.000000000000000E+000
  0.000000000000000E+000
  0.000000000000000E+000
  0.000000000000000E+000
  0.000000000000000E+000
  0.000000000000000E+000
  0.000000000000000E+000
  0.000000000000000E+000
  0.000000000000000E+000
  0.000000000000000E+000
  0.000000000000000E+000
  0.000000000000000E+000
  0.000000000000000E+000
  0.000000000000000E+000
  0.000000000000000E+000
  0.000000000000000E+000
  0.000000000000000E+000
  0.000000000000000E+000
  0.000000000000000E+000
  0.000000000000000E+000
  0.000000000000000E+000
  0.000000000000000E+000
  0.000000000000000E+000
  0.000000000000000E+000
  0.000000000000000E+000
  0.000000000000000E+000
  0.000000000000000E+000
  0.000000000000000E+000
  0.000000000000000E+000
  0.000000000000000E+000
  0.000000000000000E+000
  0.000000000000000E+000
  0.000000000000000E+000
  0.000000000000000E+000
  0.000000000000000E+000
  0.000000000000000E+000
  0.000000000000000E+000
  0.000000000000000E+000
  0.000000000000000E+000
  0.000000000000000E+000
  0.000000000000000E+000
  0.000000000000000E+000
  0.000000000000000E+000
  0.000000000000000E+000
  0.000000000000000E+000
  0.000000000000000E+000
  0.000000000000000E+000
  0.000000000000000E+000
  0.000000000000000E+000
  0.000000000000000E+000
  0.000000000000000E+000
  0.000000000000000E+000
  0.000000000000000E+000
  0.000000000000000E+000
  0.000000000000000E+000
  0.000000000000000E+000
  0.000000000000000E+000
  0.000000000000000E+000
  0.000000000000000E+000
  0.000000000000000E+000
  0.000000000000000E+000
  0.000000000000000E+000
  0.000000000000000E+000
  0.000000000000000E+000
  0.000000000000000E+000
  0.000000000000000E+000
  0.000000000000000E+000
  0.000000000000000E+000
  0.000000000000000E+000
  0.000000000000000E+000
  0.000000000000000E+000
  0.000000000000000E+000
  0.000000000000000E+000
  0.000000000000000E+000
  0.000000000000000E+000
  0.000000000000000E+000
  0.000000000000000E+000
  0.000000000000000E+000
  0.000000000000000E+000
  0.000000000000000E+000
  0.000000000000000E+000
  0.000000000000000E+000
  0.000000000000000E+000
  0.000000000000000E+000
  0.000000000000000E+000
  0.000000000000000E+000
  0.000000000000000E+000
  0.000000000000000E+000
  0.000000000000000E+000
  0.000000000000000E+000
  0.000000000000000E+000
  0.000000000000000E+000
  0.000000000000000E+000
  0.000000000000000E+000
  0.000000000000000E+000
  0.000000000000000E+000
  0.000000000000000E+000
  0.000000000000000E+000
  0.000000000000000E+000
  0.000000000000000E+000
  0.000000000000000E+000
  0.000000000000000E+000
  0.000000000000000E+000
  0.000000000000000E+000
  0.000000000000000E+000
  0.000000000000000E+000
  0.000000000000000E+000
  0.000000000000000E+000
  0.000000000000000E+000
  0.000000000000000E+000
  0.000000000000000E+000
  0.000000000000000E+000
  0.000000000000000E+000
  0.000000000000000E+000
  0.000000000000000E+000
  0.000000000000000E+000
  0.000000000000000E+000
  0.000000000000000E+000
  0.000000000000000E+000
  0.000000000000000E+000
  0.000000000000000E+000
  0.000000000000000E+000
  0.000000000000000E+000
  0.000000000000000E+000
  0.000000000000000E+000
  0.000000000000000E+000
  0.000000000000000E+000
  0.000000000000000E+000
  0.000000000000000E+000
  0.000000000000000E+000
  0.000000000000000E+000
  0.000000000000000E+000
  0.000000000000000E+000
  0.000000000000000E+000
  0.000000000000000E+000
  0.000000000000000E+000
  0.000000000000000E+000
  0.000000000000000E+000
  0.000000000000000E+000
  0.000000000000000E+000
  0.000000000000000E+000
  0.000000000000000E+000
  0.000000000000000E+000
  0.000000000000000E+000
  0.000000000000000E+000
  0.000000000000000E+000
  0.000000000000000E+000
  0.000000000000000E+000
  0.000000000000000E+000
  0.000000000000000E+000
  0.000000000000000E+000
  0.000000000000000E+000
  0.000000000000000E+000
  0.000000000000000E+000
  0.000000000000000E+000
  0.000000000000000E+000
  0.000000000000000E+000
  0.000000000000000E+000
  0.000000000000000E+000
  0.000000000000000E+000
  0.000000000000000E+000
  0.000000000000000E+000
  0.000000000000000E+000
  0.000000000000000E+000
  0.000000000000000E+000
  0.000000000000000E+000
  0.000000000000000E+000
  0.000000000000000E+000
  0.000000000000000E+000
  0.000000000000000E+000
  0.000000000000000E+000
  0.000000000000000E+000
  0.000000000000000E+000
  0.000000000000000E+000
  0.000000000000000E+000
  0.000000000000000E+000
  0.000000000000000E+000
  0.000000000000000E+000
  0.000000000000000E+000
  0.000000000000000E+000
  0.000000000000000E+000
  0.000000000000000E+000
  0.000000000000000E+000
  0.000000000000000E+000
  0.000000000000000E+000
  0.000000000000000E+000
  0.000000000000000E+000
  0.000000000000000E+000
  0.000000000000000E+000
  0.000000000000000E+000
  0.000000000000000E+000
  0.000000000000000E+000
  0.000000000000000E+000
  0.000000000000000E+000
  0.000000000000000E+000
  0.000000000000000E+000
  0.000000000000000E+000
  0.000000000000000E+000
  0.000000000000000E+000
  0.000000000000000E+000
  0.000000000000000E+000
  0.000000000000000E+000
  0.000000000000000E+000
  0.000000000000000E+000
  0.000000000000000E+000
  0.000000000000000E+000
  0.000000000000000E+000
  0.000000000000000E+000
  0.000000000000000E+000
  0.000000000000000E+000
  0.000000000000000E+000
  0.000000000000000E+000
  0.000000000000000E+000
  0.000000000000000E+000
  0.000000000000000E+000
  0.000000000000000E+000
  0.000000000000000E+000
  0.000000000000000E+000
  0.000000000000000E+000
  0.000000000000000E+000
  0.000000000000000E+000
  0.000000000000000E+000
  0.000000000000000E+000
  0.000000000000000E+000
  0.000000000000000E+000
  0.000000000000000E+000
  0.000000000000000E+000
  0.000000000000000E+000
  0.000000000000000E+000
  0.000000000000000E+000
  0.000000000000000E+000
  0.000000000000000E+000
  0.000000000000000E+000
  0.000000000000000E+000
  0.000000000000000E+000
  0.000000000000000E+000
  0.000000000000000E+000
  0.000000000000000E+000
  0.000000000000000E+000
  0.000000000000000E+000
  0.000000000000000E+000
  0.000000000000000E+000
  0.000000000000000E+000
  0.000000000000000E+000
  0.000000000000000E+000
  0.000000000000000E+000
  0.000000000000000E+000
  0.000000000000000E+000
  0.000000000000000E+000
  0.000000000000000E+000
  0.000000000000000E+000
  0.000000000000000E+000
  0.000000000000000E+000
  0.000000000000000E+000
  0.000000000000000E+000
  0.000000000000000E+000
  0.000000000000000E+000
  0.000000000000000E+000
  0.000000000000000E+000
  0.000000000000000E+000
  0.000000000000000E+000
  0.000000000000000E+000
  0.000000000000000E+000
  0.000000000000000E+000
  0.000000000000000E+000
  0.000000000000000E+000
  0.000000000000000E+000
  0.000000000000000E+000
  0.000000000000000E+000
  0.000000000000000E+000
  0.000000000000000E+000
  0.000000000000000E+000
  0.000000000000000E+000
  0.000000000000000E+000
  0.000000000000000E+000
  0.000000000000000E+000
  0.000000000000000E+000
  0.000000000000000E+000
  0.000000000000000E+000
  0.000000000000000E+000
  0.000000000000000E+000
  0.000000000000000E+000
  0.000000000000000E+000
  0.000000000000000E+000
  0.000000000000000E+000
  0.000000000000000E+000
  0.000000000000000E+000
  0.000000000000000E+000
  0.000000000000000E+000
  0.000000000000000E+000
  0.000000000000000E+000
  0.000000000000000E+000
  0.000000000000000E+000
  0.000000000000000E+000
  0.000000000000000E+000
  0.000000000000000E+000
  0.000000000000000E+000
  0.000000000000000E+000
  0.000000000000000E+000
  0.000000000000000E+000
  0.000000000000000E+000
  0.000000000000000E+000
  0.000000000000000E+000
  0.000000000000000E+000
  0.000000000000000E+000
  0.000000000000000E+000
  0.000000000000000E+000
  0.000000000000000E+000
  0.000000000000000E+000
  0.000000000000000E+000
  0.000000000000000E+000
  0.000000000000000E+000
  0.000000000000000E+000
  0.000000000000000E+000
  0.000000000000000E+000
  0.000000000000000E+000
  0.000000000000000E+000
  0.000000000000000E+000
  0.000000000000000E+000
  0.000000000000000E+000
  0.000000000000000E+000
  0.000000000000000E+000
  0.000000000000000E+000
  0.000000000000000E+000
  0.000000000000000E+000
  0.000000000000000E+000
  0.000000000000000E+000
  0.000000000000000E+000
  0.000000000000000E+000
  0.000000000000000E+000
  0.000000000000000E+000
  0.000000000000000E+000
  0.000000000000000E+000
  0.000000000000000E+000
  0.000000000000000E+000
  0.000000000000000E+000
  0.000000000000000E+000
  0.000000000000000E+000
  0.000000000000000E+000
  0.000000000000000E+000
  0.000000000000000E+000
  0.000000000000000E+000
  0.000000000000000E+000
  0.000000000000000E+000
  0.000000000000000E+000
  0.000000000000000E+000
  0.000000000000000E+000
  0.000000000000000E+000
  0.000000000000000E+000
  0.000000000000000E+000
  0.000000000000000E+000
  0.000000000000000E+000
  0.000000000000000E+000
  0.000000000000000E+000
  0.000000000000000E+000
  0.000000000000000E+000
  0.000000000000000E+000
  0.000000000000000E+000
  0.000000000000000E+000
  0.000000000000000E+000
  0.000000000000000E+000
  0.000000000000000E+000
  0.000000000000000E+000
  0.000000000000000E+000
  0.000000000000000E+000
  0.000000000000000E+000
  0.000000000000000E+000
  0.000000000000000E+000
  0.000000000000000E+000
  0.000000000000000E+000
  0.000000000000000E+000
  0.000000000000000E+000
  0.000000000000000E+000
  0.000000000000000E+000
  0.000000000000000E+000
  0.000000000000000E+000
  0.000000000000000E+000
  0.000000000000000E+000
  0.000000000000000E+000
  0.000000000000000E+000
  0.000000000000000E+000
  0.000000000000000E+000
  0.000000000000000E+000
  0.000000000000000E+000
  0.000000000000000E+000
  0.000000000000000E+000
  0.000000000000000E+000
  0.000000000000000E+000
  0.000000000000000E+000
  0.000000000000000E+000
  0.000000000000000E+000
  0.000000000000000E+000
  0.000000000000000E+000
  0.000000000000000E+000
  0.000000000000000E+000
  0.000000000000000E+000
  0.000000000000000E+000
  0.000000000000000E+000
  0.000000000000000E+000
  0.000000000000000E+000
  0.000000000000000E+000
  0.000000000000000E+000
  0.000000000000000E+000
  0.000000000000000E+000
  0.000000000000000E+000
  0.000000000000000E+000
  0.000000000000000E+000
  0.000000000000000E+000
  0.000000000000000E+000
  0.000000000000000E+000
  0.000000000000000E+000
  0.000000000000000E+000
  0.000000000000000E+000
  0.000000000000000E+000
  0.000000000000000E+000
  0.000000000000000E+000
  0.000000000000000E+000
  0.000000000000000E+000
  0.000000000000000E+000
  0.000000000000000E+000
  0.000000000000000E+000
  0.000000000000000E+000
  0.000000000000000E+000
  0.000000000000000E+000
  0.000000000000000E+000
  0.000000000000000E+000
  0.000000000000000E+000
  0.000000000000000E+000
  0.000000000000000E+000
  0.000000000000000E+000
  0.000000000000000E+000
  0.000000000000000E+000
  0.000000000000000E+000
  0.000000000000000E+000
  0.000000000000000E+000
  0.000000000000000E+000
  0.000000000000000E+000
  0.000000000000000E+000
  0.000000000000000E+000
  0.000000000000000E+000
  0.000000000000000E+000
  0.000000000000000E+000
  0.000000000000000E+000
  0.000000000000000E+000
  0.000000000000000E+000
  0.000000000000000E+000
  0.000000000000000E+000
  0.000000000000000E+000
  0.000000000000000E+000
  0.000000000000000E+000
  0.000000000000000E+000
  0.000000000000000E+000
  0.000000000000000E+000
  0.000000000000000E+000
  0.000000000000000E+000
  0.000000000000000E+000
  0.000000000000000E+000
  0.000000000000000E+000
  0.000000000000000E+000
  0.000000000000000E+000
  0.000000000000000E+000
  0.000000000000000E+000
  0.000000000000000E+000
  0.000000000000000E+000
  0.000000000000000E+000
  0.000000000000000E+000
  0.000000000000000E+000
  0.000000000000000E+000
  0.000000000000000E+000
  0.000000000000000E+000
  0.000000000000000E+000
  0.000000000000000E+000
  0.000000000000000E+000
  0.000000000000000E+000
  0.000000000000000E+000
  0.000000000000000E+000
  0.000000000000000E+000
  0.000000000000000E+000
  0.000000000000000E+000
  0.000000000000000E+000
  0.000000000000000E+000
  0.000000000000000E+000
  0.000000000000000E+000
  0.000000000000000E+000
  0.000000000000000E+000
  0.000000000000000E+000
  0.000000000000000E+000
  0.000000000000000E+000
  0.000000000000000E+000
  0.000000000000000E+000
  0.000000000000000E+000
  0.000000000000000E+000
  0.000000000000000E+000
  0.000000000000000E+000
  0.000000000000000E+000
  0.000000000000000E+000
  0.000000000000000E+000
  0.000000000000000E+000
  0.000000000000000E+000
  0.000000000000000E+000
  0.000000000000000E+000
  0.000000000000000E+000
  0.000000000000000E+000
  0.000000000000000E+000
  0.000000000000000E+000
  0.000000000000000E+000
  0.000000000000000E+000
  0.000000000000000E+000
  0.000000000000000E+000
  0.000000000000000E+000
  0.000000000000000E+000
  0.000000000000000E+000
  0.000000000000000E+000
  0.000000000000000E+000
  0.000000000000000E+000
  0.000000000000000E+000
  0.000000000000000E+000
  0.000000000000000E+000
  0.000000000000000E+000
  0.000000000000000E+000
  0.000000000000000E+000
  0.000000000000000E+000
  0.000000000000000E+000
  0.000000000000000E+000
  0.000000000000000E+000
  0.000000000000000E+000
  0.000000000000000E+000
  0.000000000000000E+000
  0.000000000000000E+000
  0.000000000000000E+000
  0.000000000000000E+000
  0.000000000000000E+000
  0.000000000000000E+000
  0.000000000000000E+000
  0.000000000000000E+000
  0.000000000000000E+000
  0.000000000000000E+000
  0.000000000000000E+000
  0.000000000000000E+000
  0.000000000000000E+000
  0.000000000000000E+000
  0.000000000000000E+000
  0.000000000000000E+000
  0.000000000000000E+000
  0.000000000000000E+000
  0.000000000000000E+000
  0.000000000000000E+000
  0.000000000000000E+000
  0.000000000000000E+000
  0.000000000000000E+000
  0.000000000000000E+000
  0.000000000000000E+000
  0.000000000000000E+000
  0.000000000000000E+000
  0.000000000000000E+000
  0.000000000000000E+000
  0.000000000000000E+000
  0.000000000000000E+000
  0.000000000000000E+000
  0.000000000000000E+000
  0.000000000000000E+000
  0.000000000000000E+000
  0.000000000000000E+000
  0.000000000000000E+000
  0.000000000000000E+000
  0.000000000000000E+000
  0.000000000000000E+000
  0.000000000000000E+000
  0.000000000000000E+000
  0.000000000000000E+000
  0.000000000000000E+000
  0.000000000000000E+000
  0.000000000000000E+000
  0.000000000000000E+000
  0.000000000000000E+000
  0.000000000000000E+000
  0.000000000000000E+000
  0.000000000000000E+000
  0.000000000000000E+000
  0.000000000000000E+000
  0.000000000000000E+000
  0.000000000000000E+000
  0.000000000000000E+000
  0.000000000000000E+000
  0.000000000000000E+000
  0.000000000000000E+000
  0.000000000000000E+000
  0.000000000000000E+000
  0.000000000000000E+000
  0.000000000000000E+000
  0.000000000000000E+000
  0.000000000000000E+000
  0.000000000000000E+000
  0.000000000000000E+000
  0.000000000000000E+000
  0.000000000000000E+000
  0.000000000000000E+000
  0.000000000000000E+000
  0.000000000000000E+000
  0.000000000000000E+000
  0.000000000000000E+000
  0.000000000000000E+000
  0.000000000000000E+000
  0.000000000000000E+000
  0.000000000000000E+000
  0.000000000000000E+000
  0.000000000000000E+000
  0.000000000000000E+000
  0.000000000000000E+000
  0.000000000000000E+000
  0.000000000000000E+000
  0.000000000000000E+000
  0.000000000000000E+000
  0.000000000000000E+000
  0.000000000000000E+000
  0.000000000000000E+000
  0.000000000000000E+000
  0.000000000000000E+000
  0.000000000000000E+000
  0.000000000000000E+000
  0.000000000000000E+000
  0.000000000000000E+000
  0.000000000000000E+000
  0.000000000000000E+000
  0.000000000000000E+000
  0.000000000000000E+000
  0.000000000000000E+000
  0.000000000000000E+000
  0.000000000000000E+000
  0.000000000000000E+000
  0.000000000000000E+000
  0.000000000000000E+000
  0.000000000000000E+000
  0.000000000000000E+000
  0.000000000000000E+000
  0.000000000000000E+000
  0.000000000000000E+000
  0.000000000000000E+000
  0.000000000000000E+000
  0.000000000000000E+000
  0.000000000000000E+000
  0.000000000000000E+000
  0.000000000000000E+000
  0.000000000000000E+000
  0.000000000000000E+000
  0.000000000000000E+000
  0.000000000000000E+000
  0.000000000000000E+000
  0.000000000000000E+000
  0.000000000000000E+000
  0.000000000000000E+000
  0.000000000000000E+000
  0.000000000000000E+000
  0.000000000000000E+000
  0.000000000000000E+000
  0.000000000000000E+000
  0.000000000000000E+000
  0.000000000000000E+000
  0.000000000000000E+000
  0.000000000000000E+000
  0.000000000000000E+000
  0.000000000000000E+000
  0.000000000000000E+000
  0.000000000000000E+000
  0.000000000000000E+000
  0.000000000000000E+000
  0.000000000000000E+000
  0.000000000000000E+000
  0.000000000000000E+000
  0.000000000000000E+000
  0.000000000000000E+000
  0.000000000000000E+000
  0.000000000000000E+000
  0.000000000000000E+000
  0.000000000000000E+000
  0.000000000000000E+000
  0.000000000000000E+000
  0.000000000000000E+000
  0.000000000000000E+000
  0.000000000000000E+000
  0.000000000000000E+000
  0.000000000000000E+000
  0.000000000000000E+000
  0.000000000000000E+000
  0.000000000000000E+000
  0.000000000000000E+000
  0.000000000000000E+000
  0.000000000000000E+000
  0.000000000000000E+000
  0.000000000000000E+000
  0.000000000000000E+000
  0.000000000000000E+000
  0.000000000000000E+000
  0.000000000000000E+000
  0.000000000000000E+000
  0.000000000000000E+000
  0.000000000000000E+000
  0.000000000000000E+000
  0.000000000000000E+000
  0.000000000000000E+000
  0.000000000000000E+000
  0.000000000000000E+000
  0.000000000000000E+000
  0.000000000000000E+000
  0.000000000000000E+000
  0.000000000000000E+000
  0.000000000000000E+000
  0.000000000000000E+000
  0.000000000000000E+000
  0.000000000000000E+000
  0.000000000000000E+000
  0.000000000000000E+000
  0.000000000000000E+000
  0.000000000000000E+000
  0.000000000000000E+000
  0.000000000000000E+000
  0.000000000000000E+000
  0.000000000000000E+000
  0.000000000000000E+000
  0.000000000000000E+000
  0.000000000000000E+000
  0.000000000000000E+000
  0.000000000000000E+000
  0.000000000000000E+000
  0.000000000000000E+000
  0.000000000000000E+000
  0.000000000000000E+000
  0.000000000000000E+000
  0.000000000000000E+000
  0.000000000000000E+000
  0.000000000000000E+000
  0.000000000000000E+000
  0.000000000000000E+000
  0.000000000000000E+000
  0.000000000000000E+000
  0.000000000000000E+000
  0.000000000000000E+000
  0.000000000000000E+000
  0.000000000000000E+000
  0.000000000000000E+000
  0.000000000000000E+000
  0.000000000000000E+000
  0.000000000000000E+000
  0.000000000000000E+000
  0.000000000000000E+000
  0.000000000000000E+000
  0.000000000000000E+000
  0.000000000000000E+000
  0.000000000000000E+000
  0.000000000000000E+000
  0.000000000000000E+000
  0.000000000000000E+000
  0.000000000000000E+000
  0.000000000000000E+000
  0.000000000000000E+000
  0.000000000000000E+000
  0.000000000000000E+000
  0.000000000000000E+000
  0.000000000000000E+000
  0.000000000000000E+000
  0.000000000000000E+000
  0.000000000000000E+000
  0.000000000000000E+000
  0.000000000000000E+000
  0.000000000000000E+000
  0.000000000000000E+000
  0.000000000000000E+000
  0.000000000000000E+000
  0.000000000000000E+000
  0.000000000000000E+000
  0.000000000000000E+000
  0.000000000000000E+000
  0.000000000000000E+000
  0.000000000000000E+000
  0.000000000000000E+000
  0.000000000000000E+000
  0.000000000000000E+000
  0.000000000000000E+000
  0.000000000000000E+000
  0.000000000000000E+000
  0.000000000000000E+000
  0.000000000000000E+000
  0.000000000000000E+000
  0.000000000000000E+000
  0.000000000000000E+000
  0.000000000000000E+000
  0.000000000000000E+000
  0.000000000000000E+000
  0.000000000000000E+000
  0.000000000000000E+000
  0.000000000000000E+000
  0.000000000000000E+000
  0.000000000000000E+000
  0.000000000000000E+000
  0.000000000000000E+000
  0.000000000000000E+000
  0.000000000000000E+000
  0.000000000000000E+000
  0.000000000000000E+000
  0.000000000000000E+000
  0.000000000000000E+000
  0.000000000000000E+000
  0.000000000000000E+000
  0.000000000000000E+000
  0.000000000000000E+000
  0.000000000000000E+000
  0.000000000000000E+000
  0.000000000000000E+000
  0.000000000000000E+000
  0.000000000000000E+000
  0.000000000000000E+000
  0.000000000000000E+000
  0.000000000000000E+000
  0.000000000000000E+000
  0.000000000000000E+000
  0.000000000000000E+000
  0.000000000000000E+000
  0.000000000000000E+000
  0.000000000000000E+000
  0.000000000000000E+000
  0.000000000000000E+000
  0.000000000000000E+000
  0.000000000000000E+000
  0.000000000000000E+000
  0.000000000000000E+000
  0.000000000000000E+000
  0.000000000000000E+000
  0.000000000000000E+000
  0.000000000000000E+000
  0.000000000000000E+000
  0.000000000000000E+000
  0.000000000000000E+000
  0.000000000000000E+000
  0.000000000000000E+000
  0.000000000000000E+000
  0.000000000000000E+000
  0.000000000000000E+000
  0.000000000000000E+000
  0.000000000000000E+000
  0.000000000000000E+000
  0.000000000000000E+000
  0.000000000000000E+000
  0.000000000000000E+000
  0.000000000000000E+000
  0.000000000000000E+000
  0.000000000000000E+000
  0.000000000000000E+000
  0.000000000000000E+000
  0.000000000000000E+000
  0.000000000000000E+000
  0.000000000000000E+000
  0.000000000000000E+000
  0.000000000000000E+000
  0.000000000000000E+000
  0.000000000000000E+000
  0.000000000000000E+000
  0.000000000000000E+000
  0.000000000000000E+000
  0.000000000000000E+000
  0.000000000000000E+000
  0.000000000000000E+000
  0.000000000000000E+000
  0.000000000000000E+000
  0.000000000000000E+000
  0.000000000000000E+000
  0.000000000000000E+000
  0.000000000000000E+000
  0.000000000000000E+000
  0.000000000000000E+000
  0.000000000000000E+000
  0.000000000000000E+000
  0.000000000000000E+000
  0.000000000000000E+000
  0.000000000000000E+000
  0.000000000000000E+000
  0.000000000000000E+000
  0.000000000000000E+000
  0.000000000000000E+000
  0.000000000000000E+000
  0.000000000000000E+000
  0.000000000000000E+000
  0.000000000000000E+000
  0.000000000000000E+000
  0.000000000000000E+000
  0.000000000000000E+000
  0.000000000000000E+000
  0.000000000000000E+000
  0.000000000000000E+000
  0.000000000000000E+000
  0.000000000000000E+000
  0.000000000000000E+000
  0.000000000000000E+000
  0.000000000000000E+000
  0.000000000000000E+000
  0.000000000000000E+000
  0.000000000000000E+000
  0.000000000000000E+000
  0.000000000000000E+000
  0.000000000000000E+000
  0.000000000000000E+000
  0.000000000000000E+000
  0.000000000000000E+000
  0.000000000000000E+000
  0.000000000000000E+000
  0.000000000000000E+000
  0.000000000000000E+000
  0.000000000000000E+000
  0.000000000000000E+000
  0.000000000000000E+000
  0.000000000000000E+000
  0.000000000000000E+000
  0.000000000000000E+000
  0.000000000000000E+000
  0.000000000000000E+000
  0.000000000000000E+000
  0.000000000000000E+000
  0.000000000000000E+000
  0.000000000000000E+000
  0.000000000000000E+000
  0.000000000000000E+000
  0.000000000000000E+000
  0.000000000000000E+000
  0.000000000000000E+000
  0.000000000000000E+000
  0.000000000000000E+000
  0.000000000000000E+000
  0.000000000000000E+000
  0.000000000000000E+000
  0.000000000000000E+000
  0.000000000000000E+000
  0.000000000000000E+000
  0.000000000000000E+000
  0.000000000000000E+000
  0.000000000000000E+000
  0.000000000000000E+000
  0.000000000000000E+000
  0.000000000000000E+000
  0.000000000000000E+000
  0.000000000000000E+000
  0.000000000000000E+000
  0.000000000000000E+000
  0.000000000000000E+000
  0.000000000000000E+000
  0.000000000000000E+000
  0.000000000000000E+000
  0.000000000000000E+000
  0.000000000000000E+000
  0.000000000000000E+000
  0.000000000000000E+000
  0.000000000000000E+000
  0.000000000000000E+000
  0.000000000000000E+000
  0.000000000000000E+000
  0.000000000000000E+000
  0.000000000000000E+000
  0.000000000000000E+000
  0.000000000000000E+000
  0.000000000000000E+000
  0.000000000000000E+000
  0.000000000000000E+000
  0.000000000000000E+000
  0.000000000000000E+000
  0.000000000000000E+000
  0.000000000000000E+000
  0.000000000000000E+000
  0.000000000000000E+000
  0.000000000000000E+000
  0.000000000000000E+000
  0.000000000000000E+000
  0.000000000000000E+000
  0.000000000000000E+000
  0.000000000000000E+000
  0.000000000000000E+000
  0.000000000000000E+000
  0.000000000000000E+000
  0.000000000000000E+000
  0.000000000000000E+000
  0.000000000000000E+000
  0.000000000000000E+000
  0.000000000000000E+000
  0.000000000000000E+000
  0.000000000000000E+000
  0.000000000000000E+000
  0.000000000000000E+000
  0.000000000000000E+000
  0.000000000000000E+000
  0.000000000000000E+000
  0.000000000000000E+000
  0.000000000000000E+000
  0.000000000000000E+000
  0.000000000000000E+000
  0.000000000000000E+000
  0.000000000000000E+000
  0.000000000000000E+000
  0.000000000000000E+000
  0.000000000000000E+000
  0.000000000000000E+000
  0.000000000000000E+000
  0.000000000000000E+000
  0.000000000000000E+000
  0.000000000000000E+000
  0.000000000000000E+000
  0.000000000000000E+000
  0.000000000000000E+000
  0.000000000000000E+000
  0.000000000000000E+000
  0.000000000000000E+000
  0.000000000000000E+000
  0.000000000000000E+000
  0.000000000000000E+000
  0.000000000000000E+000
  0.000000000000000E+000
  0.000000000000000E+000
  0.000000000000000E+000
  0.000000000000000E+000
  0.000000000000000E+000
  0.000000000000000E+000
  0.000000000000000E+000
  0.000000000000000E+000
  0.000000000000000E+000
  0.000000000000000E+000
  0.000000000000000E+000
  0.000000000000000E+000
  0.000000000000000E+000
  0.000000000000000E+000
  0.000000000000000E+000
  0.000000000000000E+000
  0.000000000000000E+000
  0.000000000000000E+000
  0.000000000000000E+000
  0.000000000000000E+000
  0.000000000000000E+000
  0.000000000000000E+000
  0.000000000000000E+000
  0.000000000000000E+000
  0.000000000000000E+000
  0.000000000000000E+000
  0.000000000000000E+000
  0.000000000000000E+000
  0.000000000000000E+000
  0.000000000000000E+000
  0.000000000000000E+000
  0.000000000000000E+000
  0.000000000000000E+000
  0.000000000000000E+000
  0.000000000000000E+000
  0.000000000000000E+000
  0.000000000000000E+000
  0.000000000000000E+000
  0.000000000000000E+000
  0.000000000000000E+000
  0.000000000000000E+000
  0.000000000000000E+000
  0.000000000000000E+000
  0.000000000000000E+000
  0.000000000000000E+000
  0.000000000000000E+000
  0.000000000000000E+000
  0.000000000000000E+000
  0.000000000000000E+000
  0.000000000000000E+000
  0.000000000000000E+000
  0.000000000000000E+000
  0.000000000000000E+000
  0.000000000000000E+000
  0.000000000000000E+000
  0.000000000000000E+000
  0.000000000000000E+000
  0.000000000000000E+000
  0.000000000000000E+000
  0.000000000000000E+000
  0.000000000000000E+000
  0.000000000000000E+000
  0.000000000000000E+000
  0.000000000000000E+000
  0.000000000000000E+000
  0.000000000000000E+000
  0.000000000000000E+000
  0.000000000000000E+000
  0.000000000000000E+000
  0.000000000000000E+000
  0.000000000000000E+000
  0.000000000000000E+000
  0.000000000000000E+000
  0.000000000000000E+000
  0.000000000000000E+000
  0.000000000000000E+000
  0.000000000000000E+000
  0.000000000000000E+000
  0.000000000000000E+000
  0.000000000000000E+000
  0.000000000000000E+000
  0.000000000000000E+000
  0.000000000000000E+000
  0.000000000000000E+000
  0.000000000000000E+000
  0.000000000000000E+000
  0.000000000000000E+000
  0.000000000000000E+000
  0.000000000000000E+000
  0.000000000000000E+000
  0.000000000000000E+000
  0.000000000000000E+000
  0.000000000000000E+000
  0.000000000000000E+000
  0.000000000000000E+000
  0.000000000000000E+000
  0.000000000000000E+000
  0.000000000000000E+000
  0.000000000000000E+000
  0.000000000000000E+000
  0.000000000000000E+000
  0.000000000000000E+000
  0.000000000000000E+000
  0.000000000000000E+000
  0.000000000000000E+000
  0.000000000000000E+000
  0.000000000000000E+000
  0.000000000000000E+000
  0.000000000000000E+000
  0.000000000000000E+000
  0.000000000000000E+000
  0.000000000000000E+000
  0.000000000000000E+000
  0.000000000000000E+000
  0.000000000000000E+000
  0.000000000000000E+000
  0.000000000000000E+000
  0.000000000000000E+000
  0.000000000000000E+000
  0.000000000000000E+000
  0.000000000000000E+000
  0.000000000000000E+000
  0.000000000000000E+000
  0.000000000000000E+000
  0.000000000000000E+000
  0.000000000000000E+000
  0.000000000000000E+000
  0.000000000000000E+000
  0.000000000000000E+000
  0.000000000000000E+000
  0.000000000000000E+000
  0.000000000000000E+000
  0.000000000000000E+000
  0.000000000000000E+000
  0.000000000000000E+000
  0.000000000000000E+000
  0.000000000000000E+000
  0.000000000000000E+000
  0.000000000000000E+000
  0.000000000000000E+000
  0.000000000000000E+000
  0.000000000000000E+000
  0.000000000000000E+000
  0.000000000000000E+000
  0.000000000000000E+000
  0.000000000000000E+000
  0.000000000000000E+000
  0.000000000000000E+000
  0.000000000000000E+000
  0.000000000000000E+000
  0.000000000000000E+000
  0.000000000000000E+000
  0.000000000000000E+000
  0.000000000000000E+000
  0.000000000000000E+000
  0.000000000000000E+000
  0.000000000000000E+000
  0.000000000000000E+000
  0.000000000000000E+000
  0.000000000000000E+000
  0.000000000000000E+000
  0.000000000000000E+000
  0.000000000000000E+000
  0.000000000000000E+000
  0.000000000000000E+000
  0.000000000000000E+000
  0.000000000000000E+000
  0.000000000000000E+000
  0.000000000000000E+000
  0.000000000000000E+000
  0.000000000000000E+000
  0.000000000000000E+000
  0.000000000000000E+000
  0.000000000000000E+000
  0.000000000000000E+000
  0.000000000000000E+000
  0.000000000000000E+000
  0.000000000000000E+000
  0.000000000000000E+000
  0.000000000000000E+000
  0.000000000000000E+000
  0.000000000000000E+000
  0.000000000000000E+000
  0.000000000000000E+000
  0.000000000000000E+000
  0.000000000000000E+000
  0.000000000000000E+000
  0.000000000000000E+000
  0.000000000000000E+000
  0.000000000000000E+000
  0.000000000000000E+000
  0.000000000000000E+000
  0.000000000000000E+000
  0.000000000000000E+000
  0.000000000000000E+000
  0.000000000000000E+000
  0.000000000000000E+000
  0.000000000000000E+000
  0.000000000000000E+000
  0.000000000000000E+000
  0.000000000000000E+000
  0.000000000000000E+000
  0.000000000000000E+000
  0.000000000000000E+000
  0.000000000000000E+000
  0.000000000000000E+000
  0.000000000000000E+000
  0.000000000000000E+000
  0.000000000000000E+000
  0.000000000000000E+000
  0.000000000000000E+000
  0.000000000000000E+000
  0.000000000000000E+000
  0.000000000000000E+000
  0.000000000000000E+000
  0.000000000000000E+000
  0.000000000000000E+000
  0.000000000000000E+000
  0.000000000000000E+000
  0.000000000000000E+000
  0.000000000000000E+000
  0.000000000000000E+000
  0.000000000000000E+000
  0.000000000000000E+000
  0.000000000000000E+000
  0.000000000000000E+000
  0.000000000000000E+000
  0.000000000000000E+000
  0.000000000000000E+000
  0.000000000000000E+000
  0.000000000000000E+000
  0.000000000000000E+000
  0.000000000000000E+000
  0.000000000000000E+000
  0.000000000000000E+000
  0.000000000000000E+000
  0.000000000000000E+000
  0.000000000000000E+000
  0.000000000000000E+000
  0.000000000000000E+000
  0.000000000000000E+000
  0.000000000000000E+000
  0.000000000000000E+000
  0.000000000000000E+000
  0.000000000000000E+000
  0.000000000000000E+000
  0.000000000000000E+000
  0.000000000000000E+000
  0.000000000000000E+000
  0.000000000000000E+000
  0.000000000000000E+000
  0.000000000000000E+000
  0.000000000000000E+000
  0.000000000000000E+000
  0.000000000000000E+000
  0.000000000000000E+000
  0.000000000000000E+000
  0.000000000000000E+000
  0.000000000000000E+000
  0.000000000000000E+000
  0.000000000000000E+000
  0.000000000000000E+000
  0.000000000000000E+000
  0.000000000000000E+000
  0.000000000000000E+000
  0.000000000000000E+000
  0.000000000000000E+000
  0.000000000000000E+000
  0.000000000000000E+000
  0.000000000000000E+000
  0.000000000000000E+000
  0.000000000000000E+000
  0.000000000000000E+000
  0.000000000000000E+000
  0.000000000000000E+000
  0.000000000000000E+000
  0.000000000000000E+000
  0.000000000000000E+000
  0.000000000000000E+000
  0.000000000000000E+000
  0.000000000000000E+000
  0.000000000000000E+000
  0.000000000000000E+000
  0.000000000000000E+000
  0.000000000000000E+000
  0.000000000000000E+000
  0.000000000000000E+000
  0.000000000000000E+000
  0.000000000000000E+000
  0.000000000000000E+000
  0.000000000000000E+000
  0.000000000000000E+000
  0.000000000000000E+000
  0.000000000000000E+000
  0.000000000000000E+000
  0.000000000000000E+000
  0.000000000000000E+000
  0.000000000000000E+000
  0.000000000000000E+000
  0.000000000000000E+000
  0.000000000000000E+000
  0.000000000000000E+000
  0.000000000000000E+000
  0.000000000000000E+000
  0.000000000000000E+000
  0.000000000000000E+000
  0.000000000000000E+000
  0.000000000000000E+000
  0.000000000000000E+000
  0.000000000000000E+000
  0.000000000000000E+000
  0.000000000000000E+000
  0.000000000000000E+000
  0.000000000000000E+000
  0.000000000000000E+000
  0.000000000000000E+000
  0.000000000000000E+000
  0.000000000000000E+000
  0.000000000000000E+000
  0.000000000000000E+000
  0.000000000000000E+000
  0.000000000000000E+000
  0.000000000000000E+000
  0.000000000000000E+000
  0.000000000000000E+000
  0.000000000000000E+000
  0.000000000000000E+000
  0.000000000000000E+000
  0.000000000000000E+000
  0.000000000000000E+000
  0.000000000000000E+000
  0.000000000000000E+000
  0.000000000000000E+000
  0.000000000000000E+000
  0.000000000000000E+000
  0.000000000000000E+000
  0.000000000000000E+000
  0.000000000000000E+000
  0.000000000000000E+000
  0.000000000000000E+000
  0.000000000000000E+000
  0.000000000000000E+000
  0.000000000000000E+000
  0.000000000000000E+000
  0.000000000000000E+000
  0.000000000000000E+000
  0.000000000000000E+000
  0.000000000000000E+000
  0.000000000000000E+000
  0.000000000000000E+000
  0.000000000000000E+000
  0.000000000000000E+000
  0.000000000000000E+000
  0.000000000000000E+000
  0.000000000000000E+000
  0.000000000000000E+000
  0.000000000000000E+000
  0.000000000000000E+000
  0.000000000000000E+000
  0.000000000000000E+000
  0.000000000000000E+000
  0.000000000000000E+000
  0.000000000000000E+000
  0.000000000000000E+000
  0.000000000000000E+000
  0.000000000000000E+000
  0.000000000000000E+000
  0.000000000000000E+000
  0.000000000000000E+000
  0.000000000000000E+000
  0.000000000000000E+000
  0.000000000000000E+000
  0.000000000000000E+000
  0.000000000000000E+000
  0.000000000000000E+000
  0.000000000000000E+000
  0.000000000000000E+000
  0.000000000000000E+000
  0.000000000000000E+000
  0.000000000000000E+000
  0.000000000000000E+000
  0.000000000000000E+000
  0.000000000000000E+000
  0.000000000000000E+000
  0.000000000000000E+000
  0.000000000000000E+000
  0.000000000000000E+000
  0.000000000000000E+000
  0.000000000000000E+000
  0.000000000000000E+000
  0.000000000000000E+000
  0.000000000000000E+000
  0.000000000000000E+000
  0.000000000000000E+000
  0.000000000000000E+000
  0.000000000000000E+000
  0.000000000000000E+000
  0.000000000000000E+000
  0.000000000000000E+000
  0.000000000000000E+000
  0.000000000000000E+000
  0.000000000000000E+000
  0.000000000000000E+000
  0.000000000000000E+000
  0.000000000000000E+000
  0.000000000000000E+000
  0.000000000000000E+000
  0.000000000000000E+000
  0.000000000000000E+000
  0.000000000000000E+000
  0.000000000000000E+000
  0.000000000000000E+000
  0.000000000000000E+000
  0.000000000000000E+000
  0.000000000000000E+000
  0.000000000000000E+000
  0.000000000000000E+000
  0.000000000000000E+000
  0.000000000000000E+000
  0.000000000000000E+000
  0.000000000000000E+000
  0.000000000000000E+000
  0.000000000000000E+000
  0.000000000000000E+000
  0.000000000000000E+000
  0.000000000000000E+000
  0.000000000000000E+000
  0.000000000000000E+000
  0.000000000000000E+000
  0.000000000000000E+000
  0.000000000000000E+000
  0.000000000000000E+000
  0.000000000000000E+000
  0.000000000000000E+000
  0.000000000000000E+000
  0.000000000000000E+000
  0.000000000000000E+000
  0.000000000000000E+000
  0.000000000000000E+000
  0.000000000000000E+000
  0.000000000000000E+000
  0.000000000000000E+000
  0.000000000000000E+000
  0.000000000000000E+000
  0.000000000000000E+000
  0.000000000000000E+000
  0.000000000000000E+000
  0.000000000000000E+000
  0.000000000000000E+000
  0.000000000000000E+000
  0.000000000000000E+000
  0.000000000000000E+000
  0.000000000000000E+000
  0.000000000000000E+000
  0.000000000000000E+000
  0.000000000000000E+000
  0.000000000000000E+000
  0.000000000000000E+000
  0.000000000000000E+000
  0.000000000000000E+000
  0.000000000000000E+000
  0.000000000000000E+000
  0.000000000000000E+000
  0.000000000000000E+000
  0.000000000000000E+000
  0.000000000000000E+000
  0.000000000000000E+000
  0.000000000000000E+000
  0.000000000000000E+000
  0.000000000000000E+000
  0.000000000000000E+000
  0.000000000000000E+000
  0.000000000000000E+000
  0.000000000000000E+000
  0.000000000000000E+000
  0.000000000000000E+000
  0.000000000000000E+000
  0.000000000000000E+000
  0.000000000000000E+000
  0.000000000000000E+000
  0.000000000000000E+000
  0.000000000000000E+000
  0.000000000000000E+000
  0.000000000000000E+000
  0.000000000000000E+000
  0.000000000000000E+000
  0.000000000000000E+000
  0.000000000000000E+000
  0.000000000000000E+000
  0.000000000000000E+000
  0.000000000000000E+000
  0.000000000000000E+000
  0.000000000000000E+000
  0.000000000000000E+000
  0.000000000000000E+000
  0.000000000000000E+000
  0.000000000000000E+000
  0.000000000000000E+000
  0.000000000000000E+000
  0.000000000000000E+000
  0.000000000000000E+000
  0.000000000000000E+000
  0.000000000000000E+000
  0.000000000000000E+000
  0.000000000000000E+000
  0.000000000000000E+000
  0.000000000000000E+000
  0.000000000000000E+000
  0.000000000000000E+000
  0.000000000000000E+000
  0.000000000000000E+000
  0.000000000000000E+000
  0.000000000000000E+000
  0.000000000000000E+000
  0.000000000000000E+000
  0.000000000000000E+000
  0.000000000000000E+000
  0.000000000000000E+000
  0.000000000000000E+000
  0.000000000000000E+000
  0.000000000000000E+000
  0.000000000000000E+000
  0.000000000000000E+000
  0.000000000000000E+000
  0.000000000000000E+000
  0.000000000000000E+000
  0.000000000000000E+000
  0.000000000000000E+000
  0.000000000000000E+000
  0.000000000000000E+000
  0.000000000000000E+000
  0.000000000000000E+000
  0.000000000000000E+000
  0.000000000000000E+000
  0.000000000000000E+000
  0.000000000000000E+000
  0.000000000000000E+000
  0.000000000000000E+000
  0.000000000000000E+000
  0.000000000000000E+000
  0.000000000000000E+000
  0.000000000000000E+000
  0.000000000000000E+000
  0.000000000000000E+000
  0.000000000000000E+000
  0.000000000000000E+000
  0.000000000000000E+000
  0.000000000000000E+000
  0.000000000000000E+000
  0.000000000000000E+000
  0.000000000000000E+000
  0.000000000000000E+000
  0.000000000000000E+000
  0.000000000000000E+000
  0.000000000000000E+000
  0.000000000000000E+000
  0.000000000000000E+000
  0.000000000000000E+000
  0.000000000000000E+000
  0.000000000000000E+000
  0.000000000000000E+000
  0.000000000000000E+000
  0.000000000000000E+000
  0.000000000000000E+000
  0.000000000000000E+000
  0.000000000000000E+000
  0.000000000000000E+000
  0.000000000000000E+000
  0.000000000000000E+000
  0.000000000000000E+000
  0.000000000000000E+000
  0.000000000000000E+000
  0.000000000000000E+000
  0.000000000000000E+000
  0.000000000000000E+000
  0.000000000000000E+000
  0.000000000000000E+000
  0.000000000000000E+000
  0.000000000000000E+000
  0.000000000000000E+000
  0.000000000000000E+000
  0.000000000000000E+000
  0.000000000000000E+000
  0.000000000000000E+000
  0.000000000000000E+000
  0.000000000000000E+000
  0.000000000000000E+000
  0.000000000000000E+000
  0.000000000000000E+000
  0.000000000000000E+000
  0.000000000000000E+000
  0.000000000000000E+000
  0.000000000000000E+000
  0.000000000000000E+000
  0.000000000000000E+000
  0.000000000000000E+000
  0.000000000000000E+000
  0.000000000000000E+000
  0.000000000000000E+000
  0.000000000000000E+000
  0.000000000000000E+000
  0.000000000000000E+000
  0.000000000000000E+000
  0.000000000000000E+000
  0.000000000000000E+000
  0.000000000000000E+000
  0.000000000000000E+000
  0.000000000000000E+000
  0.000000000000000E+000
  0.000000000000000E+000
  0.000000000000000E+000
  0.000000000000000E+000
  0.000000000000000E+000
  0.000000000000000E+000
  0.000000000000000E+000
  0.000000000000000E+000
  0.000000000000000E+000
  0.000000000000000E+000
  0.000000000000000E+000
  0.000000000000000E+000
  0.000000000000000E+000
  0.000000000000000E+000
  0.000000000000000E+000
  0.000000000000000E+000
  0.000000000000000E+000
  0.000000000000000E+000
  0.000000000000000E+000
  0.000000000000000E+000
  0.000000000000000E+000
  0.000000000000000E+000
  0.000000000000000E+000
  0.000000000000000E+000
  0.000000000000000E+000
  0.000000000000000E+000
  0.000000000000000E+000
  0.000000000000000E+000
  0.000000000000000E+000
  0.000000000000000E+000
  0.000000000000000E+000
  0.000000000000000E+000
  0.000000000000000E+000
  0.000000000000000E+000
  0.000000000000000E+000
  0.000000000000000E+000
  0.000000000000000E+000
  0.000000000000000E+000
  0.000000000000000E+000
  0.000000000000000E+000
  0.000000000000000E+000
  0.000000000000000E+000
  0.000000000000000E+000
  0.000000000000000E+000
  0.000000000000000E+000
  0.000000000000000E+000
  0.000000000000000E+000
  0.000000000000000E+000
  0.000000000000000E+000
  0.000000000000000E+000
  0.000000000000000E+000
  0.000000000000000E+000
  0.000000000000000E+000
  0.000000000000000E+000
  0.000000000000000E+000
  0.000000000000000E+000
  0.000000000000000E+000
  0.000000000000000E+000
  0.000000000000000E+000
  0.000000000000000E+000
  0.000000000000000E+000
  0.000000000000000E+000
  0.000000000000000E+000
  0.000000000000000E+000
  0.000000000000000E+000
  0.000000000000000E+000
  0.000000000000000E+000
  0.000000000000000E+000
  0.000000000000000E+000
  0.000000000000000E+000
  0.000000000000000E+000
  0.000000000000000E+000
  0.000000000000000E+000
  0.000000000000000E+000
  0.000000000000000E+000
  0.000000000000000E+000
  0.000000000000000E+000
  0.000000000000000E+000
  0.000000000000000E+000
  0.000000000000000E+000
  0.000000000000000E+000
  0.000000000000000E+000
  0.000000000000000E+000
  0.000000000000000E+000
  0.000000000000000E+000
  0.000000000000000E+000
  0.000000000000000E+000
  0.000000000000000E+000
  0.000000000000000E+000
  0.000000000000000E+000
  0.000000000000000E+000
  0.000000000000000E+000
  0.000000000000000E+000
  0.000000000000000E+000
  0.000000000000000E+000
  0.000000000000000E+000
  0.000000000000000E+000
  0.000000000000000E+000
  0.000000000000000E+000
  0.000000000000000E+000
  0.000000000000000E+000
  0.000000000000000E+000
  0.000000000000000E+000
  0.000000000000000E+000
  0.000000000000000E+000
  0.000000000000000E+000
  0.000000000000000E+000
  0.000000000000000E+000
  0.000000000000000E+000
  0.000000000000000E+000
  0.000000000000000E+000
  0.000000000000000E+000
  0.000000000000000E+000
  0.000000000000000E+000
  0.000000000000000E+000
  0.000000000000000E+000
  0.000000000000000E+000
  0.000000000000000E+000
  0.000000000000000E+000
  0.000000000000000E+000
  0.000000000000000E+000
  0.000000000000000E+000
  0.000000000000000E+000
  0.000000000000000E+000
  0.000000000000000E+000
  0.000000000000000E+000
  0.000000000000000E+000
  0.000000000000000E+000
  0.000000000000000E+000
  0.000000000000000E+000
  0.000000000000000E+000
  0.000000000000000E+000
  0.000000000000000E+000
  0.000000000000000E+000
  0.000000000000000E+000
  0.000000000000000E+000
  0.000000000000000E+000
  0.000000000000000E+000
  0.000000000000000E+000
  0.000000000000000E+000
  0.000000000000000E+000
  0.000000000000000E+000
  0.000000000000000E+000
  0.000000000000000E+000
  0.000000000000000E+000
  0.000000000000000E+000
  0.000000000000000E+000
  0.000000000000000E+000
  0.000000000000000E+000
  0.000000000000000E+000
  0.000000000000000E+000
  0.000000000000000E+000
  0.000000000000000E+000
  0.000000000000000E+000
  0.000000000000000E+000
  0.000000000000000E+000
  0.000000000000000E+000
  0.000000000000000E+000
  0.000000000000000E+000
  0.000000000000000E+000
  0.000000000000000E+000
  0.000000000000000E+000
  0.000000000000000E+000
  0.000000000000000E+000
  0.000000000000000E+000
  0.000000000000000E+000
  0.000000000000000E+000
  0.000000000000000E+000
  0.000000000000000E+000
  0.000000000000000E+000
  0.000000000000000E+000
  0.000000000000000E+000
  0.000000000000000E+000
  0.000000000000000E+000
  0.000000000000000E+000
  0.000000000000000E+000
  0.000000000000000E+000
  0.000000000000000E+000
  0.000000000000000E+000
  0.000000000000000E+000
  0.000000000000000E+000
  0.000000000000000E+000
  0.000000000000000E+000
  0.000000000000000E+000
  0.000000000000000E+000
  0.000000000000000E+000
  0.000000000000000E+000
  0.000000000000000E+000
  0.000000000000000E+000
  0.000000000000000E+000
  0.000000000000000E+000
  0.000000000000000E+000
  0.000000000000000E+000
  0.000000000000000E+000
  0.000000000000000E+000
  0.000000000000000E+000
  0.000000000000000E+000
  0.000000000000000E+000
  0.000000000000000E+000
  0.000000000000000E+000
  0.000000000000000E+000
  0.000000000000000E+000
  0.000000000000000E+000
  0.000000000000000E+000
  0.000000000000000E+000
  0.000000000000000E+000
  0.000000000000000E+000
  0.000000000000000E+000
  0.000000000000000E+000
  0.000000000000000E+000
  0.000000000000000E+000
  0.000000000000000E+000
  0.000000000000000E+000
  0.000000000000000E+000
  0.000000000000000E+000
  0.000000000000000E+000
  0.000000000000000E+000
  0.000000000000000E+000
  0.000000000000000E+000
  0.000000000000000E+000
  0.000000000000000E+000
  0.000000000000000E+000
  0.000000000000000E+000
  0.000000000000000E+000
  0.000000000000000E+000
  0.000000000000000E+000
  0.000000000000000E+000
  0.000000000000000E+000
  0.000000000000000E+000
  0.000000000000000E+000
  0.000000000000000E+000
  0.000000000000000E+000
  0.000000000000000E+000
  0.000000000000000E+000
  0.000000000000000E+000
  0.000000000000000E+000
  0.000000000000000E+000
  0.000000000000000E+000
  0.000000000000000E+000
  0.000000000000000E+000
  0.000000000000000E+000
  0.000000000000000E+000
  0.000000000000000E+000
  0.000000000000000E+000
  0.000000000000000E+000
  0.000000000000000E+000
  0.000000000000000E+000
  0.000000000000000E+000
  0.000000000000000E+000
  0.000000000000000E+000
  0.000000000000000E+000
  0.000000000000000E+000
  0.000000000000000E+000
  0.000000000000000E+000
  0.000000000000000E+000
  0.000000000000000E+000
  0.000000000000000E+000
  0.000000000000000E+000
  0.000000000000000E+000
  0.000000000000000E+000
  0.000000000000000E+000
  0.000000000000000E+000
  0.000000000000000E+000
  0.000000000000000E+000
  0.000000000000000E+000
  0.000000000000000E+000
  0.000000000000000E+000
  0.000000000000000E+000
  0.000000000000000E+000
  0.000000000000000E+000
  0.000000000000000E+000
  0.000000000000000E+000
  0.000000000000000E+000
  0.000000000000000E+000
  0.000000000000000E+000
  0.000000000000000E+000
  0.000000000000000E+000
  0.000000000000000E+000
  0.000000000000000E+000
  0.000000000000000E+000
  0.000000000000000E+000
  0.000000000000000E+000
  0.000000000000000E+000
  0.000000000000000E+000
  0.000000000000000E+000
  0.000000000000000E+000
  0.000000000000000E+000
  0.000000000000000E+000
  0.000000000000000E+000
  0.000000000000000E+000
  0.000000000000000E+000
  0.000000000000000E+000
  0.000000000000000E+000
  0.000000000000000E+000
  0.000000000000000E+000
  0.000000000000000E+000
  0.000000000000000E+000
  0.000000000000000E+000
  0.000000000000000E+000
  0.000000000000000E+000
  0.000000000000000E+000
  0.000000000000000E+000
  0.000000000000000E+000
  0.000000000000000E+000
  0.000000000000000E+000
  0.000000000000000E+000
  0.000000000000000E+000
  0.000000000000000E+000
  0.000000000000000E+000
  0.000000000000000E+000
  0.000000000000000E+000
  0.000000000000000E+000
  0.000000000000000E+000
  0.000000000000000E+000
  0.000000000000000E+000
  0.000000000000000E+000
  0.000000000000000E+000
  0.000000000000000E+000
  0.000000000000000E+000
  0.000000000000000E+000
  0.000000000000000E+000
  0.000000000000000E+000
  0.000000000000000E+000
  0.000000000000000E+000
  0.000000000000000E+000
  0.000000000000000E+000
  0.000000000000000E+000
  0.000000000000000E+000
  0.000000000000000E+000
  0.000000000000000E+000
  0.000000000000000E+000
  0.000000000000000E+000
  0.000000000000000E+000
  0.000000000000000E+000
  0.000000000000000E+000
  0.000000000000000E+000
  0.000000000000000E+000
  0.000000000000000E+000
  0.000000000000000E+000
  0.000000000000000E+000
  0.000000000000000E+000
  0.000000000000000E+000
  0.000000000000000E+000
  0.000000000000000E+000
  0.000000000000000E+000
  0.000000000000000E+000
  0.000000000000000E+000
  0.000000000000000E+000
  0.000000000000000E+000
  0.000000000000000E+000
  0.000000000000000E+000
  0.000000000000000E+000
  0.000000000000000E+000
  0.000000000000000E+000
  0.000000000000000E+000
  0.000000000000000E+000
  0.000000000000000E+000
  0.000000000000000E+000
  0.000000000000000E+000
  0.000000000000000E+000
  0.000000000000000E+000
  0.000000000000000E+000
  0.000000000000000E+000
  0.000000000000000E+000
  0.000000000000000E+000
  0.000000000000000E+000
  0.000000000000000E+000
  0.000000000000000E+000
  0.000000000000000E+000
  0.000000000000000E+000
  0.000000000000000E+000
  0.000000000000000E+000
  0.000000000000000E+000
  0.000000000000000E+000
  0.000000000000000E+000
  0.000000000000000E+000
  0.000000000000000E+000
  0.000000000000000E+000
  0.000000000000000E+000
  0.000000000000000E+000
  0.000000000000000E+000
  0.000000000000000E+000
  0.000000000000000E+000
  0.000000000000000E+000
  0.000000000000000E+000
  0.000000000000000E+000
  0.000000000000000E+000
  0.000000000000000E+000
  0.000000000000000E+000
  0.000000000000000E+000
  0.000000000000000E+000
  0.000000000000000E+000
  0.000000000000000E+000
  0.000000000000000E+000
  0.000000000000000E+000
  0.000000000000000E+000
  0.000000000000000E+000
  0.000000000000000E+000
  0.000000000000000E+000
  0.000000000000000E+000
  0.000000000000000E+000
  0.000000000000000E+000
  0.000000000000000E+000
  0.000000000000000E+000
  0.000000000000000E+000
  0.000000000000000E+000
  0.000000000000000E+000
  0.000000000000000E+000
  0.000000000000000E+000
  0.000000000000000E+000
  0.000000000000000E+000
  0.000000000000000E+000
  0.000000000000000E+000
  0.000000000000000E+000
  0.000000000000000E+000
  0.000000000000000E+000
  0.000000000000000E+000
  0.000000000000000E+000
  0.000000000000000E+000
  0.000000000000000E+000
  0.000000000000000E+000
  0.000000000000000E+000
  0.000000000000000E+000
  0.000000000000000E+000
  0.000000000000000E+000
  0.000000000000000E+000
  0.000000000000000E+000
  0.000000000000000E+000
  0.000000000000000E+000
  0.000000000000000E+000
  0.000000000000000E+000
  0.000000000000000E+000
  0.000000000000000E+000
  0.000000000000000E+000
  0.000000000000000E+000
  0.000000000000000E+000
  0.000000000000000E+000
  0.000000000000000E+000
  0.000000000000000E+000
  0.000000000000000E+000
  0.000000000000000E+000
  0.000000000000000E+000
  0.000000000000000E+000
  0.000000000000000E+000
  0.000000000000000E+000
  0.000000000000000E+000
  0.000000000000000E+000
  0.000000000000000E+000
  0.000000000000000E+000
  0.000000000000000E+000
  0.000000000000000E+000
  0.000000000000000E+000
  0.000000000000000E+000
  0.000000000000000E+000
  0.000000000000000E+000
  0.000000000000000E+000
  0.000000000000000E+000
  0.000000000000000E+000
  0.000000000000000E+000
  0.000000000000000E+000
  0.000000000000000E+000
  0.000000000000000E+000
  0.000000000000000E+000
  0.000000000000000E+000
  0.000000000000000E+000
  0.000000000000000E+000
  0.000000000000000E+000
  0.000000000000000E+000
  0.000000000000000E+000
  0.000000000000000E+000
  0.000000000000000E+000
  0.000000000000000E+000
  0.000000000000000E+000
  0.000000000000000E+000
  0.000000000000000E+000
  0.000000000000000E+000
  0.000000000000000E+000
  0.000000000000000E+000
  0.000000000000000E+000
  0.000000000000000E+000
  0.000000000000000E+000
  0.000000000000000E+000
  0.000000000000000E+000
  0.000000000000000E+000
  0.000000000000000E+000
  0.000000000000000E+000
  0.000000000000000E+000
  0.000000000000000E+000
  0.000000000000000E+000
  0.000000000000000E+000
  0.000000000000000E+000
  0.000000000000000E+000
  0.000000000000000E+000
  0.000000000000000E+000
  0.000000000000000E+000
  0.000000000000000E+000
  0.000000000000000E+000
  0.000000000000000E+000
  0.000000000000000E+000
  0.000000000000000E+000
  0.000000000000000E+000
  0.000000000000000E+000
  0.000000000000000E+000
  0.000000000000000E+000
  0.000000000000000E+000
  0.000000000000000E+000
  0.000000000000000E+000
  0.000000000000000E+000
  0.000000000000000E+000
  0.000000000000000E+000
  0.000000000000000E+000
  0.000000000000000E+000
  0.000000000000000E+000
  0.000000000000000E+000
  0.000000000000000E+000
  0.000000000000000E+000
  0.000000000000000E+000
  0.000000000000000E+000
  0.000000000000000E+000
  0.000000000000000E+000
  0.000000000000000E+000
  0.000000000000000E+000
  0.000000000000000E+000
  0.000000000000000E+000
  0.000000000000000E+000
  0.000000000000000E+000
  0.000000000000000E+000
  0.000000000000000E+000
  0.000000000000000E+000
  0.000000000000000E+000
  0.000000000000000E+000
  0.000000000000000E+000
  0.000000000000000E+000
  0.000000000000000E+000
  0.000000000000000E+000
  0.000000000000000E+000
  0.000000000000000E+000
  0.000000000000000E+000
  0.000000000000000E+000
  0.000000000000000E+000
  0.000000000000000E+000
  0.000000000000000E+000
  0.000000000000000E+000
  0.000000000000000E+000
  0.000000000000000E+000
  0.000000000000000E+000
  0.000000000000000E+000
  0.000000000000000E+000
  0.000000000000000E+000
  0.000000000000000E+000
  0.000000000000000E+000
  0.000000000000000E+000
  0.000000000000000E+000
  0.000000000000000E+000
  0.000000000000000E+000
  0.000000000000000E+000
  0.000000000000000E+000
  0.000000000000000E+000
  0.000000000000000E+000
  0.000000000000000E+000
  0.000000000000000E+000
  0.000000000000000E+000
  0.000000000000000E+000
  0.000000000000000E+000
  0.000000000000000E+000
  0.000000000000000E+000
  0.000000000000000E+000
  0.000000000000000E+000
  0.000000000000000E+000
  0.000000000000000E+000
  0.000000000000000E+000
  0.000000000000000E+000
  0.000000000000000E+000
  0.000000000000000E+000
  0.000000000000000E+000
  0.000000000000000E+000
  0.000000000000000E+000
  0.000000000000000E+000
  0.000000000000000E+000
  0.000000000000000E+000
  0.000000000000000E+000
  0.000000000000000E+000
  0.000000000000000E+000
  0.000000000000000E+000
  0.000000000000000E+000
  0.000000000000000E+000
  0.000000000000000E+000
  0.000000000000000E+000
  0.000000000000000E+000
  0.000000000000000E+000
  0.000000000000000E+000
  0.000000000000000E+000
  0.000000000000000E+000
  0.000000000000000E+000
  0.000000000000000E+000
  0.000000000000000E+000
  0.000000000000000E+000
  0.000000000000000E+000
  0.000000000000000E+000
  0.000000000000000E+000
  0.000000000000000E+000
  0.000000000000000E+000
  0.000000000000000E+000
  0.000000000000000E+000
  0.000000000000000E+000
  0.000000000000000E+000
  0.000000000000000E+000
  0.000000000000000E+000
  0.000000000000000E+000
  0.000000000000000E+000
  0.000000000000000E+000
  0.000000000000000E+000
  0.000000000000000E+000
  0.000000000000000E+000
  0.000000000000000E+000
  0.000000000000000E+000
  0.000000000000000E+000
  0.000000000000000E+000
  0.000000000000000E+000
  0.000000000000000E+000
  0.000000000000000E+000
  0.000000000000000E+000
  0.000000000000000E+000
  0.000000000000000E+000
  0.000000000000000E+000
  0.000000000000000E+000
  0.000000000000000E+000
  0.000000000000000E+000
  0.000000000000000E+000
  0.000000000000000E+000
  0.000000000000000E+000
  0.000000000000000E+000
  0.000000000000000E+000
  0.000000000000000E+000
  0.000000000000000E+000
  0.000000000000000E+000
  0.000000000000000E+000
  0.000000000000000E+000
  0.000000000000000E+000
  0.000000000000000E+000
  0.000000000000000E+000
  0.000000000000000E+000
  0.000000000000000E+000
  0.000000000000000E+000
  0.000000000000000E+000
  0.000000000000000E+000
  0.000000000000000E+000
  0.000000000000000E+000
  0.000000000000000E+000
  0.000000000000000E+000
  0.000000000000000E+000
  0.000000000000000E+000
  0.000000000000000E+000
  0.000000000000000E+000
  0.000000000000000E+000
  0.000000000000000E+000
  0.000000000000000E+000
  0.000000000000000E+000
  0.000000000000000E+000
  0.000000000000000E+000
  0.000000000000000E+000
  0.000000000000000E+000
  0.000000000000000E+000
  0.000000000000000E+000
  0.000000000000000E+000
  0.000000000000000E+000
  0.000000000000000E+000
  0.000000000000000E+000
  0.000000000000000E+000
  0.000000000000000E+000
  0.000000000000000E+000
  0.000000000000000E+000
  0.000000000000000E+000
  0.000000000000000E+000
  0.000000000000000E+000
  0.000000000000000E+000
  0.000000000000000E+000
  0.000000000000000E+000
  0.000000000000000E+000
  0.000000000000000E+000
  0.000000000000000E+000
  0.000000000000000E+000
  0.000000000000000E+000
  0.000000000000000E+000
  0.000000000000000E+000
  0.000000000000000E+000
  0.000000000000000E+000
  0.000000000000000E+000
  0.000000000000000E+000
  0.000000000000000E+000
  0.000000000000000E+000
  0.000000000000000E+000
  0.000000000000000E+000
  0.000000000000000E+000
  0.000000000000000E+000
  0.000000000000000E+000
  0.000000000000000E+000
  0.000000000000000E+000
  0.000000000000000E+000
  0.000000000000000E+000
  0.000000000000000E+000
  0.000000000000000E+000
  0.000000000000000E+000
  0.000000000000000E+000
  0.000000000000000E+000
  0.000000000000000E+000
  0.000000000000000E+000
  0.000000000000000E+000
  0.000000000000000E+000
  0.000000000000000E+000
  0.000000000000000E+000
  0.000000000000000E+000
  0.000000000000000E+000
  0.000000000000000E+000
  0.000000000000000E+000
  0.000000000000000E+000
  0.000000000000000E+000
  0.000000000000000E+000
  0.000000000000000E+000
  0.000000000000000E+000
  0.000000000000000E+000
  0.000000000000000E+000
  0.000000000000000E+000
  0.000000000000000E+000
  0.000000000000000E+000
  0.000000000000000E+000
  0.000000000000000E+000
  0.000000000000000E+000
  0.000000000000000E+000
  0.000000000000000E+000
  0.000000000000000E+000
  0.000000000000000E+000
  0.000000000000000E+000
  0.000000000000000E+000
  0.000000000000000E+000
  0.000000000000000E+000
  0.000000000000000E+000
  0.000000000000000E+000
  0.000000000000000E+000
  0.000000000000000E+000
  0.000000000000000E+000
  0.000000000000000E+000
  0.000000000000000E+000
  0.000000000000000E+000
  0.000000000000000E+000
  0.000000000000000E+000
  0.000000000000000E+000
  0.000000000000000E+000
  0.000000000000000E+000
  0.000000000000000E+000
  0.000000000000000E+000
  0.000000000000000E+000
  0.000000000000000E+000
  0.000000000000000E+000
  0.000000000000000E+000
  0.000000000000000E+000
  0.000000000000000E+000
  0.000000000000000E+000
  0.000000000000000E+000
  0.000000000000000E+000
  0.000000000000000E+000
  0.000000000000000E+000
  0.000000000000000E+000
  0.000000000000000E+000
  0.000000000000000E+000
  0.000000000000000E+000
  0.000000000000000E+000
  0.000000000000000E+000
  0.000000000000000E+000
  0.000000000000000E+000
  0.000000000000000E+000
  0.000000000000000E+000
  0.000000000000000E+000
  0.000000000000000E+000
  0.000000000000000E+000
  0.000000000000000E+000
  0.000000000000000E+000
  0.000000000000000E+000
  0.000000000000000E+000
  0.000000000000000E+000
  0.000000000000000E+000
  0.000000000000000E+000
  0.000000000000000E+000
  0.000000000000000E+000
  0.000000000000000E+000
  0.000000000000000E+000
  0.000000000000000E+000
  0.000000000000000E+000
  0.000000000000000E+000
  0.000000000000000E+000
  0.000000000000000E+000
  0.000000000000000E+000
  0.000000000000000E+000
  0.000000000000000E+000
  0.000000000000000E+000
  0.000000000000000E+000
  0.000000000000000E+000
  0.000000000000000E+000
  0.000000000000000E+000
  0.000000000000000E+000
  0.000000000000000E+000
  0.000000000000000E+000
  0.000000000000000E+000
  0.000000000000000E+000
  0.000000000000000E+000
  0.000000000000000E+000
  0.000000000000000E+000
  0.000000000000000E+000
  0.000000000000000E+000
  0.000000000000000E+000
  0.000000000000000E+000
  0.000000000000000E+000
  0.000000000000000E+000
  0.000000000000000E+000
  0.000000000000000E+000
  0.000000000000000E+000
  0.000000000000000E+000
  0.000000000000000E+000
  0.000000000000000E+000
  0.000000000000000E+000
  0.000000000000000E+000
  0.000000000000000E+000
  0.000000000000000E+000
  0.000000000000000E+000
  0.000000000000000E+000
  0.000000000000000E+000
  0.000000000000000E+000
  0.000000000000000E+000
  0.000000000000000E+000
  0.000000000000000E+000
  0.000000000000000E+000
  0.000000000000000E+000
  0.000000000000000E+000
  0.000000000000000E+000
  0.000000000000000E+000
  0.000000000000000E+000
  0.000000000000000E+000
  0.000000000000000E+000
  0.000000000000000E+000
  0.000000000000000E+000
  0.000000000000000E+000
  0.000000000000000E+000
  0.000000000000000E+000
  0.000000000000000E+000
  0.000000000000000E+000
  0.000000000000000E+000
  0.000000000000000E+000
  0.000000000000000E+000
  0.000000000000000E+000
  0.000000000000000E+000
  0.000000000000000E+000
  0.000000000000000E+000
  0.000000000000000E+000
  0.000000000000000E+000
  0.000000000000000E+000
  0.000000000000000E+000
  0.000000000000000E+000
  0.000000000000000E+000
  0.000000000000000E+000
  0.000000000000000E+000
  0.000000000000000E+000
  0.000000000000000E+000
  0.000000000000000E+000
  0.000000000000000E+000
  0.000000000000000E+000
  0.000000000000000E+000
  0.000000000000000E+000
  0.000000000000000E+000
  0.000000000000000E+000
  0.000000000000000E+000
  0.000000000000000E+000
  0.000000000000000E+000
  0.000000000000000E+000
  0.000000000000000E+000
  0.000000000000000E+000
  0.000000000000000E+000
  0.000000000000000E+000
  0.000000000000000E+000
  0.000000000000000E+000
  0.000000000000000E+000
  0.000000000000000E+000
  0.000000000000000E+000
  0.000000000000000E+000
  0.000000000000000E+000
  0.000000000000000E+000
  0.000000000000000E+000
  0.000000000000000E+000
  0.000000000000000E+000
  0.000000000000000E+000
  0.000000000000000E+000
  0.000000000000000E+000
  0.000000000000000E+000
  0.000000000000000E+000
  0.000000000000000E+000
  0.000000000000000E+000
  0.000000000000000E+000
  0.000000000000000E+000
  0.000000000000000E+000
  0.000000000000000E+000
  0.000000000000000E+000
  0.000000000000000E+000
  0.000000000000000E+000
  0.000000000000000E+000
  0.000000000000000E+000
  0.000000000000000E+000
  0.000000000000000E+000
  0.000000000000000E+000
  0.000000000000000E+000
  0.000000000000000E+000
  0.000000000000000E+000
  0.000000000000000E+000
  0.000000000000000E+000
  0.000000000000000E+000
  0.000000000000000E+000
  0.000000000000000E+000
  0.000000000000000E+000
  0.000000000000000E+000
  0.000000000000000E+000
  0.000000000000000E+000
  0.000000000000000E+000
  0.000000000000000E+000
  0.000000000000000E+000
  0.000000000000000E+000
  0.000000000000000E+000
  0.000000000000000E+000
  0.000000000000000E+000
  0.000000000000000E+000
  0.000000000000000E+000
  0.000000000000000E+000
  0.000000000000000E+000
  0.000000000000000E+000
  0.000000000000000E+000
  0.000000000000000E+000
  0.000000000000000E+000
  0.000000000000000E+000
  0.000000000000000E+000
  0.000000000000000E+000
